
     Program PWSCF v.7.3.1 starts on 21Aug2026 at  1:50:57 

     This program is part of the open-source Quantum ESPRESSO suite
     for quantum simulation of materials; please cite
         "P. Giannozzi et al., J. Phys.:Condens. Matter 21 395502 (2009);
         "P. Giannozzi et al., J. Phys.:Condens. Matter 29 465901 (2017);
         "P. Giannozzi et al., J. Chem. Phys. 152 154105 (2020);
          URL http://www.quantum-espresso.org", 
     in publications or presentations arising from this work. More details at
     http://www.quantum-espresso.org/quote

     Parallel version (MPI & OpenMP), running on      32 processor cores
     Number of MPI processes:                32
     Threads/MPI process:                     1

     MPI processes distributed on     1 nodes
     184930 MiB available memory on the printing compute node when the environment starts

     Reading input from scf.in

     Current dimensions of program PWSCF are:
     Max number of different atomic species (ntypx) = 10
     Max number of k-points (npk) =  40000
     Max angular momentum in pseudopotentials (lmaxx) =  4
     file Cu.paw.z_11.ld1.psl.v1.0.0-low.upf: wavefunction(s)  4S 3D renormalized

     K-points division:     npool     =       2
     R & G space division:  proc/nbgrp/npool/nimage =      16
     Subspace diagonalization in iterative solution of the eigenvalue problem:
     one sub-group per band group will be used
     scalapack distributed-memory algorithm (size of sub-group:  4*  4 procs)


     Parallelization info
     --------------------
     sticks:   dense  smooth     PW     G-vecs:    dense   smooth      PW
     Min        1193     597    157               163743    57882    7779
     Max        1194     599    158               163747    57885    7784
     Sum       19099    9565   2515              2619931   926125  124485

     Using Slab Decomposition



     bravais-lattice index     =            0
     lattice parameter (alat)  =      24.0273  a.u.
     unit-cell volume          =   14752.0463 (a.u.)^3
     number of atoms/cell      =           96
     number of atomic types    =            4
     number of electrons       =       840.00
     number of Kohn-Sham states=          420
     kinetic-energy cutoff     =      60.0000  Ry
     charge density cutoff     =     480.0000  Ry
     scf convergence threshold =      1.0E-09
     mixing beta               =       0.3000
     number of iterations used =            8  plain     mixing
     Exchange-correlation=  SLA  PW   PBX  PBC
                           (   1   4   3   4   0   0   0)

     celldm(1)=  24.027274  celldm(2)=   0.000000  celldm(3)=   0.000000
     celldm(4)=   0.000000  celldm(5)=   0.000000  celldm(6)=   0.000000

     crystal axes: (cart. coord. in units of alat)
               a(1) = (   1.000000   0.000000   0.000000 )  
               a(2) = (  -0.500000   0.866025   0.000000 )  
               a(3) = (   0.000000   0.000000   1.228028 )  

     reciprocal axes: (cart. coord. in units 2 pi/alat)
               b(1) = (  1.000000  0.577351 -0.000000 )  
               b(2) = (  0.000000  1.154701  0.000000 )  
               b(3) = (  0.000000 -0.000000  0.814314 )  


     PseudoPot. # 1 for Sr read from file:
     /home/yuhansun/pseudos/SSSP-1.3.0-PBE-precision/Sr_pbe_v1.uspp.F.UPF
     MD5 check sum: 6b418c05fbe9db5448babca5e47b7a5b
     Pseudo is Ultrasoft + core correction, Zval = 10.0
     Generated by new atomic code, or converted to UPF format
     Using radial grid of  883 points,  6 beta functions with: 
                l(1) =   0
                l(2) =   0
                l(3) =   1
                l(4) =   1
                l(5) =   2
                l(6) =   2
     Q(r) pseudized with  6 coefficients,  rinner =    1.400   1.400   1.400
                                                       1.400   1.400

     PseudoPot. # 2 for Cu read from file:
     /home/yuhansun/pseudos/SSSP-1.3.0-PBE-precision/Cu.paw.z_11.ld1.psl.v1.0.0-low.upf
     MD5 check sum: 619f40885d92a09a85a8b37550532d0c
     Pseudo is Projector augmented-wave + core cor, Zval = 11.0
     Generated using &quot;atomic&quot; code by A. Dal Corso  v.6.3MaX
     Shape of augmentation charge: PSQ
     Using radial grid of 1199 points,  6 beta functions with: 
                l(1) =   0
                l(2) =   0
                l(3) =   1
                l(4) =   1
                l(5) =   2
                l(6) =   2
     Q(r) pseudized with 0 coefficients 


     PseudoPot. # 3 for Sn read from file:
     /home/yuhansun/pseudos/SSSP-1.3.0-PBE-precision/Sn_pbe_v1.uspp.F.UPF
     MD5 check sum: 4cf58ce39ec5d5d420df3dd08604eb00
     Pseudo is Ultrasoft + core correction, Zval = 14.0
     Generated by new atomic code, or converted to UPF format
     Using radial grid of  891 points,  6 beta functions with: 
                l(1) =   0
                l(2) =   0
                l(3) =   1
                l(4) =   1
                l(5) =   2
                l(6) =   2
     Q(r) pseudized with  6 coefficients,  rinner =    1.200   1.200   1.200
                                                       1.200   1.200

     PseudoPot. # 4 for S  read from file:
     /home/yuhansun/pseudos/SSSP-1.3.0-PBE-precision/s_pbe_v1.4.uspp.F.UPF
     MD5 check sum: 88d86576ff6df21479756cfb9bdac1df
     Pseudo is Ultrasoft + core correction, Zval =  6.0
     Generated by new atomic code, or converted to UPF format
     Using radial grid of  907 points,  6 beta functions with: 
                l(1) =   0
                l(2) =   0
                l(3) =   1
                l(4) =   1
                l(5) =   2
                l(6) =   2
     Q(r) pseudized with  8 coefficients,  rinner =    1.300   1.300   1.300
                                                       1.300   1.300

     atomic species   valence    mass     pseudopotential
     Sr               10.00    87.62000     Sr( 1.00)
     Cu               11.00    63.54600     Cu( 1.00)
     Sn               14.00   118.71000     Sn( 1.00)
     S                 6.00    32.06500     S ( 1.00)

     No symmetry found



   Cartesian axes

     site n.     atom                  positions (alat units)
         1        Sr     tau(   1) = (   0.8556790   0.2456460   0.2046717  )
         2        Sr     tau(   2) = (   0.3594247   0.2434834   0.2046717  )
         3        Sr     tau(   3) = (  -0.3905753   0.6764960   0.2046717  )
         4        Sr     tau(   4) = (   0.1094247   0.6764960   0.2046717  )
         5        Sr     tau(   5) = (   0.1094247   0.1895292   0.6140139  )
         6        Sr     tau(   6) = (   0.6094247   0.1895292   0.6140139  )
         7        Sr     tau(   7) = (  -0.1405753   0.6225418   0.6140139  )
         8        Sr     tau(   8) = (   0.3594247   0.6225418   0.6140139  )
         9        Sr     tau(   9) = (   0.2811505   0.0000000   1.0233574  )
        10        Sr     tau(  10) = (   0.7811505   0.0000000   1.0233574  )
        11        Sr     tau(  11) = (   0.0311505   0.4330126   1.0233574  )
        12        Sr     tau(  12) = (   0.5311505   0.4330126   1.0233574  )
        13        Cu     tau(  13) = (  -0.1226788   0.2753211   0.5061747  )
        14        Cu     tau(  14) = (   0.3773212   0.2753211   0.5061747  )
        15        Cu     tau(  15) = (  -0.3726788   0.7083337   0.5061747  )
        16        Cu     tau(  16) = (   0.1273212   0.7083337   0.5061747  )
        17        Cu     tau(  17) = (   0.0729045   0.1891087   0.9155169  )
        18        Cu     tau(  18) = (   0.5729045   0.1891087   0.9155169  )
        19        Cu     tau(  19) = (  -0.1770956   0.6221213   0.9155169  )
        20        Cu     tau(  20) = (   0.3229044   0.6221213   0.9155169  )
        21        Cu     tau(  21) = (   0.0497750   0.4015949   0.0968325  )
        22        Cu     tau(  22) = (   0.5497750   0.4015949   0.0968325  )
        23        Cu     tau(  23) = (  -0.2002251   0.8346075   0.0968325  )
        24        Cu     tau(  24) = (   0.2997749   0.8346075   0.0968325  )
        25        Cu     tau(  25) = (   0.2997745   0.0314177   0.7218532  )
        26        Cu     tau(  26) = (   0.7997745   0.0314177   0.7218532  )
        27        Cu     tau(  27) = (   0.0497745   0.4644302   0.7218532  )
        28        Cu     tau(  28) = (   0.5497745   0.4644302   0.7218532  )
        29        Cu     tau(  29) = (   0.1273207   0.1576915   0.3125110  )
        30        Cu     tau(  30) = (   0.6273207   0.1576915   0.3125110  )
        31        Cu     tau(  31) = (  -0.1226793   0.5907041   0.3125110  )
        32        Cu     tau(  32) = (   0.3773207   0.5907041   0.3125110  )
        33        Cu     tau(  33) = (   0.3229040   0.2439039   1.1311954  )
        34        Cu     tau(  34) = (   0.8229040   0.2439039   1.1311954  )
        35        Cu     tau(  35) = (   0.0729039   0.6769164   1.1311954  )
        36        Cu     tau(  36) = (   0.5729039   0.6769164   1.1311954  )
        37        Sn     tau(  37) = (  -0.1762580   0.3052877   0.8186857  )
        38        Sn     tau(  38) = (   0.3237420   0.3052877   0.8186857  )
        39        Sn     tau(  39) = (  -0.4262581   0.7383003   0.8186857  )
        40        Sn     tau(  40) = (   0.0737419   0.7383003   0.8186857  )
        41        Sn     tau(  41) = (   0.0737420   0.1277249   0.0000000  )
        42        Sn     tau(  42) = (   0.5737420   0.1277249   0.0000000  )
        43        Sn     tau(  43) = (  -0.1762581   0.5607374   0.0000000  )
        44        Sn     tau(  44) = (   0.3237419   0.5607374   0.0000000  )
        45        Sn     tau(  45) = (   0.3525160   0.0000000   0.4093422  )
        46        Sn     tau(  46) = (   0.8525160   0.0000000   0.4093422  )
        47        Sn     tau(  47) = (   0.1025160   0.4330126   0.4093422  )
        48        Sn     tau(  48) = (   0.6025160   0.4330126   0.4093422  )
        49        S      tau(  49) = (  -0.0988203   0.2103164   0.9671149  )
        50        S      tau(  50) = (   0.4011797   0.2103164   0.9671149  )
        51        S      tau(  51) = (  -0.3488203   0.6433290   0.9671149  )
        52        S      tau(  52) = (   0.1511797   0.6433290   0.9671149  )
        53        S      tau(  53) = (   0.1172707   0.2422736   0.1484293  )
        54        S      tau(  54) = (   0.6172707   0.2422736   0.1484293  )
        55        S      tau(  55) = (  -0.1327293   0.6752862   0.1484293  )
        56        S      tau(  56) = (   0.3672707   0.6752862   0.1484293  )
        57        S      tau(  57) = (  -0.0184505   0.4134352   0.5577727  )
        58        S      tau(  58) = (   0.4815495   0.4134352   0.5577727  )
        59        S      tau(  59) = (  -0.2684506   0.8464478   0.5577727  )
        60        S      tau(  60) = (   0.2315494   0.8464478   0.5577727  )
        61        S      tau(  61) = (   0.2315495   0.0195774   0.2609129  )
        62        S      tau(  62) = (   0.7315495   0.0195774   0.2609129  )
        63        S      tau(  63) = (  -0.0184505   0.4525899   0.2609129  )
        64        S      tau(  64) = (   0.4815495   0.4525899   0.2609129  )
        65        S      tau(  65) = (   0.1511797   0.2226962   1.0795986  )
        66        S      tau(  66) = (   0.6511797   0.2226962   1.0795986  )
        67        S      tau(  67) = (  -0.0988203   0.6557088   1.0795986  )
        68        S      tau(  68) = (   0.4011797   0.6557088   1.0795986  )
        69        S      tau(  69) = (   0.3672707   0.1907390   0.6702552  )
        70        S      tau(  70) = (   0.8672707   0.1907390   0.6702552  )
        71        S      tau(  71) = (   0.1172707   0.6237516   0.6702552  )
        72        S      tau(  72) = (   0.6172707   0.6237516   0.6702552  )
        73        S      tau(  73) = (  -0.0296498   0.1532012   0.4035914  )
        74        S      tau(  74) = (   0.4703502   0.1532012   0.4035914  )
        75        S      tau(  75) = (  -0.2796498   0.5862137   0.4035914  )
        76        S      tau(  76) = (   0.2203502   0.5862137   0.4035914  )
        77        S      tau(  77) = (   0.1321490   0.3307341   0.8129336  )
        78        S      tau(  78) = (   0.6321490   0.3307341   0.8129336  )
        79        S      tau(  79) = (  -0.1178511   0.7637467   0.8129336  )
        80        S      tau(  80) = (   0.3821489   0.7637467   0.8129336  )
        81        S      tau(  81) = (  -0.1024985   0.3820894   1.2222770  )
        82        S      tau(  82) = (   0.3975015   0.3820894   1.2222770  )
        83        S      tau(  83) = (  -0.3524986   0.8151020   1.2222770  )
        84        S      tau(  84) = (   0.1475014   0.8151020   1.2222770  )
        85        S      tau(  85) = (   0.1475010   0.0509231   0.8244365  )
        86        S      tau(  86) = (   0.6475010   0.0509231   0.8244365  )
        87        S      tau(  87) = (  -0.1024990   0.4839357   0.8244365  )
        88        S      tau(  88) = (   0.3975010   0.4839357   0.8244365  )
        89        S      tau(  89) = (   0.2203497   0.2798114   0.4150943  )
        90        S      tau(  90) = (   0.7203497   0.2798114   0.4150943  )
        91        S      tau(  91) = (  -0.0296503   0.7128240   0.4150943  )
        92        S      tau(  92) = (   0.4703497   0.7128240   0.4150943  )
        93        S      tau(  93) = (   0.3821485   0.1022784   0.0057509  )
        94        S      tau(  94) = (   0.8821485   0.1022784   0.0057509  )
        95        S      tau(  95) = (   0.1321485   0.5352910   0.0057509  )
        96        S      tau(  96) = (   0.6321485   0.5352910   0.0057509  )

     number of k points=    14
                       cart. coord. in units 2pi/alat
        k(    1) = (   0.0000000   0.0000000   0.0000000), wk =   0.0740741
        k(    2) = (   0.0000000   0.0000000   0.2714379), wk =   0.1481481
        k(    3) = (   0.0000000   0.3849003   0.0000000), wk =   0.1481481
        k(    4) = (   0.0000000   0.3849003   0.2714379), wk =   0.1481481
        k(    5) = (   0.3333333   0.5773505   0.0000000), wk =   0.1481481
        k(    6) = (   0.3333333   0.5773505   0.2714379), wk =   0.1481481
        k(    7) = (  -0.3333333   0.1924501   0.0000000), wk =   0.1481481
        k(    8) = (   0.3333333   0.1924502   0.0000000), wk =   0.1481481
        k(    9) = (   0.0000000  -0.3849003   0.2714379), wk =   0.1481481
        k(   10) = (  -0.3333333   0.1924501   0.2714379), wk =   0.1481481
        k(   11) = (   0.3333333   0.1924502   0.2714379), wk =   0.1481481
        k(   12) = (  -0.3333333  -0.1924502   0.2714379), wk =   0.1481481
        k(   13) = (   0.3333333  -0.1924501   0.2714379), wk =   0.1481481
        k(   14) = (  -0.3333333  -0.5773505   0.2714379), wk =   0.1481481

     Dense  grid:  2619931 G-vectors     FFT dimensions: ( 180, 180, 216)

     Smooth grid:   926125 G-vectors     FFT dimensions: ( 120, 120, 150)

     Estimated max dynamical RAM per process >       1.07 GB

     Estimated total dynamical RAM >      33.54 GB

     Initial potential from superposition of free atoms

     starting charge     827.5884, renormalised to     840.0000

     negative rho (up, down):  7.777E-01 0.000E+00
     Starting wfcs are  672 randomized atomic wfcs
     Checking if some PAW data can be deallocated... 

     total cpu time spent up to now is       47.2 secs

     Self-consistent Calculation

     iteration #  1     ecut=    60.00 Ry     beta= 0.30
     Davidson diagonalization with overlap
     ethr =  1.00E-02,  avg # of iterations =  2.0

     negative rho (up, down):  7.747E-01 0.000E+00

     total cpu time spent up to now is      137.1 secs

     total energy              =   -9070.29289031 Ry
     estimated scf accuracy    <      21.97540635 Ry

     iteration #  2     ecut=    60.00 Ry     beta= 0.30
     Davidson diagonalization with overlap
     ethr =  2.62E-03,  avg # of iterations =  4.7

     negative rho (up, down):  7.753E-01 0.000E+00

     total cpu time spent up to now is      244.3 secs

     total energy              =   -9076.61409396 Ry
     estimated scf accuracy    <       8.22849289 Ry

     iteration #  3     ecut=    60.00 Ry     beta= 0.30
     Davidson diagonalization with overlap
     ethr =  9.80E-04,  avg # of iterations =  2.0

     negative rho (up, down):  7.804E-01 0.000E+00

     total cpu time spent up to now is      335.1 secs

     total energy              =   -9076.48783048 Ry
     estimated scf accuracy    <       1.62485892 Ry

     iteration #  4     ecut=    60.00 Ry     beta= 0.30
     Davidson diagonalization with overlap
     ethr =  1.93E-04,  avg # of iterations =  6.0

     negative rho (up, down):  7.830E-01 0.000E+00

     total cpu time spent up to now is      465.6 secs

     total energy              =   -9076.69902628 Ry
     estimated scf accuracy    <       2.07720876 Ry

     iteration #  5     ecut=    60.00 Ry     beta= 0.30
     Davidson diagonalization with overlap
     ethr =  1.93E-04,  avg # of iterations =  5.8

     negative rho (up, down):  7.884E-01 0.000E+00

     total cpu time spent up to now is      578.8 secs

     total energy              =   -9077.14361259 Ry
     estimated scf accuracy    <       0.15620266 Ry

     iteration #  6     ecut=    60.00 Ry     beta= 0.30
     Davidson diagonalization with overlap
     ethr =  1.86E-05,  avg # of iterations =  5.0

     negative rho (up, down):  7.903E-01 0.000E+00

     total cpu time spent up to now is      689.6 secs

     total energy              =   -9077.18370969 Ry
     estimated scf accuracy    <       0.01171539 Ry

     iteration #  7     ecut=    60.00 Ry     beta= 0.30
     Davidson diagonalization with overlap
     ethr =  1.39E-06,  avg # of iterations =  5.5

     negative rho (up, down):  7.908E-01 0.000E+00

     total cpu time spent up to now is      829.9 secs

     total energy              =   -9077.18809800 Ry
     estimated scf accuracy    <       0.00510639 Ry

     iteration #  8     ecut=    60.00 Ry     beta= 0.30
     Davidson diagonalization with overlap
     ethr =  6.08E-07,  avg # of iterations =  6.6

     negative rho (up, down):  7.912E-01 0.000E+00

     total cpu time spent up to now is      989.6 secs

     total energy              =   -9077.17983027 Ry
     estimated scf accuracy    <       0.04486161 Ry

     iteration #  9     ecut=    60.00 Ry     beta= 0.30
     Davidson diagonalization with overlap
     ethr =  6.08E-07,  avg # of iterations =  8.1

     negative rho (up, down):  7.911E-01 0.000E+00

     total cpu time spent up to now is     1153.8 secs

     total energy              =   -9077.18759432 Ry
     estimated scf accuracy    <       0.00142969 Ry

     iteration # 10     ecut=    60.00 Ry     beta= 0.30
     Davidson diagonalization with overlap
     ethr =  1.70E-07,  avg # of iterations =  2.6

     negative rho (up, down):  7.908E-01 0.000E+00

     total cpu time spent up to now is     1250.6 secs

     total energy              =   -9077.18753112 Ry
     estimated scf accuracy    <       0.00038168 Ry

     iteration # 11     ecut=    60.00 Ry     beta= 0.30
     Davidson diagonalization with overlap
     ethr =  4.54E-08,  avg # of iterations =  6.2

     negative rho (up, down):  7.905E-01 0.000E+00

     total cpu time spent up to now is     1389.1 secs

     total energy              =   -9077.18766730 Ry
     estimated scf accuracy    <       0.00014471 Ry

     iteration # 12     ecut=    60.00 Ry     beta= 0.30
     Davidson diagonalization with overlap
     ethr =  1.72E-08,  avg # of iterations =  3.7

     negative rho (up, down):  7.904E-01 0.000E+00

     total cpu time spent up to now is     1498.7 secs

     total energy              =   -9077.18767957 Ry
     estimated scf accuracy    <       0.00003847 Ry

     iteration # 13     ecut=    60.00 Ry     beta= 0.30
     Davidson diagonalization with overlap
     ethr =  4.58E-09,  avg # of iterations =  5.4

     negative rho (up, down):  7.904E-01 0.000E+00

     total cpu time spent up to now is     1620.5 secs

     total energy              =   -9077.18768927 Ry
     estimated scf accuracy    <       0.00000713 Ry

     iteration # 14     ecut=    60.00 Ry     beta= 0.30
     Davidson diagonalization with overlap
     ethr =  8.48E-10,  avg # of iterations =  3.4

     negative rho (up, down):  7.903E-01 0.000E+00

     total cpu time spent up to now is     1732.5 secs

     total energy              =   -9077.18769080 Ry
     estimated scf accuracy    <       0.00000121 Ry

     iteration # 15     ecut=    60.00 Ry     beta= 0.30
     Davidson diagonalization with overlap
     ethr =  1.44E-10,  avg # of iterations =  4.6

     negative rho (up, down):  7.902E-01 0.000E+00

     total cpu time spent up to now is     1847.0 secs

     total energy              =   -9077.18769117 Ry
     estimated scf accuracy    <       0.00000038 Ry

     iteration # 16     ecut=    60.00 Ry     beta= 0.30
     Davidson diagonalization with overlap
     ethr =  4.58E-11,  avg # of iterations =  4.9

     negative rho (up, down):  7.902E-01 0.000E+00

     total cpu time spent up to now is     1969.5 secs

     total energy              =   -9077.18769133 Ry
     estimated scf accuracy    <       0.00000002 Ry

     iteration # 17     ecut=    60.00 Ry     beta= 0.30
     Davidson diagonalization with overlap
     ethr =  2.94E-12,  avg # of iterations =  6.9

     negative rho (up, down):  7.902E-01 0.000E+00

     total cpu time spent up to now is     2130.4 secs

     total energy              =   -9077.18769137 Ry
     estimated scf accuracy    <       0.00000001 Ry

     iteration # 18     ecut=    60.00 Ry     beta= 0.30
     Davidson diagonalization with overlap
     ethr =  1.57E-12,  avg # of iterations =  3.9

     negative rho (up, down):  7.902E-01 0.000E+00

     total cpu time spent up to now is     2233.9 secs

     total energy              =   -9077.18769139 Ry
     estimated scf accuracy    <          3.4E-09 Ry

     iteration # 19     ecut=    60.00 Ry     beta= 0.30
     Davidson diagonalization with overlap
     ethr =  4.00E-13,  avg # of iterations =  6.3

     negative rho (up, down):  7.902E-01 0.000E+00

     total cpu time spent up to now is     2380.0 secs

     total energy              =   -9077.18769139 Ry
     estimated scf accuracy    <          7.6E-09 Ry

     iteration # 20     ecut=    60.00 Ry     beta= 0.30
     Davidson diagonalization with overlap
     ethr =  4.00E-13,  avg # of iterations =  2.2

     negative rho (up, down):  7.902E-01 0.000E+00

     total cpu time spent up to now is     2478.0 secs

     total energy              =   -9077.18769139 Ry
     estimated scf accuracy    <          1.4E-09 Ry

     iteration # 21     ecut=    60.00 Ry     beta= 0.30
     Davidson diagonalization with overlap
     ethr =  1.63E-13,  avg # of iterations =  6.3

     negative rho (up, down):  7.902E-01 0.000E+00

     total cpu time spent up to now is     2594.0 secs

     End of self-consistent calculation

          k = 0.0000 0.0000 0.0000 (115723 PWs)   bands (ev):

   -28.2815 -28.2794 -28.2765 -28.2760 -28.2756 -28.2754 -28.2754 -28.2752
   -28.2746 -28.2744 -28.2732 -28.2720 -14.9297 -14.9277 -14.9243 -14.9240
   -14.9227 -14.9227 -14.9225 -14.9223 -14.9223 -14.9219 -14.9217 -14.9216
   -14.9184 -14.9174 -14.9168 -14.9167 -14.9167 -14.9165 -14.9164 -14.9158
   -14.9157 -14.9130 -14.9115 -14.9115 -14.9098 -14.9069 -14.9064 -14.9047
   -14.9047 -14.9045 -14.9044 -14.9044 -14.9038 -14.9036 -14.8995 -14.8953
   -14.8715 -14.8695 -14.8661 -14.8645 -14.8645 -14.8643 -14.8643 -14.8642
   -14.8637 -14.8635 -14.8593 -14.8549 -14.8265 -14.8245 -14.8210 -14.8193
   -14.8193 -14.8192 -14.8191 -14.8190 -14.8184 -14.8183 -14.8140 -14.8095
   -10.3418 -10.3398 -10.3381 -10.3373 -10.3369 -10.3364 -10.3358 -10.3350
   -10.3344 -10.3308 -10.3301 -10.3242 -10.3112 -10.3098 -10.3083 -10.3046
   -10.3044 -10.3023 -10.3018 -10.3003 -10.2935 -10.2930 -10.2911 -10.2823
   -10.2719 -10.2713 -10.2702 -10.2666 -10.2655 -10.2645 -10.2628 -10.2626
   -10.2613 -10.2585 -10.2579 -10.2543  -6.8628  -6.5548  -6.5547  -6.4196
    -6.4158  -6.4139  -6.3019  -6.2997  -6.2950  -6.2193  -6.2178  -6.2160
    -5.9904  -5.9893  -5.9888  -5.8503  -5.8498  -5.8476  -5.7966  -5.7960
    -5.7944  -5.7368  -5.7366  -5.6212  -5.6188  -5.6159  -5.6150  -5.6128
    -5.6114  -5.6006  -5.5586  -5.5583  -5.5580  -5.5464  -5.5438  -5.5425
    -5.5163  -5.5161  -5.4321  -5.4299  -5.4282  -5.4260  -5.3725  -5.3721
    -5.3477  -5.3450  -5.3417  -5.2503  -0.6125  -0.6116  -0.6090  -0.3909
    -0.3877  -0.3872  -0.3505  -0.3179  -0.3152  -0.3124  -0.3006  -0.3000
     1.3845   1.3852   1.3858   1.5925   1.5930   1.6566   1.7166   1.7175
     1.7179   1.8037   1.8069   1.8078   2.0201   2.0412   2.0419   2.0841
     2.0855   2.0864   2.2469   2.2482   2.2497   2.3087   2.3110   2.4036
     2.4051   2.4057   2.4604   2.4614   2.4623   2.5493   2.5498   2.6621
     2.6633   2.6646   2.7836   2.7842   2.7855   2.8713   2.8721   2.9245
     2.9255   2.9263   2.9531   2.9536   2.9553   3.0269   3.0273   3.0293
     3.0455   3.0463   3.0483   3.1648   3.2137   3.2155   3.2162   3.2275
     3.2282   3.2560   3.2580   3.2601   3.3772   3.3777   3.3789   3.3931
     3.3935   3.4257   3.4273   3.4288   3.4358   3.4364   3.4374   3.4757
     3.4764   3.4773   3.4919   3.4954   3.4955   3.4973   3.5172   3.5181
     3.5846   3.5851   3.5865   3.6265   3.6270   3.6292   3.6888   3.6890
     3.6911   3.6924   3.6927   3.7065   3.7955   3.7956   3.8252   3.8259
     3.8277   3.9631   4.0190   4.0215   4.0229   4.0351   4.0366   4.0384
     4.1232   4.1254   4.1265   4.1268   4.1703   4.1746   4.1753   4.2015
     4.2079   4.2094   4.2123   4.2427   4.2446   4.2485   4.2818   4.2822
     4.4228   4.4251   4.4263   4.5175   4.5190   4.5201   4.5363   4.5368
     4.6188   4.6215   4.6241   4.8569   5.1251   5.1552   5.1561   5.1563
     5.1740   5.1746   5.1752   5.1788   5.1792   5.2226   5.2271   5.2277
     5.2284   5.2296   5.2303   5.2515   5.2523   5.2536   5.2657   5.2671
     5.2689   5.2783   5.2793   5.2798   5.3099   5.3116   5.3123   5.3130
     5.3144   5.3250   5.3374   5.3381   5.3388   5.3745   5.3765   5.3776
     5.4393   5.4396   5.4709   5.4715   5.4718   5.4750   5.4775   5.4781
     5.4783   5.4988   5.5000   5.6011   5.6020   5.6024   5.6187   5.6189
     5.6194   5.6268   5.6469   5.6476   5.6482   5.6598   5.6601   5.6606
     5.7254   5.7256   5.7445   5.7817   5.7835   5.7852   5.8205   5.8223
     5.8225   5.9035   5.9040   5.9043   5.9267   5.9281   5.9295   5.9968
     5.9972   6.0267   6.0270   6.0270   6.1487   6.1513   6.1520   6.1528
     6.2622   6.2629   6.2633   6.2634   6.2641   6.2644   6.2904   6.2914
     6.3342   6.3354   6.3356   6.3636   6.3643   6.3644   6.3882   6.3899
     6.3918   6.5529   6.5708   6.5719   6.5725   6.6376   6.6385   6.6390
     6.7472   6.7479   6.7485   6.7646   6.7654   6.7811   6.7824   6.7828
     6.8093   6.9650   7.1808   7.1811

          k = 0.0000 0.0000 0.2714 (115879 PWs)   bands (ev):

   -28.2815 -28.2794 -28.2765 -28.2760 -28.2756 -28.2754 -28.2754 -28.2752
   -28.2746 -28.2744 -28.2732 -28.2720 -14.9297 -14.9277 -14.9243 -14.9240
   -14.9227 -14.9227 -14.9225 -14.9223 -14.9223 -14.9219 -14.9217 -14.9216
   -14.9184 -14.9174 -14.9168 -14.9167 -14.9167 -14.9165 -14.9164 -14.9158
   -14.9157 -14.9130 -14.9115 -14.9115 -14.9098 -14.9069 -14.9064 -14.9047
   -14.9047 -14.9045 -14.9044 -14.9044 -14.9038 -14.9036 -14.8995 -14.8953
   -14.8715 -14.8695 -14.8661 -14.8645 -14.8645 -14.8643 -14.8643 -14.8642
   -14.8637 -14.8635 -14.8593 -14.8549 -14.8265 -14.8245 -14.8210 -14.8193
   -14.8193 -14.8192 -14.8191 -14.8190 -14.8184 -14.8183 -14.8140 -14.8095
   -10.3424 -10.3406 -10.3385 -10.3382 -10.3374 -10.3369 -10.3351 -10.3341
   -10.3330 -10.3316 -10.3279 -10.3252 -10.3130 -10.3091 -10.3080 -10.3070
   -10.3030 -10.3024 -10.3009 -10.2953 -10.2937 -10.2932 -10.2921 -10.2848
   -10.2715 -10.2707 -10.2698 -10.2669 -10.2663 -10.2645 -10.2634 -10.2616
   -10.2611 -10.2581 -10.2575 -10.2557  -6.8236  -6.7131  -6.4113  -6.4087
    -6.4072  -6.4054  -6.3062  -6.3042  -6.2999  -6.2312  -6.2300  -6.2287
    -5.9929  -5.9910  -5.9902  -5.8535  -5.8363  -5.8349  -5.8319  -5.7748
    -5.7729  -5.7711  -5.6590  -5.6554  -5.6533  -5.6513  -5.6141  -5.6129
    -5.6113  -5.6098  -5.5572  -5.5534  -5.5517  -5.5485  -5.5462  -5.5437
    -5.5419  -5.4538  -5.4354  -5.4345  -5.4337  -5.4313  -5.3747  -5.3460
    -5.3399  -5.3372  -5.3331  -5.2807  -0.6043  -0.6034  -0.6018  -0.4151
    -0.4120  -0.4089  -0.3478  -0.3321  -0.3034  -0.3012  -0.2967  -0.2734
     1.4089   1.4094   1.4102   1.5708   1.6140   1.6182   1.6190   1.6211
     1.6584   1.9338   1.9362   1.9371   2.0046   2.0469   2.0518   2.0538
     2.0547   2.0691   2.2755   2.2766   2.2778   2.3054   2.3877   2.3891
     2.3909   2.3925   2.4158   2.4170   2.4182   2.4561   2.6221   2.6234
     2.6242   2.6677   2.7184   2.7911   2.7978   2.7987   2.8001   2.8719
     2.8729   2.8731   2.9752   2.9762   2.9768   3.0449   3.0467   3.0477
     3.1058   3.1073   3.1090   3.1759   3.1991   3.2028   3.2057   3.2068
     3.2730   3.2749   3.2761   3.2845   3.3751   3.3825   3.3840   3.3866
     3.4187   3.4202   3.4216   3.4396   3.4401   3.4416   3.4486   3.4496
     3.4511   3.4774   3.4989   3.5185   3.5192   3.5199   3.5380   3.5442
     3.5497   3.5508   3.5521   3.6384   3.6440   3.6454   3.6472   3.6513
     3.6795   3.6810   3.6834   3.7733   3.8300   3.8760   3.8762   3.8779
     3.9083   3.9216   3.9939   3.9957   3.9978   4.0554   4.0565   4.0571
     4.0751   4.1163   4.1185   4.1195   4.1453   4.1497   4.1504   4.1658
     4.1701   4.1732   4.1756   4.2116   4.2494   4.2515   4.2534   4.2681
     4.4197   4.4226   4.4242   4.4838   4.5579   4.5605   4.5627   4.6036
     4.6063   4.6091   4.6773   4.8073   5.1363   5.1477   5.1539   5.1549
     5.1555   5.1648   5.1867   5.1878   5.1885   5.2156   5.2165   5.2181
     5.2186   5.2482   5.2486   5.2491   5.2583   5.2596   5.2603   5.2619
     5.2764   5.2772   5.2782   5.2786   5.3292   5.3299   5.3306   5.3328
     5.3343   5.3355   5.3413   5.3430   5.3437   5.3663   5.3738   5.3748
     5.3765   5.3900   5.4030   5.4198   5.4213   5.4224   5.5264   5.5326
     5.5331   5.5340   5.5825   5.5880   5.5889   5.5897   5.5906   5.6202
     5.6206   5.6208   5.6514   5.6524   5.6534   5.6612   5.6819   5.6824
     5.6832   5.7550   5.7558   5.7566   5.7908   5.7989   5.8175   5.8179
     5.8191   5.8714   5.8836   5.8840   5.8846   5.9882   5.9892   5.9905
     6.0428   6.0434   6.0435   6.0980   6.0987   6.0996   6.1758   6.1919
     6.1925   6.1931   6.2358   6.2688   6.2694   6.2701   6.3261   6.3265
     6.3272   6.3598   6.3607   6.3710   6.3716   6.3722   6.3958   6.4287
     6.4298   6.4317   6.4801   6.6403   6.6414   6.6426   6.6436   6.6443
     6.6448   6.6708   6.7085   6.7095   6.7112   6.7518   6.7531   6.7555
     6.9420   7.0052   7.0950   7.1701

          k = 0.0000 0.3849 0.0000 (115797 PWs)   bands (ev):

   -28.2815 -28.2794 -28.2765 -28.2760 -28.2756 -28.2754 -28.2754 -28.2752
   -28.2746 -28.2744 -28.2732 -28.2720 -14.9297 -14.9277 -14.9243 -14.9239
   -14.9227 -14.9227 -14.9225 -14.9223 -14.9223 -14.9219 -14.9217 -14.9217
   -14.9184 -14.9174 -14.9168 -14.9167 -14.9167 -14.9165 -14.9164 -14.9159
   -14.9157 -14.9130 -14.9116 -14.9115 -14.9098 -14.9069 -14.9064 -14.9047
   -14.9047 -14.9045 -14.9044 -14.9044 -14.9038 -14.9036 -14.8995 -14.8953
   -14.8715 -14.8695 -14.8661 -14.8645 -14.8645 -14.8643 -14.8643 -14.8642
   -14.8637 -14.8635 -14.8593 -14.8549 -14.8265 -14.8245 -14.8210 -14.8193
   -14.8193 -14.8192 -14.8191 -14.8191 -14.8184 -14.8183 -14.8140 -14.8095
   -10.3412 -10.3394 -10.3376 -10.3370 -10.3359 -10.3355 -10.3347 -10.3339
   -10.3326 -10.3319 -10.3309 -10.3265 -10.3096 -10.3078 -10.3060 -10.3045
   -10.3035 -10.3026 -10.3021 -10.3005 -10.2952 -10.2941 -10.2906 -10.2853
   -10.2712 -10.2704 -10.2690 -10.2675 -10.2669 -10.2640 -10.2631 -10.2626
   -10.2615 -10.2604 -10.2594 -10.2562  -6.7876  -6.5895  -6.4992  -6.4978
    -6.4384  -6.4367  -6.3652  -6.3486  -6.2855  -6.2832  -6.2487  -6.2471
    -5.9110  -5.9100  -5.8219  -5.8180  -5.8157  -5.7773  -5.7689  -5.7655
    -5.7317  -5.7241  -5.7226  -5.6910  -5.6884  -5.6481  -5.6389  -5.6369
    -5.6287  -5.5950  -5.5846  -5.5827  -5.5674  -5.5272  -5.5192  -5.5180
    -5.5151  -5.5039  -5.4618  -5.4512  -5.4364  -5.4353  -5.4215  -5.4141
    -5.3484  -5.3467  -5.3126  -5.2698  -0.5713  -0.5704  -0.5612  -0.4350
    -0.4038  -0.4036  -0.3767  -0.3398  -0.3379  -0.3338  -0.3118  -0.3025
     1.4189   1.4876   1.4882   1.5016   1.6402   1.6522   1.6882   1.7242
     1.7250   1.8285   1.8767   1.8778   1.9540   1.9563   1.9576   2.0283
     2.1161   2.2074   2.2297   2.2305   2.3393   2.3637   2.3853   2.3879
     2.3941   2.4089   2.4500   2.5373   2.5386   2.6129   2.6139   2.6172
     2.6575   2.7350   2.8131   2.8138   2.8227   2.8403   2.8419   2.8456
     2.8544   2.8849   2.9086   2.9091   2.9152   2.9627   2.9633   3.0046
     3.0506   3.0563   3.0578   3.1242   3.1484   3.1757   3.2046   3.2120
     3.2128   3.2344   3.2604   3.2625   3.2693   3.3240   3.3304   3.3318
     3.3395   3.3723   3.3953   3.3959   3.4337   3.4409   3.4421   3.4499
     3.4977   3.4986   3.5007   3.5110   3.5115   3.5140   3.5231   3.5431
     3.5618   3.6050   3.6063   3.6114   3.6351   3.6464   3.6796   3.6806
     3.6941   3.7034   3.7041   3.7091   3.7787   3.7799   3.8498   3.8606
     3.8964   3.9731   3.9748   3.9787   3.9819   4.0299   4.0383   4.0402
     4.0932   4.1116   4.1201   4.1229   4.1262   4.1629   4.1638   4.1781
     4.2483   4.2659   4.2697   4.2831   4.3035   4.3230   4.3238   4.3683
     4.3790   4.4148   4.4192   4.4839   4.5179   4.5280   4.5287   4.5297
     4.5914   4.5922   4.6273   4.7489   5.1438   5.1446   5.1473   5.1548
     5.1606   5.1613   5.1701   5.1751   5.2152   5.2197   5.2199   5.2222
     5.2283   5.2377   5.2486   5.2494   5.2510   5.2616   5.2680   5.2723
     5.2727   5.2896   5.3046   5.3050   5.3143   5.3189   5.3276   5.3281
     5.3372   5.3497   5.3530   5.3535   5.3580   5.3660   5.4139   5.4148
     5.4342   5.4514   5.4613   5.4621   5.4861   5.4938   5.5005   5.5011
     5.5030   5.5130   5.5281   5.5439   5.5572   5.5575   5.5617   5.6036
     5.6038   5.6301   5.6318   5.6329   5.6684   5.6789   5.6953   5.6969
     5.6973   5.7178   5.7296   5.7566   5.7756   5.7761   5.8088   5.8191
     5.8203   5.8641   5.8755   5.8771   5.9510   5.9520   5.9655   5.9657
     5.9906   6.0071   6.0075   6.0213   6.1393   6.1401   6.1452   6.1607
     6.2258   6.2299   6.2307   6.2519   6.2713   6.2897   6.2902   6.2997
     6.3619   6.3622   6.3780   6.3903   6.3911   6.4412   6.4865   6.4868
     6.5246   6.5380   6.5391   6.5760   6.6051   6.6512   6.6839   6.6932
     6.6934   6.7297   6.7377   6.7390   6.7630   6.7782   6.7931   6.8126
     6.8136   6.9045   6.9095   7.0809

          k = 0.0000 0.3849 0.2714 (115773 PWs)   bands (ev):

   -28.2815 -28.2794 -28.2765 -28.2760 -28.2756 -28.2754 -28.2754 -28.2752
   -28.2746 -28.2744 -28.2732 -28.2720 -14.9297 -14.9277 -14.9243 -14.9239
   -14.9227 -14.9227 -14.9225 -14.9223 -14.9223 -14.9219 -14.9217 -14.9217
   -14.9184 -14.9174 -14.9168 -14.9167 -14.9167 -14.9165 -14.9164 -14.9159
   -14.9157 -14.9130 -14.9116 -14.9115 -14.9098 -14.9069 -14.9064 -14.9047
   -14.9047 -14.9045 -14.9044 -14.9044 -14.9038 -14.9036 -14.8995 -14.8953
   -14.8715 -14.8695 -14.8661 -14.8645 -14.8645 -14.8643 -14.8643 -14.8642
   -14.8637 -14.8635 -14.8593 -14.8549 -14.8265 -14.8245 -14.8210 -14.8193
   -14.8193 -14.8192 -14.8191 -14.8191 -14.8184 -14.8183 -14.8140 -14.8095
   -10.3417 -10.3400 -10.3380 -10.3378 -10.3368 -10.3346 -10.3341 -10.3338
   -10.3321 -10.3314 -10.3296 -10.3272 -10.3114 -10.3082 -10.3069 -10.3058
   -10.3019 -10.3014 -10.3003 -10.2971 -10.2959 -10.2938 -10.2912 -10.2876
   -10.2711 -10.2704 -10.2684 -10.2675 -10.2672 -10.2638 -10.2630 -10.2626
   -10.2612 -10.2602 -10.2592 -10.2577  -6.7505  -6.6464  -6.5602  -6.4717
    -6.4228  -6.4209  -6.3638  -6.3286  -6.3277  -6.2586  -6.2244  -6.2234
    -5.9051  -5.9039  -5.8232  -5.8215  -5.8081  -5.8058  -5.7921  -5.7611
    -5.7583  -5.7321  -5.7110  -5.7088  -5.6716  -5.6362  -5.6301  -5.6279
    -5.6246  -5.6079  -5.5998  -5.5981  -5.5683  -5.5280  -5.5230  -5.5212
    -5.5192  -5.4958  -5.4671  -5.4324  -5.4282  -5.4276  -5.4218  -5.3636
    -5.3480  -5.3461  -5.3211  -5.2990  -0.5600  -0.5587  -0.5570  -0.4367
    -0.4348  -0.4242  -0.3931  -0.3728  -0.3202  -0.3168  -0.2984  -0.2783
     1.4338   1.4854   1.4860   1.4883   1.6256   1.6418   1.7708   1.7739
     1.7834   1.7911   1.8004   1.8008   1.9148   1.9964   1.9967   2.0777
     2.1559   2.2003   2.2111   2.2477   2.2485   2.3606   2.3925   2.3942
     2.3989   2.4488   2.5118   2.5126   2.5473   2.5901   2.5919   2.6078
     2.6430   2.7109   2.7615   2.7683   2.7697   2.7893   2.8093   2.8098
     2.8391   2.8746   2.9160   2.9168   2.9192   2.9819   3.0242   3.0248
     3.0681   3.1063   3.1076   3.1324   3.1713   3.1926   3.1937   3.1946
     3.2001   3.2325   3.2647   3.2653   3.2772   3.3180   3.3219   3.3231
     3.3246   3.3898   3.3901   3.4109   3.4457   3.4463   3.4682   3.4698
     3.4727   3.4743   3.4759   3.4778   3.5335   3.5366   3.5374   3.5915
     3.6110   3.6126   3.6134   3.6334   3.6421   3.6480   3.6594   3.6600
     3.6680   3.7104   3.7114   3.7135   3.8356   3.8366   3.8804   3.8890
     3.9045   3.9497   3.9505   3.9749   3.9823   4.0202   4.0472   4.0492
     4.0516   4.0665   4.1106   4.1116   4.1197   4.1328   4.1345   4.1480
     4.1912   4.2554   4.2668   4.2692   4.2878   4.2910   4.2951   4.3877
     4.3978   4.4371   4.4391   4.4681   4.5244   4.5255   4.5364   4.5968
     4.6110   4.6121   4.6228   4.7215   5.1512   5.1515   5.1550   5.1570
     5.1718   5.1760   5.1771   5.1838   5.1908   5.1981   5.2016   5.2082
     5.2085   5.2335   5.2354   5.2370   5.2549   5.2633   5.2662   5.2673
     5.2794   5.2984   5.3077   5.3133   5.3138   5.3290   5.3367   5.3373
     5.3580   5.3585   5.3610   5.3640   5.3806   5.3929   5.4072   5.4076
     5.4139   5.4323   5.4336   5.4452   5.4459   5.4932   5.5024   5.5026
     5.5099   5.5159   5.5540   5.5600   5.5750   5.5751   5.6031   5.6112
     5.6120   5.6192   5.6253   5.6256   5.6436   5.6706   5.6825   5.7146
     5.7152   5.7175   5.7344   5.7716   5.7732   5.7744   5.8024   5.8033
     5.8103   5.8587   5.8750   5.8764   5.8788   5.9150   5.9597   5.9599
     6.0344   6.0353   6.0360   6.0600   6.0790   6.0798   6.1737   6.2070
     6.2132   6.2139   6.2664   6.2670   6.2710   6.2778   6.2857   6.3491
     6.3498   6.3661   6.3725   6.4153   6.4246   6.4253   6.4282   6.4716
     6.4981   6.4991   6.5460   6.5596   6.5959   6.5966   6.6669   6.6677
     6.6776   6.7199   6.7363   6.7376   6.7480   6.8138   6.8145   6.8453
     6.8693   6.9287   6.9373   7.0524

          k = 0.3333 0.5774 0.0000 (115752 PWs)   bands (ev):

   -28.2815 -28.2794 -28.2765 -28.2760 -28.2756 -28.2754 -28.2754 -28.2752
   -28.2746 -28.2744 -28.2732 -28.2720 -14.9297 -14.9277 -14.9243 -14.9239
   -14.9227 -14.9226 -14.9225 -14.9223 -14.9223 -14.9219 -14.9217 -14.9217
   -14.9184 -14.9174 -14.9168 -14.9167 -14.9166 -14.9165 -14.9165 -14.9159
   -14.9157 -14.9129 -14.9116 -14.9115 -14.9098 -14.9069 -14.9064 -14.9047
   -14.9047 -14.9045 -14.9044 -14.9044 -14.9038 -14.9036 -14.8995 -14.8953
   -14.8715 -14.8695 -14.8661 -14.8645 -14.8645 -14.8643 -14.8643 -14.8642
   -14.8637 -14.8635 -14.8593 -14.8549 -14.8265 -14.8245 -14.8210 -14.8193
   -14.8193 -14.8192 -14.8191 -14.8191 -14.8184 -14.8183 -14.8140 -14.8095
   -10.3410 -10.3387 -10.3373 -10.3357 -10.3354 -10.3351 -10.3347 -10.3342
   -10.3332 -10.3307 -10.3299 -10.3292 -10.3091 -10.3061 -10.3052 -10.3046
   -10.3031 -10.3026 -10.3013 -10.3001 -10.2994 -10.2909 -10.2900 -10.2892
   -10.2713 -10.2690 -10.2684 -10.2666 -10.2663 -10.2655 -10.2647 -10.2638
   -10.2630 -10.2592 -10.2587 -10.2580  -6.6531  -6.6501  -6.6464  -6.4023
    -6.4011  -6.3991  -6.3980  -6.3958  -6.3938  -6.2919  -6.2917  -6.1924
    -5.8649  -5.8514  -5.8498  -5.7505  -5.7482  -5.7466  -5.7339  -5.7316
    -5.7300  -5.7083  -5.7071  -5.6950  -5.6944  -5.6919  -5.6859  -5.6838
    -5.6819  -5.6444  -5.5420  -5.5412  -5.5392  -5.5294  -5.5288  -5.5275
    -5.5112  -5.4731  -5.4717  -5.4703  -5.4674  -5.4659  -5.4623  -5.3966
    -5.3959  -5.3044  -5.3013  -5.2972  -0.5441  -0.5171  -0.5146  -0.5098
    -0.3966  -0.3962  -0.3925  -0.3892  -0.3864  -0.3102  -0.3091  -0.3079
     1.4832   1.4849   1.4864   1.6728   1.6759   1.6777   1.6853   1.6868
     1.6887   1.7347   1.7347   1.7997   2.0796   2.0816   2.0823   2.0841
     2.0852   2.1437   2.1449   2.1459   2.2557   2.3954   2.3971   2.3994
     2.4926   2.4950   2.4970   2.5632   2.5638   2.5652   2.5973   2.5977
     2.7730   2.7741   2.7768   2.8369   2.8373   2.8435   2.8437   2.8460
     2.8504   2.8523   2.8544   2.8547   2.8685   3.0091   3.0109   3.0121
     3.0252   3.0258   3.0264   3.0624   3.1335   3.1344   3.1353   3.1965
     3.1981   3.1987   3.2589   3.2601   3.2613   3.2713   3.2721   3.3618
     3.3695   3.3714   3.3726   3.3753   3.4247   3.4260   3.4273   3.4873
     3.4877   3.5011   3.5030   3.5051   3.5291   3.5301   3.5317   3.5479
     3.5481   3.5787   3.5806   3.5817   3.6499   3.6507   3.6523   3.7198
     3.7210   3.7224   3.7287   3.7291   3.7569   3.8005   3.8021   3.8036
     3.9579   3.9595   3.9615   3.9872   3.9875   4.0295   4.0300   4.0326
     4.0832   4.0850   4.0872   4.1406   4.1506   4.1519   4.1532   4.2852
     4.2856   4.2937   4.3170   4.3196   4.3204   4.3214   4.3219   4.3250
     4.3841   4.3870   4.3896   4.4964   4.5138   4.5158   4.5193   4.5210
     4.5248   4.6537   4.6555   4.6571   5.1379   5.1437   5.1446   5.1455
     5.1737   5.1737   5.1874   5.1888   5.1897   5.1960   5.1973   5.1987
     5.2468   5.2474   5.2490   5.2655   5.2664   5.2670   5.2984   5.2990
     5.2997   5.3015   5.3030   5.3035   5.3141   5.3186   5.3197   5.3205
     5.3395   5.3408   5.3424   5.4029   5.4033   5.4044   5.4084   5.4089
     5.4549   5.4557   5.4568   5.4587   5.4832   5.4840   5.4850   5.4889
     5.4892   5.5351   5.5361   5.5368   5.5643   5.5650   5.5655   5.5710
     5.5716   5.5718   5.6415   5.6725   5.6728   5.6946   5.6954   5.6961
     5.7072   5.7079   5.7082   5.7803   5.7808   5.7814   5.7984   5.8001
     5.8018   5.8245   5.8249   5.8445   5.9302   5.9315   5.9331   6.0455
     6.0469   6.0477   6.0492   6.0500   6.1383   6.1390   6.1401   6.1586
     6.2186   6.2198   6.2209   6.2600   6.2605   6.2614   6.2843   6.2849
     6.3753   6.4095   6.4106   6.4123   6.4174   6.4183   6.4239   6.4516
     6.4526   6.4541   6.6144   6.6155   6.6168   6.6759   6.6771   6.6778
     6.7256   6.7411   6.7416   6.8049   6.8069   6.8084   6.8099   6.8110
     6.8129   6.9388   6.9396   6.9410

          k = 0.3333 0.5774 0.2714 (115827 PWs)   bands (ev):

   -28.2815 -28.2794 -28.2765 -28.2760 -28.2756 -28.2754 -28.2754 -28.2752
   -28.2746 -28.2744 -28.2732 -28.2720 -14.9297 -14.9277 -14.9243 -14.9239
   -14.9227 -14.9226 -14.9225 -14.9223 -14.9223 -14.9219 -14.9217 -14.9217
   -14.9184 -14.9174 -14.9168 -14.9167 -14.9166 -14.9165 -14.9165 -14.9159
   -14.9157 -14.9129 -14.9116 -14.9115 -14.9098 -14.9069 -14.9064 -14.9047
   -14.9047 -14.9045 -14.9044 -14.9044 -14.9038 -14.9036 -14.8995 -14.8953
   -14.8715 -14.8695 -14.8661 -14.8645 -14.8645 -14.8643 -14.8643 -14.8642
   -14.8637 -14.8635 -14.8593 -14.8549 -14.8265 -14.8245 -14.8210 -14.8193
   -14.8193 -14.8192 -14.8191 -14.8191 -14.8184 -14.8183 -14.8140 -14.8095
   -10.3414 -10.3395 -10.3375 -10.3369 -10.3367 -10.3346 -10.3335 -10.3332
   -10.3323 -10.3304 -10.3299 -10.3293 -10.3100 -10.3078 -10.3075 -10.3054
   -10.3019 -10.3012 -10.2986 -10.2972 -10.2968 -10.2921 -10.2917 -10.2911
   -10.2713 -10.2698 -10.2677 -10.2674 -10.2661 -10.2647 -10.2636 -10.2634
   -10.2629 -10.2596 -10.2594 -10.2589  -6.6210  -6.6179  -6.6143  -6.5276
    -6.5245  -6.5208  -6.3080  -6.2920  -6.2891  -6.2853  -6.2571  -6.2140
    -5.8746  -5.8578  -5.8444  -5.7823  -5.7790  -5.7762  -5.7432  -5.7417
    -5.7400  -5.7150  -5.6889  -5.6880  -5.6861  -5.6740  -5.6723  -5.6707
    -5.6688  -5.6426  -5.5580  -5.5554  -5.5539  -5.5256  -5.5239  -5.5231
    -5.5059  -5.5033  -5.5014  -5.5003  -5.4582  -5.4007  -5.3970  -5.3942
    -5.3575  -5.3255  -5.3221  -5.3179  -0.5204  -0.5082  -0.5053  -0.5013
    -0.4607  -0.4185  -0.4164  -0.4138  -0.3548  -0.2941  -0.2928  -0.2892
     1.4813   1.4828   1.4847   1.6377   1.6388   1.6402   1.6906   1.7742
     1.7760   1.7773   1.7790   1.7941   1.9807   1.9821   1.9827   2.0557
     2.1706   2.1925   2.1936   2.1943   2.2478   2.3953   2.3975   2.4005
     2.4880   2.4894   2.4908   2.5571   2.5874   2.5882   2.5890   2.5928
     2.6794   2.7364   2.7376   2.7388   2.8224   2.8233   2.8238   2.8282
     2.9018   2.9029   2.9047   2.9246   2.9369   2.9548   2.9562   2.9568
     3.0603   3.0608   3.0610   3.0874   3.0890   3.0897   3.1270   3.1814
     3.2436   3.2453   3.2465   3.2705   3.2714   3.2730   3.3214   3.3273
     3.3287   3.3290   3.3744   3.4074   3.4209   3.4638   3.4661   3.4680
     3.4929   3.4990   3.4998   3.5014   3.5366   3.5375   3.5384   3.5408
     3.5614   3.6155   3.6167   3.6181   3.6535   3.6555   3.6563   3.6974
     3.6984   3.6995   3.7202   3.7444   3.8219   3.8399   3.8417   3.8434
     3.9379   3.9402   3.9410   3.9432   4.0292   4.0303   4.0311   4.0409
     4.0661   4.0683   4.0702   4.1084   4.1139   4.1145   4.1170   4.1687
     4.2721   4.2742   4.2751   4.2909   4.3149   4.3605   4.3618   4.3634
     4.4150   4.4178   4.4196   4.4913   4.4937   4.4970   4.5075   4.5127
     4.5649   4.6665   4.6679   4.6695   5.1492   5.1568   5.1572   5.1585
     5.1589   5.1828   5.1832   5.1839   5.1976   5.1986   5.1999   5.2112
     5.2245   5.2257   5.2266   5.2515   5.2526   5.2539   5.2574   5.2691
     5.3010   5.3025   5.3034   5.3097   5.3286   5.3296   5.3311   5.3681
     5.3688   5.3691   5.3751   5.3942   5.3955   5.4089   5.4097   5.4106
     5.4333   5.4335   5.4343   5.4391   5.4841   5.4850   5.4863   5.4916
     5.5391   5.5397   5.5407   5.5439   5.5661   5.5669   5.5678   5.6058
     5.6063   5.6068   5.6384   5.6395   5.6725   5.6730   5.6737   5.7033
     5.7043   5.7050   5.7179   5.7589   5.7604   5.7611   5.8020   5.8079
     5.8210   5.8243   5.8249   5.8252   5.8899   5.8912   5.8924   6.0571
     6.0601   6.0609   6.0622   6.0774   6.1201   6.1208   6.1216   6.1355
     6.1961   6.2376   6.2386   6.2400   6.2844   6.3022   6.3029   6.3035
     6.3071   6.3853   6.3863   6.3868   6.4507   6.4666   6.4687   6.4701
     6.4923   6.4931   6.5581   6.5598   6.5617   6.6461   6.6848   6.6861
     6.6870   6.7608   6.7774   6.7788   6.7802   6.7934   6.8537   6.8553
     6.8574   6.9359   6.9363   6.9377

          k =-0.3333 0.1925 0.0000 (115797 PWs)   bands (ev):

   -28.2815 -28.2794 -28.2765 -28.2760 -28.2756 -28.2754 -28.2754 -28.2752
   -28.2746 -28.2744 -28.2732 -28.2720 -14.9297 -14.9277 -14.9243 -14.9239
   -14.9227 -14.9227 -14.9224 -14.9223 -14.9223 -14.9219 -14.9217 -14.9217
   -14.9184 -14.9174 -14.9168 -14.9167 -14.9166 -14.9165 -14.9165 -14.9159
   -14.9157 -14.9129 -14.9116 -14.9115 -14.9098 -14.9069 -14.9064 -14.9047
   -14.9047 -14.9045 -14.9044 -14.9044 -14.9038 -14.9036 -14.8995 -14.8953
   -14.8715 -14.8695 -14.8661 -14.8645 -14.8645 -14.8643 -14.8643 -14.8642
   -14.8637 -14.8635 -14.8593 -14.8549 -14.8265 -14.8245 -14.8210 -14.8193
   -14.8193 -14.8192 -14.8191 -14.8191 -14.8184 -14.8183 -14.8140 -14.8095
   -10.3412 -10.3391 -10.3375 -10.3367 -10.3364 -10.3358 -10.3348 -10.3337
   -10.3327 -10.3319 -10.3308 -10.3265 -10.3097 -10.3074 -10.3062 -10.3047
   -10.3035 -10.3024 -10.3019 -10.3006 -10.2957 -10.2935 -10.2907 -10.2853
   -10.2715 -10.2701 -10.2692 -10.2671 -10.2667 -10.2644 -10.2635 -10.2625
   -10.2610 -10.2604 -10.2594 -10.2562  -6.7875  -6.5894  -6.4991  -6.4978
    -6.4399  -6.4355  -6.3651  -6.3484  -6.2865  -6.2825  -6.2492  -6.2465
    -5.9117  -5.9094  -5.8200  -5.8185  -5.8163  -5.7776  -5.7688  -5.7656
    -5.7318  -5.7244  -5.7221  -5.6916  -5.6879  -5.6472  -5.6399  -5.6361
    -5.6291  -5.5949  -5.5850  -5.5833  -5.5675  -5.5272  -5.5202  -5.5180
    -5.5137  -5.5038  -5.4618  -5.4510  -5.4371  -5.4347  -5.4215  -5.4143
    -5.3508  -5.3441  -5.3128  -5.2697  -0.5724  -0.5691  -0.5615  -0.4349
    -0.4043  -0.4027  -0.3770  -0.3418  -0.3376  -0.3316  -0.3123  -0.3026
     1.4189   1.4868   1.4888   1.5017   1.6400   1.6523   1.6890   1.7240
     1.7248   1.8287   1.8766   1.8775   1.9544   1.9563   1.9571   2.0283
     2.1158   2.2075   2.2298   2.2303   2.3393   2.3639   2.3849   2.3883
     2.3943   2.4089   2.4498   2.5371   2.5392   2.6127   2.6138   2.6171
     2.6572   2.7352   2.8128   2.8140   2.8227   2.8413   2.8422   2.8453
     2.8541   2.8846   2.9086   2.9089   2.9150   2.9618   2.9639   3.0044
     3.0501   3.0557   3.0584   3.1244   3.1487   3.1758   3.2044   3.2116
     3.2134   3.2345   3.2598   3.2631   3.2689   3.3238   3.3300   3.3326
     3.3399   3.3725   3.3947   3.3963   3.4334   3.4395   3.4433   3.4499
     3.4969   3.4993   3.5010   3.5104   3.5123   3.5139   3.5231   3.5432
     3.5617   3.6044   3.6073   3.6113   3.6349   3.6468   3.6793   3.6811
     3.6939   3.7023   3.7048   3.7093   3.7790   3.7802   3.8496   3.8607
     3.8965   3.9723   3.9762   3.9783   3.9810   4.0301   4.0375   4.0414
     4.0932   4.1114   4.1195   4.1237   4.1266   4.1621   4.1642   4.1781
     4.2476   4.2668   4.2687   4.2830   4.3035   4.3228   4.3234   4.3685
     4.3795   4.4157   4.4185   4.4838   4.5177   4.5262   4.5289   4.5312
     4.5904   4.5927   4.6279   4.7493   5.1432   5.1453   5.1472   5.1553
     5.1599   5.1617   5.1698   5.1750   5.2150   5.2192   5.2202   5.2220
     5.2289   5.2377   5.2484   5.2501   5.2509   5.2613   5.2681   5.2718
     5.2730   5.2896   5.3040   5.3058   5.3142   5.3193   5.3261   5.3294
     5.3372   5.3501   5.3524   5.3541   5.3578   5.3662   5.4125   5.4160
     5.4342   5.4517   5.4607   5.4629   5.4856   5.4938   5.4996   5.5017
     5.5029   5.5130   5.5282   5.5438   5.5568   5.5576   5.5616   5.6036
     5.6038   5.6300   5.6317   5.6329   5.6684   5.6788   5.6955   5.6965
     5.6976   5.7179   5.7295   5.7566   5.7752   5.7767   5.8090   5.8197
     5.8202   5.8641   5.8754   5.8774   5.9506   5.9523   5.9646   5.9664
     5.9906   6.0055   6.0090   6.0215   6.1390   6.1403   6.1454   6.1606
     6.2257   6.2289   6.2319   6.2515   6.2711   6.2898   6.2902   6.2998
     6.3617   6.3629   6.3774   6.3888   6.3922   6.4416   6.4866   6.4874
     6.5247   6.5372   6.5399   6.5757   6.6049   6.6512   6.6843   6.6928
     6.6938   6.7297   6.7365   6.7399   6.7629   6.7784   6.7933   6.8116
     6.8141   6.9045   6.9096   7.0810

          k = 0.3333 0.1925 0.0000 (115797 PWs)   bands (ev):

   -28.2815 -28.2794 -28.2765 -28.2760 -28.2756 -28.2754 -28.2754 -28.2752
   -28.2746 -28.2744 -28.2732 -28.2720 -14.9297 -14.9277 -14.9243 -14.9239
   -14.9227 -14.9226 -14.9225 -14.9223 -14.9223 -14.9219 -14.9217 -14.9216
   -14.9184 -14.9174 -14.9168 -14.9167 -14.9166 -14.9165 -14.9165 -14.9159
   -14.9157 -14.9129 -14.9116 -14.9115 -14.9098 -14.9069 -14.9064 -14.9047
   -14.9047 -14.9045 -14.9044 -14.9044 -14.9038 -14.9036 -14.8995 -14.8953
   -14.8715 -14.8695 -14.8661 -14.8645 -14.8645 -14.8643 -14.8643 -14.8642
   -14.8637 -14.8635 -14.8593 -14.8549 -14.8265 -14.8245 -14.8210 -14.8193
   -14.8193 -14.8192 -14.8191 -14.8190 -14.8184 -14.8183 -14.8140 -14.8095
   -10.3412 -10.3390 -10.3375 -10.3369 -10.3363 -10.3353 -10.3349 -10.3338
   -10.3329 -10.3321 -10.3307 -10.3264 -10.3095 -10.3077 -10.3063 -10.3044
   -10.3036 -10.3024 -10.3020 -10.3006 -10.2954 -10.2944 -10.2904 -10.2852
   -10.2715 -10.2702 -10.2692 -10.2675 -10.2662 -10.2643 -10.2635 -10.2622
   -10.2617 -10.2607 -10.2590 -10.2560  -6.7876  -6.5896  -6.4993  -6.4977
    -6.4388  -6.4362  -6.3656  -6.3485  -6.2855  -6.2829  -6.2491  -6.2461
    -5.9123  -5.9098  -5.8200  -5.8190  -5.8185  -5.7770  -5.7680  -5.7666
    -5.7316  -5.7242  -5.7213  -5.6902  -5.6891  -5.6472  -5.6378  -5.6368
    -5.6285  -5.5947  -5.5850  -5.5811  -5.5683  -5.5286  -5.5190  -5.5178
    -5.5153  -5.5041  -5.4621  -5.4509  -5.4382  -5.4338  -5.4210  -5.4147
    -5.3486  -5.3471  -5.3124  -5.2695  -0.5722  -0.5693  -0.5614  -0.4351
    -0.4052  -0.4021  -0.3768  -0.3383  -0.3376  -0.3357  -0.3121  -0.3021
     1.4193   1.4875   1.4883   1.5018   1.6403   1.6521   1.6886   1.7237
     1.7250   1.8278   1.8766   1.8786   1.9536   1.9558   1.9576   2.0277
     2.1162   2.2071   2.2297   2.2312   2.3387   2.3638   2.3865   2.3870
     2.3937   2.4087   2.4502   2.5376   2.5387   2.6131   2.6142   2.6175
     2.6580   2.7347   2.8132   2.8141   2.8214   2.8409   2.8418   2.8444
     2.8547   2.8853   2.9083   2.9097   2.9156   2.9622   2.9635   3.0046
     3.0504   3.0563   3.0585   3.1243   3.1484   3.1758   3.2046   3.2115
     3.2134   3.2346   3.2606   3.2616   3.2700   3.3240   3.3304   3.3312
     3.3388   3.3724   3.3943   3.3970   3.4342   3.4409   3.4415   3.4507
     3.4979   3.4984   3.5005   3.5107   3.5116   3.5144   3.5230   3.5433
     3.5619   3.6045   3.6058   3.6113   3.6351   3.6468   3.6795   3.6805
     3.6952   3.7030   3.7041   3.7090   3.7788   3.7805   3.8494   3.8593
     3.8963   3.9735   3.9755   3.9782   3.9820   4.0299   4.0391   4.0393
     4.0927   4.1115   4.1204   4.1217   4.1273   4.1615   4.1658   4.1782
     4.2493   4.2671   4.2679   4.2829   4.3030   4.3216   4.3253   4.3687
     4.3786   4.4171   4.4177   4.4839   4.5163   4.5273   4.5285   4.5314
     4.5884   4.5954   4.6268   4.7489   5.1442   5.1445   5.1471   5.1549
     5.1605   5.1609   5.1700   5.1756   5.2149   5.2195   5.2204   5.2225
     5.2281   5.2377   5.2487   5.2495   5.2510   5.2614   5.2677   5.2721
     5.2730   5.2896   5.3043   5.3052   5.3143   5.3194   5.3276   5.3279
     5.3373   5.3500   5.3527   5.3533   5.3578   5.3658   5.4140   5.4153
     5.4338   5.4512   5.4608   5.4622   5.4861   5.4933   5.5003   5.5012
     5.5033   5.5132   5.5279   5.5445   5.5569   5.5574   5.5616   5.6033
     5.6043   5.6309   5.6315   5.6328   5.6681   5.6783   5.6953   5.6961
     5.6972   5.7180   5.7305   5.7567   5.7752   5.7762   5.8090   5.8195
     5.8201   5.8646   5.8761   5.8765   5.9508   5.9523   5.9646   5.9661
     5.9906   6.0073   6.0075   6.0211   6.1392   6.1396   6.1457   6.1609
     6.2257   6.2296   6.2311   6.2523   6.2712   6.2888   6.2914   6.2995
     6.3619   6.3625   6.3777   6.3901   6.3910   6.4413   6.4860   6.4876
     6.5246   6.5386   6.5390   6.5764   6.6049   6.6511   6.6842   6.6924
     6.6938   6.7299   6.7378   6.7383   6.7630   6.7784   6.7934   6.8122
     6.8131   6.9044   6.9100   7.0814

          k = 0.0000-0.3849 0.2714 (115773 PWs)   bands (ev):

   -28.2815 -28.2794 -28.2765 -28.2760 -28.2756 -28.2754 -28.2754 -28.2752
   -28.2746 -28.2744 -28.2732 -28.2720 -14.9297 -14.9277 -14.9243 -14.9239
   -14.9227 -14.9227 -14.9225 -14.9223 -14.9223 -14.9219 -14.9217 -14.9217
   -14.9184 -14.9174 -14.9168 -14.9167 -14.9167 -14.9165 -14.9164 -14.9159
   -14.9157 -14.9130 -14.9116 -14.9115 -14.9098 -14.9069 -14.9064 -14.9047
   -14.9047 -14.9045 -14.9044 -14.9044 -14.9038 -14.9036 -14.8995 -14.8953
   -14.8715 -14.8695 -14.8661 -14.8645 -14.8645 -14.8643 -14.8643 -14.8642
   -14.8637 -14.8635 -14.8593 -14.8549 -14.8265 -14.8245 -14.8210 -14.8193
   -14.8193 -14.8192 -14.8191 -14.8191 -14.8184 -14.8183 -14.8140 -14.8095
   -10.3417 -10.3401 -10.3379 -10.3378 -10.3367 -10.3348 -10.3343 -10.3339
   -10.3320 -10.3312 -10.3293 -10.3274 -10.3112 -10.3084 -10.3067 -10.3052
   -10.3036 -10.3027 -10.2980 -10.2964 -10.2952 -10.2943 -10.2927 -10.2872
   -10.2710 -10.2701 -10.2687 -10.2679 -10.2672 -10.2634 -10.2629 -10.2621
   -10.2610 -10.2607 -10.2598 -10.2574  -6.7507  -6.6463  -6.5610  -6.4685
    -6.4195  -6.4174  -6.3634  -6.3407  -6.3391  -6.2652  -6.2108  -6.2096
    -5.9137  -5.9124  -5.8251  -5.8228  -5.8177  -5.8151  -5.7654  -5.7632
    -5.7532  -5.7333  -5.6846  -5.6814  -5.6802  -5.6631  -5.6443  -5.6405
    -5.6360  -5.6076  -5.5854  -5.5844  -5.5721  -5.5301  -5.5276  -5.5256
    -5.5158  -5.4854  -5.4649  -5.4394  -5.4370  -5.4357  -5.3986  -5.3699
    -5.3444  -5.3428  -5.3306  -5.2954  -0.5622  -0.5616  -0.5510  -0.4334
    -0.4297  -0.4270  -0.4100  -0.3602  -0.3235  -0.3199  -0.2896  -0.2826
     1.4053   1.4944   1.4950   1.5159   1.6127   1.7113   1.7126   1.7230
     1.7374   1.7732   1.8454   1.8466   1.9667   1.9862   2.0216   2.0225
     2.1300   2.1998   2.2091   2.2096   2.2858   2.3344   2.3967   2.4262
     2.4285   2.5179   2.5296   2.5302   2.5570   2.5580   2.5590   2.5608
     2.5999   2.6786   2.7643   2.7650   2.8235   2.8243   2.8263   2.8299
     2.8503   2.8532   2.8958   2.8968   2.9066   3.0085   3.0185   3.0191
     3.0767   3.0785   3.1181   3.1192   3.1339   3.1808   3.1816   3.1889
     3.2136   3.2464   3.2663   3.2851   3.2868   3.2954   3.3307   3.3320
     3.3756   3.3776   3.3791   3.3800   3.4470   3.4483   3.4503   3.4769
     3.4804   3.4815   3.5063   3.5196   3.5346   3.5351   3.5369   3.5583
     3.5867   3.5874   3.6109   3.6315   3.6399   3.6448   3.6834   3.6843
     3.6870   3.6961   3.7044   3.7054   3.8358   3.8373   3.8790   3.8809
     3.9418   3.9446   3.9461   3.9497   3.9724   4.0329   4.0541   4.0564
     4.0598   4.0621   4.1006   4.1018   4.1223   4.1232   4.1300   4.1342
     4.2240   4.2402   4.2677   4.2710   4.2908   4.2939   4.3139   4.3675
     4.3926   4.4331   4.4361   4.4811   4.5215   4.5447   4.5458   4.5861
     4.5964   4.5975   4.6318   4.7302   5.1478   5.1484   5.1538   5.1647
     5.1689   5.1693   5.1698   5.1732   5.1999   5.2050   5.2128   5.2187
     5.2194   5.2297   5.2416   5.2417   5.2605   5.2634   5.2650   5.2660
     5.2676   5.2738   5.3104   5.3109   5.3189   5.3343   5.3468   5.3474
     5.3603   5.3629   5.3634   5.3687   5.3699   5.3810   5.3890   5.3896
     5.4104   5.4335   5.4476   5.4521   5.4526   5.4696   5.4976   5.4978
     5.5175   5.5247   5.5564   5.5575   5.5690   5.5696   5.6023   5.6030
     5.6078   5.6208   5.6316   5.6498   5.6511   5.6612   5.6750   5.7091
     5.7097   5.7396   5.7602   5.7608   5.7710   5.7848   5.8052   5.8062
     5.8148   5.8399   5.8671   5.8683   5.8758   5.8950   5.9695   5.9701
     6.0195   6.0258   6.0259   6.1016   6.1026   6.1123   6.1600   6.1874
     6.2027   6.2037   6.2055   6.2627   6.2633   6.2878   6.3189   6.3424
     6.3553   6.3697   6.3702   6.4136   6.4199   6.4208   6.4527   6.4814
     6.4823   6.5071   6.5578   6.5667   6.6071   6.6083   6.6475   6.6675
     6.6679   6.7379   6.7384   6.7403   6.7491   6.8047   6.8056   6.8519
     6.8665   6.9185   6.9457   7.0389

          k =-0.3333 0.1925 0.2714 (115773 PWs)   bands (ev):

   -28.2815 -28.2794 -28.2765 -28.2760 -28.2756 -28.2754 -28.2754 -28.2752
   -28.2746 -28.2744 -28.2732 -28.2720 -14.9297 -14.9277 -14.9243 -14.9239
   -14.9227 -14.9227 -14.9224 -14.9223 -14.9223 -14.9219 -14.9217 -14.9217
   -14.9184 -14.9174 -14.9168 -14.9167 -14.9166 -14.9165 -14.9165 -14.9159
   -14.9157 -14.9129 -14.9116 -14.9115 -14.9098 -14.9069 -14.9064 -14.9047
   -14.9047 -14.9045 -14.9044 -14.9044 -14.9038 -14.9036 -14.8995 -14.8953
   -14.8715 -14.8695 -14.8661 -14.8645 -14.8645 -14.8643 -14.8643 -14.8642
   -14.8637 -14.8635 -14.8593 -14.8549 -14.8265 -14.8245 -14.8210 -14.8193
   -14.8193 -14.8192 -14.8191 -14.8191 -14.8184 -14.8183 -14.8140 -14.8095
   -10.3417 -10.3397 -10.3382 -10.3373 -10.3366 -10.3355 -10.3342 -10.3340
   -10.3318 -10.3314 -10.3291 -10.3275 -10.3112 -10.3084 -10.3066 -10.3051
   -10.3040 -10.3025 -10.2980 -10.2969 -10.2951 -10.2939 -10.2927 -10.2872
   -10.2714 -10.2697 -10.2689 -10.2679 -10.2669 -10.2638 -10.2632 -10.2621
   -10.2610 -10.2603 -10.2596 -10.2574  -6.7507  -6.6463  -6.5608  -6.4682
    -6.4214  -6.4159  -6.3634  -6.3417  -6.3384  -6.2651  -6.2109  -6.2093
    -5.9143  -5.9120  -5.8255  -5.8209  -5.8178  -5.8155  -5.7655  -5.7632
    -5.7536  -5.7333  -5.6846  -5.6825  -5.6793  -5.6634  -5.6442  -5.6390
    -5.6371  -5.6071  -5.5857  -5.5854  -5.5717  -5.5295  -5.5284  -5.5257
    -5.5157  -5.4853  -5.4646  -5.4394  -5.4375  -5.4351  -5.3989  -5.3701
    -5.3469  -5.3395  -5.3312  -5.2953  -0.5631  -0.5606  -0.5512  -0.4334
    -0.4306  -0.4254  -0.4106  -0.3604  -0.3253  -0.3176  -0.2904  -0.2823
     1.4052   1.4932   1.4962   1.5160   1.6128   1.7114   1.7125   1.7230
     1.7376   1.7734   1.8446   1.8471   1.9668   1.9864   2.0212   2.0228
     2.1296   2.1997   2.2085   2.2104   2.2855   2.3343   2.3968   2.4260
     2.4288   2.5183   2.5291   2.5303   2.5563   2.5582   2.5592   2.5616
     2.5998   2.6783   2.7642   2.7651   2.8235   2.8247   2.8262   2.8302
     2.8500   2.8537   2.8954   2.8966   2.9066   3.0080   3.0178   3.0197
     3.0766   3.0787   3.1175   3.1198   3.1340   3.1805   3.1822   3.1890
     3.2138   3.2462   3.2661   3.2846   3.2871   3.2955   3.3304   3.3325
     3.3752   3.3777   3.3785   3.3809   3.4457   3.4490   3.4505   3.4774
     3.4804   3.4810   3.5064   3.5197   3.5344   3.5358   3.5366   3.5584
     3.5858   3.5883   3.6109   3.6317   3.6394   3.6452   3.6824   3.6851
     3.6867   3.6964   3.7041   3.7058   3.8363   3.8374   3.8777   3.8821
     3.9422   3.9440   3.9470   3.9489   3.9723   4.0330   4.0537   4.0564
     4.0596   4.0631   4.0995   4.1022   4.1218   4.1236   4.1300   4.1340
     4.2238   4.2403   4.2685   4.2704   4.2913   4.2931   4.3142   4.3669
     4.3931   4.4324   4.4365   4.4810   4.5215   4.5430   4.5474   4.5859
     4.5947   4.5991   4.6322   4.7305   5.1474   5.1489   5.1538   5.1648
     5.1683   5.1692   5.1705   5.1732   5.2000   5.2053   5.2128   5.2177
     5.2203   5.2296   5.2409   5.2422   5.2606   5.2643   5.2650   5.2662
     5.2664   5.2737   5.3102   5.3114   5.3189   5.3343   5.3462   5.3482
     5.3605   5.3631   5.3635   5.3682   5.3702   5.3809   5.3880   5.3906
     5.4102   5.4336   5.4478   5.4516   5.4527   5.4694   5.4970   5.4982
     5.5174   5.5247   5.5562   5.5577   5.5683   5.5699   5.6021   5.6033
     5.6076   5.6210   5.6315   5.6498   5.6511   5.6613   5.6750   5.7086
     5.7100   5.7393   5.7602   5.7618   5.7708   5.7848   5.8054   5.8062
     5.8149   5.8401   5.8672   5.8689   5.8758   5.8949   5.9688   5.9704
     6.0196   6.0247   6.0270   6.1013   6.1029   6.1121   6.1601   6.1876
     6.2030   6.2038   6.2052   6.2629   6.2635   6.2879   6.3185   6.3423
     6.3553   6.3687   6.3707   6.4137   6.4190   6.4215   6.4526   6.4816
     6.4827   6.5071   6.5578   6.5667   6.6070   6.6085   6.6478   6.6668
     6.6686   6.7373   6.7389   6.7403   6.7489   6.8035   6.8064   6.8518
     6.8666   6.9185   6.9460   7.0390

          k = 0.3333 0.1925 0.2714 (115773 PWs)   bands (ev):

   -28.2815 -28.2794 -28.2765 -28.2760 -28.2756 -28.2754 -28.2754 -28.2752
   -28.2746 -28.2744 -28.2732 -28.2720 -14.9297 -14.9277 -14.9243 -14.9239
   -14.9227 -14.9226 -14.9225 -14.9223 -14.9223 -14.9219 -14.9217 -14.9216
   -14.9184 -14.9174 -14.9168 -14.9167 -14.9166 -14.9165 -14.9165 -14.9159
   -14.9157 -14.9129 -14.9116 -14.9115 -14.9098 -14.9069 -14.9064 -14.9047
   -14.9047 -14.9045 -14.9044 -14.9044 -14.9038 -14.9036 -14.8995 -14.8953
   -14.8715 -14.8695 -14.8661 -14.8645 -14.8645 -14.8643 -14.8643 -14.8642
   -14.8637 -14.8635 -14.8593 -14.8549 -14.8265 -14.8245 -14.8210 -14.8193
   -14.8193 -14.8192 -14.8191 -14.8190 -14.8184 -14.8183 -14.8140 -14.8095
   -10.3419 -10.3395 -10.3380 -10.3376 -10.3366 -10.3356 -10.3343 -10.3336
   -10.3324 -10.3309 -10.3296 -10.3272 -10.3111 -10.3090 -10.3059 -10.3050
   -10.3039 -10.3022 -10.2990 -10.2960 -10.2952 -10.2948 -10.2927 -10.2869
   -10.2713 -10.2699 -10.2689 -10.2678 -10.2667 -10.2640 -10.2628 -10.2621
   -10.2613 -10.2609 -10.2594 -10.2571  -6.7507  -6.6463  -6.5610  -6.4684
    -6.4194  -6.4178  -6.3634  -6.3419  -6.3373  -6.2654  -6.2113  -6.2087
    -5.9149  -5.9122  -5.8249  -5.8211  -5.8187  -5.8178  -5.7659  -5.7632
    -5.7520  -5.7331  -5.6835  -5.6820  -5.6799  -5.6624  -5.6421  -5.6402
    -5.6374  -5.6071  -5.5863  -5.5833  -5.5730  -5.5306  -5.5277  -5.5241
    -5.5163  -5.4860  -5.4651  -5.4400  -5.4371  -5.4356  -5.3989  -5.3696
    -5.3446  -5.3436  -5.3298  -5.2951  -0.5633  -0.5603  -0.5512  -0.4330
    -0.4295  -0.4276  -0.4102  -0.3601  -0.3225  -0.3211  -0.2899  -0.2823
     1.4055   1.4945   1.4949   1.5160   1.6127   1.7114   1.7131   1.7229
     1.7373   1.7727   1.8450   1.8466   1.9666   1.9861   2.0208   2.0234
     2.1296   2.1994   2.2094   2.2103   2.2853   2.3340   2.3964   2.4270
     2.4281   2.5184   2.5293   2.5302   2.5575   2.5584   2.5591   2.5599
     2.6002   2.6786   2.7638   2.7658   2.8238   2.8253   2.8260   2.8296
     2.8505   2.8529   2.8955   2.8967   2.9059   3.0089   3.0181   3.0197
     3.0767   3.0784   3.1182   3.1199   3.1343   3.1810   3.1816   3.1883
     3.2138   3.2466   3.2672   3.2855   3.2858   3.2955   3.3303   3.3316
     3.3753   3.3773   3.3783   3.3802   3.4476   3.4478   3.4507   3.4774
     3.4803   3.4805   3.5064   3.5194   3.5345   3.5350   3.5378   3.5581
     3.5868   3.5872   3.6116   3.6316   3.6404   3.6449   3.6831   3.6842
     3.6866   3.6961   3.7041   3.7057   3.8363   3.8378   3.8781   3.8800
     3.9419   3.9449   3.9466   3.9497   3.9721   4.0313   4.0538   4.0569
     4.0600   4.0620   4.0996   4.1033   4.1212   4.1246   4.1307   4.1357
     4.2239   4.2404   4.2686   4.2700   4.2900   4.2924   4.3136   4.3690
     4.3909   4.4347   4.4361   4.4809   4.5216   4.5443   4.5462   4.5857
     4.5936   4.6009   4.6317   4.7298   5.1480   5.1485   5.1537   5.1645
     5.1681   5.1690   5.1707   5.1736   5.1999   5.2051   5.2130   5.2186
     5.2195   5.2295   5.2415   5.2417   5.2608   5.2645   5.2651   5.2653
     5.2665   5.2738   5.3104   5.3108   5.3189   5.3342   5.3466   5.3476
     5.3599   5.3634   5.3636   5.3684   5.3701   5.3812   5.3892   5.3900
     5.4104   5.4334   5.4481   5.4516   5.4527   5.4694   5.4973   5.4980
     5.5168   5.5244   5.5563   5.5581   5.5688   5.5697   5.6021   5.6029
     5.6080   5.6205   5.6312   5.6500   5.6513   5.6611   5.6754   5.7087
     5.7097   5.7398   5.7598   5.7609   5.7709   5.7847   5.8055   5.8060
     5.8147   5.8406   5.8677   5.8683   5.8761   5.8949   5.9691   5.9695
     6.0196   6.0256   6.0259   6.1020   6.1022   6.1121   6.1601   6.1873
     6.2033   6.2040   6.2047   6.2633   6.2639   6.2879   6.3191   6.3424
     6.3552   6.3695   6.3702   6.4134   6.4200   6.4206   6.4523   6.4819
     6.4824   6.5076   6.5582   6.5668   6.6070   6.6080   6.6477   6.6671
     6.6678   6.7375   6.7388   6.7405   6.7486   6.8044   6.8054   6.8513
     6.8669   6.9186   6.9460   7.0395

          k =-0.3333-0.1925 0.2714 (115773 PWs)   bands (ev):

   -28.2815 -28.2794 -28.2765 -28.2760 -28.2756 -28.2754 -28.2754 -28.2752
   -28.2746 -28.2744 -28.2732 -28.2720 -14.9297 -14.9277 -14.9243 -14.9239
   -14.9227 -14.9226 -14.9225 -14.9223 -14.9223 -14.9219 -14.9217 -14.9216
   -14.9184 -14.9174 -14.9168 -14.9167 -14.9166 -14.9165 -14.9165 -14.9159
   -14.9157 -14.9129 -14.9116 -14.9115 -14.9098 -14.9069 -14.9064 -14.9047
   -14.9047 -14.9045 -14.9044 -14.9044 -14.9038 -14.9036 -14.8995 -14.8953
   -14.8715 -14.8695 -14.8661 -14.8645 -14.8645 -14.8643 -14.8643 -14.8642
   -14.8637 -14.8635 -14.8593 -14.8549 -14.8265 -14.8245 -14.8210 -14.8193
   -14.8193 -14.8192 -14.8191 -14.8190 -14.8184 -14.8183 -14.8140 -14.8095
   -10.3418 -10.3395 -10.3381 -10.3376 -10.3365 -10.3357 -10.3343 -10.3335
   -10.3322 -10.3314 -10.3294 -10.3272 -10.3115 -10.3076 -10.3066 -10.3063
   -10.3030 -10.3007 -10.2998 -10.2977 -10.2960 -10.2940 -10.2907 -10.2877
   -10.2717 -10.2698 -10.2690 -10.2676 -10.2660 -10.2641 -10.2637 -10.2623
   -10.2612 -10.2606 -10.2586 -10.2576  -6.7505  -6.6464  -6.5602  -6.4718
    -6.4227  -6.4209  -6.3639  -6.3301  -6.3257  -6.2588  -6.2249  -6.2226
    -5.9061  -5.9038  -5.8232  -5.8209  -5.8099  -5.8079  -5.7909  -5.7601
    -5.7586  -5.7309  -5.7105  -5.7092  -5.6714  -5.6349  -5.6292  -5.6278
    -5.6254  -5.6078  -5.6007  -5.5960  -5.5694  -5.5283  -5.5239  -5.5205
    -5.5193  -5.4959  -5.4674  -5.4328  -5.4301  -5.4262  -5.4212  -5.3633
    -5.3483  -5.3466  -5.3215  -5.2982  -0.5601  -0.5592  -0.5563  -0.4364
    -0.4346  -0.4247  -0.3933  -0.3726  -0.3192  -0.3180  -0.2984  -0.2781
     1.4340   1.4857   1.4862   1.4880   1.6257   1.6418   1.7733   1.7735
     1.7823   1.7903   1.7992   1.8024   1.9147   1.9951   1.9973   2.0766
     2.1554   2.2003   2.2112   2.2475   2.2496   2.3600   2.3931   2.3941
     2.3981   2.4487   2.5123   2.5128   2.5478   2.5912   2.5914   2.6086
     2.6430   2.7114   2.7612   2.7680   2.7693   2.7888   2.8087   2.8106
     2.8397   2.8748   2.9153   2.9171   2.9186   2.9820   3.0242   3.0251
     3.0679   3.1061   3.1084   3.1327   3.1706   3.1934   3.1938   3.1943
     3.2003   3.2328   3.2638   3.2652   3.2775   3.3183   3.3210   3.3220
     3.3253   3.3883   3.3907   3.4117   3.4456   3.4462   3.4692   3.4696
     3.4713   3.4730   3.4766   3.4800   3.5337   3.5366   3.5376   3.5910
     3.6107   3.6129   3.6136   3.6337   3.6419   3.6482   3.6590   3.6596
     3.6685   3.7102   3.7115   3.7131   3.8356   3.8370   3.8791   3.8887
     3.9045   3.9498   3.9517   3.9749   3.9824   4.0200   4.0465   4.0493
     4.0500   4.0657   4.1094   4.1127   4.1216   4.1329   4.1354   4.1495
     4.1915   4.2553   4.2666   4.2678   4.2881   4.2901   4.2947   4.3890
     4.3965   4.4382   4.4390   4.4680   4.5241   4.5261   4.5368   4.5964
     4.6082   4.6148   4.6221   4.7218   5.1509   5.1515   5.1545   5.1576
     5.1721   5.1761   5.1766   5.1840   5.1907   5.1982   5.2016   5.2079
     5.2092   5.2342   5.2352   5.2365   5.2552   5.2643   5.2657   5.2665
     5.2797   5.2980   5.3082   5.3132   5.3136   5.3291   5.3366   5.3373
     5.3583   5.3584   5.3608   5.3640   5.3805   5.3931   5.4069   5.4081
     5.4133   5.4318   5.4336   5.4452   5.4459   5.4929   5.5020   5.5033
     5.5095   5.5161   5.5541   5.5602   5.5749   5.5752   5.6026   5.6115
     5.6117   5.6192   5.6254   5.6256   5.6435   5.6704   5.6822   5.7142
     5.7150   5.7178   5.7347   5.7721   5.7734   5.7739   5.8024   5.8032
     5.8103   5.8591   5.8755   5.8760   5.8794   5.9153   5.9592   5.9599
     6.0344   6.0351   6.0360   6.0602   6.0789   6.0797   6.1735   6.2065
     6.2135   6.2145   6.2669   6.2672   6.2699   6.2778   6.2859   6.3492
     6.3506   6.3658   6.3725   6.4157   6.4241   6.4251   6.4282   6.4713
     6.4983   6.4996   6.5464   6.5594   6.5957   6.5968   6.6665   6.6683
     6.6773   6.7200   6.7364   6.7375   6.7480   6.8130   6.8145   6.8451
     6.8697   6.9285   6.9375   7.0528

          k = 0.3333-0.1925 0.2714 (115773 PWs)   bands (ev):

   -28.2815 -28.2794 -28.2765 -28.2760 -28.2756 -28.2754 -28.2754 -28.2752
   -28.2746 -28.2744 -28.2732 -28.2720 -14.9297 -14.9277 -14.9243 -14.9239
   -14.9227 -14.9227 -14.9224 -14.9223 -14.9223 -14.9219 -14.9217 -14.9217
   -14.9184 -14.9174 -14.9168 -14.9167 -14.9166 -14.9165 -14.9165 -14.9159
   -14.9157 -14.9129 -14.9116 -14.9115 -14.9098 -14.9069 -14.9064 -14.9047
   -14.9047 -14.9045 -14.9044 -14.9044 -14.9038 -14.9036 -14.8995 -14.8953
   -14.8715 -14.8695 -14.8661 -14.8645 -14.8645 -14.8643 -14.8643 -14.8642
   -14.8637 -14.8635 -14.8593 -14.8549 -14.8265 -14.8245 -14.8210 -14.8193
   -14.8193 -14.8192 -14.8191 -14.8191 -14.8184 -14.8183 -14.8140 -14.8095
   -10.3417 -10.3397 -10.3381 -10.3375 -10.3368 -10.3356 -10.3342 -10.3333
   -10.3319 -10.3315 -10.3296 -10.3271 -10.3114 -10.3084 -10.3065 -10.3060
   -10.3021 -10.3014 -10.3005 -10.2972 -10.2956 -10.2937 -10.2913 -10.2876
   -10.2715 -10.2701 -10.2687 -10.2674 -10.2667 -10.2643 -10.2632 -10.2625
   -10.2608 -10.2603 -10.2592 -10.2577  -6.7505  -6.6464  -6.5601  -6.4715
    -6.4243  -6.4196  -6.3638  -6.3287  -6.3279  -6.2586  -6.2246  -6.2231
    -5.9053  -5.9037  -5.8241  -5.8202  -5.8085  -5.8046  -5.7923  -5.7618
    -5.7582  -5.7322  -5.7122  -5.7076  -5.6716  -5.6355  -5.6294  -5.6283
    -5.6251  -5.6081  -5.6002  -5.5988  -5.5682  -5.5277  -5.5233  -5.5214
    -5.5188  -5.4958  -5.4671  -5.4326  -5.4286  -5.4272  -5.4218  -5.3631
    -5.3506  -5.3430  -5.3216  -5.2991  -0.5599  -0.5591  -0.5567  -0.4379
    -0.4334  -0.4239  -0.3935  -0.3729  -0.3220  -0.3144  -0.2989  -0.2784
     1.4337   1.4842   1.4864   1.4890   1.6255   1.6423   1.7722   1.7739
     1.7826   1.7910   1.7996   1.8015   1.9149   1.9960   1.9969   2.0778
     2.1556   2.2004   2.2111   2.2468   2.2492   2.3603   2.3924   2.3947
     2.3987   2.4487   2.5115   2.5131   2.5471   2.5903   2.5919   2.6079
     2.6430   2.7114   2.7619   2.7677   2.7703   2.7892   2.8093   2.8100
     2.8389   2.8744   2.9157   2.9167   2.9191   2.9818   3.0235   3.0252
     3.0678   3.1056   3.1085   3.1328   3.1712   3.1920   3.1937   3.1951
     3.2006   3.2322   3.2651   3.2655   3.2769   3.3181   3.3214   3.3231
     3.3245   3.3894   3.3905   3.4109   3.4447   3.4466   3.4680   3.4703
     3.4719   3.4745   3.4760   3.4784   3.5338   3.5357   3.5381   3.5915
     3.6107   3.6126   3.6138   3.6332   3.6424   3.6482   3.6589   3.6609
     3.6677   3.7096   3.7115   3.7145   3.8357   3.8366   3.8796   3.8896
     3.9044   3.9488   3.9516   3.9749   3.9823   4.0205   4.0476   4.0486
     4.0513   4.0668   4.1108   4.1121   4.1193   4.1314   4.1352   4.1478
     4.1903   4.2558   4.2667   4.2691   4.2879   4.2918   4.2948   4.3873
     4.3985   4.4363   4.4396   4.4683   4.5246   4.5255   4.5357   4.5963
     4.6093   4.6135   4.6236   4.7219   5.1503   5.1518   5.1546   5.1577
     5.1724   5.1757   5.1773   5.1837   5.1910   5.1982   5.2016   5.2080
     5.2084   5.2341   5.2351   5.2367   5.2550   5.2639   5.2660   5.2669
     5.2795   5.2984   5.3077   5.3124   5.3147   5.3290   5.3362   5.3383
     5.3580   5.3590   5.3606   5.3639   5.3804   5.3932   5.4070   5.4081
     5.4136   5.4321   5.4337   5.4439   5.4469   5.4931   5.5021   5.5029
     5.5097   5.5163   5.5540   5.5598   5.5745   5.5753   5.6029   5.6108
     5.6122   5.6194   5.6251   5.6258   5.6433   5.6704   5.6826   5.7147
     5.7152   5.7174   5.7342   5.7727   5.7730   5.7743   5.8027   5.8033
     5.8102   5.8589   5.8754   5.8768   5.8788   5.9148   5.9593   5.9601
     6.0340   6.0353   6.0363   6.0599   6.0793   6.0797   6.1736   6.2067
     6.2132   6.2140   6.2663   6.2678   6.2703   6.2775   6.2858   6.3486
     6.3501   6.3663   6.3727   6.4155   6.4246   6.4261   6.4276   6.4713
     6.4986   6.4994   6.5455   6.5595   6.5954   6.5968   6.6660   6.6689
     6.6775   6.7200   6.7347   6.7394   6.7481   6.8126   6.8153   6.8454
     6.8692   6.9285   6.9374   7.0526

          k =-0.3333-0.5774 0.2714 (115827 PWs)   bands (ev):

   -28.2815 -28.2794 -28.2765 -28.2760 -28.2756 -28.2754 -28.2754 -28.2752
   -28.2746 -28.2744 -28.2732 -28.2720 -14.9297 -14.9277 -14.9243 -14.9239
   -14.9227 -14.9226 -14.9225 -14.9223 -14.9223 -14.9219 -14.9217 -14.9217
   -14.9184 -14.9174 -14.9168 -14.9167 -14.9166 -14.9165 -14.9165 -14.9159
   -14.9157 -14.9129 -14.9116 -14.9115 -14.9098 -14.9069 -14.9064 -14.9047
   -14.9047 -14.9045 -14.9044 -14.9044 -14.9038 -14.9036 -14.8995 -14.8953
   -14.8715 -14.8695 -14.8661 -14.8645 -14.8645 -14.8643 -14.8643 -14.8642
   -14.8637 -14.8635 -14.8593 -14.8549 -14.8265 -14.8245 -14.8210 -14.8193
   -14.8193 -14.8192 -14.8191 -14.8191 -14.8184 -14.8183 -14.8140 -14.8095
   -10.3414 -10.3393 -10.3379 -10.3368 -10.3366 -10.3347 -10.3336 -10.3332
   -10.3319 -10.3305 -10.3303 -10.3291 -10.3100 -10.3079 -10.3074 -10.3051
   -10.3024 -10.3010 -10.2984 -10.2972 -10.2966 -10.2925 -10.2917 -10.2908
   -10.2714 -10.2697 -10.2681 -10.2670 -10.2661 -10.2647 -10.2640 -10.2635
   -10.2623 -10.2599 -10.2596 -10.2587  -6.6209  -6.6180  -6.6145  -6.5274
    -6.5246  -6.5208  -6.3080  -6.2919  -6.2891  -6.2853  -6.2571  -6.2140
    -5.8744  -5.8573  -5.8451  -5.7827  -5.7791  -5.7757  -5.7430  -5.7413
    -5.7404  -5.7151  -5.6900  -5.6876  -5.6856  -5.6731  -5.6720  -5.6708
    -5.6689  -5.6431  -5.5583  -5.5551  -5.5539  -5.5262  -5.5239  -5.5225
    -5.5060  -5.5029  -5.5014  -5.5003  -5.4582  -5.4001  -5.3974  -5.3947
    -5.3577  -5.3246  -5.3225  -5.3180  -0.5203  -0.5081  -0.5054  -0.5014
    -0.4608  -0.4186  -0.4165  -0.4137  -0.3548  -0.2941  -0.2928  -0.2893
     1.4811   1.4830   1.4848   1.6376   1.6388   1.6403   1.6906   1.7731
     1.7763   1.7772   1.7794   1.7941   1.9807   1.9817   1.9834   2.0556
     2.1712   2.1914   2.1937   2.1951   2.2474   2.3964   2.3980   2.3993
     2.4882   2.4896   2.4904   2.5571   2.5868   2.5881   2.5899   2.5927
     2.6792   2.7363   2.7373   2.7386   2.8226   2.8232   2.8239   2.8284
     2.9016   2.9032   2.9040   2.9247   2.9369   2.9550   2.9561   2.9570
     3.0595   3.0605   3.0614   3.0884   3.0890   3.0898   3.1272   3.1811
     3.2446   3.2452   3.2459   3.2700   3.2717   3.2729   3.3219   3.3275
     3.3280   3.3292   3.3743   3.4078   3.4208   3.4644   3.4660   3.4678
     3.4929   3.4984   3.4999   3.5015   3.5358   3.5373   3.5390   3.5407
     3.5616   3.6145   3.6170   3.6182   3.6543   3.6551   3.6566   3.6972
     3.6981   3.6997   3.7203   3.7443   3.8218   3.8404   3.8419   3.8426
     3.9374   3.9406   3.9410   3.9432   4.0279   4.0302   4.0325   4.0408
     4.0671   4.0680   4.0705   4.1088   4.1129   4.1153   4.1169   4.1685
     4.2720   4.2737   4.2748   4.2897   4.3160   4.3610   4.3623   4.3629
     4.4152   4.4172   4.4207   4.4905   4.4941   4.4963   4.5084   4.5122
     4.5646   4.6667   4.6681   4.6694   5.1492   5.1569   5.1579   5.1580
     5.1585   5.1820   5.1832   5.1844   5.1981   5.1987   5.1994   5.2113
     5.2248   5.2255   5.2270   5.2516   5.2525   5.2539   5.2572   5.2691
     5.3013   5.3024   5.3032   5.3096   5.3285   5.3297   5.3308   5.3677
     5.3686   5.3697   5.3750   5.3944   5.3955   5.4088   5.4099   5.4103
     5.4329   5.4334   5.4347   5.4392   5.4842   5.4853   5.4860   5.4916
     5.5395   5.5399   5.5403   5.5440   5.5659   5.5673   5.5677   5.6055
     5.6063   5.6069   5.6389   5.6392   5.6725   5.6731   5.6739   5.7035
     5.7038   5.7051   5.7178   5.7586   5.7600   5.7614   5.8016   5.8082
     5.8211   5.8237   5.8248   5.8255   5.8906   5.8909   5.8923   6.0569
     6.0605   6.0612   6.0618   6.0777   6.1195   6.1207   6.1223   6.1352
     6.1960   6.2376   6.2387   6.2398   6.2846   6.3018   6.3029   6.3041
     6.3068   6.3849   6.3863   6.3873   6.4504   6.4669   6.4683   6.4703
     6.4924   6.4932   6.5579   6.5602   6.5616   6.6464   6.6844   6.6858
     6.6872   6.7610   6.7776   6.7786   6.7802   6.7932   6.8541   6.8552
     6.8573   6.9357   6.9364   6.9378

     highest occupied level (ev):     7.1811

!    total energy              =   -9077.18769140 Ry
     estimated scf accuracy    <          6.0E-10 Ry

     The total energy is the sum of the following terms:
     one-electron contribution =   -2776.24017809 Ry
     hartree contribution      =    2019.88092329 Ry
     xc contribution           =   -2269.38545690 Ry
     ewald contribution        =   -3895.64660289 Ry
     one-center paw contrib.   =   -2155.79637681 Ry

     convergence has been achieved in  21 iterations

     negative rho (up, down):  7.902E-01 0.000E+00

     Forces acting on atoms (cartesian axes, Ry/au):

     atom    1 type  1   force =     0.00410205   -0.00167669   -0.00013317
     atom    2 type  1   force =    -0.00078124    0.00027741   -0.00001568
     atom    3 type  1   force =    -0.00021014    0.00044685   -0.00000608
     atom    4 type  1   force =    -0.00013938    0.00027535    0.00000382
     atom    5 type  1   force =    -0.00025596   -0.00030824   -0.00017560
     atom    6 type  1   force =    -0.00021322   -0.00037754    0.00019289
     atom    7 type  1   force =    -0.00011460   -0.00025914    0.00002868
     atom    8 type  1   force =    -0.00017374   -0.00022120   -0.00000946
     atom    9 type  1   force =     0.00024815    0.00001174   -0.00001720
     atom   10 type  1   force =     0.00041539    0.00004201    0.00012781
     atom   11 type  1   force =     0.00036865   -0.00002974   -0.00005789
     atom   12 type  1   force =     0.00028488    0.00002386   -0.00004074
     atom   13 type  2   force =     0.00044276   -0.00060207    0.00012841
     atom   14 type  2   force =     0.00014532   -0.00033845    0.00019511
     atom   15 type  2   force =     0.00019467   -0.00035295    0.00021117
     atom   16 type  2   force =     0.00019225   -0.00038159    0.00018617
     atom   17 type  2   force =     0.00025294    0.00037285    0.00021698
     atom   18 type  2   force =     0.00020853    0.00036511    0.00016388
     atom   19 type  2   force =     0.00022820    0.00036662    0.00018303
     atom   20 type  2   force =     0.00023764    0.00037224    0.00019243
     atom   21 type  2   force =    -0.00046640   -0.00037749    0.00038045
     atom   22 type  2   force =    -0.00046319    0.00024134    0.00015186
     atom   23 type  2   force =    -0.00047638    0.00003344    0.00019983
     atom   24 type  2   force =    -0.00037558    0.00007337    0.00016550
     atom   25 type  2   force =    -0.00044131   -0.00002520   -0.00018629
     atom   26 type  2   force =    -0.00043265   -0.00001603   -0.00019592
     atom   27 type  2   force =    -0.00042876   -0.00001430   -0.00018335
     atom   28 type  2   force =    -0.00043719   -0.00001238   -0.00017509
     atom   29 type  2   force =     0.00004889    0.00046651   -0.00032989
     atom   30 type  2   force =    -0.00022728   -0.00001291    0.00017240
     atom   31 type  2   force =     0.00023053    0.00035471   -0.00017934
     atom   32 type  2   force =     0.00018795    0.00042872   -0.00019249
     atom   33 type  2   force =     0.00019886   -0.00037702   -0.00019271
     atom   34 type  2   force =     0.00030083   -0.00052498   -0.00018179
     atom   35 type  2   force =     0.00025124   -0.00037149   -0.00016212
     atom   36 type  2   force =     0.00020675   -0.00032789   -0.00022239
     atom   37 type  3   force =     0.00032481   -0.00051187   -0.00000079
     atom   38 type  3   force =     0.00023420   -0.00046969    0.00001010
     atom   39 type  3   force =     0.00026877   -0.00043964    0.00001063
     atom   40 type  3   force =     0.00027250   -0.00048873   -0.00002606
     atom   41 type  3   force =    -0.00026572    0.00109702    0.00110905
     atom   42 type  3   force =     0.00015498   -0.00020202   -0.00088432
     atom   43 type  3   force =     0.00033555    0.00072262   -0.00013988
     atom   44 type  3   force =     0.00022311    0.00056763    0.00003036
     atom   45 type  3   force =    -0.00067912   -0.00014170   -0.00014362
     atom   46 type  3   force =     0.00000310    0.00075444   -0.00014710
     atom   47 type  3   force =    -0.00054722   -0.00021065    0.00002921
     atom   48 type  3   force =    -0.00105704    0.00048767    0.00015751
     atom   49 type  4   force =     0.00031822   -0.00004737   -0.00000155
     atom   50 type  4   force =     0.00037589   -0.00009451    0.00001282
     atom   51 type  4   force =     0.00036143   -0.00012874    0.00000993
     atom   52 type  4   force =     0.00034345   -0.00009892    0.00002782
     atom   53 type  4   force =     0.00021930    0.00030924   -0.00025025
     atom   54 type  4   force =    -0.00137671    0.00079319    0.00009800
     atom   55 type  4   force =    -0.00013185    0.00034680   -0.00001771
     atom   56 type  4   force =    -0.00009042    0.00035165    0.00002948
     atom   57 type  4   force =    -0.00033695   -0.00020690    0.00003091
     atom   58 type  4   force =    -0.00013066   -0.00032747   -0.00003643
     atom   59 type  4   force =    -0.00018542   -0.00026233    0.00000426
     atom   60 type  4   force =    -0.00035260   -0.00027308    0.00002102
     atom   61 type  4   force =    -0.00017571    0.00028539    0.00008159
     atom   62 type  4   force =    -0.00056131    0.00021915   -0.00006086
     atom   63 type  4   force =    -0.00042362    0.00047260   -0.00010334
     atom   64 type  4   force =    -0.00022556    0.00019767   -0.00002533
     atom   65 type  4   force =     0.00037699    0.00009398   -0.00016157
     atom   66 type  4   force =     0.00034573    0.00019098    0.00010944
     atom   67 type  4   force =     0.00033565    0.00006563   -0.00000020
     atom   68 type  4   force =     0.00037167    0.00005915   -0.00001683
     atom   69 type  4   force =    -0.00004006   -0.00037294   -0.00002085
     atom   70 type  4   force =    -0.00018666   -0.00027013   -0.00000533
     atom   71 type  4   force =    -0.00009896   -0.00036590    0.00000997
     atom   72 type  4   force =    -0.00007799   -0.00036730   -0.00002974
     atom   73 type  4   force =    -0.00080390    0.00044270   -0.00090003
     atom   74 type  4   force =     0.00006839    0.00024617   -0.00023487
     atom   75 type  4   force =     0.00004235    0.00005722   -0.00028993
     atom   76 type  4   force =     0.00000180    0.00015702   -0.00028265
     atom   77 type  4   force =    -0.00013713   -0.00004287   -0.00024894
     atom   78 type  4   force =    -0.00016493   -0.00007369   -0.00023958
     atom   79 type  4   force =    -0.00014089   -0.00006070   -0.00024144
     atom   80 type  4   force =    -0.00014213   -0.00007072   -0.00025502
     atom   81 type  4   force =    -0.00014408   -0.00007894   -0.00008559
     atom   82 type  4   force =     0.00022263   -0.00019101   -0.00024328
     atom   83 type  4   force =     0.00021687   -0.00012540   -0.00028616
     atom   84 type  4   force =     0.00006910   -0.00005303   -0.00019910
     atom   85 type  4   force =     0.00012601    0.00007200    0.00025197
     atom   86 type  4   force =     0.00012086    0.00011771    0.00023424
     atom   87 type  4   force =     0.00012531    0.00009458    0.00025089
     atom   88 type  4   force =     0.00013166    0.00009207    0.00023942
     atom   89 type  4   force =    -0.00000071   -0.00013789    0.00026214
     atom   90 type  4   force =     0.00000720   -0.00005371    0.00040133
     atom   91 type  4   force =     0.00002220   -0.00014014    0.00028123
     atom   92 type  4   force =    -0.00003457   -0.00027030    0.00021644
     atom   93 type  4   force =     0.00003729    0.00016692    0.00042135
     atom   94 type  4   force =    -0.00035540    0.00048782    0.00047435
     atom   95 type  4   force =    -0.00018462    0.00008796    0.00023376
     atom   96 type  4   force =    -0.00011457   -0.00000353    0.00028593

     Total force =     0.006858     Total SCF correction =     0.000018
     Message from routine punch:
     Nothing written, as per user request (disk_io='none')

     init_run     :     44.23s CPU     46.84s WALL (       1 calls)
     electrons    :   2449.21s CPU   2546.89s WALL (       1 calls)
     forces       :     20.20s CPU     21.23s WALL (       1 calls)

     Called by init_run:
     wfcinit      :     40.26s CPU     42.57s WALL (       1 calls)
     potinit      :      1.20s CPU      1.24s WALL (       1 calls)
     hinit0       :      1.08s CPU      1.11s WALL (       1 calls)

     Called by electrons:
     c_bands      :   2159.26s CPU   2238.11s WALL (      21 calls)
     sum_band     :    253.28s CPU    268.41s WALL (      21 calls)
     v_of_rho     :      5.83s CPU      6.37s WALL (      22 calls)
     newd         :     24.96s CPU     28.12s WALL (      22 calls)
     PAW_pot      :      5.79s CPU      5.81s WALL (      22 calls)
     mix_rho      :      0.86s CPU      0.93s WALL (      21 calls)

     Called by c_bands:
     init_us_2    :     35.84s CPU     36.14s WALL (     308 calls)
     cegterg      :   2081.63s CPU   2160.02s WALL (     147 calls)

     Called by *egterg:
     cdiaghg      :     89.54s CPU     92.09s WALL (     892 calls)
     h_psi        :   1128.30s CPU   1193.78s WALL (     899 calls)
     s_psi        :    256.65s CPU    258.62s WALL (     899 calls)
     g_psi        :      4.74s CPU      4.78s WALL (     745 calls)

     Called by h_psi:
     h_psi:calbec :    255.65s CPU    259.46s WALL (     899 calls)
     vloc_psi     :    607.90s CPU    665.75s WALL (     899 calls)
     add_vuspsi   :    257.98s CPU    259.91s WALL (     899 calls)

     General routines
     calbec       :    349.57s CPU    355.07s WALL (    1074 calls)
     fft          :      9.69s CPU     10.31s WALL (     295 calls)
     ffts         :      0.79s CPU      0.82s WALL (      43 calls)
     fftw         :    486.22s CPU    542.61s WALL (  436988 calls)
     interpolate  :      1.06s CPU      1.12s WALL (      22 calls)

     Parallel routines

     PWSCF        :  41m53.91s CPU  43m35.48s WALL


   This run was terminated on:   2:34:33  21Aug2026            

=------------------------------------------------------------------------------=
   JOB DONE.
=------------------------------------------------------------------------------=
