
     Program PWSCF v.7.3.1 starts on 21Aug2026 at  2:27: 5 

     This program is part of the open-source Quantum ESPRESSO suite
     for quantum simulation of materials; please cite
         "P. Giannozzi et al., J. Phys.:Condens. Matter 21 395502 (2009);
         "P. Giannozzi et al., J. Phys.:Condens. Matter 29 465901 (2017);
         "P. Giannozzi et al., J. Chem. Phys. 152 154105 (2020);
          URL http://www.quantum-espresso.org", 
     in publications or presentations arising from this work. More details at
     http://www.quantum-espresso.org/quote

     Parallel version (MPI & OpenMP), running on      32 processor cores
     Number of MPI processes:                32
     Threads/MPI process:                     1

     MPI processes distributed on     1 nodes
     202830 MiB available memory on the printing compute node when the environment starts

     Reading input from scf.in

     Current dimensions of program PWSCF are:
     Max number of different atomic species (ntypx) = 10
     Max number of k-points (npk) =  40000
     Max angular momentum in pseudopotentials (lmaxx) =  4
     file Cu.paw.z_11.ld1.psl.v1.0.0-low.upf: wavefunction(s)  4S 3D renormalized

     K-points division:     npool     =       2
     R & G space division:  proc/nbgrp/npool/nimage =      16
     Subspace diagonalization in iterative solution of the eigenvalue problem:
     one sub-group per band group will be used
     scalapack distributed-memory algorithm (size of sub-group:  4*  4 procs)


     Parallelization info
     --------------------
     sticks:   dense  smooth     PW     G-vecs:    dense   smooth      PW
     Min        1193     597    157               163743    57882    7779
     Max        1194     599    158               163747    57885    7784
     Sum       19099    9565   2515              2619931   926125  124485

     Using Slab Decomposition



     bravais-lattice index     =            0
     lattice parameter (alat)  =      24.0273  a.u.
     unit-cell volume          =   14752.0463 (a.u.)^3
     number of atoms/cell      =           96
     number of atomic types    =            4
     number of electrons       =       840.00
     number of Kohn-Sham states=          420
     kinetic-energy cutoff     =      60.0000  Ry
     charge density cutoff     =     480.0000  Ry
     scf convergence threshold =      1.0E-09
     mixing beta               =       0.3000
     number of iterations used =            8  plain     mixing
     Exchange-correlation=  SLA  PW   PBX  PBC
                           (   1   4   3   4   0   0   0)

     celldm(1)=  24.027274  celldm(2)=   0.000000  celldm(3)=   0.000000
     celldm(4)=   0.000000  celldm(5)=   0.000000  celldm(6)=   0.000000

     crystal axes: (cart. coord. in units of alat)
               a(1) = (   1.000000   0.000000   0.000000 )  
               a(2) = (  -0.500000   0.866025   0.000000 )  
               a(3) = (   0.000000   0.000000   1.228028 )  

     reciprocal axes: (cart. coord. in units 2 pi/alat)
               b(1) = (  1.000000  0.577351 -0.000000 )  
               b(2) = (  0.000000  1.154701  0.000000 )  
               b(3) = (  0.000000 -0.000000  0.814314 )  


     PseudoPot. # 1 for Sr read from file:
     /home/yuhansun/pseudos/SSSP-1.3.0-PBE-precision/Sr_pbe_v1.uspp.F.UPF
     MD5 check sum: 6b418c05fbe9db5448babca5e47b7a5b
     Pseudo is Ultrasoft + core correction, Zval = 10.0
     Generated by new atomic code, or converted to UPF format
     Using radial grid of  883 points,  6 beta functions with: 
                l(1) =   0
                l(2) =   0
                l(3) =   1
                l(4) =   1
                l(5) =   2
                l(6) =   2
     Q(r) pseudized with  6 coefficients,  rinner =    1.400   1.400   1.400
                                                       1.400   1.400

     PseudoPot. # 2 for Cu read from file:
     /home/yuhansun/pseudos/SSSP-1.3.0-PBE-precision/Cu.paw.z_11.ld1.psl.v1.0.0-low.upf
     MD5 check sum: 619f40885d92a09a85a8b37550532d0c
     Pseudo is Projector augmented-wave + core cor, Zval = 11.0
     Generated using &quot;atomic&quot; code by A. Dal Corso  v.6.3MaX
     Shape of augmentation charge: PSQ
     Using radial grid of 1199 points,  6 beta functions with: 
                l(1) =   0
                l(2) =   0
                l(3) =   1
                l(4) =   1
                l(5) =   2
                l(6) =   2
     Q(r) pseudized with 0 coefficients 


     PseudoPot. # 3 for Sn read from file:
     /home/yuhansun/pseudos/SSSP-1.3.0-PBE-precision/Sn_pbe_v1.uspp.F.UPF
     MD5 check sum: 4cf58ce39ec5d5d420df3dd08604eb00
     Pseudo is Ultrasoft + core correction, Zval = 14.0
     Generated by new atomic code, or converted to UPF format
     Using radial grid of  891 points,  6 beta functions with: 
                l(1) =   0
                l(2) =   0
                l(3) =   1
                l(4) =   1
                l(5) =   2
                l(6) =   2
     Q(r) pseudized with  6 coefficients,  rinner =    1.200   1.200   1.200
                                                       1.200   1.200

     PseudoPot. # 4 for S  read from file:
     /home/yuhansun/pseudos/SSSP-1.3.0-PBE-precision/s_pbe_v1.4.uspp.F.UPF
     MD5 check sum: 88d86576ff6df21479756cfb9bdac1df
     Pseudo is Ultrasoft + core correction, Zval =  6.0
     Generated by new atomic code, or converted to UPF format
     Using radial grid of  907 points,  6 beta functions with: 
                l(1) =   0
                l(2) =   0
                l(3) =   1
                l(4) =   1
                l(5) =   2
                l(6) =   2
     Q(r) pseudized with  8 coefficients,  rinner =    1.300   1.300   1.300
                                                       1.300   1.300

     atomic species   valence    mass     pseudopotential
     Sr               10.00    87.62000     Sr( 1.00)
     Cu               11.00    63.54600     Cu( 1.00)
     Sn               14.00   118.71000     Sn( 1.00)
     S                 6.00    32.06500     S ( 1.00)

     No symmetry found



   Cartesian axes

     site n.     atom                  positions (alat units)
         1        Sr     tau(   1) = (  -0.1405753   0.2434834   0.2046717  )
         2        Sr     tau(   2) = (   0.3594247   0.2434834   0.2046717  )
         3        Sr     tau(   3) = (  -0.3905753   0.6764960   0.2046717  )
         4        Sr     tau(   4) = (   0.1094247   0.6764960   0.2046717  )
         5        Sr     tau(   5) = (   0.1094247   0.1895292   0.6140139  )
         6        Sr     tau(   6) = (   0.6094247   0.1895292   0.6140139  )
         7        Sr     tau(   7) = (  -0.1405753   0.6225418   0.6140139  )
         8        Sr     tau(   8) = (   0.3594247   0.6225418   0.6140139  )
         9        Sr     tau(   9) = (   0.2811505   0.0000000   1.0233574  )
        10        Sr     tau(  10) = (   0.7811505   0.0000000   1.0233574  )
        11        Sr     tau(  11) = (   0.0311505   0.4330126   1.0233574  )
        12        Sr     tau(  12) = (   0.5311505   0.4330126   1.0233574  )
        13        Cu     tau(  13) = (  -0.1251759   0.2796463   0.5061747  )
        14        Cu     tau(  14) = (   0.3773212   0.2753211   0.5061747  )
        15        Cu     tau(  15) = (  -0.3726788   0.7083337   0.5061747  )
        16        Cu     tau(  16) = (   0.1273212   0.7083337   0.5061747  )
        17        Cu     tau(  17) = (   0.0729045   0.1891087   0.9155169  )
        18        Cu     tau(  18) = (   0.5729045   0.1891087   0.9155169  )
        19        Cu     tau(  19) = (  -0.1770956   0.6221213   0.9155169  )
        20        Cu     tau(  20) = (   0.3229044   0.6221213   0.9155169  )
        21        Cu     tau(  21) = (   0.0497750   0.4015949   0.0968325  )
        22        Cu     tau(  22) = (   0.5497750   0.4015949   0.0968325  )
        23        Cu     tau(  23) = (  -0.2002251   0.8346075   0.0968325  )
        24        Cu     tau(  24) = (   0.2997749   0.8346075   0.0968325  )
        25        Cu     tau(  25) = (   0.2997745   0.0314177   0.7218532  )
        26        Cu     tau(  26) = (   0.7997745   0.0314177   0.7218532  )
        27        Cu     tau(  27) = (   0.0497745   0.4644302   0.7218532  )
        28        Cu     tau(  28) = (   0.5497745   0.4644302   0.7218532  )
        29        Cu     tau(  29) = (   0.1273207   0.1576915   0.3125110  )
        30        Cu     tau(  30) = (   0.6273207   0.1576915   0.3125110  )
        31        Cu     tau(  31) = (  -0.1226793   0.5907041   0.3125110  )
        32        Cu     tau(  32) = (   0.3773207   0.5907041   0.3125110  )
        33        Cu     tau(  33) = (   0.3229040   0.2439039   1.1311954  )
        34        Cu     tau(  34) = (   0.8229040   0.2439039   1.1311954  )
        35        Cu     tau(  35) = (   0.0729039   0.6769164   1.1311954  )
        36        Cu     tau(  36) = (   0.5729039   0.6769164   1.1311954  )
        37        Sn     tau(  37) = (  -0.1762580   0.3052877   0.8186857  )
        38        Sn     tau(  38) = (   0.3237420   0.3052877   0.8186857  )
        39        Sn     tau(  39) = (  -0.4262581   0.7383003   0.8186857  )
        40        Sn     tau(  40) = (   0.0737419   0.7383003   0.8186857  )
        41        Sn     tau(  41) = (   0.0737420   0.1277249   0.0000000  )
        42        Sn     tau(  42) = (   0.5737420   0.1277249   0.0000000  )
        43        Sn     tau(  43) = (  -0.1762581   0.5607374   0.0000000  )
        44        Sn     tau(  44) = (   0.3237419   0.5607374   0.0000000  )
        45        Sn     tau(  45) = (   0.3525160   0.0000000   0.4093422  )
        46        Sn     tau(  46) = (   0.8525160   0.0000000   0.4093422  )
        47        Sn     tau(  47) = (   0.1025160   0.4330126   0.4093422  )
        48        Sn     tau(  48) = (   0.6025160   0.4330126   0.4093422  )
        49        S      tau(  49) = (  -0.0988203   0.2103164   0.9671149  )
        50        S      tau(  50) = (   0.4011797   0.2103164   0.9671149  )
        51        S      tau(  51) = (  -0.3488203   0.6433290   0.9671149  )
        52        S      tau(  52) = (   0.1511797   0.6433290   0.9671149  )
        53        S      tau(  53) = (   0.1172707   0.2422736   0.1484293  )
        54        S      tau(  54) = (   0.6172707   0.2422736   0.1484293  )
        55        S      tau(  55) = (  -0.1327293   0.6752862   0.1484293  )
        56        S      tau(  56) = (   0.3672707   0.6752862   0.1484293  )
        57        S      tau(  57) = (  -0.0184505   0.4134352   0.5577727  )
        58        S      tau(  58) = (   0.4815495   0.4134352   0.5577727  )
        59        S      tau(  59) = (  -0.2684506   0.8464478   0.5577727  )
        60        S      tau(  60) = (   0.2315494   0.8464478   0.5577727  )
        61        S      tau(  61) = (   0.2315495   0.0195774   0.2609129  )
        62        S      tau(  62) = (   0.7315495   0.0195774   0.2609129  )
        63        S      tau(  63) = (  -0.0184505   0.4525899   0.2609129  )
        64        S      tau(  64) = (   0.4815495   0.4525899   0.2609129  )
        65        S      tau(  65) = (   0.1511797   0.2226962   1.0795986  )
        66        S      tau(  66) = (   0.6511797   0.2226962   1.0795986  )
        67        S      tau(  67) = (  -0.0988203   0.6557088   1.0795986  )
        68        S      tau(  68) = (   0.4011797   0.6557088   1.0795986  )
        69        S      tau(  69) = (   0.3672707   0.1907390   0.6702552  )
        70        S      tau(  70) = (   0.8672707   0.1907390   0.6702552  )
        71        S      tau(  71) = (   0.1172707   0.6237516   0.6702552  )
        72        S      tau(  72) = (   0.6172707   0.6237516   0.6702552  )
        73        S      tau(  73) = (  -0.0296498   0.1532012   0.4035914  )
        74        S      tau(  74) = (   0.4703502   0.1532012   0.4035914  )
        75        S      tau(  75) = (  -0.2796498   0.5862137   0.4035914  )
        76        S      tau(  76) = (   0.2203502   0.5862137   0.4035914  )
        77        S      tau(  77) = (   0.1321490   0.3307341   0.8129336  )
        78        S      tau(  78) = (   0.6321490   0.3307341   0.8129336  )
        79        S      tau(  79) = (  -0.1178511   0.7637467   0.8129336  )
        80        S      tau(  80) = (   0.3821489   0.7637467   0.8129336  )
        81        S      tau(  81) = (  -0.1024985   0.3820894   1.2222770  )
        82        S      tau(  82) = (   0.3975015   0.3820894   1.2222770  )
        83        S      tau(  83) = (  -0.3524986   0.8151020   1.2222770  )
        84        S      tau(  84) = (   0.1475014   0.8151020   1.2222770  )
        85        S      tau(  85) = (   0.1475010   0.0509231   0.8244365  )
        86        S      tau(  86) = (   0.6475010   0.0509231   0.8244365  )
        87        S      tau(  87) = (  -0.1024990   0.4839357   0.8244365  )
        88        S      tau(  88) = (   0.3975010   0.4839357   0.8244365  )
        89        S      tau(  89) = (   0.2203497   0.2798114   0.4150943  )
        90        S      tau(  90) = (   0.7203497   0.2798114   0.4150943  )
        91        S      tau(  91) = (  -0.0296503   0.7128240   0.4150943  )
        92        S      tau(  92) = (   0.4703497   0.7128240   0.4150943  )
        93        S      tau(  93) = (   0.3821485   0.1022784   0.0057509  )
        94        S      tau(  94) = (   0.8821485   0.1022784   0.0057509  )
        95        S      tau(  95) = (   0.1321485   0.5352910   0.0057509  )
        96        S      tau(  96) = (   0.6321485   0.5352910   0.0057509  )

     number of k points=    14
                       cart. coord. in units 2pi/alat
        k(    1) = (   0.0000000   0.0000000   0.0000000), wk =   0.0740741
        k(    2) = (   0.0000000   0.0000000   0.2714379), wk =   0.1481481
        k(    3) = (   0.0000000   0.3849003   0.0000000), wk =   0.1481481
        k(    4) = (   0.0000000   0.3849003   0.2714379), wk =   0.1481481
        k(    5) = (   0.3333333   0.5773505   0.0000000), wk =   0.1481481
        k(    6) = (   0.3333333   0.5773505   0.2714379), wk =   0.1481481
        k(    7) = (  -0.3333333   0.1924501   0.0000000), wk =   0.1481481
        k(    8) = (   0.3333333   0.1924502   0.0000000), wk =   0.1481481
        k(    9) = (   0.0000000  -0.3849003   0.2714379), wk =   0.1481481
        k(   10) = (  -0.3333333   0.1924501   0.2714379), wk =   0.1481481
        k(   11) = (   0.3333333   0.1924502   0.2714379), wk =   0.1481481
        k(   12) = (  -0.3333333  -0.1924502   0.2714379), wk =   0.1481481
        k(   13) = (   0.3333333  -0.1924501   0.2714379), wk =   0.1481481
        k(   14) = (  -0.3333333  -0.5773505   0.2714379), wk =   0.1481481

     Dense  grid:  2619931 G-vectors     FFT dimensions: ( 180, 180, 216)

     Smooth grid:   926125 G-vectors     FFT dimensions: ( 120, 120, 150)

     Estimated max dynamical RAM per process >       1.07 GB

     Estimated total dynamical RAM >      33.54 GB

     Initial potential from superposition of free atoms

     starting charge     827.5884, renormalised to     840.0000

     negative rho (up, down):  7.777E-01 0.000E+00
     Starting wfcs are  672 randomized atomic wfcs
     Checking if some PAW data can be deallocated... 

     total cpu time spent up to now is       42.0 secs

     Self-consistent Calculation

     iteration #  1     ecut=    60.00 Ry     beta= 0.30
     Davidson diagonalization with overlap
     ethr =  1.00E-02,  avg # of iterations =  2.0

     negative rho (up, down):  7.747E-01 0.000E+00

     total cpu time spent up to now is      117.6 secs

     total energy              =   -9070.28977329 Ry
     estimated scf accuracy    <      21.97959682 Ry

     iteration #  2     ecut=    60.00 Ry     beta= 0.30
     Davidson diagonalization with overlap
     ethr =  2.62E-03,  avg # of iterations =  5.1

     negative rho (up, down):  7.752E-01 0.000E+00

     total cpu time spent up to now is      213.7 secs

     total energy              =   -9076.61701956 Ry
     estimated scf accuracy    <       8.24284335 Ry

     iteration #  3     ecut=    60.00 Ry     beta= 0.30
     Davidson diagonalization with overlap
     ethr =  9.81E-04,  avg # of iterations =  2.0

     negative rho (up, down):  7.804E-01 0.000E+00

     total cpu time spent up to now is      290.8 secs

     total energy              =   -9076.48786591 Ry
     estimated scf accuracy    <       1.63129082 Ry

     iteration #  4     ecut=    60.00 Ry     beta= 0.30
     Davidson diagonalization with overlap
     ethr =  1.94E-04,  avg # of iterations =  6.6

     negative rho (up, down):  7.829E-01 0.000E+00

     total cpu time spent up to now is      402.8 secs

     total energy              =   -9076.69809373 Ry
     estimated scf accuracy    <       2.08937830 Ry

     iteration #  5     ecut=    60.00 Ry     beta= 0.30
     Davidson diagonalization with overlap
     ethr =  1.94E-04,  avg # of iterations =  5.6

     negative rho (up, down):  7.883E-01 0.000E+00

     total cpu time spent up to now is      494.9 secs

     total energy              =   -9077.14356517 Ry
     estimated scf accuracy    <       0.15482498 Ry

     iteration #  6     ecut=    60.00 Ry     beta= 0.30
     Davidson diagonalization with overlap
     ethr =  1.84E-05,  avg # of iterations =  5.5

     negative rho (up, down):  7.903E-01 0.000E+00

     total cpu time spent up to now is      586.8 secs

     total energy              =   -9077.18358384 Ry
     estimated scf accuracy    <       0.01186131 Ry

     iteration #  7     ecut=    60.00 Ry     beta= 0.30
     Davidson diagonalization with overlap
     ethr =  1.41E-06,  avg # of iterations =  5.1

     negative rho (up, down):  7.907E-01 0.000E+00

     total cpu time spent up to now is      698.4 secs

     total energy              =   -9077.18777029 Ry
     estimated scf accuracy    <       0.00514676 Ry

     iteration #  8     ecut=    60.00 Ry     beta= 0.30
     Davidson diagonalization with overlap
     ethr =  6.13E-07,  avg # of iterations =  6.3

     negative rho (up, down):  7.911E-01 0.000E+00

     total cpu time spent up to now is      826.2 secs

     total energy              =   -9077.17986393 Ry
     estimated scf accuracy    <       0.04360369 Ry

     iteration #  9     ecut=    60.00 Ry     beta= 0.30
     Davidson diagonalization with overlap
     ethr =  6.13E-07,  avg # of iterations =  7.3

     negative rho (up, down):  7.911E-01 0.000E+00

     total cpu time spent up to now is      957.3 secs

     total energy              =   -9077.18734929 Ry
     estimated scf accuracy    <       0.00162309 Ry

     iteration # 10     ecut=    60.00 Ry     beta= 0.30
     Davidson diagonalization with overlap
     ethr =  1.93E-07,  avg # of iterations =  2.4

     negative rho (up, down):  7.907E-01 0.000E+00

     total cpu time spent up to now is     1034.9 secs

     total energy              =   -9077.18722766 Ry
     estimated scf accuracy    <       0.00050581 Ry

     iteration # 11     ecut=    60.00 Ry     beta= 0.30
     Davidson diagonalization with overlap
     ethr =  6.02E-08,  avg # of iterations =  5.2

     negative rho (up, down):  7.905E-01 0.000E+00

     total cpu time spent up to now is     1140.2 secs

     total energy              =   -9077.18740665 Ry
     estimated scf accuracy    <       0.00017224 Ry

     iteration # 12     ecut=    60.00 Ry     beta= 0.30
     Davidson diagonalization with overlap
     ethr =  2.05E-08,  avg # of iterations =  5.0

     negative rho (up, down):  7.904E-01 0.000E+00

     total cpu time spent up to now is     1231.1 secs

     total energy              =   -9077.18741960 Ry
     estimated scf accuracy    <       0.00006788 Ry

     iteration # 13     ecut=    60.00 Ry     beta= 0.30
     Davidson diagonalization with overlap
     ethr =  8.08E-09,  avg # of iterations =  4.2

     negative rho (up, down):  7.903E-01 0.000E+00

     total cpu time spent up to now is     1320.7 secs

     total energy              =   -9077.18742875 Ry
     estimated scf accuracy    <       0.00001251 Ry

     iteration # 14     ecut=    60.00 Ry     beta= 0.30
     Davidson diagonalization with overlap
     ethr =  1.49E-09,  avg # of iterations =  5.9

     negative rho (up, down):  7.902E-01 0.000E+00

     total cpu time spent up to now is     1411.5 secs

     total energy              =   -9077.18743121 Ry
     estimated scf accuracy    <       0.00000121 Ry

     iteration # 15     ecut=    60.00 Ry     beta= 0.30
     Davidson diagonalization with overlap
     ethr =  1.44E-10,  avg # of iterations =  5.5

     negative rho (up, down):  7.902E-01 0.000E+00

     total cpu time spent up to now is     1522.3 secs

     total energy              =   -9077.18743193 Ry
     estimated scf accuracy    <       0.00000023 Ry

     iteration # 16     ecut=    60.00 Ry     beta= 0.30
     Davidson diagonalization with overlap
     ethr =  2.79E-11,  avg # of iterations =  3.5

     negative rho (up, down):  7.902E-01 0.000E+00

     total cpu time spent up to now is     1628.1 secs

     total energy              =   -9077.18743198 Ry
     estimated scf accuracy    <       0.00000021 Ry

     iteration # 17     ecut=    60.00 Ry     beta= 0.30
     Davidson diagonalization with overlap
     ethr =  2.51E-11,  avg # of iterations =  5.6

     negative rho (up, down):  7.902E-01 0.000E+00

     total cpu time spent up to now is     1722.4 secs

     total energy              =   -9077.18743204 Ry
     estimated scf accuracy    <       0.00000004 Ry

     iteration # 18     ecut=    60.00 Ry     beta= 0.30
     Davidson diagonalization with overlap
     ethr =  4.25E-12,  avg # of iterations =  5.3

     negative rho (up, down):  7.902E-01 0.000E+00

     total cpu time spent up to now is     1831.2 secs

     total energy              =   -9077.18743206 Ry
     estimated scf accuracy    <       0.00000003 Ry

     iteration # 19     ecut=    60.00 Ry     beta= 0.30
     Davidson diagonalization with overlap
     ethr =  3.01E-12,  avg # of iterations =  3.9

     negative rho (up, down):  7.902E-01 0.000E+00

     total cpu time spent up to now is     1912.0 secs

     total energy              =   -9077.18743207 Ry
     estimated scf accuracy    <          6.6E-09 Ry

     iteration # 20     ecut=    60.00 Ry     beta= 0.30
     Davidson diagonalization with overlap
     ethr =  7.83E-13,  avg # of iterations =  7.1

     negative rho (up, down):  7.902E-01 0.000E+00

     total cpu time spent up to now is     2023.7 secs

     total energy              =   -9077.18743208 Ry
     estimated scf accuracy    <          3.9E-09 Ry

     iteration # 21     ecut=    60.00 Ry     beta= 0.30
     Davidson diagonalization with overlap
     ethr =  4.68E-13,  avg # of iterations =  2.1

     negative rho (up, down):  7.902E-01 0.000E+00

     total cpu time spent up to now is     2095.3 secs

     total energy              =   -9077.18743208 Ry
     estimated scf accuracy    <          1.5E-09 Ry

     iteration # 22     ecut=    60.00 Ry     beta= 0.30
     Davidson diagonalization with overlap
     ethr =  1.84E-13,  avg # of iterations =  7.2

     negative rho (up, down):  7.902E-01 0.000E+00

     total cpu time spent up to now is     2213.6 secs

     total energy              =   -9077.18743208 Ry
     estimated scf accuracy    <          2.2E-09 Ry

     iteration # 23     ecut=    60.00 Ry     beta= 0.30
     Davidson diagonalization with overlap
     ethr =  1.84E-13,  avg # of iterations =  2.6

     negative rho (up, down):  7.902E-01 0.000E+00

     total cpu time spent up to now is     2290.9 secs

     End of self-consistent calculation

          k = 0.0000 0.0000 0.0000 (115723 PWs)   bands (ev):

   -28.2764 -28.2757 -28.2757 -28.2757 -28.2756 -28.2755 -28.2755 -28.2754
   -28.2753 -28.2753 -28.2752 -28.2733 -14.9252 -14.9248 -14.9236 -14.9234
   -14.9233 -14.9232 -14.9228 -14.9226 -14.9225 -14.9222 -14.9218 -14.9194
   -14.9188 -14.9183 -14.9178 -14.9174 -14.9174 -14.9173 -14.9169 -14.9167
   -14.9166 -14.9160 -14.9159 -14.9128 -14.9071 -14.9067 -14.9057 -14.9054
   -14.9053 -14.9053 -14.9048 -14.9047 -14.9046 -14.9040 -14.9039 -14.9006
   -14.8670 -14.8667 -14.8654 -14.8652 -14.8651 -14.8651 -14.8646 -14.8645
   -14.8644 -14.8640 -14.8637 -14.8604 -14.8218 -14.8214 -14.8204 -14.8200
   -14.8199 -14.8199 -14.8194 -14.8193 -14.8192 -14.8185 -14.8185 -14.8154
   -10.3386 -10.3383 -10.3380 -10.3368 -10.3366 -10.3362 -10.3357 -10.3354
   -10.3348 -10.3310 -10.3304 -10.3241 -10.3092 -10.3088 -10.3088 -10.3044
   -10.3039 -10.3016 -10.3011 -10.3009 -10.2927 -10.2923 -10.2919 -10.2821
   -10.2709 -10.2705 -10.2699 -10.2653 -10.2649 -10.2645 -10.2629 -10.2625
   -10.2618 -10.2585 -10.2579 -10.2542  -6.8629  -6.5551  -6.5545  -6.4198
    -6.4165  -6.4133  -6.3017  -6.2999  -6.2954  -6.2194  -6.2179  -6.2166
    -5.9911  -5.9900  -5.9867  -5.8537  -5.8493  -5.8450  -5.7989  -5.7951
    -5.7938  -5.7374  -5.7363  -5.6234  -5.6182  -5.6170  -5.6162  -5.6133
    -5.6081  -5.6006  -5.5604  -5.5581  -5.5578  -5.5473  -5.5450  -5.5369
    -5.5172  -5.5154  -5.4321  -5.4305  -5.4285  -5.4256  -5.3729  -5.3697
    -5.3478  -5.3449  -5.3430  -5.2506  -0.6135  -0.6105  -0.6102  -0.3909
    -0.3885  -0.3858  -0.3506  -0.3177  -0.3147  -0.3124  -0.3014  -0.3004
     1.3819   1.3857   1.3874   1.5919   1.5928   1.6555   1.7137   1.7168
     1.7203   1.8037   1.8069   1.8094   2.0203   2.0411   2.0433   2.0805
     2.0846   2.0917   2.2466   2.2484   2.2489   2.3087   2.3115   2.4021
     2.4043   2.4049   2.4602   2.4609   2.4638   2.5467   2.5516   2.6574
     2.6630   2.6703   2.7834   2.7841   2.7877   2.8713   2.8732   2.9250
     2.9252   2.9281   2.9525   2.9544   2.9572   3.0262   3.0278   3.0307
     3.0434   3.0456   3.0471   3.1649   3.2125   3.2158   3.2183   3.2270
     3.2290   3.2550   3.2580   3.2657   3.3757   3.3770   3.3793   3.3930
     3.3962   3.4248   3.4280   3.4292   3.4343   3.4365   3.4422   3.4725
     3.4760   3.4772   3.4907   3.4949   3.4971   3.4990   3.5166   3.5182
     3.5835   3.5856   3.5873   3.6255   3.6269   3.6334   3.6878   3.6899
     3.6922   3.6931   3.6967   3.7095   3.7944   3.7962   3.8247   3.8268
     3.8287   3.9648   4.0203   4.0221   4.0240   4.0367   4.0377   4.0394
     4.1233   4.1253   4.1258   4.1325   4.1720   4.1738   4.1759   4.2022
     4.2081   4.2095   4.2141   4.2430   4.2456   4.2471   4.2815   4.2848
     4.4220   4.4249   4.4278   4.5174   4.5193   4.5219   4.5360   4.5370
     4.6191   4.6214   4.6243   4.8575   5.1247   5.1547   5.1569   5.1580
     5.1741   5.1748   5.1763   5.1783   5.1797   5.2233   5.2276   5.2280
     5.2294   5.2302   5.2312   5.2518   5.2529   5.2549   5.2655   5.2672
     5.2683   5.2784   5.2789   5.2801   5.3110   5.3116   5.3125   5.3136
     5.3157   5.3254   5.3374   5.3381   5.3404   5.3736   5.3763   5.3791
     5.4386   5.4394   5.4700   5.4718   5.4723   5.4755   5.4764   5.4788
     5.4809   5.4994   5.5005   5.6000   5.6020   5.6021   5.6182   5.6183
     5.6202   5.6276   5.6467   5.6476   5.6489   5.6581   5.6596   5.6603
     5.7254   5.7262   5.7436   5.7815   5.7826   5.7858   5.8178   5.8213
     5.8235   5.9021   5.9034   5.9039   5.9273   5.9284   5.9290   5.9963
     5.9968   6.0256   6.0276   6.0285   6.1491   6.1502   6.1509   6.1535
     6.2613   6.2617   6.2627   6.2633   6.2637   6.2648   6.2897   6.2902
     6.3335   6.3350   6.3368   6.3642   6.3647   6.3661   6.3885   6.3893
     6.3932   6.5517   6.5697   6.5710   6.5722   6.6368   6.6385   6.6420
     6.7470   6.7475   6.7500   6.7649   6.7668   6.7798   6.7818   6.7833
     6.8080   6.9636   7.1798   7.1811

          k = 0.0000 0.0000 0.2714 (115879 PWs)   bands (ev):

   -28.2764 -28.2757 -28.2757 -28.2757 -28.2756 -28.2755 -28.2755 -28.2754
   -28.2753 -28.2753 -28.2752 -28.2733 -14.9252 -14.9248 -14.9236 -14.9234
   -14.9233 -14.9232 -14.9228 -14.9226 -14.9225 -14.9222 -14.9218 -14.9194
   -14.9188 -14.9183 -14.9178 -14.9174 -14.9174 -14.9173 -14.9169 -14.9167
   -14.9166 -14.9160 -14.9159 -14.9128 -14.9071 -14.9067 -14.9057 -14.9054
   -14.9053 -14.9053 -14.9048 -14.9047 -14.9046 -14.9040 -14.9039 -14.9006
   -14.8670 -14.8667 -14.8654 -14.8652 -14.8651 -14.8651 -14.8646 -14.8645
   -14.8644 -14.8640 -14.8637 -14.8604 -14.8218 -14.8214 -14.8204 -14.8200
   -14.8199 -14.8199 -14.8194 -14.8193 -14.8192 -14.8185 -14.8185 -14.8154
   -10.3396 -10.3393 -10.3390 -10.3374 -10.3372 -10.3366 -10.3341 -10.3339
   -10.3334 -10.3322 -10.3279 -10.3252 -10.3121 -10.3077 -10.3074 -10.3072
   -10.3022 -10.3017 -10.3014 -10.2939 -10.2936 -10.2933 -10.2927 -10.2846
   -10.2703 -10.2700 -10.2694 -10.2660 -10.2655 -10.2652 -10.2623 -10.2620
   -10.2614 -10.2582 -10.2576 -10.2557  -6.8237  -6.7131  -6.4118  -6.4088
    -6.4077  -6.4047  -6.3067  -6.3039  -6.2999  -6.2321  -6.2301  -6.2287
    -5.9938  -5.9919  -5.9875  -5.8538  -5.8390  -5.8348  -5.8297  -5.7752
    -5.7725  -5.7716  -5.6598  -5.6558  -5.6532  -5.6519  -5.6168  -5.6127
    -5.6115  -5.6066  -5.5588  -5.5540  -5.5517  -5.5495  -5.5459  -5.5451
    -5.5355  -5.4536  -5.4367  -5.4346  -5.4332  -5.4311  -5.3738  -5.3450
    -5.3397  -5.3375  -5.3347  -5.2809  -0.6054  -0.6032  -0.6022  -0.4146
    -0.4116  -0.4093  -0.3481  -0.3325  -0.3026  -0.3006  -0.2973  -0.2742
     1.4069   1.4096   1.4114   1.5701   1.6120   1.6170   1.6189   1.6233
     1.6582   1.9324   1.9353   1.9396   2.0053   2.0467   2.0494   2.0530
     2.0590   2.0701   2.2750   2.2767   2.2772   2.3052   2.3864   2.3891
     2.3918   2.3926   2.4141   2.4166   2.4181   2.4567   2.6171   2.6229
     2.6289   2.6689   2.7192   2.7907   2.7974   2.7985   2.8030   2.8715
     2.8731   2.8755   2.9739   2.9758   2.9780   3.0435   3.0465   3.0513
     3.1046   3.1071   3.1107   3.1761   3.1986   3.2029   3.2055   3.2082
     3.2716   3.2740   3.2776   3.2864   3.3747   3.3828   3.3841   3.3860
     3.4176   3.4199   3.4221   3.4382   3.4403   3.4442   3.4465   3.4504
     3.4548   3.4783   3.4990   3.5159   3.5191   3.5213   3.5380   3.5444
     3.5500   3.5513   3.5542   3.6383   3.6436   3.6450   3.6473   3.6556
     3.6799   3.6811   3.6884   3.7727   3.8306   3.8754   3.8777   3.8790
     3.9094   3.9231   3.9944   3.9958   3.9996   4.0562   4.0575   4.0582
     4.0763   4.1155   4.1179   4.1245   4.1475   4.1486   4.1514   4.1665
     4.1703   4.1739   4.1753   4.2126   4.2500   4.2523   4.2540   4.2695
     4.4189   4.4221   4.4260   4.4844   4.5582   4.5612   4.5624   4.6044
     4.6070   4.6089   4.6772   4.8075   5.1360   5.1473   5.1543   5.1553
     5.1563   5.1645   5.1869   5.1881   5.1892   5.2163   5.2169   5.2177
     5.2197   5.2476   5.2491   5.2500   5.2585   5.2596   5.2604   5.2636
     5.2767   5.2771   5.2778   5.2799   5.3297   5.3302   5.3313   5.3329
     5.3343   5.3370   5.3414   5.3430   5.3445   5.3665   5.3738   5.3751
     5.3767   5.3908   5.4031   5.4198   5.4211   5.4237   5.5263   5.5327
     5.5332   5.5352   5.5827   5.5865   5.5893   5.5902   5.5907   5.6194
     5.6204   5.6220   5.6506   5.6518   5.6527   5.6615   5.6804   5.6821
     5.6843   5.7533   5.7549   5.7580   5.7908   5.7985   5.8149   5.8180
     5.8200   5.8714   5.8819   5.8836   5.8846   5.9879   5.9888   5.9900
     6.0415   6.0445   6.0449   6.0967   6.0982   6.0991   6.1750   6.1917
     6.1926   6.1955   6.2377   6.2677   6.2686   6.2709   6.3250   6.3258
     6.3267   6.3585   6.3596   6.3702   6.3715   6.3741   6.3948   6.4285
     6.4292   6.4330   6.4812   6.6397   6.6412   6.6418   6.6425   6.6440
     6.6474   6.6699   6.7086   6.7091   6.7112   6.7525   6.7533   6.7554
     6.9406   7.0053   7.0939   7.1705

          k = 0.0000 0.3849 0.0000 (115797 PWs)   bands (ev):

   -28.2764 -28.2757 -28.2757 -28.2757 -28.2755 -28.2755 -28.2755 -28.2754
   -28.2753 -28.2753 -28.2752 -28.2733 -14.9252 -14.9247 -14.9236 -14.9233
   -14.9233 -14.9233 -14.9228 -14.9226 -14.9224 -14.9222 -14.9218 -14.9193
   -14.9188 -14.9184 -14.9178 -14.9174 -14.9174 -14.9173 -14.9169 -14.9167
   -14.9166 -14.9160 -14.9159 -14.9128 -14.9071 -14.9067 -14.9057 -14.9054
   -14.9053 -14.9053 -14.9048 -14.9047 -14.9046 -14.9040 -14.9039 -14.9006
   -14.8670 -14.8667 -14.8654 -14.8652 -14.8651 -14.8651 -14.8646 -14.8645
   -14.8644 -14.8640 -14.8637 -14.8604 -14.8218 -14.8214 -14.8203 -14.8200
   -14.8199 -14.8199 -14.8194 -14.8193 -14.8192 -14.8185 -14.8185 -14.8154
   -10.3381 -10.3379 -10.3367 -10.3363 -10.3360 -10.3355 -10.3345 -10.3341
   -10.3327 -10.3322 -10.3315 -10.3265 -10.3073 -10.3071 -10.3062 -10.3042
   -10.3031 -10.3019 -10.3015 -10.3012 -10.2947 -10.2945 -10.2904 -10.2851
   -10.2698 -10.2692 -10.2690 -10.2669 -10.2662 -10.2636 -10.2628 -10.2626
   -10.2623 -10.2603 -10.2596 -10.2561  -6.7877  -6.5896  -6.4991  -6.4981
    -6.4409  -6.4347  -6.3653  -6.3489  -6.2859  -6.2827  -6.2499  -6.2455
    -5.9112  -5.9110  -5.8228  -5.8193  -5.8147  -5.7789  -5.7717  -5.7634
    -5.7320  -5.7241  -5.7214  -5.6940  -5.6853  -5.6475  -5.6398  -5.6349
    -5.6273  -5.5941  -5.5840  -5.5829  -5.5682  -5.5283  -5.5204  -5.5178
    -5.5156  -5.5026  -5.4623  -5.4517  -5.4360  -5.4347  -5.4194  -5.4137
    -5.3504  -5.3458  -5.3129  -5.2700  -0.5709  -0.5700  -0.5629  -0.4358
    -0.4045  -0.4019  -0.3768  -0.3413  -0.3382  -0.3324  -0.3118  -0.3025
     1.4184   1.4845   1.4901   1.5008   1.6400   1.6518   1.6889   1.7217
     1.7270   1.8291   1.8752   1.8796   1.9532   1.9561   1.9587   2.0279
     2.1155   2.2077   2.2284   2.2321   2.3394   2.3644   2.3832   2.3899
     2.3942   2.4086   2.4497   2.5367   2.5395   2.6090   2.6154   2.6210
     2.6574   2.7353   2.8114   2.8148   2.8216   2.8393   2.8414   2.8478
     2.8542   2.8847   2.9084   2.9096   2.9179   2.9620   2.9639   3.0044
     3.0503   3.0558   3.0586   3.1253   3.1494   3.1768   3.2045   3.2115
     3.2133   3.2346   3.2588   3.2658   3.2701   3.3226   3.3289   3.3345
     3.3432   3.3745   3.3944   3.3960   3.4339   3.4394   3.4422   3.4506
     3.4942   3.4995   3.5013   3.5091   3.5130   3.5139   3.5226   3.5431
     3.5620   3.6048   3.6064   3.6133   3.6346   3.6500   3.6792   3.6845
     3.6949   3.7013   3.7059   3.7131   3.7789   3.7835   3.8497   3.8594
     3.8968   3.9739   3.9755   3.9795   3.9821   4.0310   4.0387   4.0419
     4.0944   4.1120   4.1198   4.1243   4.1272   4.1635   4.1645   4.1794
     4.2488   4.2657   4.2704   4.2860   4.3035   4.3221   4.3257   4.3697
     4.3791   4.4139   4.4210   4.4846   4.5179   4.5286   4.5289   4.5300
     4.5905   4.5915   4.6286   4.7497   5.1437   5.1448   5.1480   5.1545
     5.1609   5.1628   5.1703   5.1748   5.2155   5.2196   5.2211   5.2229
     5.2293   5.2378   5.2493   5.2499   5.2514   5.2621   5.2684   5.2717
     5.2735   5.2897   5.3048   5.3064   5.3143   5.3199   5.3280   5.3285
     5.3370   5.3497   5.3529   5.3552   5.3581   5.3672   5.4141   5.4150
     5.4347   5.4509   5.4619   5.4633   5.4866   5.4934   5.5001   5.5006
     5.5038   5.5123   5.5282   5.5437   5.5567   5.5576   5.5612   5.6031
     5.6047   5.6306   5.6316   5.6324   5.6689   5.6778   5.6955   5.6964
     5.6986   5.7175   5.7294   5.7561   5.7742   5.7763   5.8079   5.8163
     5.8213   5.8633   5.8747   5.8785   5.9499   5.9519   5.9662   5.9670
     5.9907   6.0062   6.0075   6.0211   6.1375   6.1400   6.1443   6.1606
     6.2267   6.2296   6.2304   6.2515   6.2709   6.2886   6.2897   6.3001
     6.3608   6.3631   6.3772   6.3903   6.3916   6.4420   6.4853   6.4884
     6.5232   6.5381   6.5394   6.5751   6.6048   6.6509   6.6847   6.6920
     6.6935   6.7302   6.7375   6.7392   6.7628   6.7771   6.7931   6.8122
     6.8143   6.9045   6.9083   7.0803

          k = 0.0000 0.3849 0.2714 (115773 PWs)   bands (ev):

   -28.2764 -28.2757 -28.2757 -28.2757 -28.2755 -28.2755 -28.2755 -28.2754
   -28.2753 -28.2753 -28.2752 -28.2733 -14.9252 -14.9247 -14.9236 -14.9233
   -14.9233 -14.9233 -14.9228 -14.9226 -14.9224 -14.9222 -14.9218 -14.9193
   -14.9188 -14.9184 -14.9178 -14.9174 -14.9174 -14.9173 -14.9169 -14.9167
   -14.9166 -14.9160 -14.9159 -14.9128 -14.9071 -14.9067 -14.9057 -14.9054
   -14.9053 -14.9053 -14.9048 -14.9047 -14.9046 -14.9040 -14.9039 -14.9006
   -14.8670 -14.8667 -14.8654 -14.8652 -14.8651 -14.8651 -14.8646 -14.8645
   -14.8644 -14.8640 -14.8637 -14.8604 -14.8218 -14.8214 -14.8203 -14.8200
   -14.8199 -14.8199 -14.8194 -14.8193 -14.8192 -14.8185 -14.8185 -14.8154
   -10.3389 -10.3387 -10.3379 -10.3372 -10.3366 -10.3342 -10.3340 -10.3331
   -10.3329 -10.3318 -10.3298 -10.3272 -10.3104 -10.3067 -10.3064 -10.3059
   -10.3014 -10.3006 -10.3004 -10.2965 -10.2963 -10.2939 -10.2909 -10.2875
   -10.2699 -10.2692 -10.2683 -10.2670 -10.2662 -10.2640 -10.2626 -10.2623
   -10.2620 -10.2603 -10.2593 -10.2576  -6.7506  -6.6465  -6.5602  -6.4721
    -6.4255  -6.4185  -6.3639  -6.3296  -6.3267  -6.2588  -6.2261  -6.2213
    -5.9059  -5.9038  -5.8247  -5.8214  -5.8093  -5.8059  -5.7920  -5.7644
    -5.7553  -5.7312  -5.7144  -5.7069  -5.6715  -5.6358  -5.6314  -5.6276
    -5.6215  -5.6079  -5.6003  -5.5976  -5.5682  -5.5287  -5.5235  -5.5208
    -5.5179  -5.4942  -5.4676  -5.4327  -5.4281  -5.4266  -5.4235  -5.3618
    -5.3503  -5.3454  -5.3211  -5.2996  -0.5607  -0.5585  -0.5573  -0.4367
    -0.4340  -0.4255  -0.3931  -0.3728  -0.3211  -0.3153  -0.2984  -0.2787
     1.4334   1.4824   1.4867   1.4881   1.6249   1.6423   1.7679   1.7761
     1.7839   1.7926   1.7998   1.8020   1.9150   1.9954   1.9971   2.0772
     2.1550   2.2004   2.2115   2.2467   2.2496   2.3599   2.3921   2.3966
     2.3990   2.4478   2.5110   2.5140   2.5474   2.5863   2.5953   2.6092
     2.6433   2.7123   2.7609   2.7671   2.7721   2.7900   2.8089   2.8094
     2.8399   2.8742   2.9150   2.9173   2.9192   2.9811   3.0230   3.0265
     3.0686   3.1063   3.1079   3.1341   3.1709   3.1915   3.1934   3.1954
     3.2036   3.2327   3.2637   3.2676   3.2789   3.3163   3.3205   3.3235
     3.3283   3.3890   3.3904   3.4118   3.4439   3.4467   3.4638   3.4696
     3.4714   3.4754   3.4763   3.4803   3.5329   3.5358   3.5378   3.5917
     3.6097   3.6123   3.6182   3.6328   3.6438   3.6501   3.6586   3.6630
     3.6740   3.7087   3.7121   3.7150   3.8350   3.8400   3.8797   3.8898
     3.9047   3.9500   3.9516   3.9755   3.9833   4.0219   4.0467   4.0501
     4.0531   4.0660   4.1108   4.1128   4.1202   4.1324   4.1372   4.1490
     4.1929   4.2564   4.2666   4.2694   4.2865   4.2914   4.2986   4.3875
     4.3990   4.4363   4.4404   4.4689   4.5260   4.5264   4.5363   4.5961
     4.6100   4.6117   4.6238   4.7223   5.1509   5.1512   5.1557   5.1568
     5.1717   5.1769   5.1780   5.1843   5.1910   5.1985   5.2017   5.2084
     5.2087   5.2345   5.2355   5.2376   5.2555   5.2642   5.2660   5.2684
     5.2799   5.2980   5.3081   5.3132   5.3147   5.3294   5.3366   5.3407
     5.3586   5.3591   5.3613   5.3638   5.3811   5.3937   5.4073   5.4082
     5.4136   5.4321   5.4341   5.4449   5.4460   5.4929   5.5027   5.5033
     5.5103   5.5166   5.5537   5.5600   5.5745   5.5755   5.6021   5.6112
     5.6124   5.6186   5.6250   5.6263   5.6433   5.6709   5.6823   5.7138
     5.7158   5.7170   5.7342   5.7719   5.7727   5.7735   5.7993   5.8038
     5.8099   5.8590   5.8731   5.8775   5.8789   5.9148   5.9602   5.9607
     6.0338   6.0345   6.0359   6.0598   6.0776   6.0805   6.1729   6.2063
     6.2123   6.2138   6.2659   6.2669   6.2714   6.2780   6.2862   6.3476
     6.3506   6.3650   6.3735   6.4163   6.4242   6.4256   6.4276   6.4706
     6.4980   6.4994   6.5455   6.5600   6.5953   6.5974   6.6663   6.6672
     6.6773   6.7188   6.7363   6.7374   6.7486   6.8133   6.8164   6.8433
     6.8690   6.9285   6.9376   7.0515

          k = 0.3333 0.5774 0.0000 (115752 PWs)   bands (ev):

   -28.2764 -28.2757 -28.2757 -28.2757 -28.2755 -28.2755 -28.2755 -28.2754
   -28.2753 -28.2753 -28.2752 -28.2733 -14.9252 -14.9247 -14.9236 -14.9233
   -14.9233 -14.9233 -14.9227 -14.9226 -14.9225 -14.9222 -14.9218 -14.9193
   -14.9188 -14.9184 -14.9178 -14.9174 -14.9174 -14.9173 -14.9169 -14.9168
   -14.9166 -14.9160 -14.9159 -14.9128 -14.9071 -14.9067 -14.9057 -14.9054
   -14.9053 -14.9053 -14.9048 -14.9047 -14.9046 -14.9040 -14.9039 -14.9006
   -14.8670 -14.8667 -14.8654 -14.8652 -14.8651 -14.8651 -14.8646 -14.8645
   -14.8644 -14.8640 -14.8637 -14.8604 -14.8218 -14.8214 -14.8203 -14.8200
   -14.8199 -14.8199 -14.8194 -14.8193 -14.8192 -14.8185 -14.8185 -14.8154
   -10.3388 -10.3360 -10.3356 -10.3354 -10.3352 -10.3351 -10.3350 -10.3349
   -10.3339 -10.3305 -10.3303 -10.3297 -10.3072 -10.3051 -10.3049 -10.3044
   -10.3024 -10.3020 -10.3016 -10.3000 -10.2997 -10.2901 -10.2899 -10.2894
   -10.2696 -10.2676 -10.2671 -10.2668 -10.2662 -10.2656 -10.2643 -10.2642
   -10.2635 -10.2591 -10.2589 -10.2581  -6.6522  -6.6510  -6.6469  -6.4038
    -6.4000  -6.3989  -6.3987  -6.3968  -6.3923  -6.2929  -6.2910  -6.1925
    -5.8654  -5.8529  -5.8479  -5.7514  -5.7486  -5.7460  -5.7351  -5.7312
    -5.7303  -5.7092  -5.7073  -5.6963  -5.6946  -5.6916  -5.6859  -5.6839
    -5.6806  -5.6442  -5.5439  -5.5408  -5.5394  -5.5301  -5.5289  -5.5239
    -5.5105  -5.4740  -5.4726  -5.4690  -5.4679  -5.4651  -5.4600  -5.3976
    -5.3954  -5.3034  -5.3021  -5.2986  -0.5438  -0.5166  -0.5142  -0.5114
    -0.3966  -0.3952  -0.3936  -0.3894  -0.3866  -0.3103  -0.3092  -0.3078
     1.4824   1.4845   1.4853   1.6722   1.6755   1.6777   1.6850   1.6865
     1.6899   1.7328   1.7356   1.8004   2.0761   2.0813   2.0824   2.0837
     2.0890   2.1435   2.1451   2.1468   2.2552   2.3962   2.3968   2.4005
     2.4925   2.4956   2.4964   2.5620   2.5637   2.5663   2.5978   2.5988
     2.7707   2.7730   2.7785   2.8347   2.8385   2.8426   2.8435   2.8457
     2.8501   2.8510   2.8532   2.8637   2.8684   3.0075   3.0115   3.0145
     3.0250   3.0260   3.0271   3.0622   3.1335   3.1342   3.1374   3.1956
     3.1976   3.2013   3.2572   3.2594   3.2643   3.2704   3.2748   3.3608
     3.3690   3.3716   3.3723   3.3775   3.4241   3.4263   3.4302   3.4857
     3.4880   3.5002   3.5031   3.5040   3.5272   3.5299   3.5319   3.5474
     3.5491   3.5778   3.5803   3.5856   3.6492   3.6504   3.6562   3.7202
     3.7210   3.7245   3.7279   3.7371   3.7582   3.7999   3.8024   3.8041
     3.9589   3.9596   3.9617   3.9874   3.9895   4.0285   4.0296   4.0342
     4.0835   4.0852   4.0895   4.1413   4.1505   4.1516   4.1583   4.2851
     4.2871   4.2937   4.3160   4.3186   4.3201   4.3211   4.3215   4.3294
     4.3865   4.3875   4.3903   4.4973   4.5141   4.5159   4.5205   4.5216
     4.5235   4.6540   4.6549   4.6582   5.1385   5.1444   5.1448   5.1461
     5.1736   5.1750   5.1874   5.1885   5.1904   5.1968   5.1977   5.2004
     5.2470   5.2485   5.2489   5.2653   5.2666   5.2678   5.2982   5.2993
     5.3003   5.3016   5.3033   5.3049   5.3144   5.3187   5.3197   5.3215
     5.3401   5.3412   5.3436   5.4013   5.4038   5.4049   5.4089   5.4096
     5.4551   5.4561   5.4572   5.4591   5.4825   5.4840   5.4850   5.4885
     5.4901   5.5352   5.5359   5.5369   5.5638   5.5648   5.5666   5.5699
     5.5716   5.5733   5.6419   5.6716   5.6727   5.6942   5.6947   5.6955
     5.7068   5.7076   5.7086   5.7797   5.7804   5.7819   5.7983   5.7994
     5.8009   5.8236   5.8259   5.8439   5.9300   5.9316   5.9325   6.0457
     6.0469   6.0471   6.0486   6.0497   6.1371   6.1392   6.1411   6.1591
     6.2183   6.2194   6.2217   6.2591   6.2601   6.2606   6.2832   6.2848
     6.3745   6.4108   6.4113   6.4132   6.4164   6.4175   6.4240   6.4512
     6.4519   6.4532   6.6147   6.6158   6.6172   6.6739   6.6769   6.6782
     6.7258   6.7404   6.7430   6.8044   6.8063   6.8070   6.8100   6.8109
     6.8132   6.9375   6.9393   6.9403

          k = 0.3333 0.5774 0.2714 (115827 PWs)   bands (ev):

   -28.2764 -28.2757 -28.2757 -28.2757 -28.2755 -28.2755 -28.2755 -28.2754
   -28.2753 -28.2753 -28.2752 -28.2733 -14.9252 -14.9247 -14.9236 -14.9233
   -14.9233 -14.9233 -14.9227 -14.9226 -14.9225 -14.9222 -14.9218 -14.9193
   -14.9188 -14.9184 -14.9178 -14.9174 -14.9174 -14.9173 -14.9169 -14.9168
   -14.9166 -14.9160 -14.9159 -14.9128 -14.9071 -14.9067 -14.9057 -14.9054
   -14.9053 -14.9053 -14.9048 -14.9047 -14.9046 -14.9040 -14.9039 -14.9006
   -14.8670 -14.8667 -14.8654 -14.8652 -14.8651 -14.8651 -14.8646 -14.8645
   -14.8644 -14.8640 -14.8637 -14.8604 -14.8218 -14.8214 -14.8203 -14.8200
   -14.8199 -14.8199 -14.8194 -14.8193 -14.8192 -14.8185 -14.8185 -14.8154
   -10.3389 -10.3380 -10.3370 -10.3369 -10.3364 -10.3335 -10.3334 -10.3332
   -10.3324 -10.3306 -10.3304 -10.3297 -10.3079 -10.3078 -10.3073 -10.3048
   -10.3011 -10.3008 -10.2976 -10.2974 -10.2968 -10.2919 -10.2918 -10.2911
   -10.2697 -10.2687 -10.2669 -10.2666 -10.2661 -10.2643 -10.2640 -10.2636
   -10.2628 -10.2599 -10.2597 -10.2589  -6.6200  -6.6188  -6.6148  -6.5268
    -6.5254  -6.5210  -6.3080  -6.2921  -6.2897  -6.2849  -6.2577  -6.2135
    -5.8749  -5.8597  -5.8423  -5.7815  -5.7794  -5.7773  -5.7443  -5.7425
    -5.7388  -5.7156  -5.6912  -5.6876  -5.6857  -5.6750  -5.6729  -5.6702
    -5.6673  -5.6419  -5.5590  -5.5565  -5.5514  -5.5260  -5.5248  -5.5211
    -5.5067  -5.5040  -5.5030  -5.4934  -5.4593  -5.3998  -5.3978  -5.3941
    -5.3577  -5.3238  -5.3227  -5.3202  -0.5200  -0.5081  -0.5049  -0.5025
    -0.4604  -0.4196  -0.4162  -0.4139  -0.3546  -0.2938  -0.2922  -0.2905
     1.4798   1.4830   1.4839   1.6366   1.6386   1.6402   1.6893   1.7745
     1.7761   1.7771   1.7812   1.7941   1.9774   1.9821   1.9845   2.0563
     2.1671   2.1925   2.1941   2.1960   2.2501   2.3961   2.3971   2.3999
     2.4877   2.4901   2.4910   2.5574   2.5857   2.5881   2.5900   2.5936
     2.6805   2.7348   2.7371   2.7420   2.8208   2.8229   2.8247   2.8306
     2.9014   2.9020   2.9096   2.9243   2.9354   2.9528   2.9558   2.9591
     3.0598   3.0614   3.0634   3.0854   3.0875   3.0911   3.1268   3.1819
     3.2417   3.2452   3.2484   3.2689   3.2714   3.2793   3.3214   3.3256
     3.3279   3.3308   3.3749   3.4062   3.4214   3.4640   3.4656   3.4675
     3.4940   3.4989   3.5002   3.5020   3.5351   3.5374   3.5384   3.5412
     3.5619   3.6150   3.6164   3.6245   3.6533   3.6552   3.6604   3.6959
     3.6989   3.7016   3.7211   3.7472   3.8224   3.8409   3.8422   3.8430
     3.9381   3.9409   3.9412   3.9447   4.0282   4.0303   4.0330   4.0433
     4.0655   4.0680   4.0711   4.1085   4.1140   4.1150   4.1214   4.1699
     4.2724   4.2743   4.2762   4.2920   4.3149   4.3596   4.3618   4.3670
     4.4157   4.4174   4.4197   4.4934   4.4944   4.4958   4.5076   4.5135
     4.5647   4.6667   4.6674   4.6707   5.1493   5.1567   5.1578   5.1585
     5.1603   5.1828   5.1836   5.1850   5.1980   5.1991   5.2003   5.2116
     5.2248   5.2259   5.2268   5.2515   5.2523   5.2543   5.2590   5.2700
     5.3021   5.3030   5.3044   5.3089   5.3289   5.3292   5.3318   5.3682
     5.3687   5.3712   5.3754   5.3943   5.3958   5.4091   5.4096   5.4117
     5.4321   5.4337   5.4356   5.4389   5.4846   5.4855   5.4864   5.4929
     5.5380   5.5398   5.5403   5.5440   5.5663   5.5677   5.5688   5.6048
     5.6061   5.6072   5.6386   5.6399   5.6711   5.6727   5.6735   5.7031
     5.7044   5.7057   5.7167   5.7584   5.7596   5.7601   5.8007   5.8087
     5.8208   5.8236   5.8246   5.8260   5.8899   5.8908   5.8918   6.0567
     6.0585   6.0608   6.0624   6.0774   6.1194   6.1209   6.1220   6.1357
     6.1959   6.2362   6.2377   6.2406   6.2843   6.3013   6.3028   6.3036
     6.3072   6.3846   6.3861   6.3874   6.4504   6.4671   6.4685   6.4711
     6.4910   6.4926   6.5592   6.5604   6.5620   6.6468   6.6839   6.6849
     6.6862   6.7621   6.7767   6.7784   6.7794   6.7925   6.8535   6.8549
     6.8565   6.9350   6.9360   6.9377

          k =-0.3333 0.1925 0.0000 (115797 PWs)   bands (ev):

   -28.2764 -28.2757 -28.2757 -28.2757 -28.2755 -28.2755 -28.2755 -28.2754
   -28.2753 -28.2753 -28.2752 -28.2733 -14.9252 -14.9247 -14.9236 -14.9233
   -14.9233 -14.9233 -14.9227 -14.9226 -14.9225 -14.9222 -14.9218 -14.9193
   -14.9188 -14.9184 -14.9178 -14.9174 -14.9174 -14.9173 -14.9169 -14.9167
   -14.9166 -14.9160 -14.9159 -14.9128 -14.9071 -14.9067 -14.9057 -14.9054
   -14.9053 -14.9053 -14.9048 -14.9047 -14.9046 -14.9040 -14.9039 -14.9006
   -14.8670 -14.8667 -14.8654 -14.8652 -14.8651 -14.8651 -14.8646 -14.8645
   -14.8644 -14.8640 -14.8637 -14.8604 -14.8218 -14.8214 -14.8204 -14.8200
   -14.8199 -14.8199 -14.8194 -14.8193 -14.8192 -14.8185 -14.8185 -14.8154
   -10.3382 -10.3379 -10.3364 -10.3364 -10.3361 -10.3355 -10.3345 -10.3342
   -10.3328 -10.3322 -10.3316 -10.3265 -10.3074 -10.3071 -10.3062 -10.3041
   -10.3031 -10.3019 -10.3015 -10.3013 -10.2948 -10.2942 -10.2905 -10.2851
   -10.2696 -10.2694 -10.2690 -10.2668 -10.2663 -10.2635 -10.2632 -10.2626
   -10.2624 -10.2602 -10.2596 -10.2560  -6.7876  -6.5894  -6.4991  -6.4978
    -6.4386  -6.4379  -6.3648  -6.3486  -6.2856  -6.2839  -6.2485  -6.2477
    -5.9130  -5.9069  -5.8211  -5.8186  -5.8120  -5.7788  -5.7684  -5.7662
    -5.7320  -5.7251  -5.7231  -5.6912  -5.6894  -5.6474  -5.6408  -5.6371
    -5.6296  -5.5956  -5.5862  -5.5839  -5.5649  -5.5269  -5.5211  -5.5174
    -5.5136  -5.5024  -5.4599  -5.4516  -5.4380  -5.4345  -5.4219  -5.4117
    -5.3479  -5.3471  -5.3135  -5.2703  -0.5720  -0.5699  -0.5617  -0.4352
    -0.4045  -0.4029  -0.3763  -0.3386  -0.3374  -0.3361  -0.3118  -0.3027
     1.4171   1.4872   1.4890   1.5005   1.6386   1.6524   1.6886   1.7232
     1.7266   1.8302   1.8742   1.8779   1.9528   1.9561   1.9611   2.0300
     2.1164   2.2072   2.2288   2.2297   2.3392   2.3642   2.3859   2.3872
     2.3945   2.4085   2.4494   2.5374   2.5387   2.6115   2.6133   2.6171
     2.6561   2.7364   2.8125   2.8136   2.8262   2.8401   2.8429   2.8487
     2.8539   2.8839   2.9080   2.9096   2.9148   2.9609   2.9648   3.0054
     3.0502   3.0558   3.0602   3.1247   3.1494   3.1771   3.2037   3.2104
     3.2152   3.2346   3.2610   3.2635   3.2699   3.3238   3.3303   3.3313
     3.3417   3.3731   3.3906   3.3975   3.4329   3.4398   3.4439   3.4478
     3.4966   3.4993   3.5012   3.5101   3.5113   3.5161   3.5232   3.5421
     3.5618   3.6050   3.6107   3.6164   3.6366   3.6464   3.6786   3.6815
     3.6925   3.7032   3.7059   3.7137   3.7791   3.7820   3.8503   3.8621
     3.8965   3.9735   3.9759   3.9788   3.9822   4.0302   4.0385   4.0411
     4.0942   4.1125   4.1203   4.1229   4.1303   4.1627   4.1664   4.1799
     4.2477   4.2674   4.2681   4.2834   4.3042   4.3231   4.3258   4.3683
     4.3788   4.4158   4.4193   4.4842   4.5186   4.5272   4.5295   4.5317
     4.5892   4.5929   4.6278   4.7498   5.1433   5.1468   5.1485   5.1551
     5.1608   5.1620   5.1705   5.1753   5.2148   5.2201   5.2214   5.2224
     5.2290   5.2380   5.2489   5.2502   5.2521   5.2621   5.2691   5.2720
     5.2727   5.2901   5.3041   5.3054   5.3149   5.3192   5.3274   5.3296
     5.3376   5.3504   5.3517   5.3544   5.3589   5.3666   5.4137   5.4167
     5.4338   5.4513   5.4609   5.4626   5.4865   5.4933   5.4986   5.5013
     5.5031   5.5135   5.5280   5.5450   5.5570   5.5579   5.5615   5.6035
     5.6044   5.6298   5.6314   5.6342   5.6681   5.6765   5.6931   5.6961
     5.6970   5.7186   5.7305   5.7565   5.7747   5.7764   5.8079   5.8194
     5.8204   5.8643   5.8751   5.8756   5.9498   5.9529   5.9643   5.9672
     5.9908   6.0061   6.0082   6.0205   6.1379   6.1390   6.1456   6.1615
     6.2256   6.2293   6.2309   6.2516   6.2708   6.2881   6.2909   6.2991
     6.3612   6.3629   6.3782   6.3899   6.3929   6.4412   6.4854   6.4874
     6.5233   6.5368   6.5388   6.5773   6.6051   6.6512   6.6845   6.6918
     6.6942   6.7309   6.7371   6.7396   6.7631   6.7769   6.7925   6.8119
     6.8140   6.9037   6.9083   7.0803

          k = 0.3333 0.1925 0.0000 (115797 PWs)   bands (ev):

   -28.2764 -28.2757 -28.2757 -28.2757 -28.2756 -28.2755 -28.2755 -28.2754
   -28.2753 -28.2753 -28.2752 -28.2733 -14.9252 -14.9248 -14.9236 -14.9233
   -14.9233 -14.9232 -14.9227 -14.9226 -14.9225 -14.9222 -14.9218 -14.9193
   -14.9188 -14.9184 -14.9178 -14.9174 -14.9173 -14.9173 -14.9169 -14.9168
   -14.9166 -14.9160 -14.9159 -14.9128 -14.9071 -14.9067 -14.9057 -14.9054
   -14.9053 -14.9053 -14.9048 -14.9047 -14.9046 -14.9040 -14.9039 -14.9006
   -14.8670 -14.8667 -14.8654 -14.8652 -14.8651 -14.8651 -14.8646 -14.8645
   -14.8644 -14.8640 -14.8637 -14.8604 -14.8218 -14.8214 -14.8203 -14.8200
   -14.8199 -14.8199 -14.8194 -14.8193 -14.8192 -14.8185 -14.8185 -14.8154
   -10.3382 -10.3379 -10.3368 -10.3366 -10.3362 -10.3355 -10.3344 -10.3338
   -10.3326 -10.3323 -10.3315 -10.3265 -10.3074 -10.3069 -10.3062 -10.3044
   -10.3029 -10.3020 -10.3016 -10.3012 -10.2946 -10.2941 -10.2906 -10.2851
   -10.2698 -10.2695 -10.2687 -10.2668 -10.2666 -10.2639 -10.2627 -10.2625
   -10.2614 -10.2605 -10.2600 -10.2562  -6.7877  -6.5899  -6.4997  -6.4975
    -6.4393  -6.4354  -6.3658  -6.3485  -6.2863  -6.2826  -6.2491  -6.2464
    -5.9127  -5.9092  -5.8233  -5.8190  -5.8179  -5.7755  -5.7685  -5.7663
    -5.7325  -5.7237  -5.7219  -5.6913  -5.6875  -5.6494  -5.6386  -5.6350
    -5.6288  -5.5960  -5.5850  -5.5799  -5.5668  -5.5286  -5.5189  -5.5170
    -5.5150  -5.5033  -5.4612  -5.4502  -5.4389  -5.4355  -5.4210  -5.4132
    -5.3502  -5.3463  -5.3126  -5.2699  -0.5726  -0.5696  -0.5611  -0.4348
    -0.4049  -0.4031  -0.3769  -0.3384  -0.3373  -0.3347  -0.3125  -0.3032
     1.4202   1.4857   1.4882   1.5018   1.6405   1.6520   1.6876   1.7214
     1.7262   1.8256   1.8757   1.8804   1.9515   1.9547   1.9602   2.0282
     2.1163   2.2074   2.2299   2.2326   2.3386   2.3639   2.3855   2.3873
     2.3935   2.4099   2.4515   2.5365   2.5382   2.6123   2.6160   2.6182
     2.6596   2.7332   2.8125   2.8148   2.8194   2.8406   2.8424   2.8441
     2.8560   2.8875   2.9082   2.9103   2.9172   2.9610   2.9655   3.0049
     3.0518   3.0566   3.0590   3.1238   3.1485   3.1742   3.2051   3.2113
     3.2158   3.2342   3.2600   3.2616   3.2715   3.3248   3.3300   3.3322
     3.3375   3.3722   3.3947   3.4007   3.4334   3.4408   3.4460   3.4530
     3.4956   3.4986   3.5002   3.5080   3.5118   3.5140   3.5223   3.5430
     3.5630   3.6019   3.6054   3.6117   3.6361   3.6473   3.6796   3.6815
     3.6983   3.7028   3.7050   3.7171   3.7785   3.7804   3.8489   3.8604
     3.8955   3.9733   3.9767   3.9780   3.9847   4.0295   4.0387   4.0430
     4.0928   4.1122   4.1197   4.1221   4.1299   4.1629   4.1661   4.1801
     4.2503   4.2664   4.2682   4.2834   4.3044   4.3235   4.3253   4.3687
     4.3785   4.4162   4.4180   4.4834   4.5185   4.5280   4.5302   4.5319
     4.5893   4.5965   4.6255   4.7489   5.1443   5.1458   5.1475   5.1546
     5.1607   5.1620   5.1707   5.1764   5.2146   5.2185   5.2211   5.2240
     5.2291   5.2384   5.2490   5.2502   5.2508   5.2616   5.2674   5.2717
     5.2739   5.2899   5.3038   5.3061   5.3141   5.3195   5.3273   5.3291
     5.3387   5.3515   5.3537   5.3541   5.3579   5.3659   5.4132   5.4148
     5.4353   5.4513   5.4610   5.4624   5.4856   5.4952   5.5004   5.5017
     5.5034   5.5135   5.5279   5.5443   5.5558   5.5568   5.5620   5.6026
     5.6045   5.6300   5.6314   5.6330   5.6686   5.6794   5.6959   5.6963
     5.6974   5.7177   5.7290   5.7561   5.7748   5.7759   5.8085   5.8183
     5.8199   5.8634   5.8758   5.8764   5.9510   5.9523   5.9646   5.9659
     5.9901   6.0067   6.0075   6.0209   6.1392   6.1411   6.1445   6.1612
     6.2255   6.2297   6.2328   6.2510   6.2704   6.2884   6.2903   6.2999
     6.3607   6.3633   6.3786   6.3900   6.3908   6.4415   6.4849   6.4880
     6.5238   6.5364   6.5392   6.5755   6.6054   6.6505   6.6832   6.6927
     6.6962   6.7298   6.7371   6.7381   6.7620   6.7783   6.7940   6.8116
     6.8125   6.9051   6.9084   7.0807

          k = 0.0000-0.3849 0.2714 (115773 PWs)   bands (ev):

   -28.2764 -28.2757 -28.2757 -28.2757 -28.2755 -28.2755 -28.2755 -28.2754
   -28.2753 -28.2753 -28.2752 -28.2733 -14.9252 -14.9247 -14.9236 -14.9233
   -14.9233 -14.9233 -14.9228 -14.9226 -14.9224 -14.9222 -14.9218 -14.9193
   -14.9188 -14.9184 -14.9178 -14.9174 -14.9174 -14.9173 -14.9169 -14.9167
   -14.9166 -14.9160 -14.9159 -14.9128 -14.9071 -14.9067 -14.9057 -14.9054
   -14.9053 -14.9053 -14.9048 -14.9047 -14.9046 -14.9040 -14.9039 -14.9006
   -14.8670 -14.8667 -14.8654 -14.8652 -14.8651 -14.8651 -14.8646 -14.8645
   -14.8644 -14.8640 -14.8637 -14.8604 -14.8218 -14.8214 -14.8203 -14.8200
   -14.8199 -14.8199 -14.8194 -14.8193 -14.8192 -14.8185 -14.8185 -14.8154
   -10.3390 -10.3388 -10.3377 -10.3369 -10.3364 -10.3346 -10.3342 -10.3332
   -10.3330 -10.3313 -10.3297 -10.3274 -10.3101 -10.3080 -10.3052 -10.3050
   -10.3030 -10.3026 -10.2976 -10.2955 -10.2954 -10.2946 -10.2928 -10.2869
   -10.2694 -10.2688 -10.2686 -10.2676 -10.2669 -10.2630 -10.2623 -10.2622
   -10.2619 -10.2609 -10.2600 -10.2572  -6.7508  -6.6464  -6.5612  -6.4684
    -6.4224  -6.4152  -6.3633  -6.3409  -6.3386  -6.2656  -6.2124  -6.2076
    -5.9145  -5.9128  -5.8257  -5.8235  -5.8196  -5.8134  -5.7685  -5.7615
    -5.7527  -5.7322  -5.6871  -5.6816  -5.6787  -5.6632  -5.6476  -5.6398
    -5.6318  -5.6058  -5.5861  -5.5840  -5.5729  -5.5324  -5.5283  -5.5220
    -5.5160  -5.4865  -5.4632  -5.4390  -5.4364  -5.4349  -5.3990  -5.3703
    -5.3463  -5.3420  -5.3312  -5.2951  -0.5622  -0.5609  -0.5527  -0.4340
    -0.4294  -0.4267  -0.4103  -0.3603  -0.3244  -0.3185  -0.2895  -0.2831
     1.4046   1.4909   1.4969   1.5153   1.6128   1.7093   1.7146   1.7234
     1.7379   1.7733   1.8435   1.8469   1.9675   1.9862   2.0211   2.0240
     2.1297   2.1993   2.2081   2.2113   2.2853   2.3341   2.3969   2.4241
     2.4310   2.5185   2.5284   2.5321   2.5535   2.5572   2.5593   2.5640
     2.6002   2.6785   2.7619   2.7680   2.8213   2.8230   2.8271   2.8321
     2.8491   2.8567   2.8958   2.8978   2.9063   3.0077   3.0175   3.0206
     3.0760   3.0813   3.1170   3.1204   3.1351   3.1801   3.1823   3.1888
     3.2140   3.2468   3.2660   3.2836   3.2897   3.2958   3.3300   3.3352
     3.3743   3.3779   3.3790   3.3799   3.4425   3.4479   3.4510   3.4757
     3.4797   3.4854   3.5067   3.5195   3.5331   3.5359   3.5374   3.5593
     3.5855   3.5906   3.6119   3.6305   3.6397   3.6523   3.6811   3.6852
     3.6879   3.6960   3.7044   3.7110   3.8352   3.8408   3.8782   3.8810
     3.9416   3.9457   3.9464   3.9509   3.9736   4.0331   4.0547   4.0566
     4.0597   4.0640   4.1000   4.1042   4.1222   4.1247   4.1300   4.1357
     4.2259   4.2422   4.2667   4.2732   4.2924   4.2934   4.3139   4.3671
     4.3929   4.4332   4.4372   4.4817   4.5221   4.5458   4.5466   4.5861
     4.5952   4.5970   4.6329   4.7306   5.1475   5.1487   5.1538   5.1648
     5.1689   5.1694   5.1704   5.1741   5.2006   5.2058   5.2127   5.2187
     5.2199   5.2299   5.2415   5.2425   5.2610   5.2642   5.2655   5.2675
     5.2691   5.2741   5.3097   5.3110   5.3184   5.3343   5.3471   5.3491
     5.3593   5.3636   5.3640   5.3697   5.3708   5.3818   5.3891   5.3907
     5.4103   5.4344   5.4481   5.4516   5.4531   5.4696   5.4976   5.4984
     5.5175   5.5243   5.5557   5.5582   5.5686   5.5705   5.6024   5.6028
     5.6076   5.6211   5.6306   5.6501   5.6515   5.6607   5.6752   5.7089
     5.7097   5.7391   5.7587   5.7617   5.7705   5.7839   5.8032   5.8069
     5.8141   5.8393   5.8659   5.8695   5.8758   5.8945   5.9697   5.9707
     6.0195   6.0249   6.0263   6.0998   6.1022   6.1121   6.1599   6.1865
     6.2028   6.2034   6.2041   6.2630   6.2643   6.2888   6.3180   6.3432
     6.3554   6.3684   6.3694   6.4126   6.4182   6.4232   6.4514   6.4815
     6.4823   6.5077   6.5592   6.5665   6.6065   6.6086   6.6462   6.6664
     6.6695   6.7368   6.7385   6.7415   6.7483   6.8043   6.8063   6.8510
     6.8661   6.9175   6.9451   7.0387

          k =-0.3333 0.1925 0.2714 (115773 PWs)   bands (ev):

   -28.2764 -28.2757 -28.2757 -28.2757 -28.2755 -28.2755 -28.2755 -28.2754
   -28.2753 -28.2753 -28.2752 -28.2733 -14.9252 -14.9247 -14.9236 -14.9233
   -14.9233 -14.9233 -14.9227 -14.9226 -14.9225 -14.9222 -14.9218 -14.9193
   -14.9188 -14.9184 -14.9178 -14.9174 -14.9174 -14.9173 -14.9169 -14.9167
   -14.9166 -14.9160 -14.9159 -14.9128 -14.9071 -14.9067 -14.9057 -14.9054
   -14.9053 -14.9053 -14.9048 -14.9047 -14.9046 -14.9040 -14.9039 -14.9006
   -14.8670 -14.8667 -14.8654 -14.8652 -14.8651 -14.8651 -14.8646 -14.8645
   -14.8644 -14.8640 -14.8637 -14.8604 -14.8218 -14.8214 -14.8204 -14.8200
   -14.8199 -14.8199 -14.8194 -14.8193 -14.8192 -14.8185 -14.8185 -14.8154
   -10.3391 -10.3388 -10.3377 -10.3368 -10.3364 -10.3347 -10.3342 -10.3334
   -10.3329 -10.3313 -10.3297 -10.3274 -10.3101 -10.3080 -10.3053 -10.3049
   -10.3030 -10.3026 -10.2977 -10.2957 -10.2952 -10.2945 -10.2929 -10.2869
   -10.2692 -10.2690 -10.2686 -10.2675 -10.2670 -10.2629 -10.2626 -10.2622
   -10.2619 -10.2607 -10.2600 -10.2571  -6.7507  -6.6463  -6.5607  -6.4682
    -6.4196  -6.4187  -6.3636  -6.3414  -6.3395  -6.2649  -6.2113  -6.2091
    -5.9154  -5.9099  -5.8249  -5.8225  -5.8177  -5.8125  -5.7665  -5.7624
    -5.7548  -5.7335  -5.6862  -5.6823  -5.6804  -5.6641  -5.6431  -5.6408
    -5.6375  -5.6079  -5.5872  -5.5850  -5.5691  -5.5304  -5.5288  -5.5263
    -5.5137  -5.4833  -5.4645  -5.4404  -5.4372  -5.4324  -5.3990  -5.3697
    -5.3443  -5.3429  -5.3318  -5.2958  -0.5631  -0.5610  -0.5514  -0.4332
    -0.4295  -0.4277  -0.4097  -0.3603  -0.3221  -0.3212  -0.2896  -0.2831
     1.4035   1.4944   1.4957   1.5148   1.6123   1.7098   1.7131   1.7226
     1.7370   1.7746   1.8444   1.8491   1.9671   1.9876   2.0182   2.0246
     2.1305   2.1999   2.2081   2.2099   2.2862   2.3341   2.3958   2.4259
     2.4281   2.5187   2.5288   2.5304   2.5563   2.5581   2.5588   2.5613
     2.5994   2.6805   2.7635   2.7662   2.8231   2.8249   2.8255   2.8309
     2.8513   2.8531   2.8942   2.8978   2.9112   3.0059   3.0176   3.0204
     3.0771   3.0788   3.1178   3.1200   3.1345   3.1788   3.1824   3.1921
     3.2144   3.2441   3.2657   3.2853   3.2868   3.2964   3.3303   3.3340
     3.3743   3.3766   3.3788   3.3824   3.4456   3.4484   3.4499   3.4768
     3.4806   3.4849   3.5076   3.5177   3.5323   3.5357   3.5360   3.5595
     3.5863   3.5927   3.6114   3.6319   3.6406   3.6442   3.6831   3.6842
     3.6897   3.6968   3.7049   3.7120   3.8355   3.8391   3.8800   3.8810
     3.9418   3.9451   3.9469   3.9504   3.9727   4.0345   4.0540   4.0567
     4.0612   4.0646   4.0995   4.1033   4.1216   4.1243   4.1323   4.1365
     4.2243   4.2410   4.2683   4.2708   4.2921   4.2926   4.3152   4.3647
     4.3953   4.4342   4.4365   4.4820   4.5236   4.5441   4.5460   4.5856
     4.5941   4.5991   4.6324   4.7309   5.1474   5.1507   5.1538   5.1652
     5.1687   5.1696   5.1709   5.1734   5.2000   5.2058   5.2132   5.2185
     5.2220   5.2307   5.2414   5.2422   5.2605   5.2644   5.2649   5.2657
     5.2672   5.2747   5.3096   5.3118   5.3199   5.3344   5.3467   5.3476
     5.3607   5.3626   5.3643   5.3688   5.3713   5.3815   5.3893   5.3906
     5.4109   5.4338   5.4481   5.4523   5.4536   5.4692   5.4972   5.4990
     5.5170   5.5245   5.5552   5.5584   5.5685   5.5697   5.6025   5.6039
     5.6084   5.6197   5.6311   5.6499   5.6518   5.6598   5.6759   5.7061
     5.7098   5.7400   5.7592   5.7605   5.7711   5.7835   5.8045   5.8059
     5.8142   5.8410   5.8675   5.8685   5.8765   5.8937   5.9679   5.9699
     6.0204   6.0243   6.0257   6.1012   6.1027   6.1126   6.1589   6.1872
     6.2020   6.2041   6.2053   6.2627   6.2645   6.2884   6.3195   6.3423
     6.3539   6.3684   6.3713   6.4136   6.4194   6.4203   6.4511   6.4811
     6.4827   6.5081   6.5584   6.5674   6.6060   6.6077   6.6474   6.6667
     6.6683   6.7362   6.7399   6.7414   6.7478   6.8040   6.8059   6.8503
     6.8662   6.9180   6.9460   7.0388

          k = 0.3333 0.1925 0.2714 (115773 PWs)   bands (ev):

   -28.2764 -28.2757 -28.2757 -28.2757 -28.2756 -28.2755 -28.2755 -28.2754
   -28.2753 -28.2753 -28.2752 -28.2733 -14.9252 -14.9248 -14.9236 -14.9233
   -14.9233 -14.9232 -14.9227 -14.9226 -14.9225 -14.9222 -14.9218 -14.9193
   -14.9188 -14.9184 -14.9178 -14.9174 -14.9174 -14.9173 -14.9169 -14.9168
   -14.9166 -14.9160 -14.9159 -14.9128 -14.9071 -14.9067 -14.9057 -14.9054
   -14.9053 -14.9053 -14.9048 -14.9047 -14.9046 -14.9040 -14.9039 -14.9006
   -14.8670 -14.8667 -14.8654 -14.8652 -14.8651 -14.8651 -14.8646 -14.8645
   -14.8644 -14.8640 -14.8637 -14.8604 -14.8218 -14.8214 -14.8203 -14.8200
   -14.8199 -14.8199 -14.8194 -14.8193 -14.8192 -14.8185 -14.8185 -14.8154
   -10.3390 -10.3387 -10.3377 -10.3372 -10.3369 -10.3345 -10.3341 -10.3332
   -10.3326 -10.3315 -10.3295 -10.3275 -10.3101 -10.3079 -10.3054 -10.3050
   -10.3030 -10.3027 -10.2976 -10.2955 -10.2952 -10.2944 -10.2930 -10.2870
   -10.2695 -10.2691 -10.2684 -10.2675 -10.2671 -10.2631 -10.2622 -10.2620
   -10.2613 -10.2609 -10.2601 -10.2576  -6.7508  -6.6463  -6.5614  -6.4687
    -6.4201  -6.4166  -6.3638  -6.3423  -6.3368  -6.2652  -6.2114  -6.2093
    -5.9155  -5.9114  -5.8253  -5.8227  -5.8196  -5.8174  -5.7659  -5.7635
    -5.7511  -5.7349  -5.6843  -5.6819  -5.6787  -5.6620  -5.6422  -5.6398
    -5.6365  -5.6087  -5.5886  -5.5813  -5.5710  -5.5307  -5.5275  -5.5235
    -5.5147  -5.4855  -5.4652  -5.4409  -5.4386  -5.4353  -5.3985  -5.3685
    -5.3458  -5.3423  -5.3305  -5.2960  -0.5636  -0.5612  -0.5505  -0.4325
    -0.4298  -0.4271  -0.4109  -0.3609  -0.3228  -0.3193  -0.2904  -0.2831
     1.4064   1.4931   1.4944   1.5160   1.6116   1.7090   1.7136   1.7229
     1.7384   1.7728   1.8431   1.8477   1.9648   1.9854   2.0196   2.0262
     2.1303   2.1997   2.2078   2.2122   2.2861   2.3343   2.3965   2.4265
     2.4284   2.5195   2.5290   2.5304   2.5550   2.5585   2.5594   2.5619
     2.6009   2.6799   2.7638   2.7656   2.8240   2.8248   2.8264   2.8304
     2.8498   2.8535   2.8955   2.8981   2.9044   3.0093   3.0181   3.0243
     3.0761   3.0782   3.1178   3.1199   3.1337   3.1807   3.1832   3.1888
     3.2125   3.2485   3.2696   3.2848   3.2865   3.2957   3.3293   3.3324
     3.3721   3.3775   3.3793   3.3814   3.4465   3.4504   3.4529   3.4749
     3.4791   3.4828   3.5068   3.5197   3.5319   3.5348   3.5382   3.5586
     3.5862   3.5877   3.6127   3.6317   3.6402   3.6475   3.6831   3.6856
     3.6884   3.6992   3.7037   3.7085   3.8366   3.8377   3.8779   3.8823
     3.9417   3.9448   3.9468   3.9530   3.9717   4.0306   4.0537   4.0568
     4.0603   4.0647   4.0998   4.1044   4.1223   4.1252   4.1306   4.1404
     4.2243   4.2409   4.2684   4.2700   4.2901   4.2922   4.3154   4.3703
     4.3906   4.4352   4.4361   4.4814   4.5219   4.5453   4.5475   4.5859
     4.5951   4.6014   4.6307   4.7296   5.1482   5.1493   5.1534   5.1650
     5.1687   5.1692   5.1704   5.1749   5.2006   5.2051   5.2132   5.2186
     5.2195   5.2298   5.2406   5.2436   5.2613   5.2637   5.2654   5.2660
     5.2670   5.2743   5.3098   5.3129   5.3204   5.3352   5.3471   5.3483
     5.3613   5.3626   5.3643   5.3689   5.3702   5.3812   5.3886   5.3900
     5.4118   5.4336   5.4476   5.4513   5.4533   5.4696   5.4969   5.4984
     5.5184   5.5245   5.5565   5.5576   5.5668   5.5700   5.6019   5.6033
     5.6081   5.6209   5.6327   5.6492   5.6502   5.6616   5.6752   5.7073
     5.7095   5.7386   5.7602   5.7613   5.7702   5.7842   5.8043   5.8061
     5.8150   5.8409   5.8670   5.8687   5.8757   5.8948   5.9686   5.9695
     6.0187   6.0257   6.0271   6.1015   6.1029   6.1121   6.1598   6.1885
     6.2023   6.2032   6.2048   6.2631   6.2644   6.2873   6.3169   6.3427
     6.3560   6.3688   6.3703   6.4141   6.4180   6.4205   6.4518   6.4811
     6.4827   6.5073   6.5578   6.5666   6.6070   6.6083   6.6479   6.6663
     6.6683   6.7372   6.7380   6.7406   6.7488   6.8040   6.8051   6.8505
     6.8673   6.9177   6.9464   7.0386

          k =-0.3333-0.1925 0.2714 (115773 PWs)   bands (ev):

   -28.2764 -28.2757 -28.2757 -28.2757 -28.2756 -28.2755 -28.2755 -28.2754
   -28.2753 -28.2753 -28.2752 -28.2733 -14.9252 -14.9248 -14.9236 -14.9233
   -14.9233 -14.9232 -14.9227 -14.9226 -14.9225 -14.9222 -14.9218 -14.9193
   -14.9188 -14.9184 -14.9178 -14.9174 -14.9174 -14.9173 -14.9169 -14.9168
   -14.9166 -14.9160 -14.9159 -14.9128 -14.9071 -14.9067 -14.9057 -14.9054
   -14.9053 -14.9053 -14.9048 -14.9047 -14.9046 -14.9040 -14.9039 -14.9006
   -14.8670 -14.8667 -14.8654 -14.8652 -14.8651 -14.8651 -14.8646 -14.8645
   -14.8644 -14.8640 -14.8637 -14.8604 -14.8218 -14.8214 -14.8203 -14.8200
   -14.8199 -14.8199 -14.8194 -14.8193 -14.8192 -14.8185 -14.8185 -14.8154
   -10.3389 -10.3386 -10.3378 -10.3374 -10.3372 -10.3343 -10.3337 -10.3331
   -10.3323 -10.3322 -10.3297 -10.3273 -10.3104 -10.3068 -10.3065 -10.3058
   -10.3013 -10.3008 -10.3004 -10.2964 -10.2959 -10.2939 -10.2912 -10.2875
   -10.2699 -10.2696 -10.2678 -10.2669 -10.2667 -10.2643 -10.2625 -10.2622
   -10.2611 -10.2606 -10.2596 -10.2578  -6.7506  -6.6466  -6.5607  -6.4720
    -6.4232  -6.4201  -6.3640  -6.3302  -6.3255  -6.2588  -6.2251  -6.2231
    -5.9070  -5.9030  -5.8232  -5.8210  -5.8131  -5.8076  -5.7904  -5.7606
    -5.7578  -5.7312  -5.7110  -5.7082  -5.6713  -5.6371  -5.6295  -5.6286
    -5.6248  -5.6078  -5.6011  -5.5932  -5.5688  -5.5290  -5.5235  -5.5219
    -5.5158  -5.4955  -5.4667  -5.4341  -5.4297  -5.4272  -5.4195  -5.3637
    -5.3494  -5.3456  -5.3221  -5.2986  -0.5603  -0.5586  -0.5574  -0.4366
    -0.4342  -0.4240  -0.3938  -0.3736  -0.3195  -0.3161  -0.2990  -0.2790
     1.4346   1.4836   1.4861   1.4884   1.6270   1.6410   1.7710   1.7731
     1.7819   1.7887   1.7977   1.8046   1.9150   1.9920   1.9998   2.0760
     2.1560   2.2000   2.2114   2.2463   2.2533   2.3605   2.3931   2.3946
     2.3981   2.4489   2.5104   2.5129   2.5488   2.5904   2.5921   2.6108
     2.6439   2.7123   2.7591   2.7679   2.7697   2.7875   2.8091   2.8114
     2.8406   2.8755   2.9157   2.9172   2.9197   2.9832   3.0233   3.0289
     3.0681   3.1068   3.1083   3.1320   3.1703   3.1920   3.1943   3.1944
     3.2004   3.2324   3.2624   3.2650   3.2790   3.3185   3.3210   3.3224
     3.3264   3.3884   3.3922   3.4106   3.4439   3.4498   3.4678   3.4696
     3.4729   3.4743   3.4771   3.4800   3.5322   3.5346   3.5379   3.5919
     3.6105   3.6125   3.6194   3.6328   3.6423   3.6487   3.6572   3.6598
     3.6731   3.7099   3.7125   3.7170   3.8352   3.8378   3.8801   3.8901
     3.9036   3.9494   3.9553   3.9754   3.9823   4.0192   4.0464   4.0499
     4.0530   4.0652   4.1101   4.1120   4.1215   4.1328   4.1377   4.1541
     4.1926   4.2552   4.2663   4.2685   4.2885   4.2894   4.2964   4.3889
     4.3973   4.4382   4.4393   4.4681   4.5259   4.5272   4.5366   4.5970
     4.6099   4.6156   4.6215   4.7212   5.1514   5.1520   5.1550   5.1572
     5.1726   5.1766   5.1771   5.1845   5.1909   5.1989   5.2020   5.2070
     5.2113   5.2348   5.2353   5.2363   5.2555   5.2640   5.2656   5.2677
     5.2793   5.2991   5.3082   5.3129   5.3144   5.3297   5.3367   5.3379
     5.3582   5.3590   5.3612   5.3653   5.3812   5.3933   5.4063   5.4079
     5.4142   5.4332   5.4342   5.4449   5.4467   5.4924   5.5029   5.5035
     5.5097   5.5163   5.5543   5.5604   5.5736   5.5753   5.6042   5.6099
     5.6118   5.6208   5.6241   5.6264   5.6434   5.6709   5.6823   5.7139
     5.7149   5.7168   5.7331   5.7721   5.7734   5.7746   5.8018   5.8027
     5.8093   5.8591   5.8749   5.8759   5.8785   5.9147   5.9585   5.9596
     6.0347   6.0359   6.0368   6.0590   6.0793   6.0818   6.1727   6.2060
     6.2128   6.2134   6.2668   6.2678   6.2695   6.2770   6.2861   6.3476
     6.3492   6.3653   6.3727   6.4164   6.4235   6.4257   6.4283   6.4723
     6.4973   6.5002   6.5453   6.5602   6.5940   6.5964   6.6665   6.6701
     6.6766   6.7200   6.7365   6.7376   6.7474   6.8126   6.8141   6.8440
     6.8698   6.9287   6.9362   7.0527

          k = 0.3333-0.1925 0.2714 (115773 PWs)   bands (ev):

   -28.2764 -28.2757 -28.2757 -28.2757 -28.2755 -28.2755 -28.2755 -28.2754
   -28.2753 -28.2753 -28.2752 -28.2733 -14.9252 -14.9247 -14.9236 -14.9233
   -14.9233 -14.9233 -14.9227 -14.9226 -14.9225 -14.9222 -14.9218 -14.9193
   -14.9188 -14.9184 -14.9178 -14.9174 -14.9174 -14.9173 -14.9169 -14.9167
   -14.9166 -14.9160 -14.9159 -14.9128 -14.9071 -14.9067 -14.9057 -14.9054
   -14.9053 -14.9053 -14.9048 -14.9047 -14.9046 -14.9040 -14.9039 -14.9006
   -14.8670 -14.8667 -14.8654 -14.8652 -14.8651 -14.8651 -14.8646 -14.8645
   -14.8644 -14.8640 -14.8637 -14.8604 -14.8218 -14.8214 -14.8204 -14.8200
   -14.8199 -14.8199 -14.8194 -14.8193 -14.8192 -14.8185 -14.8185 -14.8154
   -10.3390 -10.3386 -10.3378 -10.3370 -10.3366 -10.3345 -10.3339 -10.3332
   -10.3329 -10.3318 -10.3298 -10.3272 -10.3104 -10.3067 -10.3065 -10.3059
   -10.3014 -10.3007 -10.3002 -10.2966 -10.2960 -10.2939 -10.2910 -10.2875
   -10.2698 -10.2692 -10.2685 -10.2668 -10.2663 -10.2639 -10.2629 -10.2624
   -10.2620 -10.2602 -10.2592 -10.2576  -6.7506  -6.6465  -6.5600  -6.4716
    -6.4226  -6.4223  -6.3638  -6.3297  -6.3277  -6.2584  -6.2256  -6.2225
    -5.9063  -5.9015  -5.8234  -5.8219  -5.8083  -5.8008  -5.7930  -5.7625
    -5.7587  -5.7332  -5.7115  -5.7094  -5.6723  -5.6364  -5.6304  -5.6281
    -5.6254  -5.6084  -5.6005  -5.5994  -5.5666  -5.5283  -5.5252  -5.5224
    -5.5143  -5.4965  -5.4653  -5.4323  -5.4296  -5.4244  -5.4217  -5.3631
    -5.3479  -5.3466  -5.3222  -5.2996  -0.5605  -0.5585  -0.5572  -0.4364
    -0.4348  -0.4248  -0.3928  -0.3729  -0.3188  -0.3180  -0.2984  -0.2788
     1.4319   1.4845   1.4860   1.4888   1.6245   1.6417   1.7720   1.7738
     1.7821   1.7909   1.7996   1.8026   1.9161   1.9931   2.0007   2.0805
     2.1572   2.2002   2.2106   2.2458   2.2474   2.3600   2.3929   2.3935
     2.3984   2.4498   2.5111   2.5128   2.5460   2.5890   2.5915   2.6071
     2.6438   2.7112   2.7631   2.7685   2.7714   2.7920   2.8086   2.8118
     2.8379   2.8736   2.9142   2.9170   2.9220   2.9822   3.0228   3.0254
     3.0680   3.1046   3.1103   3.1326   3.1734   3.1917   3.1939   3.1956
     3.2012   3.2332   3.2635   3.2682   3.2766   3.3168   3.3212   3.3221
     3.3278   3.3859   3.3908   3.4104   3.4456   3.4486   3.4675   3.4704
     3.4715   3.4751   3.4757   3.4800   3.5324   3.5361   3.5389   3.5924
     3.6090   3.6129   3.6156   3.6342   3.6414   3.6480   3.6591   3.6653
     3.6682   3.7101   3.7112   3.7212   3.8357   3.8378   3.8805   3.8900
     3.9050   3.9484   3.9523   3.9756   3.9827   4.0203   4.0483   4.0488
     4.0525   4.0705   4.1109   4.1137   4.1206   4.1340   4.1363   4.1472
     4.1909   4.2568   4.2671   4.2686   4.2889   4.2914   4.2961   4.3856
     4.4003   4.4370   4.4401   4.4690   4.5240   4.5256   4.5377   4.5967
     4.6093   4.6132   4.6237   4.7220   5.1502   5.1538   5.1556   5.1575
     5.1724   5.1762   5.1768   5.1838   5.1912   5.1985   5.2021   5.2085
     5.2104   5.2335   5.2352   5.2394   5.2555   5.2641   5.2662   5.2669
     5.2804   5.2988   5.3090   5.3134   5.3143   5.3295   5.3368   5.3375
     5.3578   5.3592   5.3608   5.3642   5.3805   5.3935   5.4071   5.4090
     5.4135   5.4318   5.4341   5.4453   5.4471   5.4928   5.5016   5.5044
     5.5096   5.5165   5.5541   5.5604   5.5746   5.5758   5.6019   5.6106
     5.6120   5.6194   5.6246   5.6270   5.6432   5.6706   5.6802   5.7123
     5.7142   5.7186   5.7351   5.7721   5.7729   5.7737   5.8017   5.8031
     5.8098   5.8592   5.8750   5.8762   5.8783   5.9155   5.9580   5.9602
     6.0334   6.0348   6.0361   6.0604   6.0787   6.0801   6.1737   6.2070
     6.2120   6.2151   6.2653   6.2670   6.2700   6.2780   6.2856   6.3492
     6.3507   6.3655   6.3714   6.4155   6.4233   6.4259   6.4271   6.4724
     6.4976   6.4994   6.5477   6.5597   6.5952   6.5974   6.6665   6.6681
     6.6770   6.7188   6.7356   6.7372   6.7480   6.8128   6.8153   6.8447
     6.8688   6.9281   6.9372   7.0518

          k =-0.3333-0.5774 0.2714 (115827 PWs)   bands (ev):

   -28.2764 -28.2757 -28.2757 -28.2757 -28.2755 -28.2755 -28.2755 -28.2754
   -28.2753 -28.2753 -28.2752 -28.2733 -14.9252 -14.9247 -14.9236 -14.9233
   -14.9233 -14.9233 -14.9227 -14.9226 -14.9225 -14.9222 -14.9218 -14.9193
   -14.9188 -14.9184 -14.9178 -14.9174 -14.9174 -14.9173 -14.9169 -14.9168
   -14.9166 -14.9160 -14.9159 -14.9128 -14.9071 -14.9067 -14.9057 -14.9054
   -14.9053 -14.9053 -14.9048 -14.9047 -14.9046 -14.9040 -14.9039 -14.9006
   -14.8670 -14.8667 -14.8654 -14.8652 -14.8651 -14.8651 -14.8646 -14.8645
   -14.8644 -14.8640 -14.8637 -14.8604 -14.8218 -14.8214 -14.8203 -14.8200
   -14.8199 -14.8199 -14.8194 -14.8193 -14.8192 -14.8185 -14.8185 -14.8154
   -10.3389 -10.3380 -10.3370 -10.3369 -10.3363 -10.3335 -10.3334 -10.3331
   -10.3327 -10.3306 -10.3303 -10.3297 -10.3080 -10.3078 -10.3072 -10.3048
   -10.3012 -10.3008 -10.2976 -10.2973 -10.2969 -10.2919 -10.2916 -10.2912
   -10.2697 -10.2687 -10.2669 -10.2666 -10.2663 -10.2642 -10.2639 -10.2636
   -10.2629 -10.2599 -10.2597 -10.2589  -6.6200  -6.6189  -6.6148  -6.5270
    -6.5253  -6.5210  -6.3083  -6.2920  -6.2897  -6.2849  -6.2565  -6.2146
    -5.8741  -5.8561  -5.8465  -5.7821  -5.7797  -5.7776  -5.7438  -5.7418
    -5.7391  -5.7158  -5.6906  -5.6882  -5.6850  -5.6749  -5.6720  -5.6711
    -5.6665  -5.6435  -5.5589  -5.5564  -5.5513  -5.5264  -5.5252  -5.5213
    -5.5066  -5.5035  -5.5024  -5.4949  -5.4572  -5.4003  -5.3979  -5.3944
    -5.3581  -5.3244  -5.3228  -5.3191  -0.5199  -0.5080  -0.5050  -0.5026
    -0.4606  -0.4193  -0.4165  -0.4138  -0.3545  -0.2938  -0.2923  -0.2905
     1.4803   1.4825   1.4839   1.6367   1.6382   1.6418   1.6902   1.7712
     1.7759   1.7769   1.7790   1.7962   1.9793   1.9816   1.9858   2.0548
     2.1734   2.1917   2.1940   2.1949   2.2444   2.3967   2.3981   2.4007
     2.4876   2.4896   2.4914   2.5581   2.5854   2.5882   2.5902   2.5944
     2.6786   2.7358   2.7373   2.7395   2.8213   2.8236   2.8249   2.8311
     2.8989   2.9024   2.9039   2.9248   2.9376   2.9550   2.9563   2.9605
     3.0585   3.0591   3.0627   3.0883   3.0889   3.0955   3.1268   3.1802
     3.2431   3.2446   3.2487   3.2678   3.2710   3.2762   3.3225   3.3267
     3.3274   3.3301   3.3738   3.4107   3.4206   3.4637   3.4657   3.4698
     3.4920   3.4971   3.4999   3.5021   3.5346   3.5368   3.5392   3.5426
     3.5602   3.6138   3.6173   3.6188   3.6544   3.6549   3.6617   3.6971
     3.6980   3.7051   3.7238   3.7442   3.8230   3.8403   3.8421   3.8448
     3.9385   3.9404   3.9415   3.9437   4.0275   4.0294   4.0323   4.0413
     4.0674   4.0686   4.0740   4.1103   4.1121   4.1146   4.1222   4.1697
     4.2722   4.2741   4.2759   4.2885   4.3160   4.3597   4.3618   4.3663
     4.4165   4.4171   4.4216   4.4925   4.4937   4.4963   4.5097   4.5129
     4.5641   4.6668   4.6673   4.6705   5.1497   5.1568   5.1579   5.1586
     5.1604   5.1826   5.1832   5.1847   5.1980   5.1989   5.2010   5.2127
     5.2248   5.2265   5.2274   5.2511   5.2520   5.2546   5.2578   5.2682
     5.3015   5.3023   5.3042   5.3105   5.3292   5.3297   5.3326   5.3680
     5.3692   5.3696   5.3756   5.3945   5.3966   5.4095   5.4098   5.4110
     5.4319   5.4345   5.4356   5.4398   5.4847   5.4850   5.4863   5.4917
     5.5387   5.5401   5.5408   5.5433   5.5663   5.5667   5.5676   5.6058
     5.6062   5.6070   5.6379   5.6399   5.6721   5.6729   5.6741   5.7032
     5.7037   5.7042   5.7175   5.7581   5.7601   5.7605   5.8015   5.8082
     5.8208   5.8236   5.8245   5.8249   5.8900   5.8911   5.8924   6.0569
     6.0599   6.0606   6.0634   6.0776   6.1188   6.1199   6.1214   6.1351
     6.1960   6.2373   6.2384   6.2390   6.2833   6.3007   6.3027   6.3050
     6.3071   6.3844   6.3863   6.3888   6.4505   6.4668   6.4685   6.4695
     6.4919   6.4930   6.5588   6.5592   6.5624   6.6453   6.6833   6.6859
     6.6868   6.7604   6.7776   6.7783   6.7789   6.7948   6.8542   6.8547
     6.8571   6.9344   6.9360   6.9373

     highest occupied level (ev):     7.1811

!    total energy              =   -9077.18743208 Ry
     estimated scf accuracy    <          4.8E-10 Ry

     The total energy is the sum of the following terms:
     one-electron contribution =   -2775.76331867 Ry
     hartree contribution      =    2019.64290557 Ry
     xc contribution           =   -2269.38313471 Ry
     ewald contribution        =   -3895.88805948 Ry
     one-center paw contrib.   =   -2155.79582478 Ry

     convergence has been achieved in  23 iterations

     negative rho (up, down):  7.902E-01 0.000E+00

     Forces acting on atoms (cartesian axes, Ry/au):

     atom    1 type  1   force =     0.00015013    0.00006428    0.00007915
     atom    2 type  1   force =    -0.00025603    0.00025092   -0.00000632
     atom    3 type  1   force =    -0.00016517    0.00032288    0.00001146
     atom    4 type  1   force =    -0.00016025    0.00027940   -0.00001335
     atom    5 type  1   force =    -0.00084874   -0.00025357   -0.00046269
     atom    6 type  1   force =    -0.00013382   -0.00034138    0.00019374
     atom    7 type  1   force =    -0.00018928   -0.00023752    0.00001308
     atom    8 type  1   force =    -0.00014150   -0.00021560   -0.00001303
     atom    9 type  1   force =     0.00030069   -0.00000027    0.00000253
     atom   10 type  1   force =     0.00032131    0.00001045    0.00000021
     atom   11 type  1   force =     0.00029902   -0.00001767    0.00002407
     atom   12 type  1   force =     0.00031052    0.00000629    0.00000253
     atom   13 type  2   force =     0.00275255   -0.00675931    0.00027125
     atom   14 type  2   force =     0.00015921   -0.00035875    0.00017829
     atom   15 type  2   force =     0.00020208   -0.00037034    0.00020427
     atom   16 type  2   force =     0.00019983   -0.00035576    0.00017031
     atom   17 type  2   force =     0.00022333    0.00035942    0.00019977
     atom   18 type  2   force =     0.00023142    0.00036664    0.00018514
     atom   19 type  2   force =     0.00022509    0.00038921    0.00019684
     atom   20 type  2   force =     0.00024007    0.00038385    0.00018932
     atom   21 type  2   force =    -0.00042426   -0.00000777    0.00018032
     atom   22 type  2   force =    -0.00044984    0.00004140    0.00018437
     atom   23 type  2   force =    -0.00045037    0.00003347    0.00022424
     atom   24 type  2   force =    -0.00043246    0.00002249    0.00018950
     atom   25 type  2   force =    -0.00044386   -0.00001932   -0.00018973
     atom   26 type  2   force =    -0.00043576    0.00010638   -0.00016876
     atom   27 type  2   force =    -0.00044154    0.00008734    0.00011213
     atom   28 type  2   force =    -0.00046442   -0.00002280   -0.00017527
     atom   29 type  2   force =    -0.00026535    0.00011413   -0.00010738
     atom   30 type  2   force =     0.00000407   -0.00003772   -0.00043930
     atom   31 type  2   force =     0.00021133    0.00040393   -0.00019063
     atom   32 type  2   force =     0.00019681    0.00040490   -0.00017827
     atom   33 type  2   force =     0.00023098   -0.00037317   -0.00018434
     atom   34 type  2   force =     0.00025352   -0.00037459   -0.00020257
     atom   35 type  2   force =     0.00023466   -0.00037012   -0.00018216
     atom   36 type  2   force =     0.00023130   -0.00036691   -0.00018912
     atom   37 type  3   force =     0.00040520   -0.00094541   -0.00028668
     atom   38 type  3   force =     0.00029409   -0.00048392   -0.00000324
     atom   39 type  3   force =     0.00026148   -0.00047022   -0.00000324
     atom   40 type  3   force =     0.00024667   -0.00043958    0.00005750
     atom   41 type  3   force =     0.00027300    0.00053044    0.00008082
     atom   42 type  3   force =     0.00025025    0.00037595   -0.00006655
     atom   43 type  3   force =     0.00029037    0.00045618    0.00001592
     atom   44 type  3   force =     0.00026308    0.00047642    0.00000129
     atom   45 type  3   force =    -0.00063413   -0.00011522   -0.00009817
     atom   46 type  3   force =     0.00021485    0.00095371    0.00003746
     atom   47 type  3   force =    -0.00028497   -0.00006676   -0.00057862
     atom   48 type  3   force =    -0.00092927    0.00059280   -0.00008362
     atom   49 type  4   force =     0.00032069   -0.00002853    0.00007442
     atom   50 type  4   force =     0.00034416   -0.00009095    0.00000801
     atom   51 type  4   force =     0.00035774   -0.00010943    0.00001351
     atom   52 type  4   force =     0.00035621   -0.00010588    0.00001032
     atom   53 type  4   force =    -0.00000594    0.00038657   -0.00009362
     atom   54 type  4   force =    -0.00004066    0.00047011    0.00017168
     atom   55 type  4   force =    -0.00009582    0.00034380   -0.00000556
     atom   56 type  4   force =    -0.00009301    0.00034644    0.00003481
     atom   57 type  4   force =     0.00095252    0.00197024    0.00114405
     atom   58 type  4   force =    -0.00017462   -0.00031482   -0.00001274
     atom   59 type  4   force =    -0.00019734   -0.00026832    0.00001387
     atom   60 type  4   force =    -0.00031582   -0.00028388   -0.00004049
     atom   61 type  4   force =    -0.00006591    0.00025450   -0.00001288
     atom   62 type  4   force =    -0.00030776    0.00022155    0.00000456
     atom   63 type  4   force =    -0.00025744    0.00029250   -0.00002356
     atom   64 type  4   force =    -0.00025728    0.00021348   -0.00003398
     atom   65 type  4   force =     0.00035843    0.00010266   -0.00005455
     atom   66 type  4   force =     0.00035281    0.00010956    0.00002780
     atom   67 type  4   force =     0.00035059    0.00010140   -0.00002981
     atom   68 type  4   force =     0.00035344    0.00009457   -0.00001551
     atom   69 type  4   force =    -0.00009136   -0.00035803   -0.00001478
     atom   70 type  4   force =    -0.00013397    0.00102628   -0.00141331
     atom   71 type  4   force =    -0.00007737   -0.00046207   -0.00008054
     atom   72 type  4   force =    -0.00007774   -0.00035127   -0.00002072
     atom   73 type  4   force =    -0.00182364    0.00251111    0.00185814
     atom   74 type  4   force =     0.00013527    0.00032341   -0.00023097
     atom   75 type  4   force =     0.00007190    0.00011426   -0.00021393
     atom   76 type  4   force =     0.00000043    0.00014389   -0.00021098
     atom   77 type  4   force =    -0.00016048   -0.00003526   -0.00028854
     atom   78 type  4   force =    -0.00005853   -0.00008129   -0.00022073
     atom   79 type  4   force =    -0.00014822   -0.00007099   -0.00025550
     atom   80 type  4   force =    -0.00014690   -0.00006882   -0.00024977
     atom   81 type  4   force =     0.00012195   -0.00007150   -0.00024601
     atom   82 type  4   force =     0.00013594   -0.00010039   -0.00024891
     atom   83 type  4   force =     0.00014386   -0.00009070   -0.00025158
     atom   84 type  4   force =     0.00012298   -0.00009110   -0.00025244
     atom   85 type  4   force =     0.00013989    0.00009008    0.00025199
     atom   86 type  4   force =     0.00008242    0.00002495    0.00024394
     atom   87 type  4   force =     0.00014855    0.00003211    0.00019462
     atom   88 type  4   force =     0.00014640    0.00007989    0.00022650
     atom   89 type  4   force =     0.00009935   -0.00013285    0.00028605
     atom   90 type  4   force =    -0.00189683   -0.00002205   -0.00072177
     atom   91 type  4   force =     0.00003100   -0.00018105    0.00026483
     atom   92 type  4   force =    -0.00007970   -0.00022216    0.00025835
     atom   93 type  4   force =    -0.00011011    0.00007927    0.00025005
     atom   94 type  4   force =    -0.00015009    0.00004564    0.00023372
     atom   95 type  4   force =    -0.00014107    0.00007506    0.00024093
     atom   96 type  4   force =    -0.00014482    0.00005885    0.00024859

     Total force =     0.009908     Total SCF correction =     0.000042
     Message from routine punch:
     Nothing written, as per user request (disk_io='none')

     init_run     :     39.20s CPU     41.59s WALL (       1 calls)
     electrons    :   2145.72s CPU   2248.99s WALL (       1 calls)
     forces       :     19.16s CPU     19.66s WALL (       1 calls)

     Called by init_run:
     wfcinit      :     35.51s CPU     37.61s WALL (       1 calls)
     potinit      :      1.15s CPU      1.19s WALL (       1 calls)
     hinit0       :      1.09s CPU      1.13s WALL (       1 calls)

     Called by electrons:
     c_bands      :   1900.36s CPU   1981.81s WALL (      23 calls)
     sum_band     :    216.92s CPU    233.50s WALL (      23 calls)
     v_of_rho     :      4.27s CPU      4.79s WALL (      24 calls)
     newd         :     18.38s CPU     23.15s WALL (      24 calls)
     PAW_pot      :      5.74s CPU      5.77s WALL (      24 calls)
     mix_rho      :      0.70s CPU      0.75s WALL (      23 calls)

     Called by c_bands:
     init_us_2    :     26.01s CPU     26.26s WALL (     336 calls)
     cegterg      :   1831.40s CPU   1912.28s WALL (     161 calls)

     Called by *egterg:
     cdiaghg      :     88.56s CPU     91.20s WALL (     961 calls)
     h_psi        :    995.17s CPU   1060.58s WALL (     968 calls)
     s_psi        :    238.38s CPU    240.33s WALL (     968 calls)
     g_psi        :      3.73s CPU      3.77s WALL (     800 calls)

     Called by h_psi:
     h_psi:calbec :    238.55s CPU    242.12s WALL (     968 calls)
     vloc_psi     :    512.40s CPU    569.16s WALL (     968 calls)
     add_vuspsi   :    239.16s CPU    241.07s WALL (     968 calls)

     General routines
     calbec       :    330.21s CPU    335.20s WALL (    1157 calls)
     fft          :      3.80s CPU      4.29s WALL (     321 calls)
     ffts         :      0.77s CPU      0.79s WALL (      47 calls)
     fftw         :    428.82s CPU    480.30s WALL (  465518 calls)
     interpolate  :      0.97s CPU      1.01s WALL (      24 calls)

     Parallel routines

     PWSCF        :  36m44.34s CPU  38m30.91s WALL


   This run was terminated on:   3: 5:36  21Aug2026            

=------------------------------------------------------------------------------=
   JOB DONE.
=------------------------------------------------------------------------------=
