
     Program PWSCF v.7.5 starts on  2Jul2026 at 12:41:49 
        Git branch: develop
        Last git commit: ea9b1b3d7915154c244e4a71786faaa0fdafa55c
        Last git commit date: Mon Mar 16 14:03:30 2026 +0000
        Last git commit subject: Merge branch 'dev_td_porting' into 'develop'

     This program is part of the open-source Quantum ESPRESSO suite
     for quantum simulation of materials; please cite
         "P. Giannozzi et al., J. Phys.:Condens. Matter 21 395502 (2009);
         "P. Giannozzi et al., J. Phys.:Condens. Matter 29 465901 (2017);
         "P. Giannozzi et al., J. Chem. Phys. 152 154105 (2020);
          URL http://www.quantum-espresso.org", 
     in publications or presentations arising from this work. More details at
     http://www.quantum-espresso.org/quote

     Parallel version (MPI), running on     4 processors

     MPI processes distributed on     1 nodes
     0 MiB available memory on the printing compute node when the environment starts

     Reading input from inputs/k_3x5x5.in
Warning: card &CELL ignored

     Current dimensions of program PWSCF are:
     Max number of different atomic species (ntypx) = 10
     Max number of k-points (npk) =  40000
     Max angular momentum in pseudopotentials (lmaxx) =  4
     file Cu.paw.z_11.ld1.psl.v1.0.0-low.upf: wavefunction(s)  4S 3D renormalized

     Exact exchange band parallelism type set to band_pairs

     Message from routine setup:
     using ibrav=0 with symmetry is DISCOURAGED, use correct ibrav instead

     R & G space division:  proc/nbgrp/npool/nimage =       4
     Subspace diagonalization in iterative solution of the eigenvalue problem:
     a serial algorithm will be used


     Parallelization info
     --------------------
     sticks:   dense  smooth     PW     G-vecs:    dense   smooth      PW
     Min        4595    2299    643               245750    86841   12877
     Max        4596    2300    644               245752    86842   12878
     Sum       18383    9197   2575               983005   347367   51511

     Using Slab Decomposition



     bravais-lattice index     =            0
     lattice parameter (alat)  =      17.9341  a.u.
     unit-cell volume          =    3012.5252 (a.u.)^3
     number of atoms/cell      =           18
     number of atomic types    =            4
     number of electrons       =       156.00
     number of Kohn-Sham states=           78
     kinetic-energy cutoff     =      90.0000  Ry
     charge density cutoff     =     720.0000  Ry
     scf convergence threshold =      1.0E-08
     mixing beta               =       0.3000
     number of iterations used =            8  plain     mixing
     Exchange-correlation= SLA  PW   PBE  PBE
                           (   1   4   3   4   0   0   0)

     celldm(1)=  17.934128  celldm(2)=   0.000000  celldm(3)=   0.000000
     celldm(4)=   0.000000  celldm(5)=   0.000000  celldm(6)=   0.000000

     crystal axes: (cart. coord. in units of alat)
               a(1) = (   0.972506   0.000000  -0.232877 )  
               a(2) = (  -0.131538   0.537029  -0.833245 )  
               a(3) = (   0.000000   0.000000   1.000000 )  

     reciprocal axes: (cart. coord. in units 2 pi/alat)
               b(1) = (  1.028271  0.251861 -0.000000 )  
               b(2) = ( -0.000000  1.862098  0.000000 )  
               b(3) = (  0.239461  1.610237  1.000000 )  


     PseudoPot. # 1 for Cu read from file:
     /Users/kaede/scientific-tools/pseudopotentials/SSSP/1.3.0/PBE/precision/Cu.paw.z_11.ld1.psl.v1.0.0-low.upf
     MD5 check sum: 619f40885d92a09a85a8b37550532d0c
     Pseudo is Projector augmented-wave + core cor, Zval = 11.0
     Generated using &quot;atomic&quot; code by A. Dal Corso  v.6.3MaX
     Shape of augmentation charge: PSQ
     Using radial grid of 1199 points,  6 beta functions with: 
                l(1) =   0
                l(2) =   0
                l(3) =   1
                l(4) =   1
                l(5) =   2
                l(6) =   2
     Q(r) pseudized with 0 coefficients 


     PseudoPot. # 2 for Rb read from file:
     /Users/kaede/scientific-tools/pseudopotentials/SSSP/1.3.0/PBE/precision/Rb_ONCV_PBE-1.0.oncvpsp.upf
     MD5 check sum: 55a5172d6bfbce6759a58e35d43f6aa9
     Pseudo is Norm-conserving, Zval =  9.0
     Generated using ONCVPSP code by D. R. Hamann
     Using radial grid of 2308 points,  6 beta functions with: 
                l(1) =   0
                l(2) =   0
                l(3) =   1
                l(4) =   1
                l(5) =   2
                l(6) =   2

     PseudoPot. # 3 for S  read from file:
     /Users/kaede/scientific-tools/pseudopotentials/SSSP/1.3.0/PBE/precision/s_pbe_v1.4.uspp.F.UPF
     MD5 check sum: 88d86576ff6df21479756cfb9bdac1df
     Pseudo is Ultrasoft + core correction, Zval =  6.0
     Generated by new atomic code, or converted to UPF format
     Using radial grid of  907 points,  6 beta functions with: 
                l(1) =   0
                l(2) =   0
                l(3) =   1
                l(4) =   1
                l(5) =   2
                l(6) =   2
     Q(r) pseudized with  8 coefficients,  rinner =    1.300   1.300   1.300
                                                       1.300   1.300

     PseudoPot. # 4 for Sn read from file:
     /Users/kaede/scientific-tools/pseudopotentials/SSSP/1.3.0/PBE/precision/Sn_pbe_v1.uspp.F.UPF
     MD5 check sum: 4cf58ce39ec5d5d420df3dd08604eb00
     Pseudo is Ultrasoft + core correction, Zval = 14.0
     Generated by new atomic code, or converted to UPF format
     Using radial grid of  891 points,  6 beta functions with: 
                l(1) =   0
                l(2) =   0
                l(3) =   1
                l(4) =   1
                l(5) =   2
                l(6) =   2
     Q(r) pseudized with  6 coefficients,  rinner =    1.200   1.200   1.200
                                                       1.200   1.200

     atomic species   valence    mass     pseudopotential
     Cu               11.00    63.54600     Cu( 1.00)
     Rb                9.00    85.46780     Rb( 1.00)
     S                 6.00    32.06500     S ( 1.00)
     Sn               14.00   118.71000     Sn( 1.00)

      2 Sym. Ops., with inversion, found


                                    s                        frac. trans.

      isym =  1     identity                                     

 cryst.   s( 1) = (     1          0          0      )
                  (     0          1          0      )
                  (     0          0          1      )

 cart.    s( 1) = (  1.0000000 -0.0000000  0.0000000 )
                  (  0.0000000  1.0000000  0.0000000 )
                  (  0.0000000  0.0000000  1.0000000 )


      isym =  2     inversion                                    

 cryst.   s( 2) = (    -1          0          0      )
                  (     0         -1          0      )
                  (     0          0         -1      )

 cart.    s( 2) = ( -1.0000000  0.0000000  0.0000000 )
                  (  0.0000000 -1.0000000  0.0000000 )
                  ( -0.0000000 -0.0000000 -1.0000000 )


   Cartesian axes

     site n.     atom                  positions (alat units)
         1        Rb     tau(   1) = (   0.0251088   0.3911465   0.2168349  )
         2        Rb     tau(   2) = (   0.8158597   0.1458822  -0.2829575  )
         3        Rb     tau(   3) = (   0.3353014   0.1226321   0.3262616  )
         4        Rb     tau(   4) = (   0.5056670   0.4143966  -0.3923843  )
         5        Cu     tau(   5) = (  -0.0747879   0.4027716  -0.3561089  )
         6        Cu     tau(   6) = (   0.9157564   0.1342572   0.2899862  )
         7        Cu     tau(   7) = (   0.3637345   0.4027716  -0.0101979  )
         8        Cu     tau(   8) = (   0.4772340   0.1342572  -0.0559248  )
         9        Sn     tau(   9) = (   0.2102421   0.1342572  -0.2665307  )
        10        Sn     tau(  10) = (   0.6307264   0.4027716  -0.7995920  )
        11        S      tau(  11) = (  -0.1047294   0.4936352  -0.1316011  )
        12        S      tau(  12) = (   0.9456979   0.0433935   0.0654784  )
        13        S      tau(  13) = (   0.2235010   0.2032369  -0.0189694  )
        14        S      tau(  14) = (   0.6174675   0.3337918  -0.0471533  )
        15        S      tau(  15) = (   0.4540847   0.0652775   0.6887123  )
        16        S      tau(  16) = (   0.3868838   0.4717513  -0.7548350  )
        17        S      tau(  17) = (   0.1365746   0.3119079  -0.4375099  )
        18        S      tau(  18) = (   0.7043939   0.2251208   0.3713873  )

   Crystallographic axes

     site n.     atom                  positions (cryst. coord.)
         1        Rb     tau(   1) = (  0.1243330  0.7283530  0.8526860  )
         2        Rb     tau(   2) = (  0.8756670  0.2716470  0.1473140  )
         3        Rb     tau(   3) = (  0.3756670  0.2283530  0.6040200  )
         4        Rb     tau(   4) = (  0.6243330  0.7716470  0.3959800  )
         5        Cu     tau(   5) = (  0.0245400  0.7500000  0.2745400  )
         6        Cu     tau(   6) = (  0.9754600  0.2500000  0.7254600  )
         7        Cu     tau(   7) = (  0.4754600  0.7500000  0.7254600  )
         8        Cu     tau(   8) = (  0.5245400  0.2500000  0.2745400  )
         9        Sn     tau(   9) = (  0.2500000  0.2500000 -0.0000000  )
        10        Sn     tau(  10) = (  0.7500000  0.7500000  0.0000000  )
        11        S      tau(  11) = (  0.0166370  0.9191970  0.6381900  )
        12        S      tau(  12) = (  0.9833630  0.0808030  0.3618100  )
        13        S      tau(  13) = (  0.2810070  0.3784470  0.3618100  )
        14        S      tau(  14) = (  0.7189930  0.6215530  0.6381900  )
        15        S      tau(  15) = (  0.4833630  0.1215530  0.9025600  )
        16        S      tau(  16) = (  0.5166370  0.8784470  0.0974400  )
        17        S      tau(  17) = (  0.2189930  0.5808030  0.0974400  )
        18        S      tau(  18) = (  0.7810070  0.4191970  0.9025600  )

     number of k points=    38
                       cart. coord. in units 2pi/alat
        k(    1) = (   0.0000000   0.0000000   0.0000000), wk =   0.0266667
        k(    2) = (   0.0478922   0.3220474   0.2000000), wk =   0.0533333
        k(    3) = (   0.0957844   0.6440948   0.4000000), wk =   0.0533333
        k(    4) = (   0.0000000   0.3724195   0.0000000), wk =   0.0533333
        k(    5) = (   0.0478922   0.6944669   0.2000000), wk =   0.0533333
        k(    6) = (   0.0957844   1.0165144   0.4000000), wk =   0.0533333
        k(    7) = (  -0.0957844  -0.2716753  -0.4000000), wk =   0.0533333
        k(    8) = (  -0.0478922   0.0503721  -0.2000000), wk =   0.0533333
        k(    9) = (   0.0000000   0.7448391   0.0000000), wk =   0.0533333
        k(   10) = (   0.0478922   1.0668865   0.2000000), wk =   0.0533333
        k(   11) = (   0.0957844   1.3889339   0.4000000), wk =   0.0533333
        k(   12) = (  -0.0957844   0.1007443  -0.4000000), wk =   0.0533333
        k(   13) = (  -0.0478922   0.4227917  -0.2000000), wk =   0.0533333
        k(   14) = (   0.3427570   0.0839535   0.0000000), wk =   0.0533333
        k(   15) = (   0.3906492   0.4060009   0.2000000), wk =   0.0533333
        k(   16) = (   0.4385414   0.7280483   0.4000000), wk =   0.0533333
        k(   17) = (   0.2469727  -0.5601413  -0.4000000), wk =   0.0533333
        k(   18) = (   0.2948649  -0.2380939  -0.2000000), wk =   0.0533333
        k(   19) = (   0.3427570   0.4563731   0.0000000), wk =   0.0533333
        k(   20) = (   0.3906492   0.7784205   0.2000000), wk =   0.0533333
        k(   21) = (   0.4385414   1.1004679   0.4000000), wk =   0.0533333
        k(   22) = (   0.2469727  -0.1877217  -0.4000000), wk =   0.0533333
        k(   23) = (   0.2948649   0.1343257  -0.2000000), wk =   0.0533333
        k(   24) = (   0.3427570   0.8287926   0.0000000), wk =   0.0533333
        k(   25) = (   0.3906492   1.1508400   0.2000000), wk =   0.0533333
        k(   26) = (   0.4385414   1.4728874   0.4000000), wk =   0.0533333
        k(   27) = (   0.2469727   0.1846978  -0.4000000), wk =   0.0533333
        k(   28) = (   0.2948649   0.5067452  -0.2000000), wk =   0.0533333
        k(   29) = (   0.3427570  -0.6608856   0.0000000), wk =   0.0533333
        k(   30) = (   0.3906492  -0.3388381   0.2000000), wk =   0.0533333
        k(   31) = (   0.4385414  -0.0167907   0.4000000), wk =   0.0533333
        k(   32) = (   0.2469727  -1.3049804  -0.4000000), wk =   0.0533333
        k(   33) = (   0.2948649  -0.9829330  -0.2000000), wk =   0.0533333
        k(   34) = (   0.3427570  -0.2884660   0.0000000), wk =   0.0533333
        k(   35) = (   0.3906492   0.0335814   0.2000000), wk =   0.0533333
        k(   36) = (   0.4385414   0.3556288   0.4000000), wk =   0.0533333
        k(   37) = (   0.2469727  -0.9325608  -0.4000000), wk =   0.0533333
        k(   38) = (   0.2948649  -0.6105134  -0.2000000), wk =   0.0533333

                       cryst. coord.
        k(    1) = (   0.0000000   0.0000000   0.0000000), wk =   0.0266667
        k(    2) = (  -0.0000000   0.0000000   0.2000000), wk =   0.0533333
        k(    3) = (  -0.0000000   0.0000000   0.4000000), wk =   0.0533333
        k(    4) = (   0.0000000   0.2000000   0.0000000), wk =   0.0533333
        k(    5) = (  -0.0000000   0.2000000   0.2000000), wk =   0.0533333
        k(    6) = (  -0.0000000   0.2000000   0.4000000), wk =   0.0533333
        k(    7) = (   0.0000000   0.2000000  -0.4000000), wk =   0.0533333
        k(    8) = (   0.0000000   0.2000000  -0.2000000), wk =   0.0533333
        k(    9) = (   0.0000000   0.4000000   0.0000000), wk =   0.0533333
        k(   10) = (  -0.0000000   0.4000000   0.2000000), wk =   0.0533333
        k(   11) = (  -0.0000000   0.4000000   0.4000000), wk =   0.0533333
        k(   12) = (   0.0000000   0.4000000  -0.4000000), wk =   0.0533333
        k(   13) = (   0.0000000   0.4000000  -0.2000000), wk =   0.0533333
        k(   14) = (   0.3333333  -0.0000000   0.0000000), wk =   0.0533333
        k(   15) = (   0.3333333   0.0000000   0.2000000), wk =   0.0533333
        k(   16) = (   0.3333333   0.0000000   0.4000000), wk =   0.0533333
        k(   17) = (   0.3333333   0.0000000  -0.4000000), wk =   0.0533333
        k(   18) = (   0.3333333  -0.0000000  -0.2000000), wk =   0.0533333
        k(   19) = (   0.3333333   0.2000000   0.0000000), wk =   0.0533333
        k(   20) = (   0.3333333   0.2000000   0.2000000), wk =   0.0533333
        k(   21) = (   0.3333333   0.2000000   0.4000000), wk =   0.0533333
        k(   22) = (   0.3333333   0.2000000  -0.4000000), wk =   0.0533333
        k(   23) = (   0.3333333   0.2000000  -0.2000000), wk =   0.0533333
        k(   24) = (   0.3333333   0.4000000   0.0000000), wk =   0.0533333
        k(   25) = (   0.3333333   0.4000000   0.2000000), wk =   0.0533333
        k(   26) = (   0.3333333   0.4000000   0.4000000), wk =   0.0533333
        k(   27) = (   0.3333333   0.4000000  -0.4000000), wk =   0.0533333
        k(   28) = (   0.3333333   0.4000000  -0.2000000), wk =   0.0533333
        k(   29) = (   0.3333333  -0.4000000   0.0000000), wk =   0.0533333
        k(   30) = (   0.3333333  -0.4000000   0.2000000), wk =   0.0533333
        k(   31) = (   0.3333333  -0.4000000   0.4000000), wk =   0.0533333
        k(   32) = (   0.3333333  -0.4000000  -0.4000000), wk =   0.0533333
        k(   33) = (   0.3333333  -0.4000000  -0.2000000), wk =   0.0533333
        k(   34) = (   0.3333333  -0.2000000   0.0000000), wk =   0.0533333
        k(   35) = (   0.3333333  -0.2000000   0.2000000), wk =   0.0533333
        k(   36) = (   0.3333333  -0.2000000   0.4000000), wk =   0.0533333
        k(   37) = (   0.3333333  -0.2000000  -0.4000000), wk =   0.0533333
        k(   38) = (   0.3333333  -0.2000000  -0.2000000), wk =   0.0533333

     Dense  grid:   983005 G-vectors     FFT dimensions: ( 160, 160, 160)

     Smooth grid:   347367 G-vectors     FFT dimensions: ( 120, 120, 120)

     Dynamical RAM for                 wfc:      12.92 MB

     Dynamical RAM for     wfc (w. buffer):     504.00 MB

     Dynamical RAM for           str. fact:      15.00 MB

     Dynamical RAM for           local pot:       0.00 MB

     Dynamical RAM for          nlocal pot:      53.68 MB

     Dynamical RAM for                qrad:       8.61 MB

     Dynamical RAM for          rho,v,vnew:      34.69 MB

     Dynamical RAM for               rhoin:      11.56 MB

     Dynamical RAM for            rho*nmix:      60.00 MB

     Dynamical RAM for           G-vectors:      14.72 MB

     Dynamical RAM for          h,s,v(r/c):       1.11 MB

     Dynamical RAM for          <psi|beta>:       0.39 MB

     Dynamical RAM for                 psi:      25.85 MB

     Dynamical RAM for                hpsi:      25.85 MB

     Dynamical RAM for                spsi:      25.85 MB

     Dynamical RAM for      wfcinit/wfcrot:      25.99 MB

     Dynamical RAM for           addusdens:     727.48 MB

     Dynamical RAM for         addusstress:     753.73 MB

     Estimated static dynamical RAM per process >     700.07 MB

     Estimated max dynamical RAM per process >       1.48 GB

     Estimated total dynamical RAM >       5.91 GB

     Initial potential from superposition of free atoms

     starting charge     153.8996, renormalised to     156.0000
     Starting wfcs are  106 randomized atomic wfcs
     Checking if some PAW data can be deallocated... 
       PAW data deallocated on    2 nodes for type:  1

     total cpu time spent up to now is       29.8 secs

     Self-consistent Calculation

     iteration #  1     ecut=    90.00 Ry     beta= 0.30
     Davidson diagonalization with overlap

---- Real-time Memory Report at c_bands before calling an iterative solver
             0 MiB given to the printing process from OS
             0 MiB allocation reported by mallinfo(arena+hblkhd)
             0 MiB available memory on the node where the printing process lives
------------------
     ethr =  1.00E-02,  avg # of iterations =  2.0

     total cpu time spent up to now is     1292.3 secs

     total energy              =   -1567.62101855 Ry
     estimated scf accuracy    <       2.30767120 Ry

     iteration #  2     ecut=    90.00 Ry     beta= 0.30
     Davidson diagonalization with overlap

---- Real-time Memory Report at c_bands before calling an iterative solver
             0 MiB given to the printing process from OS
             0 MiB allocation reported by mallinfo(arena+hblkhd)
             0 MiB available memory on the node where the printing process lives
------------------
     ethr =  1.48E-03,  avg # of iterations =  4.9

     total cpu time spent up to now is     1372.6 secs

     total energy              =   -1568.17184746 Ry
     estimated scf accuracy    <       0.70313966 Ry

     iteration #  3     ecut=    90.00 Ry     beta= 0.30
     Davidson diagonalization with overlap

---- Real-time Memory Report at c_bands before calling an iterative solver
             0 MiB given to the printing process from OS
             0 MiB allocation reported by mallinfo(arena+hblkhd)
             0 MiB available memory on the node where the printing process lives
------------------
     ethr =  4.51E-04,  avg # of iterations =  2.0

     total cpu time spent up to now is     3366.7 secs

     total energy              =   -1568.18673955 Ry
     estimated scf accuracy    <       0.11937703 Ry

     iteration #  4     ecut=    90.00 Ry     beta= 0.30
     Davidson diagonalization with overlap

---- Real-time Memory Report at c_bands before calling an iterative solver
             0 MiB given to the printing process from OS
             0 MiB allocation reported by mallinfo(arena+hblkhd)
             0 MiB available memory on the node where the printing process lives
------------------
     ethr =  7.65E-05,  avg # of iterations =  5.8

     total cpu time spent up to now is     5025.1 secs

     total energy              =   -1568.20839364 Ry
     estimated scf accuracy    <       0.18547919 Ry

     iteration #  5     ecut=    90.00 Ry     beta= 0.30
     Davidson diagonalization with overlap

---- Real-time Memory Report at c_bands before calling an iterative solver
             0 MiB given to the printing process from OS
             0 MiB allocation reported by mallinfo(arena+hblkhd)
             0 MiB available memory on the node where the printing process lives
------------------
     ethr =  7.65E-05,  avg # of iterations =  3.9

     total cpu time spent up to now is     6077.9 secs

     total energy              =   -1568.23530299 Ry
     estimated scf accuracy    <       0.00810861 Ry

     iteration #  6     ecut=    90.00 Ry     beta= 0.30
     Davidson diagonalization with overlap

---- Real-time Memory Report at c_bands before calling an iterative solver
             0 MiB given to the printing process from OS
             0 MiB allocation reported by mallinfo(arena+hblkhd)
             0 MiB available memory on the node where the printing process lives
------------------
     ethr =  5.20E-06,  avg # of iterations =  4.8

     total cpu time spent up to now is     7059.3 secs

     total energy              =   -1568.23707192 Ry
     estimated scf accuracy    <       0.00281766 Ry

     iteration #  7     ecut=    90.00 Ry     beta= 0.30
     Davidson diagonalization with overlap

---- Real-time Memory Report at c_bands before calling an iterative solver
             0 MiB given to the printing process from OS
             0 MiB allocation reported by mallinfo(arena+hblkhd)
             0 MiB available memory on the node where the printing process lives
------------------
     ethr =  1.81E-06,  avg # of iterations =  5.8

     total cpu time spent up to now is     8640.0 secs

     total energy              =   -1568.23782306 Ry
     estimated scf accuracy    <       0.00947267 Ry

     iteration #  8     ecut=    90.00 Ry     beta= 0.30
     Davidson diagonalization with overlap

---- Real-time Memory Report at c_bands before calling an iterative solver
             0 MiB given to the printing process from OS
             0 MiB allocation reported by mallinfo(arena+hblkhd)
             0 MiB available memory on the node where the printing process lives
------------------
     ethr =  1.81E-06,  avg # of iterations =  2.1

     total cpu time spent up to now is    10662.9 secs

     total energy              =   -1568.23724023 Ry
     estimated scf accuracy    <       0.00311727 Ry

     iteration #  9     ecut=    90.00 Ry     beta= 0.30
     Davidson diagonalization with overlap

---- Real-time Memory Report at c_bands before calling an iterative solver
             0 MiB given to the printing process from OS
             0 MiB allocation reported by mallinfo(arena+hblkhd)
             0 MiB available memory on the node where the printing process lives
------------------
     ethr =  1.81E-06,  avg # of iterations =  4.7

     total cpu time spent up to now is    11330.8 secs

     total energy              =   -1568.23790407 Ry
     estimated scf accuracy    <       0.00014942 Ry

     iteration # 10     ecut=    90.00 Ry     beta= 0.30
     Davidson diagonalization with overlap

---- Real-time Memory Report at c_bands before calling an iterative solver
             0 MiB given to the printing process from OS
             0 MiB allocation reported by mallinfo(arena+hblkhd)
             0 MiB available memory on the node where the printing process lives
------------------
     ethr =  9.58E-08,  avg # of iterations =  4.6

     total cpu time spent up to now is    12311.7 secs

     total energy              =   -1568.23793143 Ry
     estimated scf accuracy    <       0.00005924 Ry

     iteration # 11     ecut=    90.00 Ry     beta= 0.30
     Davidson diagonalization with overlap

---- Real-time Memory Report at c_bands before calling an iterative solver
             0 MiB given to the printing process from OS
             0 MiB allocation reported by mallinfo(arena+hblkhd)
             0 MiB available memory on the node where the printing process lives
------------------
     ethr =  3.80E-08,  avg # of iterations =  4.4

     total cpu time spent up to now is    14361.1 secs

     total energy              =   -1568.23794870 Ry
     estimated scf accuracy    <       0.00000739 Ry

     iteration # 12     ecut=    90.00 Ry     beta= 0.30
     Davidson diagonalization with overlap

---- Real-time Memory Report at c_bands before calling an iterative solver
             0 MiB given to the printing process from OS
             0 MiB allocation reported by mallinfo(arena+hblkhd)
             0 MiB available memory on the node where the printing process lives
------------------
     ethr =  4.74E-09,  avg # of iterations =  3.6

     total cpu time spent up to now is    16005.9 secs

     total energy              =   -1568.23795094 Ry
     estimated scf accuracy    <       0.00000075 Ry

     iteration # 13     ecut=    90.00 Ry     beta= 0.30
     Davidson diagonalization with overlap

---- Real-time Memory Report at c_bands before calling an iterative solver
             0 MiB given to the printing process from OS
             0 MiB allocation reported by mallinfo(arena+hblkhd)
             0 MiB available memory on the node where the printing process lives
------------------
     ethr =  4.80E-10,  avg # of iterations =  6.3

     total cpu time spent up to now is    16715.3 secs

     total energy              =   -1568.23795170 Ry
     estimated scf accuracy    <       0.00000404 Ry

     iteration # 14     ecut=    90.00 Ry     beta= 0.30
     Davidson diagonalization with overlap

---- Real-time Memory Report at c_bands before calling an iterative solver
             0 MiB given to the printing process from OS
             0 MiB allocation reported by mallinfo(arena+hblkhd)
             0 MiB available memory on the node where the printing process lives
------------------
     ethr =  4.80E-10,  avg # of iterations =  4.7

     total cpu time spent up to now is    18653.1 secs

     total energy              =   -1568.23795231 Ry
     estimated scf accuracy    <       0.00000023 Ry

     iteration # 15     ecut=    90.00 Ry     beta= 0.30
     Davidson diagonalization with overlap

---- Real-time Memory Report at c_bands before calling an iterative solver
             0 MiB given to the printing process from OS
             0 MiB allocation reported by mallinfo(arena+hblkhd)
             0 MiB available memory on the node where the printing process lives
------------------
     ethr =  1.46E-10,  avg # of iterations =  2.3

     total cpu time spent up to now is    19689.0 secs

     total energy              =   -1568.23795245 Ry
     estimated scf accuracy    <       0.00000005 Ry

     iteration # 16     ecut=    90.00 Ry     beta= 0.30
     Davidson diagonalization with overlap

---- Real-time Memory Report at c_bands before calling an iterative solver
             0 MiB given to the printing process from OS
             0 MiB allocation reported by mallinfo(arena+hblkhd)
             0 MiB available memory on the node where the printing process lives
------------------
     ethr =  3.25E-11,  avg # of iterations =  4.8

     total cpu time spent up to now is    21708.0 secs

     End of self-consistent calculation

          k = 0.0000 0.0000 0.0000 ( 43377 PWs)   bands (ev):

   -20.7045 -20.6790 -20.6750 -20.6498 -15.6638 -15.6638 -15.6544 -15.6543
   -15.6486 -15.6485 -15.5880 -15.5880 -15.5733 -15.5730  -7.2342  -6.9051
    -6.5753  -6.2546  -6.0862  -6.0829  -6.0828  -5.8511  -5.0693  -4.9924
    -4.8279  -4.8225  -4.7664  -4.7532  -4.7132  -4.7128  -4.6709  -4.6443
    -4.6426  -4.5685  -1.0177  -0.8123   1.5626   1.6586   1.8862   2.0273
     2.0983   2.1723   2.2131   2.5476   2.8979   3.0171   3.1426   3.1866
     3.3152   3.3222   3.4143   3.4215   3.4413   3.4705   3.5917   3.6969
     3.8225   3.8391   4.5701   4.6165   4.8384   4.8449   4.8508   4.9493
     4.9687   5.1914   5.2827   5.3112   5.3471   5.4116   5.5165   5.6124
     5.7130   5.8957   6.0308   6.1861   6.2266   6.2864

     occupation numbers 
     1.0000   1.0000   1.0000   1.0000   1.0000   1.0000   1.0000   1.0000
     1.0000   1.0000   1.0000   1.0000   1.0000   1.0000   1.0000   1.0000
     1.0000   1.0000   1.0000   1.0000   1.0000   1.0000   1.0000   1.0000
     1.0000   1.0000   1.0000   1.0000   1.0000   1.0000   1.0000   1.0000
     1.0000   1.0000   1.0000   1.0000   1.0000   1.0000   1.0000   1.0000
     1.0000   1.0000   1.0000   1.0000   1.0000   1.0000   1.0000   1.0000
     1.0000   1.0000   1.0000   1.0000   1.0000   1.0000   1.0000   1.0000
     1.0000   1.0000   1.0000   1.0000   1.0000   1.0000   1.0000   1.0000
     1.0000   1.0000   1.0000   1.0000   1.0000   1.0000   1.0000   1.0000
     1.0000   1.0000   1.0000   1.0000   1.0000   1.0000

          k = 0.0479 0.3220 0.2000 ( 43430 PWs)   bands (ev):

   -20.6985 -20.6841 -20.6695 -20.6553 -15.6638 -15.6638 -15.6545 -15.6544
   -15.6487 -15.6486 -15.5879 -15.5879 -15.5732 -15.5731  -7.1680  -6.9340
    -6.4368  -6.2004  -6.1930  -6.1747  -6.1221  -5.9287  -5.0157  -4.9207
    -4.8412  -4.7809  -4.7613  -4.7445  -4.7426  -4.7294  -4.6998  -4.6454
    -4.6400  -4.6229  -0.9792  -0.8084   1.4281   1.6010   1.6541   2.0238
     2.0640   2.2022   2.4474   2.6204   2.7314   3.0270   3.0718   3.2109
     3.3161   3.3190   3.3275   3.4185   3.4403   3.5344   3.6667   3.7234
     3.8023   3.8421   4.6425   4.6989   4.8251   4.8871   4.9054   4.9567
     4.9791   5.1263   5.2494   5.2621   5.2863   5.4497   5.6326   5.7508
     5.7903   5.9522   6.0089   6.1135   6.1865   6.2434

     occupation numbers 
     1.0000   1.0000   1.0000   1.0000   1.0000   1.0000   1.0000   1.0000
     1.0000   1.0000   1.0000   1.0000   1.0000   1.0000   1.0000   1.0000
     1.0000   1.0000   1.0000   1.0000   1.0000   1.0000   1.0000   1.0000
     1.0000   1.0000   1.0000   1.0000   1.0000   1.0000   1.0000   1.0000
     1.0000   1.0000   1.0000   1.0000   1.0000   1.0000   1.0000   1.0000
     1.0000   1.0000   1.0000   1.0000   1.0000   1.0000   1.0000   1.0000
     1.0000   1.0000   1.0000   1.0000   1.0000   1.0000   1.0000   1.0000
     1.0000   1.0000   1.0000   1.0000   1.0000   1.0000   1.0000   1.0000
     1.0000   1.0000   1.0000   1.0000   1.0000   1.0000   1.0000   1.0000
     1.0000   1.0000   1.0000   1.0000   1.0000   1.0000

          k = 0.0958 0.6441 0.4000 ( 43411 PWs)   bands (ev):

   -20.6859 -20.6837 -20.6692 -20.6670 -15.6638 -15.6638 -15.6547 -15.6547
   -15.6488 -15.6488 -15.5876 -15.5876 -15.5731 -15.5731  -7.0350  -6.9254
    -6.3712  -6.2746  -6.2741  -6.2048  -6.1060  -6.0327  -4.9181  -4.9099
    -4.8663  -4.7913  -4.7876  -4.7607  -4.7453  -4.7338  -4.7162  -4.6851
    -4.6365  -4.6044  -0.9058  -0.8084   1.2709   1.4377   1.5861   1.8242
     2.1488   2.3834   2.3912   2.4615   2.7902   2.9569   3.1390   3.2161
     3.2670   3.2985   3.3615   3.3812   3.4174   3.5762   3.7262   3.7499
     3.8086   3.8615   4.7650   4.8190   4.8264   4.8635   4.9862   5.0403
     5.0507   5.1020   5.1585   5.1950   5.2280   5.3544   5.7750   5.9391
     5.9414   6.0039   6.0521   6.1091   6.1487   6.2992

     occupation numbers 
     1.0000   1.0000   1.0000   1.0000   1.0000   1.0000   1.0000   1.0000
     1.0000   1.0000   1.0000   1.0000   1.0000   1.0000   1.0000   1.0000
     1.0000   1.0000   1.0000   1.0000   1.0000   1.0000   1.0000   1.0000
     1.0000   1.0000   1.0000   1.0000   1.0000   1.0000   1.0000   1.0000
     1.0000   1.0000   1.0000   1.0000   1.0000   1.0000   1.0000   1.0000
     1.0000   1.0000   1.0000   1.0000   1.0000   1.0000   1.0000   1.0000
     1.0000   1.0000   1.0000   1.0000   1.0000   1.0000   1.0000   1.0000
     1.0000   1.0000   1.0000   1.0000   1.0000   1.0000   1.0000   1.0000
     1.0000   1.0000   1.0000   1.0000   1.0000   1.0000   1.0000   1.0000
     1.0000   1.0000   1.0000   1.0000   1.0000   1.0000

          k = 0.0000 0.3724 0.0000 ( 43432 PWs)   bands (ev):

   -20.6996 -20.6789 -20.6746 -20.6542 -15.6638 -15.6638 -15.6545 -15.6544
   -15.6487 -15.6486 -15.5879 -15.5879 -15.5733 -15.5731  -7.1869  -6.8809
    -6.5138  -6.2058  -6.1743  -6.1433  -6.1169  -5.9320  -5.0340  -4.9194
    -4.8195  -4.8175  -4.7424  -4.7322  -4.7258  -4.7222  -4.7052  -4.6593
    -4.6539  -4.6163  -0.9872  -0.8010   1.4095   1.5859   1.6968   2.0351
     2.0744   2.1967   2.4661   2.5087   2.7674   3.0477   3.1105   3.1637
     3.3233   3.3564   3.3838   3.3850   3.4608   3.4892   3.6020   3.7286
     3.8419   3.8420   4.6466   4.6937   4.8144   4.8861   4.9133   4.9574
     4.9816   5.1817   5.1879   5.2625   5.2858   5.4598   5.6136   5.7864
     5.8111   5.9610   6.0440   6.1066   6.1077   6.2163

     occupation numbers 
     1.0000   1.0000   1.0000   1.0000   1.0000   1.0000   1.0000   1.0000
     1.0000   1.0000   1.0000   1.0000   1.0000   1.0000   1.0000   1.0000
     1.0000   1.0000   1.0000   1.0000   1.0000   1.0000   1.0000   1.0000
     1.0000   1.0000   1.0000   1.0000   1.0000   1.0000   1.0000   1.0000
     1.0000   1.0000   1.0000   1.0000   1.0000   1.0000   1.0000   1.0000
     1.0000   1.0000   1.0000   1.0000   1.0000   1.0000   1.0000   1.0000
     1.0000   1.0000   1.0000   1.0000   1.0000   1.0000   1.0000   1.0000
     1.0000   1.0000   1.0000   1.0000   1.0000   1.0000   1.0000   1.0000
     1.0000   1.0000   1.0000   1.0000   1.0000   1.0000   1.0000   1.0000
     1.0000   1.0000   1.0000   1.0000   1.0000   1.0000

          k = 0.0479 0.6945 0.2000 ( 43406 PWs)   bands (ev):

   -20.6874 -20.6812 -20.6716 -20.6656 -15.6638 -15.6638 -15.6547 -15.6547
   -15.6488 -15.6488 -15.5876 -15.5876 -15.5732 -15.5731  -7.0520  -6.8940
    -6.3591  -6.3370  -6.2405  -6.1764  -6.1188  -6.0582  -4.9394  -4.8947
    -4.8439  -4.8006  -4.7879  -4.7637  -4.7465  -4.7312  -4.7162  -4.6887
    -4.6281  -4.5980  -0.9128  -0.8025   1.2183   1.3924   1.7360   1.9393
     2.0907   2.2356   2.3532   2.4450   2.9064   2.9424   3.1858   3.1917
     3.2329   3.3016   3.3097   3.3593   3.4569   3.5604   3.7368   3.7695
     3.8040   3.8659   4.7750   4.8162   4.8400   4.8497   4.9745   5.0229
     5.0424   5.0649   5.1867   5.2234   5.2488   5.3632   5.8147   5.9280
     5.9515   5.9986   6.0430   6.1094   6.1413   6.2937

     occupation numbers 
     1.0000   1.0000   1.0000   1.0000   1.0000   1.0000   1.0000   1.0000
     1.0000   1.0000   1.0000   1.0000   1.0000   1.0000   1.0000   1.0000
     1.0000   1.0000   1.0000   1.0000   1.0000   1.0000   1.0000   1.0000
     1.0000   1.0000   1.0000   1.0000   1.0000   1.0000   1.0000   1.0000
     1.0000   1.0000   1.0000   1.0000   1.0000   1.0000   1.0000   1.0000
     1.0000   1.0000   1.0000   1.0000   1.0000   1.0000   1.0000   1.0000
     1.0000   1.0000   1.0000   1.0000   1.0000   1.0000   1.0000   1.0000
     1.0000   1.0000   1.0000   1.0000   1.0000   1.0000   1.0000   1.0000
     1.0000   1.0000   1.0000   1.0000   1.0000   1.0000   1.0000   1.0000
     1.0000   1.0000   1.0000   1.0000   1.0000   1.0000

          k = 0.0958 1.0165 0.4000 ( 43412 PWs)   bands (ev):

   -20.6859 -20.6837 -20.6692 -20.6671 -15.6638 -15.6638 -15.6547 -15.6547
   -15.6488 -15.6488 -15.5876 -15.5876 -15.5731 -15.5731  -6.9980  -6.9782
    -6.4133  -6.2728  -6.2318  -6.1611  -6.1146  -6.0316  -4.9328  -4.8984
    -4.8757  -4.7967  -4.7795  -4.7770  -4.7617  -4.7234  -4.7195  -4.6856
    -4.6234  -4.6091  -0.8811  -0.8341   1.3158   1.4271   1.6102   1.7635
     2.2051   2.3180   2.3931   2.4707   2.7529   3.0092   3.1323   3.1912
     3.2555   3.3361   3.3441   3.3725   3.4316   3.5989   3.7142   3.7723
     3.8278   3.8329   4.7658   4.8120   4.8134   4.8762   4.9854   5.0440
     5.0575   5.0848   5.1482   5.2070   5.2554   5.3296   5.7946   5.9174
     5.9462   5.9951   6.0633   6.0977   6.2055   6.2403

     occupation numbers 
     1.0000   1.0000   1.0000   1.0000   1.0000   1.0000   1.0000   1.0000
     1.0000   1.0000   1.0000   1.0000   1.0000   1.0000   1.0000   1.0000
     1.0000   1.0000   1.0000   1.0000   1.0000   1.0000   1.0000   1.0000
     1.0000   1.0000   1.0000   1.0000   1.0000   1.0000   1.0000   1.0000
     1.0000   1.0000   1.0000   1.0000   1.0000   1.0000   1.0000   1.0000
     1.0000   1.0000   1.0000   1.0000   1.0000   1.0000   1.0000   1.0000
     1.0000   1.0000   1.0000   1.0000   1.0000   1.0000   1.0000   1.0000
     1.0000   1.0000   1.0000   1.0000   1.0000   1.0000   1.0000   1.0000
     1.0000   1.0000   1.0000   1.0000   1.0000   1.0000   1.0000   1.0000
     1.0000   1.0000   1.0000   1.0000   1.0000   1.0000

          k =-0.0958-0.2717-0.4000 ( 43424 PWs)   bands (ev):

   -20.6953 -20.6902 -20.6634 -20.6585 -15.6638 -15.6638 -15.6545 -15.6545
   -15.6487 -15.6486 -15.5879 -15.5879 -15.5732 -15.5731  -7.1226  -7.0408
    -6.3180  -6.2722  -6.1723  -6.1675  -6.0826  -5.9464  -4.9771  -4.9344
    -4.8495  -4.8112  -4.7820  -4.7626  -4.7459  -4.7361  -4.6903  -4.6469
    -4.6298  -4.6264  -0.9416  -0.8507   1.5209   1.6070   1.6321   1.8586
     2.1698   2.3301   2.3682   2.6013   2.8486   2.9493   2.9986   3.1620
     3.2291   3.2673   3.3546   3.4382   3.4670   3.6438   3.7314   3.7441
     3.7766   3.8211   4.6437   4.6900   4.8485   4.8721   4.9041   4.9382
     5.0127   5.0739   5.2735   5.2899   5.3063   5.3932   5.6699   5.6824
     5.8083   5.9151   6.0134   6.0789   6.2567   6.2816

     occupation numbers 
     1.0000   1.0000   1.0000   1.0000   1.0000   1.0000   1.0000   1.0000
     1.0000   1.0000   1.0000   1.0000   1.0000   1.0000   1.0000   1.0000
     1.0000   1.0000   1.0000   1.0000   1.0000   1.0000   1.0000   1.0000
     1.0000   1.0000   1.0000   1.0000   1.0000   1.0000   1.0000   1.0000
     1.0000   1.0000   1.0000   1.0000   1.0000   1.0000   1.0000   1.0000
     1.0000   1.0000   1.0000   1.0000   1.0000   1.0000   1.0000   1.0000
     1.0000   1.0000   1.0000   1.0000   1.0000   1.0000   1.0000   1.0000
     1.0000   1.0000   1.0000   1.0000   1.0000   1.0000   1.0000   1.0000
     1.0000   1.0000   1.0000   1.0000   1.0000   1.0000   1.0000   1.0000
     1.0000   1.0000   1.0000   1.0000   1.0000   1.0000

          k =-0.0479 0.0504-0.2000 ( 43436 PWs)   bands (ev):

   -20.7032 -20.6857 -20.6684 -20.6511 -15.6638 -15.6638 -15.6544 -15.6543
   -15.6486 -15.6485 -15.5880 -15.5880 -15.5733 -15.5731  -7.2215  -6.9798
    -6.4911  -6.2312  -6.1214  -6.1048  -6.0422  -5.8626  -5.0477  -4.9864
    -4.8703  -4.8222  -4.7804  -4.7306  -4.7136  -4.7092  -4.6701  -4.6487
    -4.6461  -4.5846  -1.0016  -0.8326   1.5789   1.7063   1.8549   2.0389
     2.0613   2.1029   2.2852   2.6777   2.8730   2.9412   3.0692   3.2022
     3.2733   3.2879   3.3788   3.4166   3.5438   3.5733   3.5897   3.6975
     3.7961   3.8352   4.5712   4.6103   4.8399   4.8478   4.8685   4.9495
     4.9660   5.1236   5.2963   5.3487   5.3668   5.4025   5.4882   5.5956
     5.7453   5.9050   6.0427   6.1007   6.1999   6.2603

     occupation numbers 
     1.0000   1.0000   1.0000   1.0000   1.0000   1.0000   1.0000   1.0000
     1.0000   1.0000   1.0000   1.0000   1.0000   1.0000   1.0000   1.0000
     1.0000   1.0000   1.0000   1.0000   1.0000   1.0000   1.0000   1.0000
     1.0000   1.0000   1.0000   1.0000   1.0000   1.0000   1.0000   1.0000
     1.0000   1.0000   1.0000   1.0000   1.0000   1.0000   1.0000   1.0000
     1.0000   1.0000   1.0000   1.0000   1.0000   1.0000   1.0000   1.0000
     1.0000   1.0000   1.0000   1.0000   1.0000   1.0000   1.0000   1.0000
     1.0000   1.0000   1.0000   1.0000   1.0000   1.0000   1.0000   1.0000
     1.0000   1.0000   1.0000   1.0000   1.0000   1.0000   1.0000   1.0000
     1.0000   1.0000   1.0000   1.0000   1.0000   1.0000

          k = 0.0000 0.7448 0.0000 ( 43449 PWs)   bands (ev):

   -20.6879 -20.6799 -20.6729 -20.6652 -15.6638 -15.6638 -15.6547 -15.6547
   -15.6488 -15.6488 -15.5876 -15.5876 -15.5732 -15.5731  -7.0490  -6.9042
    -6.4181  -6.3135  -6.1698  -6.1532  -6.1397  -6.0736  -4.9503  -4.8931
    -4.8548  -4.7971  -4.7826  -4.7760  -4.7540  -4.7373  -4.7132  -4.6868
    -4.6063  -4.6056  -0.8990  -0.8180   1.2445   1.3401   1.9339   1.9660
     2.0044   2.2063   2.2297   2.4301   2.8966   3.0832   3.1096   3.1764
     3.2416   3.2534   3.3229   3.3458   3.5262   3.5425   3.7415   3.7803
     3.8280   3.8385   4.7877   4.8003   4.8218   4.8736   4.9664   5.0157
     5.0296   5.0497   5.2037   5.2437   5.2706   5.3469   5.8655   5.9161
     5.9350   5.9748   6.0783   6.1145   6.1654   6.2311

     occupation numbers 
     1.0000   1.0000   1.0000   1.0000   1.0000   1.0000   1.0000   1.0000
     1.0000   1.0000   1.0000   1.0000   1.0000   1.0000   1.0000   1.0000
     1.0000   1.0000   1.0000   1.0000   1.0000   1.0000   1.0000   1.0000
     1.0000   1.0000   1.0000   1.0000   1.0000   1.0000   1.0000   1.0000
     1.0000   1.0000   1.0000   1.0000   1.0000   1.0000   1.0000   1.0000
     1.0000   1.0000   1.0000   1.0000   1.0000   1.0000   1.0000   1.0000
     1.0000   1.0000   1.0000   1.0000   1.0000   1.0000   1.0000   1.0000
     1.0000   1.0000   1.0000   1.0000   1.0000   1.0000   1.0000   1.0000
     1.0000   1.0000   1.0000   1.0000   1.0000   1.0000   1.0000   1.0000
     1.0000   1.0000   1.0000   1.0000   1.0000   1.0000

          k = 0.0479 1.0669 0.2000 ( 43427 PWs)   bands (ev):

   -20.6874 -20.6812 -20.6715 -20.6657 -15.6638 -15.6638 -15.6547 -15.6547
   -15.6488 -15.6488 -15.5876 -15.5876 -15.5732 -15.5731  -7.0240  -6.9475
    -6.4393  -6.2835  -6.1783  -6.1437  -6.1182  -6.0655  -4.9415  -4.9047
    -4.8589  -4.8053  -4.7872  -4.7786  -4.7607  -4.7411  -4.7121  -4.6691
    -4.6253  -4.5992  -0.8691  -0.8478   1.3133   1.3373   1.8014   1.8244
     2.1713   2.2288   2.3007   2.4267   2.8413   3.0356   3.1521   3.1629
     3.2528   3.2943   3.3172   3.3640   3.4721   3.5972   3.7410   3.7776
     3.8020   3.8523   4.7789   4.8004   4.8090   4.8835   4.9943   5.0032
     5.0368   5.0616   5.1775   5.2398   5.2930   5.3129   5.8504   5.8866
     5.9403   6.0306   6.0720   6.1071   6.1562   6.2300

     occupation numbers 
     1.0000   1.0000   1.0000   1.0000   1.0000   1.0000   1.0000   1.0000
     1.0000   1.0000   1.0000   1.0000   1.0000   1.0000   1.0000   1.0000
     1.0000   1.0000   1.0000   1.0000   1.0000   1.0000   1.0000   1.0000
     1.0000   1.0000   1.0000   1.0000   1.0000   1.0000   1.0000   1.0000
     1.0000   1.0000   1.0000   1.0000   1.0000   1.0000   1.0000   1.0000
     1.0000   1.0000   1.0000   1.0000   1.0000   1.0000   1.0000   1.0000
     1.0000   1.0000   1.0000   1.0000   1.0000   1.0000   1.0000   1.0000
     1.0000   1.0000   1.0000   1.0000   1.0000   1.0000   1.0000   1.0000
     1.0000   1.0000   1.0000   1.0000   1.0000   1.0000   1.0000   1.0000
     1.0000   1.0000   1.0000   1.0000   1.0000   1.0000

          k = 0.0958 1.3889 0.4000 ( 43441 PWs)   bands (ev):

   -20.6952 -20.6903 -20.6634 -20.6585 -15.6638 -15.6638 -15.6545 -15.6545
   -15.6487 -15.6486 -15.5879 -15.5879 -15.5732 -15.5731  -7.1284  -7.0470
    -6.3746  -6.2272  -6.1654  -6.1457  -6.0106  -5.9974  -4.9750  -4.9413
    -4.8510  -4.8128  -4.8046  -4.7607  -4.7444  -4.7378  -4.6807  -4.6631
    -4.6290  -4.6248  -0.9116  -0.8844   1.5564   1.5826   1.7251   1.7613
     2.2218   2.3161   2.4278   2.5214   2.8006   2.9949   3.0314   3.0796
     3.2309   3.2446   3.3734   3.4457   3.4971   3.6069   3.7298   3.7633
     3.7941   3.8475   4.6556   4.6718   4.8390   4.8789   4.9191   4.9244
     5.0272   5.0622   5.2754   5.2893   5.3396   5.3506   5.6385   5.7123
     5.8435   5.9214   6.0135   6.0309   6.2567   6.2820

     occupation numbers 
     1.0000   1.0000   1.0000   1.0000   1.0000   1.0000   1.0000   1.0000
     1.0000   1.0000   1.0000   1.0000   1.0000   1.0000   1.0000   1.0000
     1.0000   1.0000   1.0000   1.0000   1.0000   1.0000   1.0000   1.0000
     1.0000   1.0000   1.0000   1.0000   1.0000   1.0000   1.0000   1.0000
     1.0000   1.0000   1.0000   1.0000   1.0000   1.0000   1.0000   1.0000
     1.0000   1.0000   1.0000   1.0000   1.0000   1.0000   1.0000   1.0000
     1.0000   1.0000   1.0000   1.0000   1.0000   1.0000   1.0000   1.0000
     1.0000   1.0000   1.0000   1.0000   1.0000   1.0000   1.0000   1.0000
     1.0000   1.0000   1.0000   1.0000   1.0000   1.0000   1.0000   1.0000
     1.0000   1.0000   1.0000   1.0000   1.0000   1.0000

          k =-0.0958 0.1007-0.4000 ( 43438 PWs)   bands (ev):

   -20.6993 -20.6932 -20.6609 -20.6549 -15.6638 -15.6638 -15.6544 -15.6543
   -15.6486 -15.6486 -15.5880 -15.5880 -15.5732 -15.5731  -7.1777  -7.0943
    -6.3495  -6.2207  -6.1772  -6.1304  -5.9721  -5.9029  -4.9990  -4.9749
    -4.9045  -4.8890  -4.7460  -4.7314  -4.7136  -4.7102  -4.6673  -4.6631
    -4.6394  -4.6152  -0.9538  -0.8875   1.6556   1.7680   1.7949   1.9027
     2.0818   2.1032   2.4660   2.7062   2.8747   2.8907   2.9813   3.1134
     3.2330   3.2512   3.4181   3.4235   3.6078   3.6186   3.6933   3.7197
     3.7358   3.8062   4.5782   4.5945   4.8433   4.8465   4.9299   4.9534
     4.9599   5.0219   5.3333   5.3581   5.3796   5.3816   5.4905   5.5484
     5.8089   5.8708   6.0575   6.0593   6.1801   6.2057

     occupation numbers 
     1.0000   1.0000   1.0000   1.0000   1.0000   1.0000   1.0000   1.0000
     1.0000   1.0000   1.0000   1.0000   1.0000   1.0000   1.0000   1.0000
     1.0000   1.0000   1.0000   1.0000   1.0000   1.0000   1.0000   1.0000
     1.0000   1.0000   1.0000   1.0000   1.0000   1.0000   1.0000   1.0000
     1.0000   1.0000   1.0000   1.0000   1.0000   1.0000   1.0000   1.0000
     1.0000   1.0000   1.0000   1.0000   1.0000   1.0000   1.0000   1.0000
     1.0000   1.0000   1.0000   1.0000   1.0000   1.0000   1.0000   1.0000
     1.0000   1.0000   1.0000   1.0000   1.0000   1.0000   1.0000   1.0000
     1.0000   1.0000   1.0000   1.0000   1.0000   1.0000   1.0000   1.0000
     1.0000   1.0000   1.0000   1.0000   1.0000   1.0000

          k =-0.0479 0.4228-0.2000 ( 43444 PWs)   bands (ev):

   -20.6985 -20.6841 -20.6695 -20.6553 -15.6638 -15.6638 -15.6545 -15.6544
   -15.6487 -15.6486 -15.5879 -15.5879 -15.5732 -15.5731  -7.1765  -6.9478
    -6.4698  -6.1880  -6.1649  -6.1425  -6.0727  -5.9547  -5.0147  -4.9214
    -4.8548  -4.8096  -4.7617  -4.7448  -4.7383  -4.7312  -4.7016  -4.6507
    -4.6444  -4.6235  -0.9634  -0.8298   1.4736   1.5769   1.7058   1.9390
     2.1056   2.2709   2.4390   2.5882   2.7109   3.0363   3.0822   3.1035
     3.2556   3.3241   3.3754   3.4293   3.4518   3.5642   3.6806   3.7176
     3.8222   3.8717   4.6535   4.6780   4.8176   4.8906   4.9133   4.9449
     4.9964   5.1195   5.2409   5.2709   5.3101   5.4109   5.6181   5.7595
     5.8723   5.8882   6.0238   6.0587   6.2013   6.2411

     occupation numbers 
     1.0000   1.0000   1.0000   1.0000   1.0000   1.0000   1.0000   1.0000
     1.0000   1.0000   1.0000   1.0000   1.0000   1.0000   1.0000   1.0000
     1.0000   1.0000   1.0000   1.0000   1.0000   1.0000   1.0000   1.0000
     1.0000   1.0000   1.0000   1.0000   1.0000   1.0000   1.0000   1.0000
     1.0000   1.0000   1.0000   1.0000   1.0000   1.0000   1.0000   1.0000
     1.0000   1.0000   1.0000   1.0000   1.0000   1.0000   1.0000   1.0000
     1.0000   1.0000   1.0000   1.0000   1.0000   1.0000   1.0000   1.0000
     1.0000   1.0000   1.0000   1.0000   1.0000   1.0000   1.0000   1.0000
     1.0000   1.0000   1.0000   1.0000   1.0000   1.0000   1.0000   1.0000
     1.0000   1.0000   1.0000   1.0000   1.0000   1.0000

          k = 0.3428 0.0840 0.0000 ( 43448 PWs)   bands (ev):

   -20.7008 -20.6908 -20.6633 -20.6534 -15.6638 -15.6638 -15.6544 -15.6543
   -15.6486 -15.6486 -15.5880 -15.5880 -15.5732 -15.5731  -7.1964  -7.0582
    -6.3967  -6.1988  -6.1805  -6.1197  -5.9973  -5.8857  -5.0161  -4.9780
    -4.8955  -4.8686  -4.7556  -4.7300  -4.7139  -4.7087  -4.6671  -4.6583
    -4.6443  -4.6051  -0.9729  -0.8664   1.6233   1.7640   1.8021   1.9482
     2.0705   2.1050   2.3953   2.7813   2.8156   2.8920   3.0005   3.1737
     3.2236   3.2569   3.4150   3.4159   3.5980   3.6015   3.6734   3.6953
     3.7571   3.8208   4.5747   4.6004   4.8421   4.8471   4.9053   4.9515
     4.9621   5.0557   5.3188   5.3538   5.3880   5.3903   5.4777   5.5666
     5.7870   5.8891   6.0549   6.0578   6.1840   6.2239

     occupation numbers 
     1.0000   1.0000   1.0000   1.0000   1.0000   1.0000   1.0000   1.0000
     1.0000   1.0000   1.0000   1.0000   1.0000   1.0000   1.0000   1.0000
     1.0000   1.0000   1.0000   1.0000   1.0000   1.0000   1.0000   1.0000
     1.0000   1.0000   1.0000   1.0000   1.0000   1.0000   1.0000   1.0000
     1.0000   1.0000   1.0000   1.0000   1.0000   1.0000   1.0000   1.0000
     1.0000   1.0000   1.0000   1.0000   1.0000   1.0000   1.0000   1.0000
     1.0000   1.0000   1.0000   1.0000   1.0000   1.0000   1.0000   1.0000
     1.0000   1.0000   1.0000   1.0000   1.0000   1.0000   1.0000   1.0000
     1.0000   1.0000   1.0000   1.0000   1.0000   1.0000   1.0000   1.0000
     1.0000   1.0000   1.0000   1.0000   1.0000   1.0000

          k = 0.3906 0.4060 0.2000 ( 43444 PWs)   bands (ev):

   -20.6937 -20.6921 -20.6616 -20.6599 -15.6638 -15.6638 -15.6545 -15.6545
   -15.6486 -15.6486 -15.5879 -15.5879 -15.5732 -15.5731  -7.1033  -7.0757
    -6.3403  -6.2540  -6.1638  -6.1523  -6.0343  -5.9769  -4.9635  -4.9489
    -4.8404  -4.8283  -4.7995  -4.7625  -4.7452  -4.7382  -4.6784  -4.6638
    -4.6270  -4.6248  -0.9045  -0.8909   1.5606   1.5912   1.6931   1.7693
     2.2547   2.2776   2.4584   2.4938   2.8520   2.9749   2.9947   3.1015
     3.2217   3.2483   3.3690   3.4441   3.4948   3.6219   3.7409   3.7710
     3.7884   3.8257   4.6506   4.6780   4.8495   4.8692   4.9167   4.9250
     5.0416   5.0450   5.2794   5.2924   5.3303   5.3571   5.6496   5.6981
     5.8316   5.9198   6.0124   6.0434   6.2634   6.2874

     occupation numbers 
     1.0000   1.0000   1.0000   1.0000   1.0000   1.0000   1.0000   1.0000
     1.0000   1.0000   1.0000   1.0000   1.0000   1.0000   1.0000   1.0000
     1.0000   1.0000   1.0000   1.0000   1.0000   1.0000   1.0000   1.0000
     1.0000   1.0000   1.0000   1.0000   1.0000   1.0000   1.0000   1.0000
     1.0000   1.0000   1.0000   1.0000   1.0000   1.0000   1.0000   1.0000
     1.0000   1.0000   1.0000   1.0000   1.0000   1.0000   1.0000   1.0000
     1.0000   1.0000   1.0000   1.0000   1.0000   1.0000   1.0000   1.0000
     1.0000   1.0000   1.0000   1.0000   1.0000   1.0000   1.0000   1.0000
     1.0000   1.0000   1.0000   1.0000   1.0000   1.0000   1.0000   1.0000
     1.0000   1.0000   1.0000   1.0000   1.0000   1.0000

          k = 0.4385 0.7280 0.4000 ( 43437 PWs)   bands (ev):

   -20.6870 -20.6820 -20.6708 -20.6660 -15.6638 -15.6638 -15.6547 -15.6547
   -15.6488 -15.6488 -15.5876 -15.5876 -15.5732 -15.5731  -7.0108  -6.9648
    -6.4349  -6.2788  -6.1950  -6.1343  -6.1264  -6.0524  -4.9382  -4.9043
    -4.8632  -4.8057  -4.7855  -4.7776  -4.7620  -4.7382  -4.7143  -4.6693
    -4.6282  -4.6010  -0.8596  -0.8569   1.3132   1.3720   1.7334   1.7876
     2.2228   2.2391   2.3247   2.4456   2.8077   3.0256   3.1516   3.1651
     3.2593   3.3048   3.3358   3.3618   3.4559   3.6018   3.7288   3.7911
     3.7948   3.8500   4.7733   4.8048   4.8083   4.8819   4.9906   5.0188
     5.0441   5.0673   5.1659   5.2300   5.2865   5.3133   5.8309   5.8944
     5.9424   6.0321   6.0546   6.1037   6.1835   6.2265

     occupation numbers 
     1.0000   1.0000   1.0000   1.0000   1.0000   1.0000   1.0000   1.0000
     1.0000   1.0000   1.0000   1.0000   1.0000   1.0000   1.0000   1.0000
     1.0000   1.0000   1.0000   1.0000   1.0000   1.0000   1.0000   1.0000
     1.0000   1.0000   1.0000   1.0000   1.0000   1.0000   1.0000   1.0000
     1.0000   1.0000   1.0000   1.0000   1.0000   1.0000   1.0000   1.0000
     1.0000   1.0000   1.0000   1.0000   1.0000   1.0000   1.0000   1.0000
     1.0000   1.0000   1.0000   1.0000   1.0000   1.0000   1.0000   1.0000
     1.0000   1.0000   1.0000   1.0000   1.0000   1.0000   1.0000   1.0000
     1.0000   1.0000   1.0000   1.0000   1.0000   1.0000   1.0000   1.0000
     1.0000   1.0000   1.0000   1.0000   1.0000   1.0000

          k = 0.2470-0.5601-0.4000 ( 43429 PWs)   bands (ev):

   -20.6878 -20.6801 -20.6727 -20.6652 -15.6638 -15.6638 -15.6547 -15.6547
   -15.6488 -15.6488 -15.5876 -15.5876 -15.5732 -15.5731  -7.0523  -6.8962
    -6.4001  -6.3254  -6.1922  -6.1602  -6.1315  -6.0707  -4.9495  -4.8902
    -4.8513  -4.7969  -4.7826  -4.7733  -4.7504  -4.7356  -4.7133  -4.6914
    -4.6121  -4.6014  -0.9058  -0.8108   1.2265   1.3560   1.8760   1.9898
     2.0207   2.2066   2.2477   2.4395   2.8996   3.0461   3.1350   3.1856
     3.2365   3.2577   3.3338   3.3361   3.5129   3.5415   3.7375   3.7866
     3.8140   3.8502   4.7836   4.8069   4.8284   4.8648   4.9656   5.0175
     5.0384   5.0467   5.2026   5.2378   5.2647   5.3550   5.8562   5.9159
     5.9461   5.9722   6.0630   6.1115   6.1651   6.2508

     occupation numbers 
     1.0000   1.0000   1.0000   1.0000   1.0000   1.0000   1.0000   1.0000
     1.0000   1.0000   1.0000   1.0000   1.0000   1.0000   1.0000   1.0000
     1.0000   1.0000   1.0000   1.0000   1.0000   1.0000   1.0000   1.0000
     1.0000   1.0000   1.0000   1.0000   1.0000   1.0000   1.0000   1.0000
     1.0000   1.0000   1.0000   1.0000   1.0000   1.0000   1.0000   1.0000
     1.0000   1.0000   1.0000   1.0000   1.0000   1.0000   1.0000   1.0000
     1.0000   1.0000   1.0000   1.0000   1.0000   1.0000   1.0000   1.0000
     1.0000   1.0000   1.0000   1.0000   1.0000   1.0000   1.0000   1.0000
     1.0000   1.0000   1.0000   1.0000   1.0000   1.0000   1.0000   1.0000
     1.0000   1.0000   1.0000   1.0000   1.0000   1.0000

          k = 0.2949-0.2381-0.2000 ( 43429 PWs)   bands (ev):

   -20.6991 -20.6819 -20.6716 -20.6547 -15.6639 -15.6638 -15.6545 -15.6544
   -15.6487 -15.6486 -15.5879 -15.5879 -15.5732 -15.5731  -7.1837  -6.9165
    -6.4945  -6.1950  -6.1621  -6.1401  -6.0941  -5.9442  -5.0248  -4.9196
    -4.8452  -4.8109  -4.7472  -4.7428  -4.7317  -4.7281  -4.7051  -4.6525
    -4.6505  -4.6207  -0.9749  -0.8165   1.4451   1.5786   1.7055   1.9927
     2.0770   2.2386   2.4602   2.5469   2.7353   3.0416   3.1091   3.1116
     3.2739   3.3570   3.3760   3.3963   3.4548   3.5446   3.6442   3.7212
     3.8302   3.8658   4.6506   4.6840   4.8147   4.8890   4.9139   4.9500
     4.9907   5.1405   5.2236   5.2665   5.3006   5.4312   5.6146   5.7737
     5.8515   5.9070   6.0305   6.0770   6.1709   6.2272

     occupation numbers 
     1.0000   1.0000   1.0000   1.0000   1.0000   1.0000   1.0000   1.0000
     1.0000   1.0000   1.0000   1.0000   1.0000   1.0000   1.0000   1.0000
     1.0000   1.0000   1.0000   1.0000   1.0000   1.0000   1.0000   1.0000
     1.0000   1.0000   1.0000   1.0000   1.0000   1.0000   1.0000   1.0000
     1.0000   1.0000   1.0000   1.0000   1.0000   1.0000   1.0000   1.0000
     1.0000   1.0000   1.0000   1.0000   1.0000   1.0000   1.0000   1.0000
     1.0000   1.0000   1.0000   1.0000   1.0000   1.0000   1.0000   1.0000
     1.0000   1.0000   1.0000   1.0000   1.0000   1.0000   1.0000   1.0000
     1.0000   1.0000   1.0000   1.0000   1.0000   1.0000   1.0000   1.0000
     1.0000   1.0000   1.0000   1.0000   1.0000   1.0000

          k = 0.3428 0.4564 0.0000 ( 43440 PWs)   bands (ev):

   -20.6965 -20.6883 -20.6653 -20.6572 -15.6638 -15.6638 -15.6545 -15.6545
   -15.6487 -15.6486 -15.5879 -15.5879 -15.5732 -15.5731  -7.1491  -7.0154
    -6.4082  -6.2039  -6.1693  -6.1423  -6.0229  -5.9872  -4.9888  -4.9327
    -4.8578  -4.8076  -4.7956  -4.7565  -4.7433  -4.7365  -4.6884  -4.6572
    -4.6329  -4.6251  -0.9312  -0.8646   1.5355   1.5784   1.7139   1.8159
     2.1809   2.3456   2.3872   2.5705   2.7496   3.0118   3.0530   3.0781
     3.2403   3.2563   3.3755   3.4475   3.4854   3.5938   3.7205   3.7428
     3.8037   3.8635   4.6591   4.6684   4.8299   4.8865   4.9149   4.9319
     5.0144   5.0804   5.2671   5.2840   5.3299   5.3682   5.6299   5.7273
     5.8551   5.9151   6.0163   6.0293   6.2441   6.2714

     occupation numbers 
     1.0000   1.0000   1.0000   1.0000   1.0000   1.0000   1.0000   1.0000
     1.0000   1.0000   1.0000   1.0000   1.0000   1.0000   1.0000   1.0000
     1.0000   1.0000   1.0000   1.0000   1.0000   1.0000   1.0000   1.0000
     1.0000   1.0000   1.0000   1.0000   1.0000   1.0000   1.0000   1.0000
     1.0000   1.0000   1.0000   1.0000   1.0000   1.0000   1.0000   1.0000
     1.0000   1.0000   1.0000   1.0000   1.0000   1.0000   1.0000   1.0000
     1.0000   1.0000   1.0000   1.0000   1.0000   1.0000   1.0000   1.0000
     1.0000   1.0000   1.0000   1.0000   1.0000   1.0000   1.0000   1.0000
     1.0000   1.0000   1.0000   1.0000   1.0000   1.0000   1.0000   1.0000
     1.0000   1.0000   1.0000   1.0000   1.0000   1.0000

          k = 0.3906 0.7784 0.2000 ( 43414 PWs)   bands (ev):

   -20.6852 -20.6845 -20.6684 -20.6677 -15.6638 -15.6638 -15.6547 -15.6547
   -15.6488 -15.6488 -15.5876 -15.5876 -15.5731 -15.5731  -6.9972  -6.9774
    -6.3528  -6.3442  -6.1934  -6.1740  -6.0964  -6.0808  -4.9147  -4.9124
    -4.8370  -4.8291  -4.7783  -4.7737  -4.7426  -4.7374  -4.7061  -4.6953
    -4.6234  -4.6154  -0.8651  -0.8508   1.3603   1.3804   1.6536   1.6844
     2.2430   2.2762   2.4298   2.4560   2.8628   2.8644   3.1958   3.2042
     3.2992   3.3147   3.3388   3.3406   3.5002   3.5160   3.7647   3.7683
     3.8016   3.8167   4.7889   4.7942   4.8422   4.8451   5.0108   5.0148
     5.0740   5.0820   5.1655   5.1692   5.2845   5.3003   5.8466   5.8654
     5.9893   5.9974   6.0482   6.0542   6.2089   6.2368

     occupation numbers 
     1.0000   1.0000   1.0000   1.0000   1.0000   1.0000   1.0000   1.0000
     1.0000   1.0000   1.0000   1.0000   1.0000   1.0000   1.0000   1.0000
     1.0000   1.0000   1.0000   1.0000   1.0000   1.0000   1.0000   1.0000
     1.0000   1.0000   1.0000   1.0000   1.0000   1.0000   1.0000   1.0000
     1.0000   1.0000   1.0000   1.0000   1.0000   1.0000   1.0000   1.0000
     1.0000   1.0000   1.0000   1.0000   1.0000   1.0000   1.0000   1.0000
     1.0000   1.0000   1.0000   1.0000   1.0000   1.0000   1.0000   1.0000
     1.0000   1.0000   1.0000   1.0000   1.0000   1.0000   1.0000   1.0000
     1.0000   1.0000   1.0000   1.0000   1.0000   1.0000   1.0000   1.0000
     1.0000   1.0000   1.0000   1.0000   1.0000   1.0000

          k = 0.4385 1.1005 0.4000 ( 43411 PWs)   bands (ev):

   -20.6870 -20.6820 -20.6708 -20.6660 -15.6638 -15.6638 -15.6547 -15.6547
   -15.6488 -15.6488 -15.5876 -15.5876 -15.5732 -15.5731  -7.0220  -6.9486
    -6.4135  -6.3008  -6.1753  -6.1658  -6.1088  -6.0748  -4.9355  -4.9027
    -4.8522  -4.8109  -4.7843  -4.7736  -4.7582  -4.7345  -4.7159  -4.6724
    -4.6313  -4.6010  -0.8731  -0.8436   1.3280   1.3415   1.7483   1.7813
     2.1997   2.2687   2.3115   2.4455   2.8385   2.9849   3.1766   3.1808
     3.2703   3.2997   3.3238   3.3501   3.4838   3.5642   3.7478   3.7811
     3.8101   3.8292   4.7860   4.7964   4.8196   4.8697   4.9998   5.0086
     5.0522   5.0600   5.1753   5.2176   5.2888   5.3115   5.8592   5.8696
     5.9597   6.0166   6.0634   6.0875   6.1591   6.2472

     occupation numbers 
     1.0000   1.0000   1.0000   1.0000   1.0000   1.0000   1.0000   1.0000
     1.0000   1.0000   1.0000   1.0000   1.0000   1.0000   1.0000   1.0000
     1.0000   1.0000   1.0000   1.0000   1.0000   1.0000   1.0000   1.0000
     1.0000   1.0000   1.0000   1.0000   1.0000   1.0000   1.0000   1.0000
     1.0000   1.0000   1.0000   1.0000   1.0000   1.0000   1.0000   1.0000
     1.0000   1.0000   1.0000   1.0000   1.0000   1.0000   1.0000   1.0000
     1.0000   1.0000   1.0000   1.0000   1.0000   1.0000   1.0000   1.0000
     1.0000   1.0000   1.0000   1.0000   1.0000   1.0000   1.0000   1.0000
     1.0000   1.0000   1.0000   1.0000   1.0000   1.0000   1.0000   1.0000
     1.0000   1.0000   1.0000   1.0000   1.0000   1.0000

          k = 0.2470-0.1877-0.4000 ( 43455 PWs)   bands (ev):

   -20.6995 -20.6799 -20.6736 -20.6544 -15.6639 -15.6638 -15.6545 -15.6544
   -15.6487 -15.6486 -15.5879 -15.5879 -15.5733 -15.5731  -7.1981  -6.9133
    -6.5377  -6.1796  -6.1290  -6.0964  -6.0676  -5.9654  -5.0294  -4.9202
    -4.8553  -4.8397  -4.7433  -4.7371  -4.7298  -4.7260  -4.7121  -4.6616
    -4.6567  -4.6221  -0.9669  -0.8304   1.4808   1.5531   1.7681   1.9799
     2.0629   2.3061   2.4287   2.5190   2.7346   3.0008   3.0889   3.1136
     3.2685   3.2992   3.3673   3.3973   3.4957   3.5849   3.6354   3.7200
     3.8147   3.9438   4.6547   4.6716   4.8045   4.8933   4.9195   4.9455
     5.0044   5.1530   5.1972   5.2682   5.3219   5.4046   5.5974   5.7861
     5.8269   5.9303   6.0538   6.0631   6.1454   6.2275

     occupation numbers 
     1.0000   1.0000   1.0000   1.0000   1.0000   1.0000   1.0000   1.0000
     1.0000   1.0000   1.0000   1.0000   1.0000   1.0000   1.0000   1.0000
     1.0000   1.0000   1.0000   1.0000   1.0000   1.0000   1.0000   1.0000
     1.0000   1.0000   1.0000   1.0000   1.0000   1.0000   1.0000   1.0000
     1.0000   1.0000   1.0000   1.0000   1.0000   1.0000   1.0000   1.0000
     1.0000   1.0000   1.0000   1.0000   1.0000   1.0000   1.0000   1.0000
     1.0000   1.0000   1.0000   1.0000   1.0000   1.0000   1.0000   1.0000
     1.0000   1.0000   1.0000   1.0000   1.0000   1.0000   1.0000   1.0000
     1.0000   1.0000   1.0000   1.0000   1.0000   1.0000   1.0000   1.0000
     1.0000   1.0000   1.0000   1.0000   1.0000   1.0000

          k = 0.2949 0.1343-0.2000 ( 43439 PWs)   bands (ev):

   -20.7039 -20.6830 -20.6710 -20.6504 -15.6639 -15.6637 -15.6544 -15.6543
   -15.6486 -15.6485 -15.5880 -15.5880 -15.5733 -15.5731  -7.2589  -6.9490
    -6.5466  -6.1782  -6.0843  -6.0809  -6.0190  -5.8826  -5.0560  -4.9932
    -4.8548  -4.8197  -4.7936  -4.7618  -4.7072  -4.7060  -4.6665  -4.6487
    -4.6463  -4.6274  -1.0025  -0.8440   1.6722   1.7162   1.7365   2.0475
     2.0958   2.1569   2.4017   2.6313   2.8511   2.8994   3.0022   3.1771
     3.2686   3.2805   3.3990   3.4318   3.4790   3.5501   3.5958   3.7208
     3.7843   3.9861   4.5848   4.5862   4.8378   4.8504   4.8643   4.9380
     4.9926   5.1427   5.2829   5.3366   5.3457   5.4216   5.4475   5.6025
     5.7525   5.9138   5.9938   6.0753   6.1939   6.2510

     occupation numbers 
     1.0000   1.0000   1.0000   1.0000   1.0000   1.0000   1.0000   1.0000
     1.0000   1.0000   1.0000   1.0000   1.0000   1.0000   1.0000   1.0000
     1.0000   1.0000   1.0000   1.0000   1.0000   1.0000   1.0000   1.0000
     1.0000   1.0000   1.0000   1.0000   1.0000   1.0000   1.0000   1.0000
     1.0000   1.0000   1.0000   1.0000   1.0000   1.0000   1.0000   1.0000
     1.0000   1.0000   1.0000   1.0000   1.0000   1.0000   1.0000   1.0000
     1.0000   1.0000   1.0000   1.0000   1.0000   1.0000   1.0000   1.0000
     1.0000   1.0000   1.0000   1.0000   1.0000   1.0000   1.0000   1.0000
     1.0000   1.0000   1.0000   1.0000   1.0000   1.0000   1.0000   1.0000
     1.0000   1.0000   1.0000   1.0000   1.0000   1.0000

          k = 0.3428 0.8288 0.0000 ( 43431 PWs)   bands (ev):

   -20.6865 -20.6829 -20.6700 -20.6665 -15.6638 -15.6638 -15.6547 -15.6547
   -15.6488 -15.6488 -15.5876 -15.5876 -15.5732 -15.5731  -6.9953  -6.9819
    -6.4259  -6.2756  -6.2133  -6.1422  -6.1235  -6.0402  -4.9356  -4.9017
    -4.8694  -4.8023  -4.7825  -4.7768  -4.7630  -4.7313  -4.7176  -4.6757
    -4.6266  -4.6046  -0.8704  -0.8454   1.3151   1.4033   1.6656   1.7685
     2.2190   2.2827   2.3563   2.4634   2.7755   3.0179   3.1406   3.1785
     3.2581   3.3232   3.3455   3.3620   3.4426   3.6020   3.7195   3.7814
     3.8119   3.8429   4.7689   4.8089   4.8098   4.8793   4.9872   5.0340
     5.0515   5.0748   5.1555   5.2185   5.2713   5.3210   5.8114   5.9056
     5.9449   6.0103   6.0603   6.1000   6.2121   6.2185

     occupation numbers 
     1.0000   1.0000   1.0000   1.0000   1.0000   1.0000   1.0000   1.0000
     1.0000   1.0000   1.0000   1.0000   1.0000   1.0000   1.0000   1.0000
     1.0000   1.0000   1.0000   1.0000   1.0000   1.0000   1.0000   1.0000
     1.0000   1.0000   1.0000   1.0000   1.0000   1.0000   1.0000   1.0000
     1.0000   1.0000   1.0000   1.0000   1.0000   1.0000   1.0000   1.0000
     1.0000   1.0000   1.0000   1.0000   1.0000   1.0000   1.0000   1.0000
     1.0000   1.0000   1.0000   1.0000   1.0000   1.0000   1.0000   1.0000
     1.0000   1.0000   1.0000   1.0000   1.0000   1.0000   1.0000   1.0000
     1.0000   1.0000   1.0000   1.0000   1.0000   1.0000   1.0000   1.0000
     1.0000   1.0000   1.0000   1.0000   1.0000   1.0000

          k = 0.3906 1.1508 0.2000 ( 43402 PWs)   bands (ev):

   -20.6852 -20.6845 -20.6684 -20.6677 -15.6638 -15.6638 -15.6547 -15.6547
   -15.6488 -15.6488 -15.5876 -15.5876 -15.5731 -15.5731  -7.0044  -6.9697
    -6.3886  -6.2964  -6.2336  -6.1470  -6.1284  -6.0425  -4.9255  -4.9015
    -4.8666  -4.8029  -4.7796  -4.7737  -4.7528  -4.7293  -4.7083  -4.6955
    -4.6226  -4.6135  -0.8814  -0.8339   1.3266   1.4209   1.6004   1.7416
     2.2078   2.3182   2.4274   2.4602   2.7758   2.9592   3.1517   3.2081
     3.2764   3.3200   3.3460   3.3671   3.4467   3.5714   3.7277   3.7749
     3.8117   3.8320   4.7716   4.8093   4.8233   4.8653   4.9919   5.0376
     5.0649   5.0904   5.1507   5.1883   5.2575   5.3254   5.8025   5.9079
     5.9571   6.0017   6.0489   6.0853   6.2001   6.2501

     occupation numbers 
     1.0000   1.0000   1.0000   1.0000   1.0000   1.0000   1.0000   1.0000
     1.0000   1.0000   1.0000   1.0000   1.0000   1.0000   1.0000   1.0000
     1.0000   1.0000   1.0000   1.0000   1.0000   1.0000   1.0000   1.0000
     1.0000   1.0000   1.0000   1.0000   1.0000   1.0000   1.0000   1.0000
     1.0000   1.0000   1.0000   1.0000   1.0000   1.0000   1.0000   1.0000
     1.0000   1.0000   1.0000   1.0000   1.0000   1.0000   1.0000   1.0000
     1.0000   1.0000   1.0000   1.0000   1.0000   1.0000   1.0000   1.0000
     1.0000   1.0000   1.0000   1.0000   1.0000   1.0000   1.0000   1.0000
     1.0000   1.0000   1.0000   1.0000   1.0000   1.0000   1.0000   1.0000
     1.0000   1.0000   1.0000   1.0000   1.0000   1.0000

          k = 0.4385 1.4729 0.4000 ( 43450 PWs)   bands (ev):

   -20.6976 -20.6862 -20.6674 -20.6562 -15.6639 -15.6638 -15.6545 -15.6545
   -15.6487 -15.6486 -15.5879 -15.5879 -15.5732 -15.5731  -7.1729  -6.9926
    -6.4691  -6.1646  -6.1404  -6.1141  -6.0185  -5.9932  -5.0023  -4.9322
    -4.8651  -4.8357  -4.7784  -4.7538  -4.7349  -4.7304  -4.7015  -4.6656
    -4.6380  -4.6249  -0.9305  -0.8696   1.5364   1.5655   1.7789   1.8287
     2.1611   2.3758   2.3967   2.5500   2.6955   2.9412   3.0960   3.1366
     3.2417   3.2484   3.3409   3.4052   3.4861   3.6142   3.7175   3.7301
     3.7962   3.9516   4.6449   4.6785   4.8150   4.8944   4.9260   4.9311
     5.0161   5.0908   5.2478   5.2818   5.3436   5.3573   5.6002   5.7509
     5.7892   5.9625   6.0266   6.0505   6.2111   6.2713

     occupation numbers 
     1.0000   1.0000   1.0000   1.0000   1.0000   1.0000   1.0000   1.0000
     1.0000   1.0000   1.0000   1.0000   1.0000   1.0000   1.0000   1.0000
     1.0000   1.0000   1.0000   1.0000   1.0000   1.0000   1.0000   1.0000
     1.0000   1.0000   1.0000   1.0000   1.0000   1.0000   1.0000   1.0000
     1.0000   1.0000   1.0000   1.0000   1.0000   1.0000   1.0000   1.0000
     1.0000   1.0000   1.0000   1.0000   1.0000   1.0000   1.0000   1.0000
     1.0000   1.0000   1.0000   1.0000   1.0000   1.0000   1.0000   1.0000
     1.0000   1.0000   1.0000   1.0000   1.0000   1.0000   1.0000   1.0000
     1.0000   1.0000   1.0000   1.0000   1.0000   1.0000   1.0000   1.0000
     1.0000   1.0000   1.0000   1.0000   1.0000   1.0000

          k = 0.2470 0.1847-0.4000 ( 43481 PWs)   bands (ev):

   -20.7043 -20.6805 -20.6736 -20.6499 -15.6639 -15.6637 -15.6544 -15.6543
   -15.6486 -15.6485 -15.5880 -15.5880 -15.5733 -15.5730  -7.2818  -6.9310
    -6.5796  -6.1422  -6.0562  -6.0546  -6.0162  -5.8953  -5.0612  -4.9975
    -4.8390  -4.8159  -4.8078  -4.7844  -4.7035  -4.7024  -4.6711  -4.6650
    -4.6455  -4.6424  -1.0056  -0.8508   1.6682   1.6783   1.8124   2.0626
     2.1180   2.1929   2.4644   2.6017   2.8289   2.8466   2.9926   3.1034
     3.2465   3.2987   3.3602   3.4539   3.4941   3.5398   3.6042   3.7318
     3.7652   4.1002   4.5724   4.5916   4.8365   4.8498   4.8628   4.9301
     5.0131   5.1589   5.2761   5.3066   5.3449   5.4357   5.4370   5.6051
     5.6470   5.9628   6.0144   6.0764   6.2065   6.2436

     occupation numbers 
     1.0000   1.0000   1.0000   1.0000   1.0000   1.0000   1.0000   1.0000
     1.0000   1.0000   1.0000   1.0000   1.0000   1.0000   1.0000   1.0000
     1.0000   1.0000   1.0000   1.0000   1.0000   1.0000   1.0000   1.0000
     1.0000   1.0000   1.0000   1.0000   1.0000   1.0000   1.0000   1.0000
     1.0000   1.0000   1.0000   1.0000   1.0000   1.0000   1.0000   1.0000
     1.0000   1.0000   1.0000   1.0000   1.0000   1.0000   1.0000   1.0000
     1.0000   1.0000   1.0000   1.0000   1.0000   1.0000   1.0000   1.0000
     1.0000   1.0000   1.0000   1.0000   1.0000   1.0000   1.0000   1.0000
     1.0000   1.0000   1.0000   1.0000   1.0000   1.0000   1.0000   1.0000
     1.0000   1.0000   1.0000   1.0000   1.0000   1.0000

          k = 0.2949 0.5067-0.2000 ( 43452 PWs)   bands (ev):

   -20.6991 -20.6819 -20.6716 -20.6547 -15.6639 -15.6638 -15.6545 -15.6544
   -15.6487 -15.6486 -15.5879 -15.5879 -15.5733 -15.5731  -7.1992  -6.9432
    -6.5346  -6.1625  -6.1052  -6.0838  -6.0234  -5.9970  -5.0223  -4.9267
    -4.8695  -4.8515  -4.7501  -4.7471  -4.7333  -4.7256  -4.7125  -4.6673
    -4.6510  -4.6250  -0.9503  -0.8520   1.5263   1.5405   1.8161   1.9143
     2.0981   2.3636   2.4054   2.5217   2.7118   2.9368   3.0692   3.1304
     3.2514   3.2715   3.3682   3.3866   3.5046   3.5967   3.6851   3.7172
     3.7987   4.0013   4.6442   4.6761   4.8012   4.8980   4.9258   4.9386
     5.0145   5.1259   5.2121   5.2724   5.3435   5.3710   5.5864   5.7611
     5.7876   5.9956   6.0322   6.0607   6.1614   6.2484

     occupation numbers 
     1.0000   1.0000   1.0000   1.0000   1.0000   1.0000   1.0000   1.0000
     1.0000   1.0000   1.0000   1.0000   1.0000   1.0000   1.0000   1.0000
     1.0000   1.0000   1.0000   1.0000   1.0000   1.0000   1.0000   1.0000
     1.0000   1.0000   1.0000   1.0000   1.0000   1.0000   1.0000   1.0000
     1.0000   1.0000   1.0000   1.0000   1.0000   1.0000   1.0000   1.0000
     1.0000   1.0000   1.0000   1.0000   1.0000   1.0000   1.0000   1.0000
     1.0000   1.0000   1.0000   1.0000   1.0000   1.0000   1.0000   1.0000
     1.0000   1.0000   1.0000   1.0000   1.0000   1.0000   1.0000   1.0000
     1.0000   1.0000   1.0000   1.0000   1.0000   1.0000   1.0000   1.0000
     1.0000   1.0000   1.0000   1.0000   1.0000   1.0000

          k = 0.3428-0.6609 0.0000 ( 43397 PWs)   bands (ev):

   -20.6865 -20.6829 -20.6700 -20.6665 -15.6638 -15.6638 -15.6547 -15.6547
   -15.6488 -15.6488 -15.5876 -15.5876 -15.5731 -15.5731  -7.0429  -6.9111
    -6.3620  -6.2948  -6.2715  -6.1992  -6.1089  -6.0402  -4.9218  -4.9079
    -4.8565  -4.7952  -4.7892  -4.7569  -4.7457  -4.7300  -4.7222  -4.6801
    -4.6396  -4.6012  -0.9104  -0.8039   1.2472   1.4259   1.6234   1.8603
     2.1297   2.3393   2.3941   2.4572   2.8331   2.9364   3.1528   3.2151
     3.2711   3.2879   3.3466   3.3765   3.4233   3.5700   3.7374   3.7452
     3.8059   3.8668   4.7674   4.8193   4.8316   4.8581   4.9846   5.0341
     5.0452   5.0929   5.1680   5.2033   5.2308   5.3601   5.7820   5.9384
     5.9444   6.0102   6.0454   6.1182   6.1295   6.3061

     occupation numbers 
     1.0000   1.0000   1.0000   1.0000   1.0000   1.0000   1.0000   1.0000
     1.0000   1.0000   1.0000   1.0000   1.0000   1.0000   1.0000   1.0000
     1.0000   1.0000   1.0000   1.0000   1.0000   1.0000   1.0000   1.0000
     1.0000   1.0000   1.0000   1.0000   1.0000   1.0000   1.0000   1.0000
     1.0000   1.0000   1.0000   1.0000   1.0000   1.0000   1.0000   1.0000
     1.0000   1.0000   1.0000   1.0000   1.0000   1.0000   1.0000   1.0000
     1.0000   1.0000   1.0000   1.0000   1.0000   1.0000   1.0000   1.0000
     1.0000   1.0000   1.0000   1.0000   1.0000   1.0000   1.0000   1.0000
     1.0000   1.0000   1.0000   1.0000   1.0000   1.0000   1.0000   1.0000
     1.0000   1.0000   1.0000   1.0000   1.0000   1.0000

          k = 0.3906-0.3388 0.2000 ( 43446 PWs)   bands (ev):

   -20.6937 -20.6921 -20.6616 -20.6599 -15.6638 -15.6638 -15.6545 -15.6545
   -15.6487 -15.6486 -15.5879 -15.5879 -15.5732 -15.5731  -7.1042  -7.0764
    -6.3568  -6.2179  -6.1657  -6.1474  -6.0787  -5.9491  -4.9683  -4.9450
    -4.8401  -4.8286  -4.8110  -4.7538  -4.7371  -4.7355  -4.6946  -4.6595
    -4.6278  -4.6243  -0.9184  -0.8774   1.5456   1.6133   1.6479   1.8255
     2.2347   2.2809   2.4398   2.5379   2.8146   2.9513   3.0102   3.1859
     3.2196   3.2473   3.3116   3.4183   3.4674   3.6582   3.7317   3.7751
     3.7818   3.8566   4.6382   4.6924   4.8459   4.8730   4.9116   4.9328
     5.0393   5.0478   5.2725   5.2977   5.3128   5.3752   5.6312   5.7119
     5.7727   5.9203   6.0326   6.0806   6.2520   6.2965

     occupation numbers 
     1.0000   1.0000   1.0000   1.0000   1.0000   1.0000   1.0000   1.0000
     1.0000   1.0000   1.0000   1.0000   1.0000   1.0000   1.0000   1.0000
     1.0000   1.0000   1.0000   1.0000   1.0000   1.0000   1.0000   1.0000
     1.0000   1.0000   1.0000   1.0000   1.0000   1.0000   1.0000   1.0000
     1.0000   1.0000   1.0000   1.0000   1.0000   1.0000   1.0000   1.0000
     1.0000   1.0000   1.0000   1.0000   1.0000   1.0000   1.0000   1.0000
     1.0000   1.0000   1.0000   1.0000   1.0000   1.0000   1.0000   1.0000
     1.0000   1.0000   1.0000   1.0000   1.0000   1.0000   1.0000   1.0000
     1.0000   1.0000   1.0000   1.0000   1.0000   1.0000   1.0000   1.0000
     1.0000   1.0000   1.0000   1.0000   1.0000   1.0000

          k = 0.4385-0.0168 0.4000 ( 43541 PWs)   bands (ev):

   -20.7021 -20.6883 -20.6658 -20.6521 -15.6639 -15.6637 -15.6544 -15.6543
   -15.6486 -15.6486 -15.5880 -15.5880 -15.5733 -15.5731  -7.2530  -7.0140
    -6.4761  -6.1218  -6.1158  -6.1069  -5.9465  -5.9303  -5.0266  -4.9895
    -4.8823  -4.8678  -4.7641  -4.7577  -4.7142  -4.7040  -4.6815  -4.6541
    -4.6450  -4.6427  -0.9706  -0.8847   1.6282   1.7089   1.8820   2.0162
     2.0718   2.1771   2.5607   2.6264   2.7425   2.8182   3.0716   3.1587
     3.1854   3.2653   3.3031   3.4770   3.4805   3.6086   3.6325   3.7173
     3.7364   4.0903   4.5639   4.6026   4.8382   4.8530   4.8999   4.9298
     5.0058   5.0647   5.3029   5.3452   5.3896   5.4113   5.4176   5.5866
     5.6179   5.9505   6.0572   6.1110   6.1890   6.2252

     occupation numbers 
     1.0000   1.0000   1.0000   1.0000   1.0000   1.0000   1.0000   1.0000
     1.0000   1.0000   1.0000   1.0000   1.0000   1.0000   1.0000   1.0000
     1.0000   1.0000   1.0000   1.0000   1.0000   1.0000   1.0000   1.0000
     1.0000   1.0000   1.0000   1.0000   1.0000   1.0000   1.0000   1.0000
     1.0000   1.0000   1.0000   1.0000   1.0000   1.0000   1.0000   1.0000
     1.0000   1.0000   1.0000   1.0000   1.0000   1.0000   1.0000   1.0000
     1.0000   1.0000   1.0000   1.0000   1.0000   1.0000   1.0000   1.0000
     1.0000   1.0000   1.0000   1.0000   1.0000   1.0000   1.0000   1.0000
     1.0000   1.0000   1.0000   1.0000   1.0000   1.0000   1.0000   1.0000
     1.0000   1.0000   1.0000   1.0000   1.0000   1.0000

          k = 0.2470-1.3050-0.4000 ( 43441 PWs)   bands (ev):

   -20.6994 -20.6800 -20.6736 -20.6544 -15.6639 -15.6638 -15.6545 -15.6544
   -15.6487 -15.6486 -15.5879 -15.5879 -15.5733 -15.5730  -7.2101  -6.9347
    -6.5630  -6.1522  -6.0700  -6.0499  -6.0321  -6.0083  -5.0269  -4.9313
    -4.8740  -4.8663  -4.7497  -4.7389  -4.7369  -4.7268  -4.7112  -4.6727
    -4.6564  -4.6264  -0.9496  -0.8565   1.5191   1.5517   1.8754   1.9204
     2.0858   2.3577   2.4024   2.5146   2.7214   2.9079   3.0202   3.1418
     3.2357   3.2728   3.3593   3.4177   3.5142   3.5951   3.6811   3.7163
     3.7901   4.0545   4.6358   4.6803   4.7936   4.9026   4.9270   4.9381
     5.0224   5.1379   5.1911   5.2702   5.3553   5.3589   5.5744   5.7283
     5.7909   6.0283   6.0535   6.0720   6.1294   6.2476

     occupation numbers 
     1.0000   1.0000   1.0000   1.0000   1.0000   1.0000   1.0000   1.0000
     1.0000   1.0000   1.0000   1.0000   1.0000   1.0000   1.0000   1.0000
     1.0000   1.0000   1.0000   1.0000   1.0000   1.0000   1.0000   1.0000
     1.0000   1.0000   1.0000   1.0000   1.0000   1.0000   1.0000   1.0000
     1.0000   1.0000   1.0000   1.0000   1.0000   1.0000   1.0000   1.0000
     1.0000   1.0000   1.0000   1.0000   1.0000   1.0000   1.0000   1.0000
     1.0000   1.0000   1.0000   1.0000   1.0000   1.0000   1.0000   1.0000
     1.0000   1.0000   1.0000   1.0000   1.0000   1.0000   1.0000   1.0000
     1.0000   1.0000   1.0000   1.0000   1.0000   1.0000   1.0000   1.0000
     1.0000   1.0000   1.0000   1.0000   1.0000   1.0000

          k = 0.2949-0.9829-0.2000 ( 43436 PWs)   bands (ev):

   -20.6877 -20.6806 -20.6722 -20.6654 -15.6638 -15.6638 -15.6547 -15.6547
   -15.6488 -15.6488 -15.5876 -15.5876 -15.5732 -15.5731  -7.0119  -6.9673
    -6.4863  -6.2320  -6.1986  -6.1619  -6.0844  -6.0259  -4.9455  -4.9228
    -4.8643  -4.8006  -4.7974  -4.7963  -4.7601  -4.7561  -4.7072  -4.6570
    -4.6168  -4.5976  -0.8708  -0.8454   1.2609   1.4047   1.8015   1.9105
     2.1408   2.1544   2.3491   2.4028   2.8265   3.0703   3.1106   3.1537
     3.2057   3.2691   3.3763   3.3930   3.4061   3.6793   3.7094   3.7583
     3.7878   3.9078   4.7549   4.7826   4.8142   4.9158   4.9807   5.0067
     5.0108   5.0765   5.1639   5.2689   5.2882   5.3320   5.8142   5.8775
     5.9509   6.0605   6.0867   6.1381   6.1797   6.1997

     occupation numbers 
     1.0000   1.0000   1.0000   1.0000   1.0000   1.0000   1.0000   1.0000
     1.0000   1.0000   1.0000   1.0000   1.0000   1.0000   1.0000   1.0000
     1.0000   1.0000   1.0000   1.0000   1.0000   1.0000   1.0000   1.0000
     1.0000   1.0000   1.0000   1.0000   1.0000   1.0000   1.0000   1.0000
     1.0000   1.0000   1.0000   1.0000   1.0000   1.0000   1.0000   1.0000
     1.0000   1.0000   1.0000   1.0000   1.0000   1.0000   1.0000   1.0000
     1.0000   1.0000   1.0000   1.0000   1.0000   1.0000   1.0000   1.0000
     1.0000   1.0000   1.0000   1.0000   1.0000   1.0000   1.0000   1.0000
     1.0000   1.0000   1.0000   1.0000   1.0000   1.0000   1.0000   1.0000
     1.0000   1.0000   1.0000   1.0000   1.0000   1.0000

          k = 0.3428-0.2885 0.0000 ( 43431 PWs)   bands (ev):

   -20.6966 -20.6883 -20.6653 -20.6572 -15.6638 -15.6638 -15.6545 -15.6545
   -15.6487 -15.6486 -15.5879 -15.5879 -15.5732 -15.5731  -7.1409  -7.0052
    -6.3556  -6.2408  -6.1830  -6.1718  -6.1018  -5.9372  -4.9900  -4.9269
    -4.8516  -4.7949  -4.7721  -4.7624  -4.7460  -4.7340  -4.6950  -4.6387
    -4.6334  -4.6289  -0.9571  -0.8334   1.4861   1.6088   1.6297   1.9125
     2.1269   2.2934   2.3882   2.6493   2.7755   2.9891   3.0155   3.1898
     3.2466   3.2813   3.3450   3.4329   3.4528   3.6283   3.7149   3.7209
     3.7845   3.8294   4.6423   4.6945   4.8393   4.8819   4.9003   4.9449
     4.9988   5.0907   5.2683   5.2809   5.2981   5.4138   5.6564   5.7044
     5.7989   5.9197   6.0128   6.0951   6.2414   6.2715

     occupation numbers 
     1.0000   1.0000   1.0000   1.0000   1.0000   1.0000   1.0000   1.0000
     1.0000   1.0000   1.0000   1.0000   1.0000   1.0000   1.0000   1.0000
     1.0000   1.0000   1.0000   1.0000   1.0000   1.0000   1.0000   1.0000
     1.0000   1.0000   1.0000   1.0000   1.0000   1.0000   1.0000   1.0000
     1.0000   1.0000   1.0000   1.0000   1.0000   1.0000   1.0000   1.0000
     1.0000   1.0000   1.0000   1.0000   1.0000   1.0000   1.0000   1.0000
     1.0000   1.0000   1.0000   1.0000   1.0000   1.0000   1.0000   1.0000
     1.0000   1.0000   1.0000   1.0000   1.0000   1.0000   1.0000   1.0000
     1.0000   1.0000   1.0000   1.0000   1.0000   1.0000   1.0000   1.0000
     1.0000   1.0000   1.0000   1.0000   1.0000   1.0000

          k = 0.3906 0.0336 0.2000 ( 43469 PWs)   bands (ev):

   -20.6974 -20.6954 -20.6587 -20.6567 -15.6638 -15.6638 -15.6544 -15.6544
   -15.6486 -15.6486 -15.5880 -15.5880 -15.5732 -15.5732  -7.1729  -7.1108
    -6.3277  -6.2303  -6.1737  -6.1228  -5.9704  -5.9033  -4.9829  -4.9779
    -4.9071  -4.9065  -4.7402  -4.7312  -4.7188  -4.7077  -4.6770  -4.6632
    -4.6432  -4.6154  -0.9307  -0.9140   1.6012   1.8022   1.8688   1.8866
     2.0765   2.1205   2.4659   2.6705   2.8237   2.9778   3.0358   3.0927
     3.1903   3.2875   3.2935   3.4578   3.5347   3.6426   3.6774   3.6865
     3.7479   3.9342   4.5652   4.6080   4.8420   4.8482   4.9398   4.9720
     4.9728   4.9774   5.3520   5.3577   5.3681   5.3832   5.4892   5.5464
     5.6694   5.9658   6.0211   6.1326   6.1708   6.2107

     occupation numbers 
     1.0000   1.0000   1.0000   1.0000   1.0000   1.0000   1.0000   1.0000
     1.0000   1.0000   1.0000   1.0000   1.0000   1.0000   1.0000   1.0000
     1.0000   1.0000   1.0000   1.0000   1.0000   1.0000   1.0000   1.0000
     1.0000   1.0000   1.0000   1.0000   1.0000   1.0000   1.0000   1.0000
     1.0000   1.0000   1.0000   1.0000   1.0000   1.0000   1.0000   1.0000
     1.0000   1.0000   1.0000   1.0000   1.0000   1.0000   1.0000   1.0000
     1.0000   1.0000   1.0000   1.0000   1.0000   1.0000   1.0000   1.0000
     1.0000   1.0000   1.0000   1.0000   1.0000   1.0000   1.0000   1.0000
     1.0000   1.0000   1.0000   1.0000   1.0000   1.0000   1.0000   1.0000
     1.0000   1.0000   1.0000   1.0000   1.0000   1.0000

          k = 0.4385 0.3556 0.4000 ( 43461 PWs)   bands (ev):

   -20.6976 -20.6862 -20.6674 -20.6562 -15.6639 -15.6638 -15.6545 -15.6545
   -15.6487 -15.6486 -15.5879 -15.5879 -15.5732 -15.5731  -7.1753  -6.9960
    -6.4771  -6.1587  -6.1208  -6.1055  -6.0405  -5.9787  -5.0025  -4.9350
    -4.8661  -4.8436  -4.7784  -4.7562  -4.7337  -4.7239  -4.7069  -4.6700
    -4.6380  -4.6250  -0.9248  -0.8770   1.5318   1.5764   1.7929   1.8280
     2.1684   2.3583   2.4316   2.5313   2.6871   2.9133   3.1218   3.1531
     3.2139   3.2488   3.3309   3.3855   3.4951   3.6225   3.7180   3.7340
     3.7905   3.9793   4.6382   4.6843   4.8125   4.8960   4.9283   4.9313
     5.0198   5.0877   5.2451   5.2828   5.3420   5.3568   5.5913   5.7479
     5.7682   5.9628   6.0460   6.0611   6.2046   6.2761

     occupation numbers 
     1.0000   1.0000   1.0000   1.0000   1.0000   1.0000   1.0000   1.0000
     1.0000   1.0000   1.0000   1.0000   1.0000   1.0000   1.0000   1.0000
     1.0000   1.0000   1.0000   1.0000   1.0000   1.0000   1.0000   1.0000
     1.0000   1.0000   1.0000   1.0000   1.0000   1.0000   1.0000   1.0000
     1.0000   1.0000   1.0000   1.0000   1.0000   1.0000   1.0000   1.0000
     1.0000   1.0000   1.0000   1.0000   1.0000   1.0000   1.0000   1.0000
     1.0000   1.0000   1.0000   1.0000   1.0000   1.0000   1.0000   1.0000
     1.0000   1.0000   1.0000   1.0000   1.0000   1.0000   1.0000   1.0000
     1.0000   1.0000   1.0000   1.0000   1.0000   1.0000   1.0000   1.0000
     1.0000   1.0000   1.0000   1.0000   1.0000   1.0000

          k = 0.2470-0.9326-0.4000 ( 43439 PWs)   bands (ev):

   -20.6878 -20.6801 -20.6727 -20.6652 -15.6638 -15.6638 -15.6547 -15.6547
   -15.6488 -15.6488 -15.5876 -15.5876 -15.5732 -15.5731  -7.0176  -6.9603
    -6.4907  -6.2347  -6.1951  -6.1511  -6.0850  -6.0334  -4.9457  -4.9245
    -4.8620  -4.8021  -4.7992  -4.7977  -4.7629  -4.7537  -4.7063  -4.6570
    -4.6118  -4.5992  -0.8666  -0.8500   1.2587   1.3910   1.8530   1.9517
     2.0977   2.1196   2.3419   2.3918   2.8544   3.0492   3.1161   3.1709
     3.2026   3.2523   3.3655   3.3946   3.4169   3.6832   3.7173   3.7598
     3.7768   3.9116   4.7565   4.7816   4.8127   4.9204   4.9848   4.9961
     5.0034   5.0743   5.1683   5.2748   5.2990   5.3255   5.8295   5.8656
     5.9521   6.0774   6.0875   6.1416   6.1673   6.1908

     occupation numbers 
     1.0000   1.0000   1.0000   1.0000   1.0000   1.0000   1.0000   1.0000
     1.0000   1.0000   1.0000   1.0000   1.0000   1.0000   1.0000   1.0000
     1.0000   1.0000   1.0000   1.0000   1.0000   1.0000   1.0000   1.0000
     1.0000   1.0000   1.0000   1.0000   1.0000   1.0000   1.0000   1.0000
     1.0000   1.0000   1.0000   1.0000   1.0000   1.0000   1.0000   1.0000
     1.0000   1.0000   1.0000   1.0000   1.0000   1.0000   1.0000   1.0000
     1.0000   1.0000   1.0000   1.0000   1.0000   1.0000   1.0000   1.0000
     1.0000   1.0000   1.0000   1.0000   1.0000   1.0000   1.0000   1.0000
     1.0000   1.0000   1.0000   1.0000   1.0000   1.0000   1.0000   1.0000
     1.0000   1.0000   1.0000   1.0000   1.0000   1.0000

          k = 0.2949-0.6105-0.2000 ( 43412 PWs)   bands (ev):

   -20.6877 -20.6806 -20.6722 -20.6654 -15.6638 -15.6638 -15.6547 -15.6547
   -15.6488 -15.6488 -15.5876 -15.5876 -15.5732 -15.5731  -7.0588  -6.8788
    -6.3558  -6.3414  -6.2470  -6.1873  -6.1128  -6.0599  -4.9460  -4.8872
    -4.8435  -4.7956  -4.7873  -4.7667  -4.7426  -4.7319  -4.7131  -4.6993
    -4.6198  -4.5983  -0.9198  -0.7952   1.1920   1.3924   1.7896   2.0067
     2.0421   2.1937   2.3169   2.4605   2.9150   2.9723   3.1700   3.1894
     3.2242   3.2933   3.3033   3.3623   3.4472   3.5696   3.7278   3.7700
     3.8122   3.8734   4.7737   4.8208   4.8420   4.8478   4.9637   5.0244
     5.0406   5.0579   5.1874   5.2378   5.2482   5.3736   5.8230   5.9313
     5.9384   5.9920   6.0390   6.1046   6.1695   6.2903

     occupation numbers 
     1.0000   1.0000   1.0000   1.0000   1.0000   1.0000   1.0000   1.0000
     1.0000   1.0000   1.0000   1.0000   1.0000   1.0000   1.0000   1.0000
     1.0000   1.0000   1.0000   1.0000   1.0000   1.0000   1.0000   1.0000
     1.0000   1.0000   1.0000   1.0000   1.0000   1.0000   1.0000   1.0000
     1.0000   1.0000   1.0000   1.0000   1.0000   1.0000   1.0000   1.0000
     1.0000   1.0000   1.0000   1.0000   1.0000   1.0000   1.0000   1.0000
     1.0000   1.0000   1.0000   1.0000   1.0000   1.0000   1.0000   1.0000
     1.0000   1.0000   1.0000   1.0000   1.0000   1.0000   1.0000   1.0000
     1.0000   1.0000   1.0000   1.0000   1.0000   1.0000   1.0000   1.0000
     1.0000   1.0000   1.0000   1.0000   1.0000   1.0000

     highest occupied level (ev):     6.3061

!    total energy              =   -1568.23795259 Ry
     estimated scf accuracy    <          3.9E-09 Ry

     The total energy is the sum of the following terms:
     one-electron contribution =    -580.32819904 Ry
     hartree contribution      =     398.95556886 Ry
     xc contribution           =    -371.73983866 Ry
     ewald contribution        =    -655.86398196 Ry
     one-center paw contrib.   =    -359.26150178 Ry
      -> PAW hartree energy AE =      97.79692743 Ry
      -> PAW hartree energy PS =     -97.05928734 Ry
      -> PAW xc energy AE      =    -134.95837439 Ry
      -> PAW xc energy PS      =      44.40535897 Ry
      -> total E_H with PAW    =     399.69320895 Ry
      -> total E_XC with PAW   =    -462.29285408 Ry

     convergence has been achieved in  16 iterations


     Computing stress (Cartesian axis) and pressure

          total   stress  (Ry/bohr**3)                   (kbar)     P=        2.81
   0.00002068   0.00000028   0.00000221            3.04        0.04        0.33
   0.00000028   0.00001693  -0.00000034            0.04        2.49       -0.05
   0.00000221  -0.00000034   0.00001961            0.33       -0.05        2.88

     kinetic stress (kbar)   7812.94     -4.42    -22.22
                               -4.42   7856.32      5.62
                              -22.22      5.62   7823.54

     local   stress (kbar)  -2097.77   3604.07  -6683.42
                             3604.07  -6037.76  -4569.01
                            -6683.42  -4569.01   1103.14

     nonloc. stress (kbar)   2094.58      0.41     -2.11
                                0.41   2095.85     -0.51
                               -2.11     -0.51   2095.58

     hartree stress (kbar)   6344.29  -1720.61   3135.93
                            -1720.61   8294.76   2181.28
                             3135.93   2181.28   4842.41

     exc-cor stress (kbar)   5916.64     -0.23      0.11
                               -0.23   5917.30      0.29
                                0.11      0.29   5916.58

     corecor stress (kbar)  -9314.33      0.29     -0.35
                                0.29  -9314.89     -0.37
                               -0.35     -0.37  -9314.16

     ewald   stress (kbar) -10753.31  -1879.46   3572.39
                            -1879.46  -8809.08   2382.65
                             3572.39   2382.65 -12464.21

     hubbard stress (kbar)      0.00      0.00      0.00
                                0.00      0.00      0.00
                                0.00      0.00      0.00

     DFT-D   stress (kbar)      0.00      0.00      0.00
                                0.00      0.00      0.00
                                0.00      0.00      0.00

     XDM     stress (kbar)      0.00      0.00      0.00
                                0.00      0.00      0.00
                                0.00      0.00      0.00

     dft-nl  stress (kbar)      0.00      0.00      0.00
                                0.00      0.00      0.00
                                0.00      0.00      0.00

     TS-vdW  stress (kbar)      0.00      0.00      0.00
                                0.00      0.00      0.00
                                0.00      0.00      0.00

     MDB     stress (kbar)      0.00      0.00      0.00
                                0.00      0.00      0.00
                                0.00      0.00      0.00

     3D-RISM stress (kbar)      0.00      0.00      0.00
                                0.00      0.00      0.00
                                0.00      0.00      0.00


     Writing all to output data dir ./tmp/k_3x5x5/Rb2Cu2SnS4_k_3x5x5.save/ :
     XML data file, charge density, pseudopotentials, collected wavefunctions

     init_run     :     29.35s CPU     29.62s WALL (       1 calls)
     electrons    :   1226.93s CPU  21678.27s WALL (       1 calls)
     stress       :     36.23s CPU     36.52s WALL (       1 calls)

     Called by init_run:
     wfcinit      :     27.94s CPU     28.16s WALL (       1 calls)
     wfcinit:atom :      0.07s CPU      0.07s WALL (      38 calls)
     wfcinit:wfcr :     27.00s CPU     27.20s WALL (      38 calls)
     potinit      :      0.47s CPU      0.48s WALL (       1 calls)
     hinit0       :      0.17s CPU      0.18s WALL (       1 calls)

     Called by electrons:
     c_bands      :   1051.09s CPU  15634.35s WALL (      16 calls)
     sum_band     :    158.02s CPU   5029.73s WALL (      16 calls)
     v_of_rho     :      3.83s CPU      3.93s WALL (      17 calls)
     v_h          :      0.27s CPU      0.27s WALL (      17 calls)
     v_xc         :      3.76s CPU      3.87s WALL (      18 calls)
     newd         :     10.63s CPU   1006.88s WALL (      17 calls)
     PAW_pot      :      3.43s CPU      3.46s WALL (      17 calls)
     mix_rho      :      0.57s CPU      0.59s WALL (      16 calls)

     Called by c_bands:
     init_us_2    :      4.79s CPU      4.84s WALL (    1292 calls)
     cegterg      :   1020.54s CPU  14695.14s WALL (     608 calls)

     Called by sum_band:
     sum_band:wei :      0.00s CPU      0.00s WALL (      16 calls)
     sum_band:loo :    145.81s CPU   4022.72s WALL (      16 calls)
     sum_band:buf :      0.39s CPU      0.40s WALL (     608 calls)
     sum_band:ini :      2.28s CPU      2.31s WALL (     608 calls)
     sum_band:cal :     28.96s CPU   1963.72s WALL (     608 calls)
     sum_band:bec :      0.04s CPU      0.04s WALL (     608 calls)
     addusdens    :     11.35s CPU   1006.13s WALL (      16 calls)
                                        0.00s GPU  (      16 calls)
     addusd:skk   :      0.04s CPU      0.05s WALL (      48 calls)
                                        0.00s GPU  (      48 calls)

     Called by *egterg:
     cdiaghg      :     10.40s CPU     10.50s WALL (    3146 calls)
     cegterg:over :     49.89s CPU   1049.20s WALL (    2538 calls)
     cegterg:upda :     30.10s CPU     30.39s WALL (    2538 calls)
     cegterg:last :     66.74s CPU   2635.42s WALL (    1439 calls)
     h_psi        :    781.88s CPU  10887.35s WALL (    3184 calls)
     s_psi        :     89.29s CPU     90.06s WALL (    3184 calls)
     g_psi        :      0.69s CPU      0.70s WALL (    2538 calls)

     Called by h_psi:
     h_psi:calbec :     87.09s CPU   1091.30s WALL (    3184 calls)
     vloc_psi     :    603.38s CPU   7201.24s WALL (    3184 calls)
                                        0.00s GPU  (    3184 calls)
     add_vuspsi   :     90.45s CPU   2593.82s WALL (    3184 calls)

     General routines
     calbec       :    144.18s CPU   3083.31s WALL (    4286 calls)
     fft          :      3.60s CPU      3.66s WALL (     233 calls)
     ffts         :      0.14s CPU      0.14s WALL (      33 calls)
     fftw         :    658.50s CPU   7350.89s WALL (  325166 calls)
     interpolate  :      0.32s CPU      0.32s WALL (      17 calls)

     Parallel routines

     PAW routines
     PAW_pot      :      3.43s CPU      3.46s WALL (      17 calls)
     PAW_symme    :      0.00s CPU      0.00s WALL (      33 calls)

     PWSCF        :  21m32.88s CPU      6h 2m WALL


   This run was terminated on:  18:44:14   2Jul2026            

=------------------------------------------------------------------------------=
   JOB DONE.
=------------------------------------------------------------------------------=
