
     Program PWSCF v.7.5 starts on  2Jul2026 at 20:39:54 
        Git branch: develop
        Last git commit: ea9b1b3d7915154c244e4a71786faaa0fdafa55c
        Last git commit date: Mon Mar 16 14:03:30 2026 +0000
        Last git commit subject: Merge branch 'dev_td_porting' into 'develop'

     This program is part of the open-source Quantum ESPRESSO suite
     for quantum simulation of materials; please cite
         "P. Giannozzi et al., J. Phys.:Condens. Matter 21 395502 (2009);
         "P. Giannozzi et al., J. Phys.:Condens. Matter 29 465901 (2017);
         "P. Giannozzi et al., J. Chem. Phys. 152 154105 (2020);
          URL http://www.quantum-espresso.org", 
     in publications or presentations arising from this work. More details at
     http://www.quantum-espresso.org/quote

     Parallel version (MPI), running on    12 processors

     MPI processes distributed on     1 nodes
     0 MiB available memory on the printing compute node when the environment starts

     Reading input from inputs/k_4x7x7.in
Warning: card &CELL ignored

     Current dimensions of program PWSCF are:
     Max number of different atomic species (ntypx) = 10
     Max number of k-points (npk) =  40000
     Max angular momentum in pseudopotentials (lmaxx) =  4
     file Cu.paw.z_11.ld1.psl.v1.0.0-low.upf: wavefunction(s)  4S 3D renormalized

     Exact exchange band parallelism type set to band_pairs

     Message from routine setup:
     using ibrav=0 with symmetry is DISCOURAGED, use correct ibrav instead

     K-points division:     npool     =       2
     R & G space division:  proc/nbgrp/npool/nimage =       6
     Subspace diagonalization in iterative solution of the eigenvalue problem:
     a serial algorithm will be used


     Parallelization info
     --------------------
     sticks:   dense  smooth     PW     G-vecs:    dense   smooth      PW
     Min        3063    1532    429               163833    57894    8643
     Max        3065    1533    430               163835    57895    8645
     Sum       18383    9197   2579               983005   347367   51867

     Using Slab Decomposition



     bravais-lattice index     =            0
     lattice parameter (alat)  =      17.9341  a.u.
     unit-cell volume          =    3012.5252 (a.u.)^3
     number of atoms/cell      =           18
     number of atomic types    =            4
     number of electrons       =       156.00
     number of Kohn-Sham states=           78
     kinetic-energy cutoff     =      90.0000  Ry
     charge density cutoff     =     720.0000  Ry
     scf convergence threshold =      1.0E-08
     mixing beta               =       0.3000
     number of iterations used =            8  plain     mixing
     Exchange-correlation= SLA  PW   PBE  PBE
                           (   1   4   3   4   0   0   0)

     celldm(1)=  17.934128  celldm(2)=   0.000000  celldm(3)=   0.000000
     celldm(4)=   0.000000  celldm(5)=   0.000000  celldm(6)=   0.000000

     crystal axes: (cart. coord. in units of alat)
               a(1) = (   0.972506   0.000000  -0.232877 )  
               a(2) = (  -0.131538   0.537029  -0.833245 )  
               a(3) = (   0.000000   0.000000   1.000000 )  

     reciprocal axes: (cart. coord. in units 2 pi/alat)
               b(1) = (  1.028271  0.251861 -0.000000 )  
               b(2) = ( -0.000000  1.862098  0.000000 )  
               b(3) = (  0.239461  1.610237  1.000000 )  


     PseudoPot. # 1 for Cu read from file:
     /Users/kaede/scientific-tools/pseudopotentials/SSSP/1.3.0/PBE/precision/Cu.paw.z_11.ld1.psl.v1.0.0-low.upf
     MD5 check sum: 619f40885d92a09a85a8b37550532d0c
     Pseudo is Projector augmented-wave + core cor, Zval = 11.0
     Generated using &quot;atomic&quot; code by A. Dal Corso  v.6.3MaX
     Shape of augmentation charge: PSQ
     Using radial grid of 1199 points,  6 beta functions with: 
                l(1) =   0
                l(2) =   0
                l(3) =   1
                l(4) =   1
                l(5) =   2
                l(6) =   2
     Q(r) pseudized with 0 coefficients 


     PseudoPot. # 2 for Rb read from file:
     /Users/kaede/scientific-tools/pseudopotentials/SSSP/1.3.0/PBE/precision/Rb_ONCV_PBE-1.0.oncvpsp.upf
     MD5 check sum: 55a5172d6bfbce6759a58e35d43f6aa9
     Pseudo is Norm-conserving, Zval =  9.0
     Generated using ONCVPSP code by D. R. Hamann
     Using radial grid of 2308 points,  6 beta functions with: 
                l(1) =   0
                l(2) =   0
                l(3) =   1
                l(4) =   1
                l(5) =   2
                l(6) =   2

     PseudoPot. # 3 for S  read from file:
     /Users/kaede/scientific-tools/pseudopotentials/SSSP/1.3.0/PBE/precision/s_pbe_v1.4.uspp.F.UPF
     MD5 check sum: 88d86576ff6df21479756cfb9bdac1df
     Pseudo is Ultrasoft + core correction, Zval =  6.0
     Generated by new atomic code, or converted to UPF format
     Using radial grid of  907 points,  6 beta functions with: 
                l(1) =   0
                l(2) =   0
                l(3) =   1
                l(4) =   1
                l(5) =   2
                l(6) =   2
     Q(r) pseudized with  8 coefficients,  rinner =    1.300   1.300   1.300
                                                       1.300   1.300

     PseudoPot. # 4 for Sn read from file:
     /Users/kaede/scientific-tools/pseudopotentials/SSSP/1.3.0/PBE/precision/Sn_pbe_v1.uspp.F.UPF
     MD5 check sum: 4cf58ce39ec5d5d420df3dd08604eb00
     Pseudo is Ultrasoft + core correction, Zval = 14.0
     Generated by new atomic code, or converted to UPF format
     Using radial grid of  891 points,  6 beta functions with: 
                l(1) =   0
                l(2) =   0
                l(3) =   1
                l(4) =   1
                l(5) =   2
                l(6) =   2
     Q(r) pseudized with  6 coefficients,  rinner =    1.200   1.200   1.200
                                                       1.200   1.200

     atomic species   valence    mass     pseudopotential
     Cu               11.00    63.54600     Cu( 1.00)
     Rb                9.00    85.46780     Rb( 1.00)
     S                 6.00    32.06500     S ( 1.00)
     Sn               14.00   118.71000     Sn( 1.00)

      2 Sym. Ops., with inversion, found


                                    s                        frac. trans.

      isym =  1     identity                                     

 cryst.   s( 1) = (     1          0          0      )
                  (     0          1          0      )
                  (     0          0          1      )

 cart.    s( 1) = (  1.0000000 -0.0000000  0.0000000 )
                  (  0.0000000  1.0000000  0.0000000 )
                  (  0.0000000  0.0000000  1.0000000 )


      isym =  2     inversion                                    

 cryst.   s( 2) = (    -1          0          0      )
                  (     0         -1          0      )
                  (     0          0         -1      )

 cart.    s( 2) = ( -1.0000000  0.0000000  0.0000000 )
                  (  0.0000000 -1.0000000  0.0000000 )
                  ( -0.0000000 -0.0000000 -1.0000000 )


   Cartesian axes

     site n.     atom                  positions (alat units)
         1        Rb     tau(   1) = (   0.0251088   0.3911465   0.2168349  )
         2        Rb     tau(   2) = (   0.8158597   0.1458822  -0.2829575  )
         3        Rb     tau(   3) = (   0.3353014   0.1226321   0.3262616  )
         4        Rb     tau(   4) = (   0.5056670   0.4143966  -0.3923843  )
         5        Cu     tau(   5) = (  -0.0747879   0.4027716  -0.3561089  )
         6        Cu     tau(   6) = (   0.9157564   0.1342572   0.2899862  )
         7        Cu     tau(   7) = (   0.3637345   0.4027716  -0.0101979  )
         8        Cu     tau(   8) = (   0.4772340   0.1342572  -0.0559248  )
         9        Sn     tau(   9) = (   0.2102421   0.1342572  -0.2665307  )
        10        Sn     tau(  10) = (   0.6307264   0.4027716  -0.7995920  )
        11        S      tau(  11) = (  -0.1047294   0.4936352  -0.1316011  )
        12        S      tau(  12) = (   0.9456979   0.0433935   0.0654784  )
        13        S      tau(  13) = (   0.2235010   0.2032369  -0.0189694  )
        14        S      tau(  14) = (   0.6174675   0.3337918  -0.0471533  )
        15        S      tau(  15) = (   0.4540847   0.0652775   0.6887123  )
        16        S      tau(  16) = (   0.3868838   0.4717513  -0.7548350  )
        17        S      tau(  17) = (   0.1365746   0.3119079  -0.4375099  )
        18        S      tau(  18) = (   0.7043939   0.2251208   0.3713873  )

   Crystallographic axes

     site n.     atom                  positions (cryst. coord.)
         1        Rb     tau(   1) = (  0.1243330  0.7283530  0.8526860  )
         2        Rb     tau(   2) = (  0.8756670  0.2716470  0.1473140  )
         3        Rb     tau(   3) = (  0.3756670  0.2283530  0.6040200  )
         4        Rb     tau(   4) = (  0.6243330  0.7716470  0.3959800  )
         5        Cu     tau(   5) = (  0.0245400  0.7500000  0.2745400  )
         6        Cu     tau(   6) = (  0.9754600  0.2500000  0.7254600  )
         7        Cu     tau(   7) = (  0.4754600  0.7500000  0.7254600  )
         8        Cu     tau(   8) = (  0.5245400  0.2500000  0.2745400  )
         9        Sn     tau(   9) = (  0.2500000  0.2500000 -0.0000000  )
        10        Sn     tau(  10) = (  0.7500000  0.7500000  0.0000000  )
        11        S      tau(  11) = (  0.0166370  0.9191970  0.6381900  )
        12        S      tau(  12) = (  0.9833630  0.0808030  0.3618100  )
        13        S      tau(  13) = (  0.2810070  0.3784470  0.3618100  )
        14        S      tau(  14) = (  0.7189930  0.6215530  0.6381900  )
        15        S      tau(  15) = (  0.4833630  0.1215530  0.9025600  )
        16        S      tau(  16) = (  0.5166370  0.8784470  0.0974400  )
        17        S      tau(  17) = (  0.2189930  0.5808030  0.0974400  )
        18        S      tau(  18) = (  0.7810070  0.4191970  0.9025600  )

     number of k points=    99
                       cart. coord. in units 2pi/alat
        k(    1) = (   0.0000000   0.0000000   0.0000000), wk =   0.0102041
        k(    2) = (   0.0342087   0.2300339   0.1428571), wk =   0.0204082
        k(    3) = (   0.0684174   0.4600677   0.2857143), wk =   0.0204082
        k(    4) = (   0.1026261   0.6901016   0.4285714), wk =   0.0204082
        k(    5) = (   0.0000000   0.2660140   0.0000000), wk =   0.0204082
        k(    6) = (   0.0342087   0.4960478   0.1428571), wk =   0.0204082
        k(    7) = (   0.0684174   0.7260817   0.2857143), wk =   0.0204082
        k(    8) = (   0.1026261   0.9561155   0.4285714), wk =   0.0204082
        k(    9) = (  -0.1026261  -0.4240876  -0.4285714), wk =   0.0204082
        k(   10) = (  -0.0684174  -0.1940538  -0.2857143), wk =   0.0204082
        k(   11) = (  -0.0342087   0.0359801  -0.1428571), wk =   0.0204082
        k(   12) = (   0.0000000   0.5320279   0.0000000), wk =   0.0204082
        k(   13) = (   0.0342087   0.7620618   0.1428571), wk =   0.0204082
        k(   14) = (   0.0684174   0.9920956   0.2857143), wk =   0.0204082
        k(   15) = (   0.1026261   1.2221295   0.4285714), wk =   0.0204082
        k(   16) = (  -0.1026261  -0.1580737  -0.4285714), wk =   0.0204082
        k(   17) = (  -0.0684174   0.0719602  -0.2857143), wk =   0.0204082
        k(   18) = (  -0.0342087   0.3019941  -0.1428571), wk =   0.0204082
        k(   19) = (   0.0000000   0.7980419   0.0000000), wk =   0.0204082
        k(   20) = (   0.0342087   1.0280757   0.1428571), wk =   0.0204082
        k(   21) = (   0.0684174   1.2581096   0.2857143), wk =   0.0204082
        k(   22) = (   0.1026261   1.4881435   0.4285714), wk =   0.0204082
        k(   23) = (  -0.1026261   0.1079403  -0.4285714), wk =   0.0204082
        k(   24) = (  -0.0684174   0.3379741  -0.2857143), wk =   0.0204082
        k(   25) = (  -0.0342087   0.5680080  -0.1428571), wk =   0.0204082
        k(   26) = (   0.2570678   0.0629651   0.0000000), wk =   0.0204082
        k(   27) = (   0.2912765   0.2929990   0.1428571), wk =   0.0204082
        k(   28) = (   0.3254852   0.5230329   0.2857143), wk =   0.0204082
        k(   29) = (   0.3596939   0.7530667   0.4285714), wk =   0.0204082
        k(   30) = (   0.1544417  -0.6271364  -0.4285714), wk =   0.0204082
        k(   31) = (   0.1886504  -0.3971026  -0.2857143), wk =   0.0204082
        k(   32) = (   0.2228591  -0.1670687  -0.1428571), wk =   0.0204082
        k(   33) = (   0.2570678   0.3289791   0.0000000), wk =   0.0204082
        k(   34) = (   0.2912765   0.5590130   0.1428571), wk =   0.0204082
        k(   35) = (   0.3254852   0.7890468   0.2857143), wk =   0.0204082
        k(   36) = (   0.3596939   1.0190807   0.4285714), wk =   0.0204082
        k(   37) = (   0.1544417  -0.3611225  -0.4285714), wk =   0.0204082
        k(   38) = (   0.1886504  -0.1310886  -0.2857143), wk =   0.0204082
        k(   39) = (   0.2228591   0.0989452  -0.1428571), wk =   0.0204082
        k(   40) = (   0.2570678   0.5949931   0.0000000), wk =   0.0204082
        k(   41) = (   0.2912765   0.8250269   0.1428571), wk =   0.0204082
        k(   42) = (   0.3254852   1.0550608   0.2857143), wk =   0.0204082
        k(   43) = (   0.3596939   1.2850947   0.4285714), wk =   0.0204082
        k(   44) = (   0.1544417  -0.0951085  -0.4285714), wk =   0.0204082
        k(   45) = (   0.1886504   0.1349253  -0.2857143), wk =   0.0204082
        k(   46) = (   0.2228591   0.3649592  -0.1428571), wk =   0.0204082
        k(   47) = (   0.2570678   0.8610070   0.0000000), wk =   0.0204082
        k(   48) = (   0.2912765   1.0910409   0.1428571), wk =   0.0204082
        k(   49) = (   0.3254852   1.3210747   0.2857143), wk =   0.0204082
        k(   50) = (   0.3596939   1.5511086   0.4285714), wk =   0.0204082
        k(   51) = (   0.1544417   0.1709054  -0.4285714), wk =   0.0204082
        k(   52) = (   0.1886504   0.4009393  -0.2857143), wk =   0.0204082
        k(   53) = (   0.2228591   0.6309732  -0.1428571), wk =   0.0204082
        k(   54) = (   0.2570678  -0.7350767   0.0000000), wk =   0.0204082
        k(   55) = (   0.2912765  -0.5050429   0.1428571), wk =   0.0204082
        k(   56) = (   0.3254852  -0.2750090   0.2857143), wk =   0.0204082
        k(   57) = (   0.3596939  -0.0449751   0.4285714), wk =   0.0204082
        k(   58) = (   0.1544417  -1.4251783  -0.4285714), wk =   0.0204082
        k(   59) = (   0.1886504  -1.1951445  -0.2857143), wk =   0.0204082
        k(   60) = (   0.2228591  -0.9651106  -0.1428571), wk =   0.0204082
        k(   61) = (   0.2570678  -0.4690628   0.0000000), wk =   0.0204082
        k(   62) = (   0.2912765  -0.2390289   0.1428571), wk =   0.0204082
        k(   63) = (   0.3254852  -0.0089950   0.2857143), wk =   0.0204082
        k(   64) = (   0.3596939   0.2210388   0.4285714), wk =   0.0204082
        k(   65) = (   0.1544417  -1.1591644  -0.4285714), wk =   0.0204082
        k(   66) = (   0.1886504  -0.9291305  -0.2857143), wk =   0.0204082
        k(   67) = (   0.2228591  -0.6990966  -0.1428571), wk =   0.0204082
        k(   68) = (   0.2570678  -0.2030488   0.0000000), wk =   0.0204082
        k(   69) = (   0.2912765   0.0269851   0.1428571), wk =   0.0204082
        k(   70) = (   0.3254852   0.2570189   0.2857143), wk =   0.0204082
        k(   71) = (   0.3596939   0.4870528   0.4285714), wk =   0.0204082
        k(   72) = (   0.1544417  -0.8931504  -0.4285714), wk =   0.0204082
        k(   73) = (   0.1886504  -0.6631165  -0.2857143), wk =   0.0204082
        k(   74) = (   0.2228591  -0.4330827  -0.1428571), wk =   0.0204082
        k(   75) = (  -0.5141356  -0.1259303   0.0000000), wk =   0.0102041
        k(   76) = (  -0.4799269   0.1041036   0.1428571), wk =   0.0204082
        k(   77) = (  -0.4457182   0.3341374   0.2857143), wk =   0.0204082
        k(   78) = (  -0.4115095   0.5641713   0.4285714), wk =   0.0204082
        k(   79) = (  -0.5141356   0.1400837   0.0000000), wk =   0.0204082
        k(   80) = (  -0.4799269   0.3701175   0.1428571), wk =   0.0204082
        k(   81) = (  -0.4457182   0.6001514   0.2857143), wk =   0.0204082
        k(   82) = (  -0.4115095   0.8301853   0.4285714), wk =   0.0204082
        k(   83) = (  -0.6167617  -0.5500179  -0.4285714), wk =   0.0204082
        k(   84) = (  -0.5825530  -0.3199841  -0.2857143), wk =   0.0204082
        k(   85) = (  -0.5483443  -0.0899502  -0.1428571), wk =   0.0204082
        k(   86) = (  -0.5141356   0.4060976   0.0000000), wk =   0.0204082
        k(   87) = (  -0.4799269   0.6361315   0.1428571), wk =   0.0204082
        k(   88) = (  -0.4457182   0.8661653   0.2857143), wk =   0.0204082
        k(   89) = (  -0.4115095   1.0961992   0.4285714), wk =   0.0204082
        k(   90) = (  -0.6167617  -0.2840040  -0.4285714), wk =   0.0204082
        k(   91) = (  -0.5825530  -0.0539701  -0.2857143), wk =   0.0204082
        k(   92) = (  -0.5483443   0.1760638  -0.1428571), wk =   0.0204082
        k(   93) = (  -0.5141356   0.6721116   0.0000000), wk =   0.0204082
        k(   94) = (  -0.4799269   0.9021454   0.1428571), wk =   0.0204082
        k(   95) = (  -0.4457182   1.1321793   0.2857143), wk =   0.0204082
        k(   96) = (  -0.4115095   1.3622132   0.4285714), wk =   0.0204082
        k(   97) = (  -0.6167617  -0.0179900  -0.4285714), wk =   0.0204082
        k(   98) = (  -0.5825530   0.2120439  -0.2857143), wk =   0.0204082
        k(   99) = (  -0.5483443   0.4420777  -0.1428571), wk =   0.0204082

                       cryst. coord.
        k(    1) = (   0.0000000   0.0000000   0.0000000), wk =   0.0102041
        k(    2) = (   0.0000000   0.0000000   0.1428571), wk =   0.0204082
        k(    3) = (   0.0000000   0.0000000   0.2857143), wk =   0.0204082
        k(    4) = (   0.0000000   0.0000000   0.4285714), wk =   0.0204082
        k(    5) = (   0.0000000   0.1428571   0.0000000), wk =   0.0204082
        k(    6) = (   0.0000000   0.1428571   0.1428571), wk =   0.0204082
        k(    7) = (   0.0000000   0.1428571   0.2857143), wk =   0.0204082
        k(    8) = (   0.0000000   0.1428571   0.4285714), wk =   0.0204082
        k(    9) = (  -0.0000000   0.1428571  -0.4285714), wk =   0.0204082
        k(   10) = (  -0.0000000   0.1428571  -0.2857143), wk =   0.0204082
        k(   11) = (  -0.0000000   0.1428571  -0.1428571), wk =   0.0204082
        k(   12) = (   0.0000000   0.2857143   0.0000000), wk =   0.0204082
        k(   13) = (   0.0000000   0.2857143   0.1428571), wk =   0.0204082
        k(   14) = (   0.0000000   0.2857143   0.2857143), wk =   0.0204082
        k(   15) = (   0.0000000   0.2857143   0.4285714), wk =   0.0204082
        k(   16) = (  -0.0000000   0.2857143  -0.4285714), wk =   0.0204082
        k(   17) = (  -0.0000000   0.2857143  -0.2857143), wk =   0.0204082
        k(   18) = (  -0.0000000   0.2857143  -0.1428571), wk =   0.0204082
        k(   19) = (   0.0000000   0.4285714   0.0000000), wk =   0.0204082
        k(   20) = (   0.0000000   0.4285714   0.1428571), wk =   0.0204082
        k(   21) = (   0.0000000   0.4285714   0.2857143), wk =   0.0204082
        k(   22) = (   0.0000000   0.4285714   0.4285714), wk =   0.0204082
        k(   23) = (  -0.0000000   0.4285714  -0.4285714), wk =   0.0204082
        k(   24) = (  -0.0000000   0.4285714  -0.2857143), wk =   0.0204082
        k(   25) = (  -0.0000000   0.4285714  -0.1428571), wk =   0.0204082
        k(   26) = (   0.2500000   0.0000000   0.0000000), wk =   0.0204082
        k(   27) = (   0.2500000   0.0000000   0.1428571), wk =   0.0204082
        k(   28) = (   0.2500000   0.0000000   0.2857143), wk =   0.0204082
        k(   29) = (   0.2500000   0.0000000   0.4285714), wk =   0.0204082
        k(   30) = (   0.2500000  -0.0000000  -0.4285714), wk =   0.0204082
        k(   31) = (   0.2500000  -0.0000000  -0.2857143), wk =   0.0204082
        k(   32) = (   0.2500000  -0.0000000  -0.1428571), wk =   0.0204082
        k(   33) = (   0.2500000   0.1428571   0.0000000), wk =   0.0204082
        k(   34) = (   0.2500000   0.1428571   0.1428571), wk =   0.0204082
        k(   35) = (   0.2500000   0.1428571   0.2857143), wk =   0.0204082
        k(   36) = (   0.2500000   0.1428571   0.4285714), wk =   0.0204082
        k(   37) = (   0.2500000   0.1428571  -0.4285714), wk =   0.0204082
        k(   38) = (   0.2500000   0.1428571  -0.2857143), wk =   0.0204082
        k(   39) = (   0.2500000   0.1428571  -0.1428571), wk =   0.0204082
        k(   40) = (   0.2500000   0.2857143   0.0000000), wk =   0.0204082
        k(   41) = (   0.2500000   0.2857143   0.1428571), wk =   0.0204082
        k(   42) = (   0.2500000   0.2857143   0.2857143), wk =   0.0204082
        k(   43) = (   0.2500000   0.2857143   0.4285714), wk =   0.0204082
        k(   44) = (   0.2500000   0.2857143  -0.4285714), wk =   0.0204082
        k(   45) = (   0.2500000   0.2857143  -0.2857143), wk =   0.0204082
        k(   46) = (   0.2500000   0.2857143  -0.1428571), wk =   0.0204082
        k(   47) = (   0.2500000   0.4285714   0.0000000), wk =   0.0204082
        k(   48) = (   0.2500000   0.4285714   0.1428571), wk =   0.0204082
        k(   49) = (   0.2500000   0.4285714   0.2857143), wk =   0.0204082
        k(   50) = (   0.2500000   0.4285714   0.4285714), wk =   0.0204082
        k(   51) = (   0.2500000   0.4285714  -0.4285714), wk =   0.0204082
        k(   52) = (   0.2500000   0.4285714  -0.2857143), wk =   0.0204082
        k(   53) = (   0.2500000   0.4285714  -0.1428571), wk =   0.0204082
        k(   54) = (   0.2500000  -0.4285714   0.0000000), wk =   0.0204082
        k(   55) = (   0.2500000  -0.4285714   0.1428571), wk =   0.0204082
        k(   56) = (   0.2500000  -0.4285714   0.2857143), wk =   0.0204082
        k(   57) = (   0.2500000  -0.4285714   0.4285714), wk =   0.0204082
        k(   58) = (   0.2500000  -0.4285714  -0.4285714), wk =   0.0204082
        k(   59) = (   0.2500000  -0.4285714  -0.2857143), wk =   0.0204082
        k(   60) = (   0.2500000  -0.4285714  -0.1428571), wk =   0.0204082
        k(   61) = (   0.2500000  -0.2857143   0.0000000), wk =   0.0204082
        k(   62) = (   0.2500000  -0.2857143   0.1428571), wk =   0.0204082
        k(   63) = (   0.2500000  -0.2857143   0.2857143), wk =   0.0204082
        k(   64) = (   0.2500000  -0.2857143   0.4285714), wk =   0.0204082
        k(   65) = (   0.2500000  -0.2857143  -0.4285714), wk =   0.0204082
        k(   66) = (   0.2500000  -0.2857143  -0.2857143), wk =   0.0204082
        k(   67) = (   0.2500000  -0.2857143  -0.1428571), wk =   0.0204082
        k(   68) = (   0.2500000  -0.1428571   0.0000000), wk =   0.0204082
        k(   69) = (   0.2500000  -0.1428571   0.1428571), wk =   0.0204082
        k(   70) = (   0.2500000  -0.1428571   0.2857143), wk =   0.0204082
        k(   71) = (   0.2500000  -0.1428571   0.4285714), wk =   0.0204082
        k(   72) = (   0.2500000  -0.1428571  -0.4285714), wk =   0.0204082
        k(   73) = (   0.2500000  -0.1428571  -0.2857143), wk =   0.0204082
        k(   74) = (   0.2500000  -0.1428571  -0.1428571), wk =   0.0204082
        k(   75) = (  -0.5000000  -0.0000000   0.0000000), wk =   0.0102041
        k(   76) = (  -0.5000000   0.0000000   0.1428571), wk =   0.0204082
        k(   77) = (  -0.5000000   0.0000000   0.2857143), wk =   0.0204082
        k(   78) = (  -0.5000000   0.0000000   0.4285714), wk =   0.0204082
        k(   79) = (  -0.5000000   0.1428571   0.0000000), wk =   0.0204082
        k(   80) = (  -0.5000000   0.1428571   0.1428571), wk =   0.0204082
        k(   81) = (  -0.5000000   0.1428571   0.2857143), wk =   0.0204082
        k(   82) = (  -0.5000000   0.1428571   0.4285714), wk =   0.0204082
        k(   83) = (  -0.5000000   0.1428571  -0.4285714), wk =   0.0204082
        k(   84) = (  -0.5000000   0.1428571  -0.2857143), wk =   0.0204082
        k(   85) = (  -0.5000000   0.1428571  -0.1428571), wk =   0.0204082
        k(   86) = (  -0.5000000   0.2857143   0.0000000), wk =   0.0204082
        k(   87) = (  -0.5000000   0.2857143   0.1428571), wk =   0.0204082
        k(   88) = (  -0.5000000   0.2857143   0.2857143), wk =   0.0204082
        k(   89) = (  -0.5000000   0.2857143   0.4285714), wk =   0.0204082
        k(   90) = (  -0.5000000   0.2857143  -0.4285714), wk =   0.0204082
        k(   91) = (  -0.5000000   0.2857143  -0.2857143), wk =   0.0204082
        k(   92) = (  -0.5000000   0.2857143  -0.1428571), wk =   0.0204082
        k(   93) = (  -0.5000000   0.4285714   0.0000000), wk =   0.0204082
        k(   94) = (  -0.5000000   0.4285714   0.1428571), wk =   0.0204082
        k(   95) = (  -0.5000000   0.4285714   0.2857143), wk =   0.0204082
        k(   96) = (  -0.5000000   0.4285714   0.4285714), wk =   0.0204082
        k(   97) = (  -0.5000000   0.4285714  -0.4285714), wk =   0.0204082
        k(   98) = (  -0.5000000   0.4285714  -0.2857143), wk =   0.0204082
        k(   99) = (  -0.5000000   0.4285714  -0.1428571), wk =   0.0204082

     Dense  grid:   983005 G-vectors     FFT dimensions: ( 160, 160, 160)

     Smooth grid:   347367 G-vectors     FFT dimensions: ( 120, 120, 120)

     Dynamical RAM for                 wfc:       8.62 MB

     Dynamical RAM for     wfc (w. buffer):     439.40 MB

     Dynamical RAM for           str. fact:      10.00 MB

     Dynamical RAM for           local pot:       0.00 MB

     Dynamical RAM for          nlocal pot:      35.79 MB

     Dynamical RAM for                qrad:       8.61 MB

     Dynamical RAM for          rho,v,vnew:      23.32 MB

     Dynamical RAM for               rhoin:       7.77 MB

     Dynamical RAM for            rho*nmix:      40.00 MB

     Dynamical RAM for           G-vectors:       9.82 MB

     Dynamical RAM for          h,s,v(r/c):       1.11 MB

     Dynamical RAM for          <psi|beta>:       0.39 MB

     Dynamical RAM for                 psi:      17.23 MB

     Dynamical RAM for                hpsi:      17.23 MB

     Dynamical RAM for                spsi:      17.23 MB

     Dynamical RAM for      wfcinit/wfcrot:      17.37 MB

     Dynamical RAM for           addusdens:     243.74 MB

     Dynamical RAM for         addusstress:     251.87 MB

     Estimated static dynamical RAM per process >     573.58 MB

     Estimated max dynamical RAM per process >     865.44 MB

     Estimated total dynamical RAM >       9.91 GB

     Initial potential from superposition of free atoms

     starting charge     153.8996, renormalised to     156.0000
     Starting wfcs are  106 randomized atomic wfcs
     Checking if some PAW data can be deallocated... 
       PAW data deallocated on   10 nodes for type:  1

     total cpu time spent up to now is       43.3 secs

     Self-consistent Calculation

     iteration #  1     ecut=    90.00 Ry     beta= 0.30
     Davidson diagonalization with overlap

---- Real-time Memory Report at c_bands before calling an iterative solver
             0 MiB given to the printing process from OS
             0 MiB allocation reported by mallinfo(arena+hblkhd)
             0 MiB available memory on the node where the printing process lives
------------------
     ethr =  1.00E-02,  avg # of iterations =  2.0

     total cpu time spent up to now is      140.8 secs

     total energy              =   -1567.61865958 Ry
     estimated scf accuracy    <       2.31110098 Ry

     iteration #  2     ecut=    90.00 Ry     beta= 0.30
     Davidson diagonalization with overlap

---- Real-time Memory Report at c_bands before calling an iterative solver
             0 MiB given to the printing process from OS
             0 MiB allocation reported by mallinfo(arena+hblkhd)
             0 MiB available memory on the node where the printing process lives
------------------
     ethr =  1.48E-03,  avg # of iterations =  4.8

     total cpu time spent up to now is      256.7 secs

     total energy              =   -1568.17155427 Ry
     estimated scf accuracy    <       0.70330930 Ry

     iteration #  3     ecut=    90.00 Ry     beta= 0.30
     Davidson diagonalization with overlap

---- Real-time Memory Report at c_bands before calling an iterative solver
             0 MiB given to the printing process from OS
             0 MiB allocation reported by mallinfo(arena+hblkhd)
             0 MiB available memory on the node where the printing process lives
------------------
     ethr =  4.51E-04,  avg # of iterations =  2.0

     total cpu time spent up to now is      346.8 secs

     total energy              =   -1568.18627627 Ry
     estimated scf accuracy    <       0.11978333 Ry

     iteration #  4     ecut=    90.00 Ry     beta= 0.30
     Davidson diagonalization with overlap

---- Real-time Memory Report at c_bands before calling an iterative solver
             0 MiB given to the printing process from OS
             0 MiB allocation reported by mallinfo(arena+hblkhd)
             0 MiB available memory on the node where the printing process lives
------------------
     ethr =  7.68E-05,  avg # of iterations =  6.3

     total cpu time spent up to now is      479.1 secs

     total energy              =   -1568.20805485 Ry
     estimated scf accuracy    <       0.18642625 Ry

     iteration #  5     ecut=    90.00 Ry     beta= 0.30
     Davidson diagonalization with overlap

---- Real-time Memory Report at c_bands before calling an iterative solver
             0 MiB given to the printing process from OS
             0 MiB allocation reported by mallinfo(arena+hblkhd)
             0 MiB available memory on the node where the printing process lives
------------------
     ethr =  7.68E-05,  avg # of iterations =  4.2

     total cpu time spent up to now is      582.7 secs

     total energy              =   -1568.23532052 Ry
     estimated scf accuracy    <       0.00812714 Ry

     iteration #  6     ecut=    90.00 Ry     beta= 0.30
     Davidson diagonalization with overlap

---- Real-time Memory Report at c_bands before calling an iterative solver
             0 MiB given to the printing process from OS
             0 MiB allocation reported by mallinfo(arena+hblkhd)
             0 MiB available memory on the node where the printing process lives
------------------
     ethr =  5.21E-06,  avg # of iterations =  4.7

     total cpu time spent up to now is      705.5 secs

     total energy              =   -1568.23696222 Ry
     estimated scf accuracy    <       0.00300594 Ry

     iteration #  7     ecut=    90.00 Ry     beta= 0.30
     Davidson diagonalization with overlap

---- Real-time Memory Report at c_bands before calling an iterative solver
             0 MiB given to the printing process from OS
             0 MiB allocation reported by mallinfo(arena+hblkhd)
             0 MiB available memory on the node where the printing process lives
------------------
     ethr =  1.93E-06,  avg # of iterations =  5.8

     total cpu time spent up to now is      838.4 secs

     total energy              =   -1568.23741943 Ry
     estimated scf accuracy    <       0.00980698 Ry

     iteration #  8     ecut=    90.00 Ry     beta= 0.30
     Davidson diagonalization with overlap

---- Real-time Memory Report at c_bands before calling an iterative solver
             0 MiB given to the printing process from OS
             0 MiB allocation reported by mallinfo(arena+hblkhd)
             0 MiB available memory on the node where the printing process lives
------------------
     ethr =  1.93E-06,  avg # of iterations =  3.0

     total cpu time spent up to now is      951.2 secs

     total energy              =   -1568.23747951 Ry
     estimated scf accuracy    <       0.00191565 Ry

     iteration #  9     ecut=    90.00 Ry     beta= 0.30
     Davidson diagonalization with overlap

---- Real-time Memory Report at c_bands before calling an iterative solver
             0 MiB given to the printing process from OS
             0 MiB allocation reported by mallinfo(arena+hblkhd)
             0 MiB available memory on the node where the printing process lives
------------------
     ethr =  1.23E-06,  avg # of iterations =  5.0

     total cpu time spent up to now is     1070.8 secs

     total energy              =   -1568.23793432 Ry
     estimated scf accuracy    <       0.00020934 Ry

     iteration # 10     ecut=    90.00 Ry     beta= 0.30
     Davidson diagonalization with overlap

---- Real-time Memory Report at c_bands before calling an iterative solver
             0 MiB given to the printing process from OS
             0 MiB allocation reported by mallinfo(arena+hblkhd)
             0 MiB available memory on the node where the printing process lives
------------------
     ethr =  1.34E-07,  avg # of iterations =  3.3

     total cpu time spent up to now is     1185.9 secs

     total energy              =   -1568.23794082 Ry
     estimated scf accuracy    <       0.00006255 Ry

     iteration # 11     ecut=    90.00 Ry     beta= 0.30
     Davidson diagonalization with overlap

---- Real-time Memory Report at c_bands before calling an iterative solver
             0 MiB given to the printing process from OS
             0 MiB allocation reported by mallinfo(arena+hblkhd)
             0 MiB available memory on the node where the printing process lives
------------------
     ethr =  4.01E-08,  avg # of iterations =  5.1

     total cpu time spent up to now is     1316.3 secs

     total energy              =   -1568.23796093 Ry
     estimated scf accuracy    <       0.00004495 Ry

     iteration # 12     ecut=    90.00 Ry     beta= 0.30
     Davidson diagonalization with overlap

---- Real-time Memory Report at c_bands before calling an iterative solver
             0 MiB given to the printing process from OS
             0 MiB allocation reported by mallinfo(arena+hblkhd)
             0 MiB available memory on the node where the printing process lives
------------------
     ethr =  2.88E-08,  avg # of iterations =  2.6

     total cpu time spent up to now is     1425.9 secs

     total energy              =   -1568.23796982 Ry
     estimated scf accuracy    <       0.00000047 Ry

     iteration # 13     ecut=    90.00 Ry     beta= 0.30
     Davidson diagonalization with overlap

---- Real-time Memory Report at c_bands before calling an iterative solver
             0 MiB given to the printing process from OS
             0 MiB allocation reported by mallinfo(arena+hblkhd)
             0 MiB available memory on the node where the printing process lives
------------------
     ethr =  3.03E-10,  avg # of iterations =  9.0

     total cpu time spent up to now is     1653.1 secs

     total energy              =   -1568.23797057 Ry
     estimated scf accuracy    <       0.00000813 Ry

     iteration # 14     ecut=    90.00 Ry     beta= 0.30
     Davidson diagonalization with overlap

---- Real-time Memory Report at c_bands before calling an iterative solver
             0 MiB given to the printing process from OS
             0 MiB allocation reported by mallinfo(arena+hblkhd)
             0 MiB available memory on the node where the printing process lives
------------------
     ethr =  3.03E-10,  avg # of iterations =  6.1

     total cpu time spent up to now is     1812.1 secs

     total energy              =   -1568.23797147 Ry
     estimated scf accuracy    <       0.00000031 Ry

     iteration # 15     ecut=    90.00 Ry     beta= 0.30
     Davidson diagonalization with overlap

---- Real-time Memory Report at c_bands before calling an iterative solver
             0 MiB given to the printing process from OS
             0 MiB allocation reported by mallinfo(arena+hblkhd)
             0 MiB available memory on the node where the printing process lives
------------------
     ethr =  1.98E-10,  avg # of iterations =  5.1

     total cpu time spent up to now is     1937.9 secs

     total energy              =   -1568.23797169 Ry
     estimated scf accuracy    <       0.00000004 Ry

     iteration # 16     ecut=    90.00 Ry     beta= 0.30
     Davidson diagonalization with overlap

---- Real-time Memory Report at c_bands before calling an iterative solver
             0 MiB given to the printing process from OS
             0 MiB allocation reported by mallinfo(arena+hblkhd)
             0 MiB available memory on the node where the printing process lives
------------------
     ethr =  2.42E-11,  avg # of iterations =  3.4

     total cpu time spent up to now is     2046.9 secs

     End of self-consistent calculation

          k = 0.0000 0.0000 0.0000 ( 43377 PWs)   bands (ev):

   -20.7044 -20.6788 -20.6749 -20.6497 -15.6638 -15.6637 -15.6544 -15.6543
   -15.6486 -15.6485 -15.5880 -15.5880 -15.5733 -15.5730  -7.2343  -6.9051
    -6.5753  -6.2547  -6.0862  -6.0829  -6.0828  -5.8512  -5.0692  -4.9923
    -4.8278  -4.8224  -4.7663  -4.7531  -4.7131  -4.7127  -4.6709  -4.6441
    -4.6424  -4.5685  -1.0177  -0.8124   1.5625   1.6586   1.8861   2.0273
     2.0983   2.1722   2.2131   2.5476   2.8979   3.0170   3.1426   3.1865
     3.3151   3.3222   3.4143   3.4214   3.4412   3.4704   3.5916   3.6968
     3.8224   3.8390   4.5700   4.6164   4.8383   4.8447   4.8507   4.9492
     4.9685   5.1913   5.2826   5.3111   5.3470   5.4115   5.5164   5.6122
     5.7129   5.8956   6.0307   6.1860   6.2265   6.2863

     occupation numbers 
     1.0000   1.0000   1.0000   1.0000   1.0000   1.0000   1.0000   1.0000
     1.0000   1.0000   1.0000   1.0000   1.0000   1.0000   1.0000   1.0000
     1.0000   1.0000   1.0000   1.0000   1.0000   1.0000   1.0000   1.0000
     1.0000   1.0000   1.0000   1.0000   1.0000   1.0000   1.0000   1.0000
     1.0000   1.0000   1.0000   1.0000   1.0000   1.0000   1.0000   1.0000
     1.0000   1.0000   1.0000   1.0000   1.0000   1.0000   1.0000   1.0000
     1.0000   1.0000   1.0000   1.0000   1.0000   1.0000   1.0000   1.0000
     1.0000   1.0000   1.0000   1.0000   1.0000   1.0000   1.0000   1.0000
     1.0000   1.0000   1.0000   1.0000   1.0000   1.0000   1.0000   1.0000
     1.0000   1.0000   1.0000   1.0000   1.0000   1.0000

          k = 0.0342 0.2300 0.1429 ( 43439 PWs)   bands (ev):

   -20.7012 -20.6826 -20.6709 -20.6526 -15.6638 -15.6637 -15.6544 -15.6543
   -15.6486 -15.6486 -15.5879 -15.5879 -15.5732 -15.5730  -7.1993  -6.9257
    -6.4957  -6.2258  -6.1465  -6.1384  -6.0992  -5.8933  -5.0405  -4.9494
    -4.8411  -4.7871  -4.7749  -4.7334  -4.7290  -4.7180  -4.6872  -4.6573
    -4.6416  -4.5971  -0.9972  -0.8098   1.5116   1.6220   1.6881   2.0587
     2.0721   2.1911   2.3617   2.5783   2.8388   2.9765   3.1243   3.1908
     3.3224   3.3261   3.3607   3.4249   3.4787   3.5125   3.6034   3.7028
     3.8185   3.8314   4.6085   4.6619   4.8405   4.8735   4.8889   4.9264
     4.9654   5.1542   5.2727   5.2808   5.3062   5.4724   5.5386   5.7034
     5.7539   5.9687   6.0262   6.0889   6.2103   6.2227

     occupation numbers 
     1.0000   1.0000   1.0000   1.0000   1.0000   1.0000   1.0000   1.0000
     1.0000   1.0000   1.0000   1.0000   1.0000   1.0000   1.0000   1.0000
     1.0000   1.0000   1.0000   1.0000   1.0000   1.0000   1.0000   1.0000
     1.0000   1.0000   1.0000   1.0000   1.0000   1.0000   1.0000   1.0000
     1.0000   1.0000   1.0000   1.0000   1.0000   1.0000   1.0000   1.0000
     1.0000   1.0000   1.0000   1.0000   1.0000   1.0000   1.0000   1.0000
     1.0000   1.0000   1.0000   1.0000   1.0000   1.0000   1.0000   1.0000
     1.0000   1.0000   1.0000   1.0000   1.0000   1.0000   1.0000   1.0000
     1.0000   1.0000   1.0000   1.0000   1.0000   1.0000   1.0000   1.0000
     1.0000   1.0000   1.0000   1.0000   1.0000   1.0000

          k = 0.0684 0.4601 0.2857 ( 43428 PWs)   bands (ev):

   -20.6931 -20.6847 -20.6683 -20.6601 -15.6638 -15.6638 -15.6546 -15.6545
   -15.6487 -15.6487 -15.5877 -15.5877 -15.5732 -15.5731  -7.1102  -6.9365
    -6.3485  -6.2751  -6.2257  -6.1620  -6.1552  -5.9871  -4.9708  -4.9058
    -4.8126  -4.7957  -4.7709  -4.7624  -4.7500  -4.7261  -4.7189  -4.6711
    -4.6376  -4.6152  -0.9464  -0.8077   1.3282   1.5025   1.6606   1.9389
     2.0870   2.2665   2.4530   2.5795   2.7760   2.9282   3.1127   3.2506
     3.2543   3.3044   3.3233   3.4032   3.4103   3.5581   3.7240   3.7640
     3.7780   3.8603   4.7037   4.7589   4.8239   4.8556   4.9419   5.0003
     5.0335   5.1285   5.1883   5.2300   5.2491   5.4060   5.7727   5.7844
     5.8458   5.9586   6.0458   6.1061   6.1618   6.3090

     occupation numbers 
     1.0000   1.0000   1.0000   1.0000   1.0000   1.0000   1.0000   1.0000
     1.0000   1.0000   1.0000   1.0000   1.0000   1.0000   1.0000   1.0000
     1.0000   1.0000   1.0000   1.0000   1.0000   1.0000   1.0000   1.0000
     1.0000   1.0000   1.0000   1.0000   1.0000   1.0000   1.0000   1.0000
     1.0000   1.0000   1.0000   1.0000   1.0000   1.0000   1.0000   1.0000
     1.0000   1.0000   1.0000   1.0000   1.0000   1.0000   1.0000   1.0000
     1.0000   1.0000   1.0000   1.0000   1.0000   1.0000   1.0000   1.0000
     1.0000   1.0000   1.0000   1.0000   1.0000   1.0000   1.0000   1.0000
     1.0000   1.0000   1.0000   1.0000   1.0000   1.0000   1.0000   1.0000
     1.0000   1.0000   1.0000   1.0000   1.0000   1.0000

          k = 0.1026 0.6901 0.4286 ( 43400 PWs)   bands (ev):

   -20.6843 -20.6831 -20.6695 -20.6683 -15.6638 -15.6638 -15.6547 -15.6547
   -15.6488 -15.6487 -15.5876 -15.5876 -15.5731 -15.5731  -7.0216  -6.9225
    -6.3874  -6.2818  -6.2668  -6.2113  -6.0999  -6.0342  -4.9160  -4.9014
    -4.8779  -4.7959  -4.7899  -4.7607  -4.7556  -4.7413  -4.6963  -4.6782
    -4.6370  -4.6085  -0.8990  -0.8086   1.2679   1.4312   1.5666   1.8027
     2.1575   2.3682   2.4153   2.4486   2.7808   2.9795   3.1147   3.2313
     3.2593   3.3121   3.3727   3.3764   3.4208   3.5779   3.7170   3.7473
     3.8171   3.8569   4.7663   4.8268   4.8336   4.8750   4.9922   5.0360
     5.0519   5.0855   5.1557   5.2029   5.2252   5.3485   5.7762   5.9490
     5.9588   6.0119   6.0693   6.1164   6.1434   6.2725

     occupation numbers 
     1.0000   1.0000   1.0000   1.0000   1.0000   1.0000   1.0000   1.0000
     1.0000   1.0000   1.0000   1.0000   1.0000   1.0000   1.0000   1.0000
     1.0000   1.0000   1.0000   1.0000   1.0000   1.0000   1.0000   1.0000
     1.0000   1.0000   1.0000   1.0000   1.0000   1.0000   1.0000   1.0000
     1.0000   1.0000   1.0000   1.0000   1.0000   1.0000   1.0000   1.0000
     1.0000   1.0000   1.0000   1.0000   1.0000   1.0000   1.0000   1.0000
     1.0000   1.0000   1.0000   1.0000   1.0000   1.0000   1.0000   1.0000
     1.0000   1.0000   1.0000   1.0000   1.0000   1.0000   1.0000   1.0000
     1.0000   1.0000   1.0000   1.0000   1.0000   1.0000   1.0000   1.0000
     1.0000   1.0000   1.0000   1.0000   1.0000   1.0000

          k = 0.0000 0.2660 0.0000 ( 43432 PWs)   bands (ev):

   -20.7018 -20.6788 -20.6747 -20.6520 -15.6638 -15.6637 -15.6545 -15.6543
   -15.6486 -15.6486 -15.5879 -15.5879 -15.5733 -15.5730  -7.2104  -6.8903
    -6.5418  -6.2269  -6.1380  -6.1193  -6.1006  -5.8940  -5.0508  -4.9511
    -4.8201  -4.8130  -4.7460  -4.7391  -4.7318  -4.7168  -4.6886  -4.6549
    -4.6506  -4.5961  -1.0025  -0.8049   1.5008   1.6355   1.6813   2.0452
     2.0992   2.2004   2.3802   2.5074   2.8604   2.9889   3.1376   3.1665
     3.3372   3.3427   3.3995   3.4195   3.4690   3.4955   3.5473   3.7073
     3.8352   3.8407   4.6107   4.6592   4.8357   4.8736   4.8835   4.9286
     4.9718   5.1949   5.2408   5.2692   5.3047   5.4839   5.5232   5.7156
     5.7706   5.9497   6.0762   6.1006   6.1367   6.2255

     occupation numbers 
     1.0000   1.0000   1.0000   1.0000   1.0000   1.0000   1.0000   1.0000
     1.0000   1.0000   1.0000   1.0000   1.0000   1.0000   1.0000   1.0000
     1.0000   1.0000   1.0000   1.0000   1.0000   1.0000   1.0000   1.0000
     1.0000   1.0000   1.0000   1.0000   1.0000   1.0000   1.0000   1.0000
     1.0000   1.0000   1.0000   1.0000   1.0000   1.0000   1.0000   1.0000
     1.0000   1.0000   1.0000   1.0000   1.0000   1.0000   1.0000   1.0000
     1.0000   1.0000   1.0000   1.0000   1.0000   1.0000   1.0000   1.0000
     1.0000   1.0000   1.0000   1.0000   1.0000   1.0000   1.0000   1.0000
     1.0000   1.0000   1.0000   1.0000   1.0000   1.0000   1.0000   1.0000
     1.0000   1.0000   1.0000   1.0000   1.0000   1.0000

          k = 0.0342 0.4960 0.1429 ( 43453 PWs)   bands (ev):

   -20.6945 -20.6812 -20.6718 -20.6588 -15.6638 -15.6638 -15.6546 -15.6545
   -15.6487 -15.6487 -15.5877 -15.5877 -15.5732 -15.5731  -7.1302  -6.8859
    -6.4223  -6.2526  -6.2082  -6.1659  -6.1533  -5.9915  -4.9926  -4.8888
    -4.8227  -4.7950  -4.7609  -4.7559  -4.7425  -4.7278  -4.7050  -4.6616
    -4.6462  -4.6249  -0.9578  -0.7960   1.2910   1.4827   1.7406   2.0117
     2.0572   2.1724   2.4384   2.6072   2.7070   3.0238   3.1276   3.2048
     3.2802   3.3218   3.3469   3.3772   3.4338   3.5006   3.6945   3.7684
     3.8048   3.8587   4.7065   4.7588   4.8079   4.8730   4.9469   5.0051
     5.0175   5.1223   5.1762   5.2440   5.2521   5.4231   5.7657   5.8251
     5.8520   5.9714   6.0322   6.0969   6.1370   6.2651

     occupation numbers 
     1.0000   1.0000   1.0000   1.0000   1.0000   1.0000   1.0000   1.0000
     1.0000   1.0000   1.0000   1.0000   1.0000   1.0000   1.0000   1.0000
     1.0000   1.0000   1.0000   1.0000   1.0000   1.0000   1.0000   1.0000
     1.0000   1.0000   1.0000   1.0000   1.0000   1.0000   1.0000   1.0000
     1.0000   1.0000   1.0000   1.0000   1.0000   1.0000   1.0000   1.0000
     1.0000   1.0000   1.0000   1.0000   1.0000   1.0000   1.0000   1.0000
     1.0000   1.0000   1.0000   1.0000   1.0000   1.0000   1.0000   1.0000
     1.0000   1.0000   1.0000   1.0000   1.0000   1.0000   1.0000   1.0000
     1.0000   1.0000   1.0000   1.0000   1.0000   1.0000   1.0000   1.0000
     1.0000   1.0000   1.0000   1.0000   1.0000   1.0000

          k = 0.0684 0.7261 0.2857 ( 43402 PWs)   bands (ev):

   -20.6853 -20.6818 -20.6707 -20.6674 -15.6638 -15.6638 -15.6547 -15.6547
   -15.6488 -15.6487 -15.5876 -15.5876 -15.5731 -15.5731  -7.0319  -6.9049
    -6.3747  -6.3104  -6.2626  -6.1903  -6.1073  -6.0533  -4.9200  -4.9027
    -4.8579  -4.8052  -4.7935  -4.7627  -4.7466  -4.7353  -4.7093  -4.6825
    -4.6307  -4.5999  -0.9036  -0.8048   1.2270   1.4014   1.6578   1.8712
     2.1276   2.3133   2.3714   2.4236   2.8680   2.9538   3.1470   3.2158
     3.2616   3.2911   3.3317   3.3666   3.4408   3.5760   3.7387   3.7474
     3.8088   3.8663   4.7747   4.8249   4.8398   4.8661   4.9836   5.0329
     5.0349   5.0666   5.1727   5.2215   5.2396   5.3526   5.7957   5.9519
     5.9702   6.0144   6.0464   6.1218   6.1297   6.2876

     occupation numbers 
     1.0000   1.0000   1.0000   1.0000   1.0000   1.0000   1.0000   1.0000
     1.0000   1.0000   1.0000   1.0000   1.0000   1.0000   1.0000   1.0000
     1.0000   1.0000   1.0000   1.0000   1.0000   1.0000   1.0000   1.0000
     1.0000   1.0000   1.0000   1.0000   1.0000   1.0000   1.0000   1.0000
     1.0000   1.0000   1.0000   1.0000   1.0000   1.0000   1.0000   1.0000
     1.0000   1.0000   1.0000   1.0000   1.0000   1.0000   1.0000   1.0000
     1.0000   1.0000   1.0000   1.0000   1.0000   1.0000   1.0000   1.0000
     1.0000   1.0000   1.0000   1.0000   1.0000   1.0000   1.0000   1.0000
     1.0000   1.0000   1.0000   1.0000   1.0000   1.0000   1.0000   1.0000
     1.0000   1.0000   1.0000   1.0000   1.0000   1.0000

          k = 0.1026 0.9561 0.4286 ( 43417 PWs)   bands (ev):

   -20.6843 -20.6831 -20.6695 -20.6683 -15.6638 -15.6638 -15.6547 -15.6547
   -15.6488 -15.6488 -15.5876 -15.5876 -15.5731 -15.5731  -7.0021  -6.9514
    -6.4098  -6.2771  -6.2514  -6.1842  -6.1057  -6.0316  -4.9250  -4.8935
    -4.8831  -4.7989  -4.7832  -4.7739  -4.7672  -4.7310  -4.7022  -4.6766
    -4.6266  -4.6130  -0.8861  -0.8221   1.2929   1.4265   1.5780   1.7695
     2.1855   2.3355   2.4112   2.4567   2.7637   3.0066   3.1114   3.2162
     3.2535   3.3357   3.3630   3.3694   3.4278   3.5924   3.7090   3.7608
     3.8301   3.8377   4.7657   4.8237   4.8274   4.8812   4.9914   5.0355
     5.0551   5.0799   5.1549   5.2033   5.2392   5.3367   5.7882   5.9334
     5.9647   5.9976   6.0797   6.1185   6.1787   6.2317

     occupation numbers 
     1.0000   1.0000   1.0000   1.0000   1.0000   1.0000   1.0000   1.0000
     1.0000   1.0000   1.0000   1.0000   1.0000   1.0000   1.0000   1.0000
     1.0000   1.0000   1.0000   1.0000   1.0000   1.0000   1.0000   1.0000
     1.0000   1.0000   1.0000   1.0000   1.0000   1.0000   1.0000   1.0000
     1.0000   1.0000   1.0000   1.0000   1.0000   1.0000   1.0000   1.0000
     1.0000   1.0000   1.0000   1.0000   1.0000   1.0000   1.0000   1.0000
     1.0000   1.0000   1.0000   1.0000   1.0000   1.0000   1.0000   1.0000
     1.0000   1.0000   1.0000   1.0000   1.0000   1.0000   1.0000   1.0000
     1.0000   1.0000   1.0000   1.0000   1.0000   1.0000   1.0000   1.0000
     1.0000   1.0000   1.0000   1.0000   1.0000   1.0000

          k =-0.1026-0.4241-0.4286 ( 43429 PWs)   bands (ev):

   -20.6909 -20.6881 -20.6650 -20.6622 -15.6638 -15.6638 -15.6546 -15.6545
   -15.6487 -15.6487 -15.5877 -15.5877 -15.5731 -15.5731  -7.0771  -7.0010
    -6.3248  -6.2844  -6.2118  -6.1422  -6.1414  -5.9910  -4.9497  -4.9252
    -4.8247  -4.7912  -4.7710  -4.7622  -4.7591  -4.7545  -4.7119  -4.6868
    -4.6231  -4.6123  -0.9219  -0.8342   1.3969   1.5147   1.6186   1.8325
     2.1678   2.3826   2.3940   2.5164   2.8237   2.8967   3.0864   3.2164
     3.2433   3.2919   3.3273   3.4161   3.4224   3.6139   3.7367   3.7662
     3.7820   3.8475   4.7044   4.7526   4.8351   4.8424   4.9422   4.9891
     5.0647   5.1099   5.2062   5.2151   5.2677   5.3734   5.7416   5.8038
     5.8525   5.9498   6.0430   6.0684   6.2257   6.3200

     occupation numbers 
     1.0000   1.0000   1.0000   1.0000   1.0000   1.0000   1.0000   1.0000
     1.0000   1.0000   1.0000   1.0000   1.0000   1.0000   1.0000   1.0000
     1.0000   1.0000   1.0000   1.0000   1.0000   1.0000   1.0000   1.0000
     1.0000   1.0000   1.0000   1.0000   1.0000   1.0000   1.0000   1.0000
     1.0000   1.0000   1.0000   1.0000   1.0000   1.0000   1.0000   1.0000
     1.0000   1.0000   1.0000   1.0000   1.0000   1.0000   1.0000   1.0000
     1.0000   1.0000   1.0000   1.0000   1.0000   1.0000   1.0000   1.0000
     1.0000   1.0000   1.0000   1.0000   1.0000   1.0000   1.0000   1.0000
     1.0000   1.0000   1.0000   1.0000   1.0000   1.0000   1.0000   1.0000
     1.0000   1.0000   1.0000   1.0000   1.0000   1.0000

          k =-0.0684-0.1941-0.2857 ( 43431 PWs)   bands (ev):

   -20.6994 -20.6877 -20.6658 -20.6544 -15.6638 -15.6638 -15.6544 -15.6544
   -15.6486 -15.6486 -15.5879 -15.5879 -15.5732 -15.5731  -7.1750  -7.0040
    -6.4049  -6.2071  -6.1920  -6.1443  -6.0739  -5.9038  -5.0138  -4.9451
    -4.8666  -4.8159  -4.7663  -4.7415  -4.7340  -4.7206  -4.6851  -4.6501
    -4.6342  -4.6104  -0.9761  -0.8343   1.5621   1.6182   1.6914   1.9538
     2.1070   2.2644   2.3252   2.7051   2.7762   2.9568   3.0884   3.1585
     3.2505   3.2768   3.3608   3.4338   3.4895   3.6295   3.6720   3.6953
     3.7992   3.8117   4.6081   4.6578   4.8515   4.8757   4.8980   4.9180
     4.9664   5.0998   5.2858   5.3174   5.3209   5.4311   5.5653   5.6678
     5.7655   5.9407   5.9934   6.0943   6.2264   6.2578

     occupation numbers 
     1.0000   1.0000   1.0000   1.0000   1.0000   1.0000   1.0000   1.0000
     1.0000   1.0000   1.0000   1.0000   1.0000   1.0000   1.0000   1.0000
     1.0000   1.0000   1.0000   1.0000   1.0000   1.0000   1.0000   1.0000
     1.0000   1.0000   1.0000   1.0000   1.0000   1.0000   1.0000   1.0000
     1.0000   1.0000   1.0000   1.0000   1.0000   1.0000   1.0000   1.0000
     1.0000   1.0000   1.0000   1.0000   1.0000   1.0000   1.0000   1.0000
     1.0000   1.0000   1.0000   1.0000   1.0000   1.0000   1.0000   1.0000
     1.0000   1.0000   1.0000   1.0000   1.0000   1.0000   1.0000   1.0000
     1.0000   1.0000   1.0000   1.0000   1.0000   1.0000   1.0000   1.0000
     1.0000   1.0000   1.0000   1.0000   1.0000   1.0000

          k =-0.0342 0.0360-0.1429 ( 43410 PWs)   bands (ev):

   -20.7037 -20.6833 -20.6705 -20.6503 -15.6638 -15.6637 -15.6544 -15.6543
   -15.6486 -15.6485 -15.5880 -15.5880 -15.5733 -15.5730  -7.2279  -6.9481
    -6.5274  -6.2423  -6.1031  -6.0999  -6.0576  -5.8569  -5.0578  -4.9892
    -4.8579  -4.8027  -4.7925  -4.7339  -4.7132  -4.7109  -4.6709  -4.6456
    -4.6453  -4.5771  -1.0095  -0.8228   1.5692   1.6852   1.8701   2.0357
     2.1010   2.1020   2.2529   2.6226   2.8857   2.9754   3.0996   3.1943
     3.2870   3.3299   3.3573   3.4201   3.5108   3.5327   3.5898   3.6975
     3.8085   3.8374   4.5704   4.6132   4.8391   4.8475   4.8584   4.9492
     4.9671   5.1507   5.2896   5.3450   5.3489   5.4068   5.4999   5.6037
     5.7306   5.9024   6.0374   6.1358   6.2074   6.2724

     occupation numbers 
     1.0000   1.0000   1.0000   1.0000   1.0000   1.0000   1.0000   1.0000
     1.0000   1.0000   1.0000   1.0000   1.0000   1.0000   1.0000   1.0000
     1.0000   1.0000   1.0000   1.0000   1.0000   1.0000   1.0000   1.0000
     1.0000   1.0000   1.0000   1.0000   1.0000   1.0000   1.0000   1.0000
     1.0000   1.0000   1.0000   1.0000   1.0000   1.0000   1.0000   1.0000
     1.0000   1.0000   1.0000   1.0000   1.0000   1.0000   1.0000   1.0000
     1.0000   1.0000   1.0000   1.0000   1.0000   1.0000   1.0000   1.0000
     1.0000   1.0000   1.0000   1.0000   1.0000   1.0000   1.0000   1.0000
     1.0000   1.0000   1.0000   1.0000   1.0000   1.0000   1.0000   1.0000
     1.0000   1.0000   1.0000   1.0000   1.0000   1.0000

          k = 0.0000 0.5320 0.0000 ( 43447 PWs)   bands (ev):

   -20.6949 -20.6789 -20.6740 -20.6584 -15.6638 -15.6638 -15.6546 -15.6545
   -15.6487 -15.6487 -15.5877 -15.5877 -15.5732 -15.5730  -7.1371  -6.8755
    -6.4683  -6.2334  -6.1834  -6.1601  -6.1401  -5.9982  -5.0007  -4.8838
    -4.8343  -4.8072  -4.7612  -4.7413  -4.7392  -4.7381  -4.7024  -4.6584
    -4.6411  -4.6333  -0.9545  -0.8007   1.3019   1.4640   1.7988   2.0029
     2.0427   2.1974   2.3712   2.6168   2.6914   3.0757   3.1151   3.1632
     3.2863   3.3109   3.3551   3.3722   3.4662   3.5094   3.6766   3.7619
     3.8388   3.8465   4.7109   4.7515   4.7964   4.8852   4.9504   4.9983
     5.0249   5.1058   5.1738   5.2573   5.2621   5.4158   5.7518   5.8603
     5.8770   5.9474   6.0165   6.1020   6.1477   6.2204

     occupation numbers 
     1.0000   1.0000   1.0000   1.0000   1.0000   1.0000   1.0000   1.0000
     1.0000   1.0000   1.0000   1.0000   1.0000   1.0000   1.0000   1.0000
     1.0000   1.0000   1.0000   1.0000   1.0000   1.0000   1.0000   1.0000
     1.0000   1.0000   1.0000   1.0000   1.0000   1.0000   1.0000   1.0000
     1.0000   1.0000   1.0000   1.0000   1.0000   1.0000   1.0000   1.0000
     1.0000   1.0000   1.0000   1.0000   1.0000   1.0000   1.0000   1.0000
     1.0000   1.0000   1.0000   1.0000   1.0000   1.0000   1.0000   1.0000
     1.0000   1.0000   1.0000   1.0000   1.0000   1.0000   1.0000   1.0000
     1.0000   1.0000   1.0000   1.0000   1.0000   1.0000   1.0000   1.0000
     1.0000   1.0000   1.0000   1.0000   1.0000   1.0000

          k = 0.0342 0.7621 0.1429 ( 43414 PWs)   bands (ev):

   -20.6859 -20.6808 -20.6718 -20.6669 -15.6638 -15.6638 -15.6547 -15.6547
   -15.6488 -15.6487 -15.5876 -15.5876 -15.5731 -15.5731  -7.0330  -6.9041
    -6.3695  -6.3525  -6.2143  -6.1658  -6.1185  -6.0767  -4.9348  -4.8951
    -4.8495  -4.8103  -4.7898  -4.7754  -4.7429  -4.7240  -4.7195  -4.6973
    -4.6128  -4.5960  -0.8987  -0.8112   1.2157   1.3573   1.8018   1.9529
     2.0776   2.2256   2.2773   2.4111   2.9385   2.9915   3.1590   3.1945
     3.2182   3.2775   3.3122   3.3455   3.4905   3.5675   3.7422   3.7818
     3.8031   3.8587   4.7877   4.8170   4.8476   4.8561   4.9711   5.0166
     5.0384   5.0407   5.1979   5.2407   5.2599   5.3449   5.8406   5.9377
     5.9707   5.9937   6.0470   6.1265   6.1526   6.2668

     occupation numbers 
     1.0000   1.0000   1.0000   1.0000   1.0000   1.0000   1.0000   1.0000
     1.0000   1.0000   1.0000   1.0000   1.0000   1.0000   1.0000   1.0000
     1.0000   1.0000   1.0000   1.0000   1.0000   1.0000   1.0000   1.0000
     1.0000   1.0000   1.0000   1.0000   1.0000   1.0000   1.0000   1.0000
     1.0000   1.0000   1.0000   1.0000   1.0000   1.0000   1.0000   1.0000
     1.0000   1.0000   1.0000   1.0000   1.0000   1.0000   1.0000   1.0000
     1.0000   1.0000   1.0000   1.0000   1.0000   1.0000   1.0000   1.0000
     1.0000   1.0000   1.0000   1.0000   1.0000   1.0000   1.0000   1.0000
     1.0000   1.0000   1.0000   1.0000   1.0000   1.0000   1.0000   1.0000
     1.0000   1.0000   1.0000   1.0000   1.0000   1.0000

          k = 0.0684 0.9921 0.2857 ( 43427 PWs)   bands (ev):

   -20.6853 -20.6819 -20.6707 -20.6674 -15.6638 -15.6638 -15.6547 -15.6547
   -15.6488 -15.6488 -15.5876 -15.5876 -15.5731 -15.5731  -6.9824  -6.9750
    -6.4284  -6.2897  -6.2113  -6.1463  -6.1244  -6.0500  -4.9286  -4.9033
    -4.8660  -4.8113  -4.7871  -4.7823  -4.7621  -4.7257  -4.7210  -4.6656
    -4.6256  -4.6026  -0.8673  -0.8422   1.2873   1.3773   1.6964   1.7912
     2.2042   2.2660   2.3408   2.4229   2.8235   3.0226   3.1354   3.1860
     3.2573   3.3147   3.3287   3.3611   3.4551   3.6032   3.7243   3.7801
     3.8045   3.8496   4.7730   4.8173   4.8223   4.8850   4.9919   5.0209
     5.0322   5.0664   5.1725   5.2245   5.2694   5.3218   5.8257   5.9117
     5.9595   6.0274   6.0713   6.1272   6.1813   6.2059

     occupation numbers 
     1.0000   1.0000   1.0000   1.0000   1.0000   1.0000   1.0000   1.0000
     1.0000   1.0000   1.0000   1.0000   1.0000   1.0000   1.0000   1.0000
     1.0000   1.0000   1.0000   1.0000   1.0000   1.0000   1.0000   1.0000
     1.0000   1.0000   1.0000   1.0000   1.0000   1.0000   1.0000   1.0000
     1.0000   1.0000   1.0000   1.0000   1.0000   1.0000   1.0000   1.0000
     1.0000   1.0000   1.0000   1.0000   1.0000   1.0000   1.0000   1.0000
     1.0000   1.0000   1.0000   1.0000   1.0000   1.0000   1.0000   1.0000
     1.0000   1.0000   1.0000   1.0000   1.0000   1.0000   1.0000   1.0000
     1.0000   1.0000   1.0000   1.0000   1.0000   1.0000   1.0000   1.0000
     1.0000   1.0000   1.0000   1.0000   1.0000   1.0000

          k = 0.1026 1.2221 0.4286 ( 43429 PWs)   bands (ev):

   -20.6909 -20.6881 -20.6650 -20.6622 -15.6638 -15.6638 -15.6546 -15.6546
   -15.6487 -15.6487 -15.5877 -15.5877 -15.5731 -15.5731  -7.0601  -7.0303
    -6.3831  -6.2472  -6.1880  -6.1378  -6.0928  -6.0110  -4.9546  -4.9261
    -4.8375  -4.7914  -4.7767  -4.7633  -4.7603  -4.7555  -4.7137  -4.6909
    -4.6191  -4.6119  -0.8881  -0.8701   1.4427   1.4973   1.6662   1.7585
     2.2617   2.2991   2.4183   2.4970   2.7448   2.9879   3.0687   3.1734
     3.2571   3.2769   3.3342   3.4172   3.4468   3.6114   3.7304   3.7885
     3.8077   3.8334   4.7104   4.7417   4.8139   4.8610   4.9532   4.9791
     5.0804   5.0915   5.1845   5.2382   5.3009   5.3385   5.7356   5.8154
     5.8713   5.9591   6.0243   6.0403   6.2596   6.2929

     occupation numbers 
     1.0000   1.0000   1.0000   1.0000   1.0000   1.0000   1.0000   1.0000
     1.0000   1.0000   1.0000   1.0000   1.0000   1.0000   1.0000   1.0000
     1.0000   1.0000   1.0000   1.0000   1.0000   1.0000   1.0000   1.0000
     1.0000   1.0000   1.0000   1.0000   1.0000   1.0000   1.0000   1.0000
     1.0000   1.0000   1.0000   1.0000   1.0000   1.0000   1.0000   1.0000
     1.0000   1.0000   1.0000   1.0000   1.0000   1.0000   1.0000   1.0000
     1.0000   1.0000   1.0000   1.0000   1.0000   1.0000   1.0000   1.0000
     1.0000   1.0000   1.0000   1.0000   1.0000   1.0000   1.0000   1.0000
     1.0000   1.0000   1.0000   1.0000   1.0000   1.0000   1.0000   1.0000
     1.0000   1.0000   1.0000   1.0000   1.0000   1.0000

          k =-0.1026-0.1581-0.4286 ( 43442 PWs)   bands (ev):

   -20.6964 -20.6924 -20.6612 -20.6573 -15.6638 -15.6638 -15.6544 -15.6544
   -15.6486 -15.6486 -15.5879 -15.5879 -15.5732 -15.5731  -7.1358  -7.0831
    -6.3136  -6.2655  -6.1762  -6.1466  -6.0274  -5.9299  -4.9825  -4.9500
    -4.8761  -4.8537  -4.7627  -4.7575  -4.7335  -4.7240  -4.6744  -4.6434
    -4.6326  -4.6297  -0.9407  -0.8744   1.6246   1.6426   1.6917   1.8354
     2.1798   2.2525   2.3977   2.6238   2.8916   2.9404   3.0040   3.0924
     3.2063   3.2439   3.3869   3.4436   3.5200   3.6464   3.7276   3.7525
     3.7709   3.7931   4.6123   4.6472   4.8683   4.8740   4.8994   4.9073
     4.9922   5.0488   5.3077   5.3311   5.3366   5.3844   5.5993   5.6209
     5.7938   5.9083   6.0046   6.0722   6.2452   6.2592

     occupation numbers 
     1.0000   1.0000   1.0000   1.0000   1.0000   1.0000   1.0000   1.0000
     1.0000   1.0000   1.0000   1.0000   1.0000   1.0000   1.0000   1.0000
     1.0000   1.0000   1.0000   1.0000   1.0000   1.0000   1.0000   1.0000
     1.0000   1.0000   1.0000   1.0000   1.0000   1.0000   1.0000   1.0000
     1.0000   1.0000   1.0000   1.0000   1.0000   1.0000   1.0000   1.0000
     1.0000   1.0000   1.0000   1.0000   1.0000   1.0000   1.0000   1.0000
     1.0000   1.0000   1.0000   1.0000   1.0000   1.0000   1.0000   1.0000
     1.0000   1.0000   1.0000   1.0000   1.0000   1.0000   1.0000   1.0000
     1.0000   1.0000   1.0000   1.0000   1.0000   1.0000   1.0000   1.0000
     1.0000   1.0000   1.0000   1.0000   1.0000   1.0000

          k =-0.0684 0.0720-0.2857 ( 43427 PWs)   bands (ev):

   -20.7017 -20.6889 -20.6649 -20.6523 -15.6638 -15.6638 -15.6544 -15.6543
   -15.6486 -15.6485 -15.5880 -15.5880 -15.5732 -15.5731  -7.2072  -7.0307
    -6.4309  -6.2105  -6.1578  -6.1136  -6.0146  -5.8759  -5.0281  -4.9810
    -4.8872  -4.8522  -4.7636  -4.7295  -4.7139  -4.7081  -4.6678  -4.6545
    -4.6459  -4.5976  -0.9847  -0.8529   1.6039   1.7425   1.8235   1.9837
     2.0621   2.1048   2.3507   2.7668   2.8265   2.9002   3.0228   3.2150
     3.2159   3.2621   3.4057   3.4141   3.5839   3.5930   3.6389   3.6959
     3.7720   3.8278   4.5729   4.6042   4.8411   4.8474   4.8900   4.9504
     4.9635   5.0800   5.3096   5.3514   5.3881   5.3936   5.4760   5.5782
     5.7714   5.8989   6.0508   6.0649   6.1889   6.2373

     occupation numbers 
     1.0000   1.0000   1.0000   1.0000   1.0000   1.0000   1.0000   1.0000
     1.0000   1.0000   1.0000   1.0000   1.0000   1.0000   1.0000   1.0000
     1.0000   1.0000   1.0000   1.0000   1.0000   1.0000   1.0000   1.0000
     1.0000   1.0000   1.0000   1.0000   1.0000   1.0000   1.0000   1.0000
     1.0000   1.0000   1.0000   1.0000   1.0000   1.0000   1.0000   1.0000
     1.0000   1.0000   1.0000   1.0000   1.0000   1.0000   1.0000   1.0000
     1.0000   1.0000   1.0000   1.0000   1.0000   1.0000   1.0000   1.0000
     1.0000   1.0000   1.0000   1.0000   1.0000   1.0000   1.0000   1.0000
     1.0000   1.0000   1.0000   1.0000   1.0000   1.0000   1.0000   1.0000
     1.0000   1.0000   1.0000   1.0000   1.0000   1.0000

          k =-0.0342 0.3020-0.1429 ( 43425 PWs)   bands (ev):

   -20.7012 -20.6827 -20.6709 -20.6526 -15.6638 -15.6637 -15.6544 -15.6543
   -15.6486 -15.6486 -15.5879 -15.5879 -15.5732 -15.5730  -7.2074  -6.9315
    -6.5071  -6.2102  -6.1340  -6.1256  -6.0784  -5.9055  -5.0396  -4.9490
    -4.8492  -4.7991  -4.7759  -4.7330  -4.7279  -4.7182  -4.6888  -4.6578
    -4.6427  -4.6072  -0.9911  -0.8200   1.5298   1.6534   1.6739   2.0135
     2.0748   2.2510   2.3712   2.5726   2.8173   2.9885   3.0980   3.1425
     3.2733   3.3461   3.3940   3.4152   3.4790   3.5362   3.6113   3.7061
     3.8220   3.8610   4.6140   4.6504   4.8372   4.8761   4.8902   4.9236
     4.9745   5.1512   5.2686   5.2828   5.3152   5.4500   5.5321   5.7044
     5.8125   5.9076   6.0455   6.0713   6.1697   6.2453

     occupation numbers 
     1.0000   1.0000   1.0000   1.0000   1.0000   1.0000   1.0000   1.0000
     1.0000   1.0000   1.0000   1.0000   1.0000   1.0000   1.0000   1.0000
     1.0000   1.0000   1.0000   1.0000   1.0000   1.0000   1.0000   1.0000
     1.0000   1.0000   1.0000   1.0000   1.0000   1.0000   1.0000   1.0000
     1.0000   1.0000   1.0000   1.0000   1.0000   1.0000   1.0000   1.0000
     1.0000   1.0000   1.0000   1.0000   1.0000   1.0000   1.0000   1.0000
     1.0000   1.0000   1.0000   1.0000   1.0000   1.0000   1.0000   1.0000
     1.0000   1.0000   1.0000   1.0000   1.0000   1.0000   1.0000   1.0000
     1.0000   1.0000   1.0000   1.0000   1.0000   1.0000   1.0000   1.0000
     1.0000   1.0000   1.0000   1.0000   1.0000   1.0000

          k = 0.0000 0.7980 0.0000 ( 43435 PWs)   bands (ev):

   -20.6861 -20.6803 -20.6722 -20.6667 -15.6638 -15.6638 -15.6547 -15.6547
   -15.6488 -15.6488 -15.5876 -15.5876 -15.5731 -15.5731  -7.0252  -6.9192
    -6.4069  -6.3326  -6.1624  -6.1529  -6.1360  -6.0884  -4.9389  -4.8995
    -4.8548  -4.8096  -4.7866  -4.7818  -4.7463  -4.7307  -4.7186  -4.6930
    -4.6006  -4.5999  -0.8849  -0.8261   1.2453   1.3158   1.9626   1.9656
     1.9961   2.1639   2.2470   2.3905   2.9401   3.0953   3.0962   3.1695
     3.2351   3.2447   3.3186   3.3364   3.5390   3.5502   3.7524   3.7800
     3.8264   3.8348   4.7992   4.8036   4.8353   4.8708   4.9690   5.0082
     5.0214   5.0446   5.2128   5.2553   5.2680   5.3292   5.8776   5.9306
     5.9402   5.9893   6.0802   6.1350   6.1638   6.2265

     occupation numbers 
     1.0000   1.0000   1.0000   1.0000   1.0000   1.0000   1.0000   1.0000
     1.0000   1.0000   1.0000   1.0000   1.0000   1.0000   1.0000   1.0000
     1.0000   1.0000   1.0000   1.0000   1.0000   1.0000   1.0000   1.0000
     1.0000   1.0000   1.0000   1.0000   1.0000   1.0000   1.0000   1.0000
     1.0000   1.0000   1.0000   1.0000   1.0000   1.0000   1.0000   1.0000
     1.0000   1.0000   1.0000   1.0000   1.0000   1.0000   1.0000   1.0000
     1.0000   1.0000   1.0000   1.0000   1.0000   1.0000   1.0000   1.0000
     1.0000   1.0000   1.0000   1.0000   1.0000   1.0000   1.0000   1.0000
     1.0000   1.0000   1.0000   1.0000   1.0000   1.0000   1.0000   1.0000
     1.0000   1.0000   1.0000   1.0000   1.0000   1.0000

          k = 0.0342 1.0281 0.1429 ( 43432 PWs)   bands (ev):

   -20.6859 -20.6808 -20.6718 -20.6669 -15.6638 -15.6638 -15.6547 -15.6547
   -15.6488 -15.6488 -15.5876 -15.5876 -15.5731 -15.5731  -7.0081  -6.9451
    -6.4293  -6.3072  -6.1695  -6.1471  -6.1251  -6.0805  -4.9338  -4.9063
    -4.8566  -4.8134  -4.7896  -4.7845  -4.7535  -4.7341  -4.7175  -4.6767
    -4.6125  -4.5968  -0.8648  -0.8460   1.2902   1.3065   1.8532   1.8693
     2.1307   2.1917   2.2924   2.3792   2.9032   3.0450   3.1484   3.1674
     3.2337   3.2834   3.2993   3.3558   3.4967   3.5922   3.7530   3.7740
     3.8053   3.8490   4.7871   4.8088   4.8240   4.8835   4.9874   5.0003
     5.0193   5.0538   5.1976   5.2470   5.2869   5.3116   5.8744   5.8949
     5.9499   6.0310   6.0964   6.1141   6.1547   6.2179

     occupation numbers 
     1.0000   1.0000   1.0000   1.0000   1.0000   1.0000   1.0000   1.0000
     1.0000   1.0000   1.0000   1.0000   1.0000   1.0000   1.0000   1.0000
     1.0000   1.0000   1.0000   1.0000   1.0000   1.0000   1.0000   1.0000
     1.0000   1.0000   1.0000   1.0000   1.0000   1.0000   1.0000   1.0000
     1.0000   1.0000   1.0000   1.0000   1.0000   1.0000   1.0000   1.0000
     1.0000   1.0000   1.0000   1.0000   1.0000   1.0000   1.0000   1.0000
     1.0000   1.0000   1.0000   1.0000   1.0000   1.0000   1.0000   1.0000
     1.0000   1.0000   1.0000   1.0000   1.0000   1.0000   1.0000   1.0000
     1.0000   1.0000   1.0000   1.0000   1.0000   1.0000   1.0000   1.0000
     1.0000   1.0000   1.0000   1.0000   1.0000   1.0000

          k = 0.0684 1.2581 0.2857 ( 43432 PWs)   bands (ev):

   -20.6931 -20.6847 -20.6683 -20.6601 -15.6638 -15.6638 -15.6546 -15.6545
   -15.6487 -15.6487 -15.5877 -15.5877 -15.5732 -15.5731  -7.1038  -6.9720
    -6.4350  -6.2209  -6.1747  -6.1457  -6.0625  -6.0337  -4.9735  -4.9144
    -4.8375  -4.8130  -4.7760  -4.7624  -4.7508  -4.7295  -4.7246  -4.6805
    -4.6275  -4.6131  -0.9070  -0.8518   1.4284   1.4558   1.7373   1.8053
     2.1906   2.3125   2.3538   2.5681   2.6949   3.0239   3.0778   3.1528
     3.2626   3.3063   3.3436   3.3989   3.4507   3.5911   3.7276   3.7627
     3.8138   3.8609   4.7194   4.7321   4.7977   4.8770   4.9665   4.9755
     5.0500   5.1050   5.1705   5.2538   5.3077   5.3436   5.7387   5.8242
     5.8965   5.9600   6.0214   6.0343   6.2356   6.2609

     occupation numbers 
     1.0000   1.0000   1.0000   1.0000   1.0000   1.0000   1.0000   1.0000
     1.0000   1.0000   1.0000   1.0000   1.0000   1.0000   1.0000   1.0000
     1.0000   1.0000   1.0000   1.0000   1.0000   1.0000   1.0000   1.0000
     1.0000   1.0000   1.0000   1.0000   1.0000   1.0000   1.0000   1.0000
     1.0000   1.0000   1.0000   1.0000   1.0000   1.0000   1.0000   1.0000
     1.0000   1.0000   1.0000   1.0000   1.0000   1.0000   1.0000   1.0000
     1.0000   1.0000   1.0000   1.0000   1.0000   1.0000   1.0000   1.0000
     1.0000   1.0000   1.0000   1.0000   1.0000   1.0000   1.0000   1.0000
     1.0000   1.0000   1.0000   1.0000   1.0000   1.0000   1.0000   1.0000
     1.0000   1.0000   1.0000   1.0000   1.0000   1.0000

          k = 0.1026 1.4881 0.4286 ( 43434 PWs)   bands (ev):

   -20.6964 -20.6924 -20.6612 -20.6573 -15.6638 -15.6638 -15.6544 -15.6544
   -15.6486 -15.6486 -15.5879 -15.5879 -15.5732 -15.5731  -7.1458  -7.0795
    -6.3472  -6.2360  -6.1589  -6.1486  -5.9752  -5.9731  -4.9784  -4.9558
    -4.8782  -4.8537  -4.7797  -4.7509  -4.7310  -4.7265  -4.6628  -4.6522
    -4.6355  -4.6336  -0.9212  -0.8964   1.6299   1.6625   1.7301   1.7756
     2.1878   2.2560   2.4845   2.5392   2.8670   2.9661   3.0104   3.0556
     3.2101   3.2271   3.3994   3.4485   3.5446   3.6122   3.7322   3.7433
     3.7690   3.8367   4.6223   4.6336   4.8608   4.8833   4.8998   4.9049
     5.0056   5.0375   5.3134   5.3280   5.3507   5.3615   5.5802   5.6367
     5.8252   5.8943   6.0156   6.0456   6.2342   6.2634

     occupation numbers 
     1.0000   1.0000   1.0000   1.0000   1.0000   1.0000   1.0000   1.0000
     1.0000   1.0000   1.0000   1.0000   1.0000   1.0000   1.0000   1.0000
     1.0000   1.0000   1.0000   1.0000   1.0000   1.0000   1.0000   1.0000
     1.0000   1.0000   1.0000   1.0000   1.0000   1.0000   1.0000   1.0000
     1.0000   1.0000   1.0000   1.0000   1.0000   1.0000   1.0000   1.0000
     1.0000   1.0000   1.0000   1.0000   1.0000   1.0000   1.0000   1.0000
     1.0000   1.0000   1.0000   1.0000   1.0000   1.0000   1.0000   1.0000
     1.0000   1.0000   1.0000   1.0000   1.0000   1.0000   1.0000   1.0000
     1.0000   1.0000   1.0000   1.0000   1.0000   1.0000   1.0000   1.0000
     1.0000   1.0000   1.0000   1.0000   1.0000   1.0000

          k =-0.1026 0.1079-0.4286 ( 43419 PWs)   bands (ev):

   -20.6984 -20.6941 -20.6598 -20.6556 -15.6638 -15.6638 -15.6543 -15.6543
   -15.6485 -15.6485 -15.5880 -15.5880 -15.5732 -15.5731  -7.1683  -7.1087
    -6.3299  -6.2375  -6.1697  -6.1359  -5.9613  -5.9114  -4.9921  -4.9745
    -4.9069  -4.8961  -4.7425  -4.7323  -4.7132  -4.7108  -4.6674  -4.6646
    -4.6366  -4.6191  -0.9449  -0.8971   1.6708   1.7522   1.8085   1.8849
     2.0862   2.1015   2.4986   2.6718   2.8913   2.8925   2.9828   3.0872
     3.2363   3.2490   3.4198   3.4246   3.6124   3.6224   3.6955   3.7269
     3.7361   3.7979   4.5800   4.5918   4.8437   4.8460   4.9413   4.9544
     4.9588   5.0076   5.3399   5.3602   5.3755   5.3760   5.4979   5.5400
     5.8180   5.8622   6.0586   6.0604   6.1800   6.1987

     occupation numbers 
     1.0000   1.0000   1.0000   1.0000   1.0000   1.0000   1.0000   1.0000
     1.0000   1.0000   1.0000   1.0000   1.0000   1.0000   1.0000   1.0000
     1.0000   1.0000   1.0000   1.0000   1.0000   1.0000   1.0000   1.0000
     1.0000   1.0000   1.0000   1.0000   1.0000   1.0000   1.0000   1.0000
     1.0000   1.0000   1.0000   1.0000   1.0000   1.0000   1.0000   1.0000
     1.0000   1.0000   1.0000   1.0000   1.0000   1.0000   1.0000   1.0000
     1.0000   1.0000   1.0000   1.0000   1.0000   1.0000   1.0000   1.0000
     1.0000   1.0000   1.0000   1.0000   1.0000   1.0000   1.0000   1.0000
     1.0000   1.0000   1.0000   1.0000   1.0000   1.0000   1.0000   1.0000
     1.0000   1.0000   1.0000   1.0000   1.0000   1.0000

          k =-0.0684 0.3380-0.2857 ( 43444 PWs)   bands (ev):

   -20.6994 -20.6878 -20.6658 -20.6544 -15.6638 -15.6638 -15.6544 -15.6544
   -15.6486 -15.6486 -15.5879 -15.5879 -15.5732 -15.5731  -7.1870  -7.0073
    -6.4310  -6.1866  -6.1691  -6.1328  -6.0289  -5.9315  -5.0120  -4.9462
    -4.8756  -4.8161  -4.7895  -4.7394  -4.7294  -4.7232  -4.6796  -4.6514
    -4.6359  -4.6251  -0.9630  -0.8527   1.5881   1.6627   1.6804   1.8958
     2.1232   2.3034   2.3713   2.6502   2.7656   2.9884   3.0208   3.1287
     3.2353   3.2526   3.3984   3.4520   3.5123   3.5815   3.6880   3.7102
     3.7978   3.8646   4.6204   4.6376   4.8460   4.8815   4.8995   4.9144
     4.9802   5.0922   5.2882   5.3177   5.3313   5.4025   5.5509   5.6742
     5.8561   5.8651   6.0208   6.0552   6.2006   6.2645

     occupation numbers 
     1.0000   1.0000   1.0000   1.0000   1.0000   1.0000   1.0000   1.0000
     1.0000   1.0000   1.0000   1.0000   1.0000   1.0000   1.0000   1.0000
     1.0000   1.0000   1.0000   1.0000   1.0000   1.0000   1.0000   1.0000
     1.0000   1.0000   1.0000   1.0000   1.0000   1.0000   1.0000   1.0000
     1.0000   1.0000   1.0000   1.0000   1.0000   1.0000   1.0000   1.0000
     1.0000   1.0000   1.0000   1.0000   1.0000   1.0000   1.0000   1.0000
     1.0000   1.0000   1.0000   1.0000   1.0000   1.0000   1.0000   1.0000
     1.0000   1.0000   1.0000   1.0000   1.0000   1.0000   1.0000   1.0000
     1.0000   1.0000   1.0000   1.0000   1.0000   1.0000   1.0000   1.0000
     1.0000   1.0000   1.0000   1.0000   1.0000   1.0000

          k =-0.0342 0.5680-0.1429 ( 43440 PWs)   bands (ev):

   -20.6944 -20.6812 -20.6718 -20.6588 -15.6638 -15.6638 -15.6546 -15.6545
   -15.6487 -15.6487 -15.5877 -15.5877 -15.5732 -15.5730  -7.1291  -6.9125
    -6.4684  -6.2137  -6.1767  -6.1520  -6.1054  -6.0110  -4.9919  -4.8965
    -4.8374  -4.8167  -4.7662  -4.7544  -4.7450  -4.7352  -4.7035  -4.6695
    -4.6375  -4.6218  -0.9369  -0.8205   1.3558   1.4531   1.7750   1.9442
     2.0831   2.2358   2.3826   2.5925   2.6873   3.0531   3.1045   3.1484
     3.2641   3.3287   3.3594   3.3705   3.4510   3.5644   3.7043   3.7439
     3.8304   3.8627   4.7166   4.7395   4.7920   4.8864   4.9575   4.9922
     5.0302   5.1043   5.1690   5.2621   5.2807   5.3856   5.7431   5.8453
     5.9119   5.9262   6.0194   6.0905   6.1650   6.2362

     occupation numbers 
     1.0000   1.0000   1.0000   1.0000   1.0000   1.0000   1.0000   1.0000
     1.0000   1.0000   1.0000   1.0000   1.0000   1.0000   1.0000   1.0000
     1.0000   1.0000   1.0000   1.0000   1.0000   1.0000   1.0000   1.0000
     1.0000   1.0000   1.0000   1.0000   1.0000   1.0000   1.0000   1.0000
     1.0000   1.0000   1.0000   1.0000   1.0000   1.0000   1.0000   1.0000
     1.0000   1.0000   1.0000   1.0000   1.0000   1.0000   1.0000   1.0000
     1.0000   1.0000   1.0000   1.0000   1.0000   1.0000   1.0000   1.0000
     1.0000   1.0000   1.0000   1.0000   1.0000   1.0000   1.0000   1.0000
     1.0000   1.0000   1.0000   1.0000   1.0000   1.0000   1.0000   1.0000
     1.0000   1.0000   1.0000   1.0000   1.0000   1.0000

          k = 0.2571 0.0630 0.0000 ( 43427 PWs)   bands (ev):

   -20.7023 -20.6875 -20.6663 -20.6517 -15.6638 -15.6638 -15.6544 -15.6543
   -15.6486 -15.6485 -15.5880 -15.5880 -15.5732 -15.5731  -7.2139  -7.0095
    -6.4564  -6.2196  -6.1416  -6.1097  -6.0267  -5.8697  -5.0367  -4.9833
    -4.8804  -4.8397  -4.7703  -4.7295  -4.7138  -4.7081  -4.6687  -4.6518
    -4.6463  -4.5920  -0.9925  -0.8437   1.5919   1.7270   1.8377   2.0110
     2.0566   2.1042   2.3210   2.7294   2.8518   2.9131   3.0416   3.2101
     3.2446   3.2675   3.3956   3.4145   3.5685   3.5909   3.6115   3.6967
     3.7826   3.8316   4.5719   4.6069   4.8405   4.8476   4.8800   4.9499
     4.9646   5.0983   5.3035   5.3500   5.3814   5.3975   5.4793   5.5861
     5.7601   5.9033   6.0474   6.0762   6.1932   6.2473

     occupation numbers 
     1.0000   1.0000   1.0000   1.0000   1.0000   1.0000   1.0000   1.0000
     1.0000   1.0000   1.0000   1.0000   1.0000   1.0000   1.0000   1.0000
     1.0000   1.0000   1.0000   1.0000   1.0000   1.0000   1.0000   1.0000
     1.0000   1.0000   1.0000   1.0000   1.0000   1.0000   1.0000   1.0000
     1.0000   1.0000   1.0000   1.0000   1.0000   1.0000   1.0000   1.0000
     1.0000   1.0000   1.0000   1.0000   1.0000   1.0000   1.0000   1.0000
     1.0000   1.0000   1.0000   1.0000   1.0000   1.0000   1.0000   1.0000
     1.0000   1.0000   1.0000   1.0000   1.0000   1.0000   1.0000   1.0000
     1.0000   1.0000   1.0000   1.0000   1.0000   1.0000   1.0000   1.0000
     1.0000   1.0000   1.0000   1.0000   1.0000   1.0000

          k = 0.2913 0.2930 0.1429 ( 43449 PWs)   bands (ev):

   -20.6972 -20.6913 -20.6623 -20.6565 -15.6638 -15.6638 -15.6544 -15.6544
   -15.6486 -15.6486 -15.5879 -15.5879 -15.5732 -15.5731  -7.1472  -7.0645
    -6.3354  -6.2462  -6.1839  -6.1454  -6.0403  -5.9217  -4.9901  -4.9466
    -4.8768  -4.8451  -4.7592  -4.7573  -4.7338  -4.7231  -4.6781  -4.6441
    -4.6324  -4.6252  -0.9507  -0.8633   1.6195   1.6245   1.6907   1.8637
     2.1604   2.2662   2.3670   2.6555   2.8555   2.9439   3.0275   3.1110
     3.2105   3.2507   3.3818   3.4415   3.5112   3.6522   3.7163   3.7337
     3.7794   3.7955   4.6107   4.6503   4.8638   4.8755   4.8991   4.9099
     4.9834   5.0611   5.3016   5.3309   5.3322   5.3953   5.5903   5.6326
     5.7859   5.9133   6.0018   6.0797   6.2401   6.2618

     occupation numbers 
     1.0000   1.0000   1.0000   1.0000   1.0000   1.0000   1.0000   1.0000
     1.0000   1.0000   1.0000   1.0000   1.0000   1.0000   1.0000   1.0000
     1.0000   1.0000   1.0000   1.0000   1.0000   1.0000   1.0000   1.0000
     1.0000   1.0000   1.0000   1.0000   1.0000   1.0000   1.0000   1.0000
     1.0000   1.0000   1.0000   1.0000   1.0000   1.0000   1.0000   1.0000
     1.0000   1.0000   1.0000   1.0000   1.0000   1.0000   1.0000   1.0000
     1.0000   1.0000   1.0000   1.0000   1.0000   1.0000   1.0000   1.0000
     1.0000   1.0000   1.0000   1.0000   1.0000   1.0000   1.0000   1.0000
     1.0000   1.0000   1.0000   1.0000   1.0000   1.0000   1.0000   1.0000
     1.0000   1.0000   1.0000   1.0000   1.0000   1.0000

          k = 0.3255 0.5230 0.2857 ( 43421 PWs)   bands (ev):

   -20.6903 -20.6889 -20.6642 -20.6628 -15.6638 -15.6638 -15.6546 -15.6546
   -15.6487 -15.6487 -15.5877 -15.5877 -15.5731 -15.5731  -7.0465  -7.0432
    -6.3686  -6.2551  -6.1935  -6.1377  -6.1058  -6.0043  -4.9507  -4.9280
    -4.8358  -4.7854  -4.7752  -4.7680  -4.7616  -4.7569  -4.7113  -4.6922
    -4.6184  -4.6123  -0.8971  -0.8607   1.4366   1.5055   1.6446   1.7714
     2.2393   2.3214   2.4439   2.4733   2.7616   2.9709   3.0711   3.1827
     3.2491   3.2813   3.3324   3.4183   3.4418   3.6157   3.7326   3.7841
     3.8042   3.8328   4.7084   4.7447   4.8190   4.8564   4.9495   4.9815
     5.0852   5.0889   5.1894   5.2332   5.2915   5.3469   5.7356   5.8134
     5.8655   5.9550   6.0306   6.0450   6.2543   6.3029

     occupation numbers 
     1.0000   1.0000   1.0000   1.0000   1.0000   1.0000   1.0000   1.0000
     1.0000   1.0000   1.0000   1.0000   1.0000   1.0000   1.0000   1.0000
     1.0000   1.0000   1.0000   1.0000   1.0000   1.0000   1.0000   1.0000
     1.0000   1.0000   1.0000   1.0000   1.0000   1.0000   1.0000   1.0000
     1.0000   1.0000   1.0000   1.0000   1.0000   1.0000   1.0000   1.0000
     1.0000   1.0000   1.0000   1.0000   1.0000   1.0000   1.0000   1.0000
     1.0000   1.0000   1.0000   1.0000   1.0000   1.0000   1.0000   1.0000
     1.0000   1.0000   1.0000   1.0000   1.0000   1.0000   1.0000   1.0000
     1.0000   1.0000   1.0000   1.0000   1.0000   1.0000   1.0000   1.0000
     1.0000   1.0000   1.0000   1.0000   1.0000   1.0000

          k = 0.3597 0.7531 0.4286 ( 43432 PWs)   bands (ev):

   -20.6851 -20.6822 -20.6704 -20.6676 -15.6638 -15.6638 -15.6547 -15.6547
   -15.6488 -15.6488 -15.5876 -15.5876 -15.5731 -15.5731  -6.9824  -6.9749
    -6.4250  -6.2862  -6.2223  -6.1544  -6.1193  -6.0436  -4.9278  -4.9012
    -4.8702  -4.8085  -4.7854  -4.7810  -4.7644  -4.7249  -4.7190  -4.6663
    -4.6268  -4.6052  -0.8724  -0.8367   1.2892   1.3929   1.6603   1.7804
     2.2010   2.2900   2.3569   2.4359   2.8039   3.0189   3.1279   3.1942
     3.2566   3.3275   3.3361   3.3609   3.4467   3.6020   3.7187   3.7748
     3.8123   3.8466   4.7705   4.8191   4.8232   4.8843   4.9912   5.0265
     5.0383   5.0697   5.1669   5.2183   5.2616   5.3258   5.8146   5.9174
     5.9625   6.0147   6.0754   6.1257   6.1932   6.2006

     occupation numbers 
     1.0000   1.0000   1.0000   1.0000   1.0000   1.0000   1.0000   1.0000
     1.0000   1.0000   1.0000   1.0000   1.0000   1.0000   1.0000   1.0000
     1.0000   1.0000   1.0000   1.0000   1.0000   1.0000   1.0000   1.0000
     1.0000   1.0000   1.0000   1.0000   1.0000   1.0000   1.0000   1.0000
     1.0000   1.0000   1.0000   1.0000   1.0000   1.0000   1.0000   1.0000
     1.0000   1.0000   1.0000   1.0000   1.0000   1.0000   1.0000   1.0000
     1.0000   1.0000   1.0000   1.0000   1.0000   1.0000   1.0000   1.0000
     1.0000   1.0000   1.0000   1.0000   1.0000   1.0000   1.0000   1.0000
     1.0000   1.0000   1.0000   1.0000   1.0000   1.0000   1.0000   1.0000
     1.0000   1.0000   1.0000   1.0000   1.0000   1.0000

          k = 0.1544-0.6271-0.4286 ( 43411 PWs)   bands (ev):

   -20.6858 -20.6810 -20.6715 -20.6670 -15.6638 -15.6638 -15.6547 -15.6547
   -15.6488 -15.6487 -15.5876 -15.5876 -15.5731 -15.5731  -7.0335  -6.9027
    -6.3674  -6.3468  -6.2278  -6.1706  -6.1156  -6.0714  -4.9319  -4.8959
    -4.8493  -4.8104  -4.7913  -4.7726  -4.7432  -4.7255  -4.7175  -4.6948
    -4.6170  -4.5963  -0.9008  -0.8087   1.2147   1.3687   1.7628   1.9329
     2.0959   2.2403   2.3066   2.4135   2.9348   2.9660   3.1673   3.1942
     3.2264   3.2904   3.3063   3.3516   3.4761   3.5714   3.7408   3.7735
     3.8041   3.8623   4.7844   4.8196   4.8462   4.8577   4.9737   5.0199
     5.0373   5.0468   5.1914   5.2361   5.2562   5.3478   5.8280   5.9424
     5.9729   6.0008   6.0420   6.1239   6.1465   6.2754

     occupation numbers 
     1.0000   1.0000   1.0000   1.0000   1.0000   1.0000   1.0000   1.0000
     1.0000   1.0000   1.0000   1.0000   1.0000   1.0000   1.0000   1.0000
     1.0000   1.0000   1.0000   1.0000   1.0000   1.0000   1.0000   1.0000
     1.0000   1.0000   1.0000   1.0000   1.0000   1.0000   1.0000   1.0000
     1.0000   1.0000   1.0000   1.0000   1.0000   1.0000   1.0000   1.0000
     1.0000   1.0000   1.0000   1.0000   1.0000   1.0000   1.0000   1.0000
     1.0000   1.0000   1.0000   1.0000   1.0000   1.0000   1.0000   1.0000
     1.0000   1.0000   1.0000   1.0000   1.0000   1.0000   1.0000   1.0000
     1.0000   1.0000   1.0000   1.0000   1.0000   1.0000   1.0000   1.0000
     1.0000   1.0000   1.0000   1.0000   1.0000   1.0000

          k = 0.1887-0.3971-0.2857 ( 43439 PWs)   bands (ev):

   -20.6949 -20.6791 -20.6738 -20.6584 -15.6638 -15.6638 -15.6546 -15.6545
   -15.6487 -15.6487 -15.5877 -15.5877 -15.5732 -15.5730  -7.1367  -6.8732
    -6.4610  -6.2390  -6.1877  -6.1639  -6.1436  -5.9963  -5.0003  -4.8834
    -4.8317  -4.8043  -4.7607  -4.7421  -4.7395  -4.7359  -4.7027  -4.6585
    -4.6416  -4.6334  -0.9568  -0.7980   1.2947   1.4682   1.7916   2.0012
     2.0520   2.1860   2.3820   2.6186   2.6930   3.0690   3.1202   3.1708
     3.2885   3.3114   3.3591   3.3677   3.4672   3.4950   3.6780   3.7648
     3.8307   3.8501   4.7097   4.7539   4.7987   4.8830   4.9495   4.9992
     5.0235   5.1088   5.1747   5.2528   5.2605   5.4200   5.7548   5.8561
     5.8689   5.9578   6.0164   6.0948   6.1492   6.2273

     occupation numbers 
     1.0000   1.0000   1.0000   1.0000   1.0000   1.0000   1.0000   1.0000
     1.0000   1.0000   1.0000   1.0000   1.0000   1.0000   1.0000   1.0000
     1.0000   1.0000   1.0000   1.0000   1.0000   1.0000   1.0000   1.0000
     1.0000   1.0000   1.0000   1.0000   1.0000   1.0000   1.0000   1.0000
     1.0000   1.0000   1.0000   1.0000   1.0000   1.0000   1.0000   1.0000
     1.0000   1.0000   1.0000   1.0000   1.0000   1.0000   1.0000   1.0000
     1.0000   1.0000   1.0000   1.0000   1.0000   1.0000   1.0000   1.0000
     1.0000   1.0000   1.0000   1.0000   1.0000   1.0000   1.0000   1.0000
     1.0000   1.0000   1.0000   1.0000   1.0000   1.0000   1.0000   1.0000
     1.0000   1.0000   1.0000   1.0000   1.0000   1.0000

          k = 0.2229-0.1671-0.1429 ( 43438 PWs)   bands (ev):

   -20.7015 -20.6814 -20.6721 -20.6523 -15.6638 -15.6637 -15.6545 -15.6543
   -15.6486 -15.6486 -15.5879 -15.5879 -15.5732 -15.5730  -7.2096  -6.9156
    -6.5218  -6.2156  -6.1334  -6.1211  -6.0874  -5.9015  -5.0443  -4.9498
    -4.8413  -4.8024  -4.7666  -4.7332  -4.7286  -4.7175  -4.6893  -4.6579
    -4.6450  -4.6035  -0.9956  -0.8144   1.5191   1.6488   1.6757   2.0351
     2.0700   2.2366   2.3757   2.5471   2.8334   2.9896   3.1170   3.1425
     3.2889   3.3655   3.3888   3.4054   3.4777   3.5241   3.5897   3.7066
     3.8266   3.8569   4.6130   4.6531   4.8362   4.8752   4.8877   4.9254
     4.9742   5.1657   5.2616   5.2759   5.3117   5.4608   5.5288   5.7092
     5.8005   5.9204   6.0576   6.0734   6.1616   6.2388

     occupation numbers 
     1.0000   1.0000   1.0000   1.0000   1.0000   1.0000   1.0000   1.0000
     1.0000   1.0000   1.0000   1.0000   1.0000   1.0000   1.0000   1.0000
     1.0000   1.0000   1.0000   1.0000   1.0000   1.0000   1.0000   1.0000
     1.0000   1.0000   1.0000   1.0000   1.0000   1.0000   1.0000   1.0000
     1.0000   1.0000   1.0000   1.0000   1.0000   1.0000   1.0000   1.0000
     1.0000   1.0000   1.0000   1.0000   1.0000   1.0000   1.0000   1.0000
     1.0000   1.0000   1.0000   1.0000   1.0000   1.0000   1.0000   1.0000
     1.0000   1.0000   1.0000   1.0000   1.0000   1.0000   1.0000   1.0000
     1.0000   1.0000   1.0000   1.0000   1.0000   1.0000   1.0000   1.0000
     1.0000   1.0000   1.0000   1.0000   1.0000   1.0000

          k = 0.2571 0.3290 0.0000 ( 43442 PWs)   bands (ev):

   -20.6999 -20.6865 -20.6671 -20.6539 -15.6638 -15.6638 -15.6544 -15.6544
   -15.6486 -15.6486 -15.5879 -15.5879 -15.5732 -15.5731  -7.1940  -6.9878
    -6.4515  -6.1915  -6.1582  -6.1309  -6.0426  -5.9234  -5.0199  -4.9464
    -4.8704  -4.8060  -4.7915  -4.7366  -4.7291  -4.7218  -4.6831  -4.6534
    -4.6371  -4.6205  -0.9715  -0.8432   1.5722   1.6634   1.6745   1.9271
     2.1086   2.2986   2.3611   2.6467   2.7660   2.9869   3.0388   3.1358
     3.2416   3.2742   3.3972   3.4495   3.4990   3.5718   3.6712   3.7074
     3.8045   3.8662   4.6184   4.6410   4.8431   4.8800   4.8979   4.9169
     4.9775   5.1068   5.2829   5.3100   5.3272   5.4144   5.5453   5.6829
     5.8494   5.8707   6.0241   6.0603   6.1924   6.2615

     occupation numbers 
     1.0000   1.0000   1.0000   1.0000   1.0000   1.0000   1.0000   1.0000
     1.0000   1.0000   1.0000   1.0000   1.0000   1.0000   1.0000   1.0000
     1.0000   1.0000   1.0000   1.0000   1.0000   1.0000   1.0000   1.0000
     1.0000   1.0000   1.0000   1.0000   1.0000   1.0000   1.0000   1.0000
     1.0000   1.0000   1.0000   1.0000   1.0000   1.0000   1.0000   1.0000
     1.0000   1.0000   1.0000   1.0000   1.0000   1.0000   1.0000   1.0000
     1.0000   1.0000   1.0000   1.0000   1.0000   1.0000   1.0000   1.0000
     1.0000   1.0000   1.0000   1.0000   1.0000   1.0000   1.0000   1.0000
     1.0000   1.0000   1.0000   1.0000   1.0000   1.0000   1.0000   1.0000
     1.0000   1.0000   1.0000   1.0000   1.0000   1.0000

          k = 0.2913 0.5590 0.1429 ( 43423 PWs)   bands (ev):

   -20.6915 -20.6873 -20.6658 -20.6616 -15.6638 -15.6638 -15.6546 -15.6545
   -15.6487 -15.6487 -15.5877 -15.5877 -15.5731 -15.5731  -7.0809  -6.9986
    -6.3525  -6.2849  -6.1842  -6.1608  -6.0860  -6.0201  -4.9542  -4.9241
    -4.8089  -4.7982  -4.7931  -4.7642  -4.7542  -4.7496  -4.7103  -4.6858
    -4.6231  -4.6131  -0.9086  -0.8485   1.4217   1.4861   1.6685   1.7846
     2.2053   2.3533   2.3708   2.5224   2.8104   2.9093   3.1242   3.1452
     3.2581   3.2996   3.3639   3.3826   3.4963   3.5540   3.7469   3.7638
     3.8002   3.8340   4.7174   4.7374   4.8245   4.8504   4.9545   4.9771
     5.0632   5.1076   5.1965   5.2257   5.2908   5.3518   5.7714   5.7830
     5.9061   5.9405   6.0159   6.0407   6.2422   6.2969

     occupation numbers 
     1.0000   1.0000   1.0000   1.0000   1.0000   1.0000   1.0000   1.0000
     1.0000   1.0000   1.0000   1.0000   1.0000   1.0000   1.0000   1.0000
     1.0000   1.0000   1.0000   1.0000   1.0000   1.0000   1.0000   1.0000
     1.0000   1.0000   1.0000   1.0000   1.0000   1.0000   1.0000   1.0000
     1.0000   1.0000   1.0000   1.0000   1.0000   1.0000   1.0000   1.0000
     1.0000   1.0000   1.0000   1.0000   1.0000   1.0000   1.0000   1.0000
     1.0000   1.0000   1.0000   1.0000   1.0000   1.0000   1.0000   1.0000
     1.0000   1.0000   1.0000   1.0000   1.0000   1.0000   1.0000   1.0000
     1.0000   1.0000   1.0000   1.0000   1.0000   1.0000   1.0000   1.0000
     1.0000   1.0000   1.0000   1.0000   1.0000   1.0000

          k = 0.3255 0.7890 0.2857 ( 43411 PWs)   bands (ev):

   -20.6840 -20.6834 -20.6692 -20.6686 -15.6638 -15.6638 -15.6547 -15.6547
   -15.6488 -15.6488 -15.5876 -15.5876 -15.5731 -15.5731  -6.9858  -6.9699
    -6.3773  -6.3297  -6.2135  -6.1580  -6.1195  -6.0691  -4.9141  -4.9006
    -4.8566  -4.8238  -4.7776  -4.7751  -4.7559  -4.7407  -4.6932  -4.6811
    -4.6256  -4.6194  -0.8658  -0.8435   1.3345   1.3816   1.6276   1.6965
     2.2308   2.2815   2.4283   2.4522   2.8263   2.9174   3.1724   3.2191
     3.2976   3.3241   3.3347   3.3494   3.4769   3.5372   3.7466   3.7835
     3.8004   3.8159   4.7858   4.8076   4.8436   4.8639   5.0093   5.0331
     5.0512   5.0665   5.1642   5.1808   5.2727   5.3066   5.8344   5.8864
     5.9932   6.0224   6.0514   6.0845   6.1965   6.2093

     occupation numbers 
     1.0000   1.0000   1.0000   1.0000   1.0000   1.0000   1.0000   1.0000
     1.0000   1.0000   1.0000   1.0000   1.0000   1.0000   1.0000   1.0000
     1.0000   1.0000   1.0000   1.0000   1.0000   1.0000   1.0000   1.0000
     1.0000   1.0000   1.0000   1.0000   1.0000   1.0000   1.0000   1.0000
     1.0000   1.0000   1.0000   1.0000   1.0000   1.0000   1.0000   1.0000
     1.0000   1.0000   1.0000   1.0000   1.0000   1.0000   1.0000   1.0000
     1.0000   1.0000   1.0000   1.0000   1.0000   1.0000   1.0000   1.0000
     1.0000   1.0000   1.0000   1.0000   1.0000   1.0000   1.0000   1.0000
     1.0000   1.0000   1.0000   1.0000   1.0000   1.0000   1.0000   1.0000
     1.0000   1.0000   1.0000   1.0000   1.0000   1.0000

          k = 0.3597 1.0191 0.4286 ( 43411 PWs)   bands (ev):

   -20.6851 -20.6822 -20.6704 -20.6676 -15.6638 -15.6638 -15.6547 -15.6547
   -15.6488 -15.6488 -15.5876 -15.5876 -15.5731 -15.5731  -7.0112  -6.9386
    -6.3707  -6.3415  -6.2134  -6.1513  -6.1234  -6.0772  -4.9183  -4.9034
    -4.8484  -4.8229  -4.7869  -4.7689  -4.7538  -4.7334  -4.7105  -4.6736
    -4.6327  -4.6044  -0.8791  -0.8306   1.2921   1.3639   1.6800   1.7751
     2.1898   2.3050   2.3458   2.4340   2.8933   2.9089   3.1851   3.2133
     3.2664   3.3113   3.3276   3.3397   3.4941   3.5365   3.7632   3.7776
     3.7858   3.8345   4.7908   4.8063   4.8480   4.8584   5.0033   5.0200
     5.0456   5.0548   5.1810   5.1990   5.2697   5.3187   5.8360   5.9005
     5.9984   6.0151   6.0636   6.0854   6.1445   6.2527

     occupation numbers 
     1.0000   1.0000   1.0000   1.0000   1.0000   1.0000   1.0000   1.0000
     1.0000   1.0000   1.0000   1.0000   1.0000   1.0000   1.0000   1.0000
     1.0000   1.0000   1.0000   1.0000   1.0000   1.0000   1.0000   1.0000
     1.0000   1.0000   1.0000   1.0000   1.0000   1.0000   1.0000   1.0000
     1.0000   1.0000   1.0000   1.0000   1.0000   1.0000   1.0000   1.0000
     1.0000   1.0000   1.0000   1.0000   1.0000   1.0000   1.0000   1.0000
     1.0000   1.0000   1.0000   1.0000   1.0000   1.0000   1.0000   1.0000
     1.0000   1.0000   1.0000   1.0000   1.0000   1.0000   1.0000   1.0000
     1.0000   1.0000   1.0000   1.0000   1.0000   1.0000   1.0000   1.0000
     1.0000   1.0000   1.0000   1.0000   1.0000   1.0000

          k = 0.1544-0.3611-0.4286 ( 43429 PWs)   bands (ev):

   -20.6942 -20.6820 -20.6709 -20.6591 -15.6638 -15.6638 -15.6546 -15.6545
   -15.6487 -15.6487 -15.5877 -15.5877 -15.5732 -15.5731  -7.1250  -6.9188
    -6.4501  -6.2228  -6.1797  -6.1606  -6.1089  -6.0091  -4.9879  -4.8984
    -4.8314  -4.8128  -4.7668  -4.7584  -4.7454  -4.7317  -4.7078  -4.6705
    -4.6371  -4.6200  -0.9372  -0.8197   1.3530   1.4611   1.7518   1.9313
     2.0994   2.2338   2.4022   2.5897   2.6938   3.0343   3.1192   3.1474
     3.2634   3.3389   3.3594   3.3668   3.4517   3.5507   3.7131   3.7453
     3.8328   3.8502   4.7154   4.7416   4.7973   4.8806   4.9560   4.9924
     5.0302   5.1108   5.1706   5.2571   5.2763   5.3870   5.7490   5.8332
     5.9078   5.9319   6.0184   6.0852   6.1685   6.2523

     occupation numbers 
     1.0000   1.0000   1.0000   1.0000   1.0000   1.0000   1.0000   1.0000
     1.0000   1.0000   1.0000   1.0000   1.0000   1.0000   1.0000   1.0000
     1.0000   1.0000   1.0000   1.0000   1.0000   1.0000   1.0000   1.0000
     1.0000   1.0000   1.0000   1.0000   1.0000   1.0000   1.0000   1.0000
     1.0000   1.0000   1.0000   1.0000   1.0000   1.0000   1.0000   1.0000
     1.0000   1.0000   1.0000   1.0000   1.0000   1.0000   1.0000   1.0000
     1.0000   1.0000   1.0000   1.0000   1.0000   1.0000   1.0000   1.0000
     1.0000   1.0000   1.0000   1.0000   1.0000   1.0000   1.0000   1.0000
     1.0000   1.0000   1.0000   1.0000   1.0000   1.0000   1.0000   1.0000
     1.0000   1.0000   1.0000   1.0000   1.0000   1.0000

          k = 0.1887-0.1311-0.2857 ( 43446 PWs)   bands (ev):

   -20.7018 -20.6792 -20.6743 -20.6520 -15.6638 -15.6637 -15.6545 -15.6543
   -15.6486 -15.6486 -15.5879 -15.5879 -15.5733 -15.5730  -7.2226  -6.9046
    -6.5522  -6.2008  -6.1148  -6.0943  -6.0785  -5.9124  -5.0485  -4.9503
    -4.8400  -4.8237  -4.7521  -4.7382  -4.7284  -4.7166  -4.6945  -4.6565
    -4.6518  -4.6117  -0.9937  -0.8207   1.5304   1.6523   1.6938   2.0321
     2.0542   2.2895   2.3933   2.5050   2.8286   2.9900   3.0788   3.1455
     3.2871   3.3242   3.3782   3.4027   3.5231   3.5348   3.5713   3.7123
     3.8197   3.9119   4.6180   4.6426   4.8308   4.8771   4.8863   4.9244
     4.9855   5.1884   5.2353   5.2725   5.3190   5.4461   5.5197   5.7149
     5.8531   5.8648   6.0516   6.0991   6.1227   6.2392

     occupation numbers 
     1.0000   1.0000   1.0000   1.0000   1.0000   1.0000   1.0000   1.0000
     1.0000   1.0000   1.0000   1.0000   1.0000   1.0000   1.0000   1.0000
     1.0000   1.0000   1.0000   1.0000   1.0000   1.0000   1.0000   1.0000
     1.0000   1.0000   1.0000   1.0000   1.0000   1.0000   1.0000   1.0000
     1.0000   1.0000   1.0000   1.0000   1.0000   1.0000   1.0000   1.0000
     1.0000   1.0000   1.0000   1.0000   1.0000   1.0000   1.0000   1.0000
     1.0000   1.0000   1.0000   1.0000   1.0000   1.0000   1.0000   1.0000
     1.0000   1.0000   1.0000   1.0000   1.0000   1.0000   1.0000   1.0000
     1.0000   1.0000   1.0000   1.0000   1.0000   1.0000   1.0000   1.0000
     1.0000   1.0000   1.0000   1.0000   1.0000   1.0000

          k = 0.2229 0.0989-0.1429 ( 43440 PWs)   bands (ev):

   -20.7040 -20.6819 -20.6719 -20.6501 -15.6638 -15.6637 -15.6544 -15.6543
   -15.6486 -15.6485 -15.5880 -15.5880 -15.5733 -15.5730  -7.2496  -6.9355
    -6.5544  -6.2075  -6.0859  -6.0834  -6.0422  -5.8693  -5.0608  -4.9926
    -4.8492  -4.8042  -4.7998  -4.7555  -4.7095  -4.7066  -4.6690  -4.6453
    -4.6449  -4.6060  -1.0084  -0.8318   1.6395   1.6786   1.7904   2.0402
     2.1090   2.1348   2.3403   2.6051   2.8746   2.9640   3.0111   3.2336
     3.2405   3.3091   3.3960   3.4563   3.4564   3.5263   3.5897   3.7125
     3.8008   3.9199   4.5787   4.5976   4.8380   4.8486   4.8585   4.9426
     4.9825   5.1593   5.2825   5.3306   5.3448   5.4172   5.4665   5.6060
     5.8255   5.8412   6.0089   6.0867   6.1910   6.2637

     occupation numbers 
     1.0000   1.0000   1.0000   1.0000   1.0000   1.0000   1.0000   1.0000
     1.0000   1.0000   1.0000   1.0000   1.0000   1.0000   1.0000   1.0000
     1.0000   1.0000   1.0000   1.0000   1.0000   1.0000   1.0000   1.0000
     1.0000   1.0000   1.0000   1.0000   1.0000   1.0000   1.0000   1.0000
     1.0000   1.0000   1.0000   1.0000   1.0000   1.0000   1.0000   1.0000
     1.0000   1.0000   1.0000   1.0000   1.0000   1.0000   1.0000   1.0000
     1.0000   1.0000   1.0000   1.0000   1.0000   1.0000   1.0000   1.0000
     1.0000   1.0000   1.0000   1.0000   1.0000   1.0000   1.0000   1.0000
     1.0000   1.0000   1.0000   1.0000   1.0000   1.0000   1.0000   1.0000
     1.0000   1.0000   1.0000   1.0000   1.0000   1.0000

          k = 0.2571 0.5950 0.0000 ( 43427 PWs)   bands (ev):

   -20.6935 -20.6838 -20.6691 -20.6597 -15.6638 -15.6638 -15.6546 -15.6545
   -15.6487 -15.6487 -15.5877 -15.5877 -15.5732 -15.5731  -7.1119  -6.9566
    -6.4456  -6.2163  -6.1740  -6.1482  -6.0705  -6.0285  -4.9785  -4.9103
    -4.8369  -4.8160  -4.7738  -4.7615  -4.7492  -4.7300  -4.7191  -4.6778
    -4.6302  -4.6146  -0.9154  -0.8432   1.4113   1.4531   1.7448   1.8406
     2.1633   2.2901   2.3681   2.5772   2.6888   3.0301   3.0842   3.1507
     3.2610   3.3167   3.3487   3.3902   3.4495   3.5858   3.7292   3.7494
     3.8179   3.8643   4.7200   4.7321   4.7953   4.8801   4.9649   4.9797
     5.0435   5.1058   5.1689   5.2565   5.3008   5.3544   5.7395   5.8281
     5.9021   5.9523   6.0215   6.0444   6.2184   6.2565

     occupation numbers 
     1.0000   1.0000   1.0000   1.0000   1.0000   1.0000   1.0000   1.0000
     1.0000   1.0000   1.0000   1.0000   1.0000   1.0000   1.0000   1.0000
     1.0000   1.0000   1.0000   1.0000   1.0000   1.0000   1.0000   1.0000
     1.0000   1.0000   1.0000   1.0000   1.0000   1.0000   1.0000   1.0000
     1.0000   1.0000   1.0000   1.0000   1.0000   1.0000   1.0000   1.0000
     1.0000   1.0000   1.0000   1.0000   1.0000   1.0000   1.0000   1.0000
     1.0000   1.0000   1.0000   1.0000   1.0000   1.0000   1.0000   1.0000
     1.0000   1.0000   1.0000   1.0000   1.0000   1.0000   1.0000   1.0000
     1.0000   1.0000   1.0000   1.0000   1.0000   1.0000   1.0000   1.0000
     1.0000   1.0000   1.0000   1.0000   1.0000   1.0000

          k = 0.2913 0.8250 0.1429 ( 43407 PWs)   bands (ev):

   -20.6846 -20.6828 -20.6698 -20.6681 -15.6638 -15.6638 -15.6547 -15.6547
   -15.6488 -15.6488 -15.5876 -15.5876 -15.5731 -15.5731  -6.9880  -6.9676
    -6.3805  -6.3324  -6.1894  -6.1766  -6.1048  -6.0831  -4.9162  -4.9015
    -4.8496  -4.8287  -4.7808  -4.7732  -4.7580  -4.7360  -4.7037  -4.6731
    -4.6310  -4.6120  -0.8570  -0.8526   1.3431   1.3528   1.6769   1.6895
     2.2454   2.2606   2.3924   2.4520   2.8469   2.9185   3.1869   3.2074
     3.2954   3.3183   3.3324   3.3380   3.4907   3.5333   3.7532   3.7896
     3.7991   3.8105   4.7918   4.8024   4.8440   4.8630   5.0115   5.0240
     5.0518   5.0577   5.1714   5.1867   5.2876   5.2953   5.8574   5.8680
     5.9982   6.0225   6.0526   6.0839   6.1791   6.2208

     occupation numbers 
     1.0000   1.0000   1.0000   1.0000   1.0000   1.0000   1.0000   1.0000
     1.0000   1.0000   1.0000   1.0000   1.0000   1.0000   1.0000   1.0000
     1.0000   1.0000   1.0000   1.0000   1.0000   1.0000   1.0000   1.0000
     1.0000   1.0000   1.0000   1.0000   1.0000   1.0000   1.0000   1.0000
     1.0000   1.0000   1.0000   1.0000   1.0000   1.0000   1.0000   1.0000
     1.0000   1.0000   1.0000   1.0000   1.0000   1.0000   1.0000   1.0000
     1.0000   1.0000   1.0000   1.0000   1.0000   1.0000   1.0000   1.0000
     1.0000   1.0000   1.0000   1.0000   1.0000   1.0000   1.0000   1.0000
     1.0000   1.0000   1.0000   1.0000   1.0000   1.0000   1.0000   1.0000
     1.0000   1.0000   1.0000   1.0000   1.0000   1.0000

          k = 0.3255 1.0551 0.2857 ( 43414 PWs)   bands (ev):

   -20.6840 -20.6834 -20.6692 -20.6686 -15.6638 -15.6638 -15.6547 -15.6547
   -15.6488 -15.6488 -15.5876 -15.5876 -15.5731 -15.5731  -6.9785  -6.9773
    -6.3666  -6.3427  -6.1949  -6.1776  -6.1021  -6.0843  -4.9111  -4.9038
    -4.8463  -4.8330  -4.7769  -4.7753  -4.7530  -4.7432  -4.6925  -4.6813
    -4.6261  -4.6196  -0.8570  -0.8524   1.3503   1.3642   1.6517   1.6716
     2.2499   2.2611   2.4291   2.4511   2.8499   2.8918   3.1910   3.2089
     3.3060   3.3211   3.3329   3.3427   3.4939   3.5194   3.7586   3.7787
     3.8040   3.8065   4.7929   4.8011   4.8488   4.8585   5.0159   5.0257
     5.0563   5.0612   5.1682   5.1760   5.2849   5.2948   5.8526   5.8684
     6.0040   6.0175   6.0554   6.0735   6.1985   6.2064

     occupation numbers 
     1.0000   1.0000   1.0000   1.0000   1.0000   1.0000   1.0000   1.0000
     1.0000   1.0000   1.0000   1.0000   1.0000   1.0000   1.0000   1.0000
     1.0000   1.0000   1.0000   1.0000   1.0000   1.0000   1.0000   1.0000
     1.0000   1.0000   1.0000   1.0000   1.0000   1.0000   1.0000   1.0000
     1.0000   1.0000   1.0000   1.0000   1.0000   1.0000   1.0000   1.0000
     1.0000   1.0000   1.0000   1.0000   1.0000   1.0000   1.0000   1.0000
     1.0000   1.0000   1.0000   1.0000   1.0000   1.0000   1.0000   1.0000
     1.0000   1.0000   1.0000   1.0000   1.0000   1.0000   1.0000   1.0000
     1.0000   1.0000   1.0000   1.0000   1.0000   1.0000   1.0000   1.0000
     1.0000   1.0000   1.0000   1.0000   1.0000   1.0000

          k = 0.3597 1.2851 0.4286 ( 43438 PWs)   bands (ev):

   -20.6926 -20.6856 -20.6674 -20.6606 -15.6638 -15.6638 -15.6546 -15.6545
   -15.6487 -15.6487 -15.5877 -15.5877 -15.5732 -15.5731  -7.0960  -6.9819
    -6.4126  -6.2378  -6.1736  -6.1553  -6.0627  -6.0350  -4.9675  -4.9170
    -4.8294  -4.8086  -4.7798  -4.7638  -4.7516  -4.7356  -4.7211  -4.6817
    -4.6259  -4.6128  -0.9053  -0.8529   1.4303   1.4632   1.7179   1.7885
     2.2045   2.3264   2.3522   2.5553   2.7220   2.9964   3.0930   3.1491
     3.2628   3.3074   3.3452   3.3978   3.4641   3.5782   3.7314   3.7684
     3.8151   3.8445   4.7216   4.7308   4.8050   4.8695   4.9641   4.9741
     5.0545   5.1069   5.1764   5.2465   5.3048   5.3431   5.7468   5.8140
     5.9069   5.9483   6.0190   6.0321   6.2413   6.2720

     occupation numbers 
     1.0000   1.0000   1.0000   1.0000   1.0000   1.0000   1.0000   1.0000
     1.0000   1.0000   1.0000   1.0000   1.0000   1.0000   1.0000   1.0000
     1.0000   1.0000   1.0000   1.0000   1.0000   1.0000   1.0000   1.0000
     1.0000   1.0000   1.0000   1.0000   1.0000   1.0000   1.0000   1.0000
     1.0000   1.0000   1.0000   1.0000   1.0000   1.0000   1.0000   1.0000
     1.0000   1.0000   1.0000   1.0000   1.0000   1.0000   1.0000   1.0000
     1.0000   1.0000   1.0000   1.0000   1.0000   1.0000   1.0000   1.0000
     1.0000   1.0000   1.0000   1.0000   1.0000   1.0000   1.0000   1.0000
     1.0000   1.0000   1.0000   1.0000   1.0000   1.0000   1.0000   1.0000
     1.0000   1.0000   1.0000   1.0000   1.0000   1.0000

          k = 0.1544-0.0951-0.4286 ( 43451 PWs)   bands (ev):

   -20.7008 -20.6839 -20.6696 -20.6529 -15.6638 -15.6637 -15.6544 -15.6544
   -15.6486 -15.6486 -15.5879 -15.5879 -15.5732 -15.5730  -7.2171  -6.9572
    -6.5083  -6.1775  -6.1176  -6.1088  -6.0302  -5.9359  -5.0323  -4.9483
    -4.8697  -4.8154  -4.7864  -4.7331  -4.7259  -4.7203  -4.6904  -4.6586
    -4.6438  -4.6253  -0.9752  -0.8442   1.5715   1.6370   1.7311   1.9466
     2.0911   2.3375   2.3860   2.5720   2.7735   2.9615   3.0352   3.1432
     3.2445   3.2995   3.3774   3.4127   3.5006   3.5674   3.6526   3.7145
     3.8016   3.9468   4.6213   4.6333   4.8332   4.8815   4.8954   4.9184
     4.9893   5.1304   5.2716   5.2908   5.3325   5.4091   5.5255   5.6995
     5.8032   5.9153   6.0204   6.0807   6.1603   6.2557

     occupation numbers 
     1.0000   1.0000   1.0000   1.0000   1.0000   1.0000   1.0000   1.0000
     1.0000   1.0000   1.0000   1.0000   1.0000   1.0000   1.0000   1.0000
     1.0000   1.0000   1.0000   1.0000   1.0000   1.0000   1.0000   1.0000
     1.0000   1.0000   1.0000   1.0000   1.0000   1.0000   1.0000   1.0000
     1.0000   1.0000   1.0000   1.0000   1.0000   1.0000   1.0000   1.0000
     1.0000   1.0000   1.0000   1.0000   1.0000   1.0000   1.0000   1.0000
     1.0000   1.0000   1.0000   1.0000   1.0000   1.0000   1.0000   1.0000
     1.0000   1.0000   1.0000   1.0000   1.0000   1.0000   1.0000   1.0000
     1.0000   1.0000   1.0000   1.0000   1.0000   1.0000   1.0000   1.0000
     1.0000   1.0000   1.0000   1.0000   1.0000   1.0000

          k = 0.1887 0.1349-0.2857 ( 43443 PWs)   bands (ev):

   -20.7043 -20.6794 -20.6744 -20.6497 -15.6639 -15.6637 -15.6544 -15.6543
   -15.6486 -15.6485 -15.5880 -15.5880 -15.5733 -15.5730  -7.2678  -6.9199
    -6.5819  -6.1798  -6.0642  -6.0611  -6.0434  -5.8782  -5.0649  -4.9958
    -4.8325  -4.8153  -4.7982  -4.7767  -4.7065  -4.7035  -4.6715  -4.6448
    -4.6432  -4.6308  -1.0100  -0.8373   1.6641   1.7118   1.7391   2.0481
     2.1257   2.1631   2.3955   2.5807   2.8729   2.8958   3.0565   3.1382
     3.2702   3.3023   3.3527   3.4684   3.4855   3.5079   3.5899   3.7237
     3.7917   4.0029   4.5845   4.5863   4.8370   4.8476   4.8582   4.9369
     4.9966   5.1755   5.2763   5.3063   5.3433   5.4275   5.4526   5.6085
     5.7436   5.9200   5.9869   6.0722   6.1997   6.2577

     occupation numbers 
     1.0000   1.0000   1.0000   1.0000   1.0000   1.0000   1.0000   1.0000
     1.0000   1.0000   1.0000   1.0000   1.0000   1.0000   1.0000   1.0000
     1.0000   1.0000   1.0000   1.0000   1.0000   1.0000   1.0000   1.0000
     1.0000   1.0000   1.0000   1.0000   1.0000   1.0000   1.0000   1.0000
     1.0000   1.0000   1.0000   1.0000   1.0000   1.0000   1.0000   1.0000
     1.0000   1.0000   1.0000   1.0000   1.0000   1.0000   1.0000   1.0000
     1.0000   1.0000   1.0000   1.0000   1.0000   1.0000   1.0000   1.0000
     1.0000   1.0000   1.0000   1.0000   1.0000   1.0000   1.0000   1.0000
     1.0000   1.0000   1.0000   1.0000   1.0000   1.0000   1.0000   1.0000
     1.0000   1.0000   1.0000   1.0000   1.0000   1.0000

          k = 0.2229 0.3650-0.1429 ( 43444 PWs)   bands (ev):

   -20.7015 -20.6814 -20.6721 -20.6523 -15.6638 -15.6637 -15.6544 -15.6543
   -15.6486 -15.6486 -15.5879 -15.5879 -15.5732 -15.5730  -7.2271  -6.9295
    -6.5423  -6.1793  -6.1038  -6.0916  -6.0447  -5.9311  -5.0420  -4.9496
    -4.8608  -4.8259  -4.7682  -4.7332  -4.7264  -4.7182  -4.6966  -4.6600
    -4.6488  -4.6229  -0.9834  -0.8365   1.5594   1.6330   1.7390   1.9841
     2.0722   2.3374   2.3972   2.5240   2.7972   2.9604   3.0520   3.1307
     3.2543   3.3091   3.3873   3.3921   3.5151   3.5519   3.6246   3.7163
     3.8058   3.9648   4.6206   4.6338   4.8290   4.8802   4.8910   4.9207
     4.9934   5.1595   5.2530   5.2776   5.3306   5.4182   5.5185   5.7096
     5.7964   5.9198   6.0277   6.0934   6.1389   6.2477

     occupation numbers 
     1.0000   1.0000   1.0000   1.0000   1.0000   1.0000   1.0000   1.0000
     1.0000   1.0000   1.0000   1.0000   1.0000   1.0000   1.0000   1.0000
     1.0000   1.0000   1.0000   1.0000   1.0000   1.0000   1.0000   1.0000
     1.0000   1.0000   1.0000   1.0000   1.0000   1.0000   1.0000   1.0000
     1.0000   1.0000   1.0000   1.0000   1.0000   1.0000   1.0000   1.0000
     1.0000   1.0000   1.0000   1.0000   1.0000   1.0000   1.0000   1.0000
     1.0000   1.0000   1.0000   1.0000   1.0000   1.0000   1.0000   1.0000
     1.0000   1.0000   1.0000   1.0000   1.0000   1.0000   1.0000   1.0000
     1.0000   1.0000   1.0000   1.0000   1.0000   1.0000   1.0000   1.0000
     1.0000   1.0000   1.0000   1.0000   1.0000   1.0000

          k = 0.2571 0.8610 0.0000 ( 43423 PWs)   bands (ev):

   -20.6854 -20.6815 -20.6710 -20.6673 -15.6638 -15.6638 -15.6547 -15.6547
   -15.6488 -15.6488 -15.5876 -15.5876 -15.5731 -15.5731  -6.9895  -6.9676
    -6.4307  -6.2934  -6.2003  -6.1404  -6.1284  -6.0574  -4.9295  -4.9050
    -4.8624  -4.8133  -4.7885  -4.7833  -4.7598  -4.7289  -4.7201  -4.6666
    -4.6232  -4.6003  -0.8621  -0.8478   1.2862   1.3602   1.7351   1.8053
     2.2052   2.2375   2.3269   2.4091   2.8442   3.0266   3.1429   3.1779
     3.2562   3.3034   3.3195   3.3612   3.4645   3.6031   3.7308   3.7858
     3.7965   3.8515   4.7760   4.8153   4.8218   4.8853   4.9929   5.0136
     5.0275   5.0631   5.1786   5.2307   5.2768   5.3175   5.8377   5.9061
     5.9566   6.0413   6.0661   6.1272   6.1707   6.2104

     occupation numbers 
     1.0000   1.0000   1.0000   1.0000   1.0000   1.0000   1.0000   1.0000
     1.0000   1.0000   1.0000   1.0000   1.0000   1.0000   1.0000   1.0000
     1.0000   1.0000   1.0000   1.0000   1.0000   1.0000   1.0000   1.0000
     1.0000   1.0000   1.0000   1.0000   1.0000   1.0000   1.0000   1.0000
     1.0000   1.0000   1.0000   1.0000   1.0000   1.0000   1.0000   1.0000
     1.0000   1.0000   1.0000   1.0000   1.0000   1.0000   1.0000   1.0000
     1.0000   1.0000   1.0000   1.0000   1.0000   1.0000   1.0000   1.0000
     1.0000   1.0000   1.0000   1.0000   1.0000   1.0000   1.0000   1.0000
     1.0000   1.0000   1.0000   1.0000   1.0000   1.0000   1.0000   1.0000
     1.0000   1.0000   1.0000   1.0000   1.0000   1.0000

          k = 0.2913 1.0910 0.1429 ( 43403 PWs)   bands (ev):

   -20.6846 -20.6828 -20.6698 -20.6681 -15.6638 -15.6638 -15.6547 -15.6547
   -15.6488 -15.6488 -15.5876 -15.5876 -15.5731 -15.5731  -7.0103  -6.9395
    -6.3673  -6.3326  -6.2368  -6.1442  -6.1346  -6.0624  -4.9093  -4.9081
    -4.8570  -4.8170  -4.7863  -4.7651  -4.7516  -4.7423  -4.7009  -4.6746
    -4.6355  -4.6094  -0.8829  -0.8262   1.2959   1.3911   1.6236   1.7564
     2.1894   2.3218   2.3930   2.4490   2.8483   2.9148   3.1660   3.2271
     3.2812   3.3076   3.3473   3.3511   3.4675   3.5442   3.7519   3.7672
     3.7923   3.8390   4.7827   4.8128   4.8455   4.8617   5.0041   5.0318
     5.0442   5.0686   5.1684   5.1899   5.2577   5.3246   5.8160   5.9114
     5.9867   6.0276   6.0521   6.0889   6.1521   6.2534

     occupation numbers 
     1.0000   1.0000   1.0000   1.0000   1.0000   1.0000   1.0000   1.0000
     1.0000   1.0000   1.0000   1.0000   1.0000   1.0000   1.0000   1.0000
     1.0000   1.0000   1.0000   1.0000   1.0000   1.0000   1.0000   1.0000
     1.0000   1.0000   1.0000   1.0000   1.0000   1.0000   1.0000   1.0000
     1.0000   1.0000   1.0000   1.0000   1.0000   1.0000   1.0000   1.0000
     1.0000   1.0000   1.0000   1.0000   1.0000   1.0000   1.0000   1.0000
     1.0000   1.0000   1.0000   1.0000   1.0000   1.0000   1.0000   1.0000
     1.0000   1.0000   1.0000   1.0000   1.0000   1.0000   1.0000   1.0000
     1.0000   1.0000   1.0000   1.0000   1.0000   1.0000   1.0000   1.0000
     1.0000   1.0000   1.0000   1.0000   1.0000   1.0000

          k = 0.3255 1.3211 0.2857 ( 43412 PWs)   bands (ev):

   -20.6903 -20.6889 -20.6642 -20.6628 -15.6638 -15.6638 -15.6546 -15.6546
   -15.6487 -15.6487 -15.5877 -15.5877 -15.5731 -15.5731  -7.0489  -7.0404
    -6.3613  -6.2696  -6.1874  -6.1452  -6.0883  -6.0154  -4.9488  -4.9298
    -4.8291  -4.7874  -4.7788  -4.7706  -4.7607  -4.7563  -4.7081  -4.6928
    -4.6180  -4.6131  -0.8911  -0.8668   1.4450   1.4948   1.6611   1.7518
     2.2545   2.3097   2.4360   2.4730   2.7815   2.9497   3.0836   3.1688
     3.2588   3.2796   3.3404   3.4099   3.4641   3.5978   3.7383   3.7814
     3.8062   3.8274   4.7129   4.7401   4.8218   4.8530   4.9534   4.9767
     5.0857   5.0882   5.1933   5.2295   5.2999   5.3387   5.7451   5.8059
     5.8809   5.9547   6.0212   6.0372   6.2616   6.2956

     occupation numbers 
     1.0000   1.0000   1.0000   1.0000   1.0000   1.0000   1.0000   1.0000
     1.0000   1.0000   1.0000   1.0000   1.0000   1.0000   1.0000   1.0000
     1.0000   1.0000   1.0000   1.0000   1.0000   1.0000   1.0000   1.0000
     1.0000   1.0000   1.0000   1.0000   1.0000   1.0000   1.0000   1.0000
     1.0000   1.0000   1.0000   1.0000   1.0000   1.0000   1.0000   1.0000
     1.0000   1.0000   1.0000   1.0000   1.0000   1.0000   1.0000   1.0000
     1.0000   1.0000   1.0000   1.0000   1.0000   1.0000   1.0000   1.0000
     1.0000   1.0000   1.0000   1.0000   1.0000   1.0000   1.0000   1.0000
     1.0000   1.0000   1.0000   1.0000   1.0000   1.0000   1.0000   1.0000
     1.0000   1.0000   1.0000   1.0000   1.0000   1.0000

          k = 0.3597 1.5511 0.4286 ( 43446 PWs)   bands (ev):

   -20.6987 -20.6890 -20.6646 -20.6550 -15.6638 -15.6638 -15.6544 -15.6544
   -15.6486 -15.6486 -15.5879 -15.5879 -15.5732 -15.5731  -7.1890  -7.0280
    -6.4307  -6.1650  -6.1519  -6.1279  -5.9779  -5.9732  -5.0024  -4.9501
    -4.8847  -4.8260  -4.8042  -4.7388  -4.7288  -4.7227  -4.6771  -4.6545
    -4.6405  -4.6337  -0.9408  -0.8803   1.6062   1.6431   1.7634   1.8335
     2.1474   2.3136   2.4547   2.5681   2.7706   2.9199   3.0552   3.1388
     3.2066   3.2370   3.3612   3.4565   3.4846   3.6116   3.7089   3.7214
     3.7786   3.9395   4.6139   4.6398   4.8438   4.8887   4.9023   4.9100
     4.9960   5.0703   5.2968   5.3205   5.3469   5.3703   5.5415   5.6710
     5.7685   5.9336   6.0147   6.0751   6.1996   6.2684

     occupation numbers 
     1.0000   1.0000   1.0000   1.0000   1.0000   1.0000   1.0000   1.0000
     1.0000   1.0000   1.0000   1.0000   1.0000   1.0000   1.0000   1.0000
     1.0000   1.0000   1.0000   1.0000   1.0000   1.0000   1.0000   1.0000
     1.0000   1.0000   1.0000   1.0000   1.0000   1.0000   1.0000   1.0000
     1.0000   1.0000   1.0000   1.0000   1.0000   1.0000   1.0000   1.0000
     1.0000   1.0000   1.0000   1.0000   1.0000   1.0000   1.0000   1.0000
     1.0000   1.0000   1.0000   1.0000   1.0000   1.0000   1.0000   1.0000
     1.0000   1.0000   1.0000   1.0000   1.0000   1.0000   1.0000   1.0000
     1.0000   1.0000   1.0000   1.0000   1.0000   1.0000   1.0000   1.0000
     1.0000   1.0000   1.0000   1.0000   1.0000   1.0000

          k = 0.1544 0.1709-0.4286 ( 43469 PWs)   bands (ev):

   -20.7033 -20.6847 -20.6691 -20.6507 -15.6639 -15.6637 -15.6544 -15.6543
   -15.6486 -15.6485 -15.5880 -15.5880 -15.5733 -15.5730  -7.2632  -6.9713
    -6.5269  -6.1498  -6.0908  -6.0844  -5.9897  -5.9001  -5.0471  -4.9926
    -4.8642  -4.8389  -4.7832  -4.7635  -4.7080  -4.7051  -4.6623  -4.6608
    -4.6479  -4.6384  -0.9930  -0.8593   1.6852   1.6854   1.7874   2.0504
     2.0789   2.1736   2.4668   2.6705   2.7846   2.8502   2.9962   3.1537
     3.2445   3.2897   3.3715   3.4354   3.4839   3.5779   3.6081   3.7269
     3.7606   4.0482   4.5751   4.5916   4.8376   4.8520   4.8744   4.9334
     5.0015   5.1153   5.2870   5.3423   5.3558   5.4232   5.4309   5.5960
     5.6831   5.9594   6.0007   6.0835   6.1950   6.2375

     occupation numbers 
     1.0000   1.0000   1.0000   1.0000   1.0000   1.0000   1.0000   1.0000
     1.0000   1.0000   1.0000   1.0000   1.0000   1.0000   1.0000   1.0000
     1.0000   1.0000   1.0000   1.0000   1.0000   1.0000   1.0000   1.0000
     1.0000   1.0000   1.0000   1.0000   1.0000   1.0000   1.0000   1.0000
     1.0000   1.0000   1.0000   1.0000   1.0000   1.0000   1.0000   1.0000
     1.0000   1.0000   1.0000   1.0000   1.0000   1.0000   1.0000   1.0000
     1.0000   1.0000   1.0000   1.0000   1.0000   1.0000   1.0000   1.0000
     1.0000   1.0000   1.0000   1.0000   1.0000   1.0000   1.0000   1.0000
     1.0000   1.0000   1.0000   1.0000   1.0000   1.0000   1.0000   1.0000
     1.0000   1.0000   1.0000   1.0000   1.0000   1.0000

          k = 0.1887 0.4009-0.2857 ( 43449 PWs)   bands (ev):

   -20.7018 -20.6792 -20.6743 -20.6520 -15.6639 -15.6637 -15.6544 -15.6543
   -15.6486 -15.6486 -15.5879 -15.5879 -15.5733 -15.5730  -7.2411  -6.9212
    -6.5700  -6.1602  -6.0796  -6.0581  -6.0386  -5.9475  -5.0457  -4.9510
    -4.8638  -4.8457  -4.7533  -4.7385  -4.7263  -4.7163  -4.7080  -4.6627
    -4.6544  -4.6289  -0.9820  -0.8438   1.5753   1.6089   1.8001   1.9891
     2.0673   2.3834   2.4179   2.4726   2.7963   2.9249   3.0432   3.0941
     3.2590   3.2742   3.3819   3.4240   3.5099   3.5605   3.6245   3.7216
     3.7959   4.0368   4.6130   4.6358   4.8230   4.8819   4.8902   4.9196
     5.0064   5.1842   5.2238   5.2715   5.3398   5.4030   5.5098   5.7144
     5.7340   5.9825   6.0183   6.1102   6.1232   6.2437

     occupation numbers 
     1.0000   1.0000   1.0000   1.0000   1.0000   1.0000   1.0000   1.0000
     1.0000   1.0000   1.0000   1.0000   1.0000   1.0000   1.0000   1.0000
     1.0000   1.0000   1.0000   1.0000   1.0000   1.0000   1.0000   1.0000
     1.0000   1.0000   1.0000   1.0000   1.0000   1.0000   1.0000   1.0000
     1.0000   1.0000   1.0000   1.0000   1.0000   1.0000   1.0000   1.0000
     1.0000   1.0000   1.0000   1.0000   1.0000   1.0000   1.0000   1.0000
     1.0000   1.0000   1.0000   1.0000   1.0000   1.0000   1.0000   1.0000
     1.0000   1.0000   1.0000   1.0000   1.0000   1.0000   1.0000   1.0000
     1.0000   1.0000   1.0000   1.0000   1.0000   1.0000   1.0000   1.0000
     1.0000   1.0000   1.0000   1.0000   1.0000   1.0000

          k = 0.2229 0.6310-0.1429 ( 43459 PWs)   bands (ev):

   -20.6946 -20.6804 -20.6726 -20.6586 -15.6638 -15.6638 -15.6546 -15.6545
   -15.6487 -15.6487 -15.5877 -15.5877 -15.5732 -15.5730  -7.1317  -6.9313
    -6.5149  -6.1767  -6.1677  -6.0993  -6.0711  -6.0252  -4.9941  -4.9109
    -4.8611  -4.8289  -4.7735  -4.7605  -4.7460  -4.7403  -4.6954  -4.6737
    -4.6369  -4.6176  -0.9164  -0.8447   1.4172   1.4311   1.8329   1.9081
     2.0886   2.2789   2.3269   2.5882   2.6664   3.0161   3.0997   3.1505
     3.2488   3.2805   3.3531   3.3967   3.4544   3.6407   3.7095   3.7250
     3.8010   3.9310   4.7108   4.7361   4.7729   4.9065   4.9689   4.9828
     5.0415   5.0788   5.1612   5.2756   5.3194   5.3490   5.7161   5.8347
     5.8867   5.9991   6.0294   6.0714   6.1840   6.2161

     occupation numbers 
     1.0000   1.0000   1.0000   1.0000   1.0000   1.0000   1.0000   1.0000
     1.0000   1.0000   1.0000   1.0000   1.0000   1.0000   1.0000   1.0000
     1.0000   1.0000   1.0000   1.0000   1.0000   1.0000   1.0000   1.0000
     1.0000   1.0000   1.0000   1.0000   1.0000   1.0000   1.0000   1.0000
     1.0000   1.0000   1.0000   1.0000   1.0000   1.0000   1.0000   1.0000
     1.0000   1.0000   1.0000   1.0000   1.0000   1.0000   1.0000   1.0000
     1.0000   1.0000   1.0000   1.0000   1.0000   1.0000   1.0000   1.0000
     1.0000   1.0000   1.0000   1.0000   1.0000   1.0000   1.0000   1.0000
     1.0000   1.0000   1.0000   1.0000   1.0000   1.0000   1.0000   1.0000
     1.0000   1.0000   1.0000   1.0000   1.0000   1.0000

          k = 0.2571-0.7351 0.0000 ( 43409 PWs)   bands (ev):

   -20.6855 -20.6815 -20.6710 -20.6673 -15.6638 -15.6638 -15.6547 -15.6547
   -15.6488 -15.6487 -15.5876 -15.5876 -15.5731 -15.5731  -7.0330  -6.9030
    -6.3722  -6.3232  -6.2523  -6.1831  -6.1100  -6.0594  -4.9244  -4.8999
    -4.8536  -4.8078  -4.7933  -4.7661  -4.7451  -4.7316  -4.7122  -4.6868
    -4.6262  -4.5984  -0.9032  -0.8054   1.2205   1.3910   1.6903   1.8914
     2.1194   2.2858   2.3567   2.4181   2.8950   2.9510   3.1568   3.2077
     3.2507   3.2951   3.3179   3.3623   3.4508   3.5754   3.7394   3.7554
     3.8072   3.8661   4.7778   4.8236   4.8417   4.8634   4.9802   5.0282
     5.0355   5.0600   5.1786   5.2265   5.2457   5.3518   5.8051   5.9500
     5.9725   6.0115   6.0419   6.1211   6.1348   6.2859

     occupation numbers 
     1.0000   1.0000   1.0000   1.0000   1.0000   1.0000   1.0000   1.0000
     1.0000   1.0000   1.0000   1.0000   1.0000   1.0000   1.0000   1.0000
     1.0000   1.0000   1.0000   1.0000   1.0000   1.0000   1.0000   1.0000
     1.0000   1.0000   1.0000   1.0000   1.0000   1.0000   1.0000   1.0000
     1.0000   1.0000   1.0000   1.0000   1.0000   1.0000   1.0000   1.0000
     1.0000   1.0000   1.0000   1.0000   1.0000   1.0000   1.0000   1.0000
     1.0000   1.0000   1.0000   1.0000   1.0000   1.0000   1.0000   1.0000
     1.0000   1.0000   1.0000   1.0000   1.0000   1.0000   1.0000   1.0000
     1.0000   1.0000   1.0000   1.0000   1.0000   1.0000   1.0000   1.0000
     1.0000   1.0000   1.0000   1.0000   1.0000   1.0000

          k = 0.2913-0.5050 0.1429 ( 43425 PWs)   bands (ev):

   -20.6916 -20.6873 -20.6658 -20.6616 -15.6638 -15.6638 -15.6546 -15.6545
   -15.6487 -15.6487 -15.5877 -15.5877 -15.5731 -15.5731  -7.0857  -6.9871
    -6.3149  -6.3009  -6.2117  -6.1476  -6.1376  -5.9934  -4.9537  -4.9216
    -4.8173  -4.7961  -4.7749  -4.7625  -4.7559  -4.7487  -4.7124  -4.6835
    -4.6257  -4.6126  -0.9258  -0.8300   1.3858   1.5089   1.6298   1.8449
     2.1557   2.3580   2.4017   2.5329   2.8549   2.8603   3.0983   3.2121
     3.2444   3.2997   3.3324   3.4097   3.4320   3.5955   3.7411   3.7589
     3.7824   3.8489   4.7059   4.7519   4.8350   4.8424   4.9432   4.9893
     5.0579   5.1146   5.2062   5.2145   5.2664   5.3772   5.7522   5.7956
     5.8590   5.9514   6.0374   6.0714   6.2173   6.3171

     occupation numbers 
     1.0000   1.0000   1.0000   1.0000   1.0000   1.0000   1.0000   1.0000
     1.0000   1.0000   1.0000   1.0000   1.0000   1.0000   1.0000   1.0000
     1.0000   1.0000   1.0000   1.0000   1.0000   1.0000   1.0000   1.0000
     1.0000   1.0000   1.0000   1.0000   1.0000   1.0000   1.0000   1.0000
     1.0000   1.0000   1.0000   1.0000   1.0000   1.0000   1.0000   1.0000
     1.0000   1.0000   1.0000   1.0000   1.0000   1.0000   1.0000   1.0000
     1.0000   1.0000   1.0000   1.0000   1.0000   1.0000   1.0000   1.0000
     1.0000   1.0000   1.0000   1.0000   1.0000   1.0000   1.0000   1.0000
     1.0000   1.0000   1.0000   1.0000   1.0000   1.0000   1.0000   1.0000
     1.0000   1.0000   1.0000   1.0000   1.0000   1.0000

          k = 0.3255-0.2750 0.2857 ( 43447 PWs)   bands (ev):

   -20.6955 -20.6935 -20.6602 -20.6582 -15.6638 -15.6638 -15.6544 -15.6544
   -15.6486 -15.6486 -15.5879 -15.5879 -15.5732 -15.5731  -7.1372  -7.0919
    -6.3423  -6.2281  -6.1587  -6.1466  -6.0225  -5.9336  -4.9743  -4.9582
    -4.8745  -4.8613  -4.7850  -4.7415  -4.7329  -4.7225  -4.6792  -4.6428
    -4.6357  -4.6346  -0.9210  -0.8972   1.6017   1.6793   1.7096   1.8213
     2.2099   2.2369   2.4428   2.5774   2.8737   2.9201   3.0194   3.1255
     3.1926   3.2430   3.3402   3.4664   3.4716   3.6485   3.7372   3.7476
     3.7543   3.8769   4.6063   4.6518   4.8596   4.8868   4.9017   4.9023
     5.0178   5.0233   5.3191   5.3247   5.3412   5.3710   5.5751   5.6372
     5.7475   5.9196   6.0175   6.0911   6.2362   6.2666

     occupation numbers 
     1.0000   1.0000   1.0000   1.0000   1.0000   1.0000   1.0000   1.0000
     1.0000   1.0000   1.0000   1.0000   1.0000   1.0000   1.0000   1.0000
     1.0000   1.0000   1.0000   1.0000   1.0000   1.0000   1.0000   1.0000
     1.0000   1.0000   1.0000   1.0000   1.0000   1.0000   1.0000   1.0000
     1.0000   1.0000   1.0000   1.0000   1.0000   1.0000   1.0000   1.0000
     1.0000   1.0000   1.0000   1.0000   1.0000   1.0000   1.0000   1.0000
     1.0000   1.0000   1.0000   1.0000   1.0000   1.0000   1.0000   1.0000
     1.0000   1.0000   1.0000   1.0000   1.0000   1.0000   1.0000   1.0000
     1.0000   1.0000   1.0000   1.0000   1.0000   1.0000   1.0000   1.0000
     1.0000   1.0000   1.0000   1.0000   1.0000   1.0000

          k = 0.3597-0.0450 0.4286 ( 43481 PWs)   bands (ev):

   -20.7009 -20.6903 -20.6636 -20.6530 -15.6638 -15.6637 -15.6544 -15.6543
   -15.6486 -15.6485 -15.5880 -15.5880 -15.5732 -15.5731  -7.2324  -7.0420
    -6.4347  -6.1404  -6.1319  -6.1276  -5.9383  -5.9351  -5.0131  -4.9852
    -4.8925  -4.8791  -4.7541  -4.7492  -4.7156  -4.7053  -4.6767  -4.6576
    -4.6410  -4.6372  -0.9578  -0.8935   1.6336   1.7299   1.8526   1.9782
     2.0721   2.1584   2.5700   2.6041   2.7827   2.8518   3.0473   3.1663
     3.1779   3.2953   3.2990   3.4723   3.4862   3.6315   3.6316   3.7157
     3.7340   4.0343   4.5666   4.6017   4.8393   4.8515   4.9157   4.9335
     4.9941   5.0410   5.3142   5.3465   5.3977   5.4063   5.4244   5.5755
     5.6528   5.9552   6.0359   6.1170   6.1778   6.2191

     occupation numbers 
     1.0000   1.0000   1.0000   1.0000   1.0000   1.0000   1.0000   1.0000
     1.0000   1.0000   1.0000   1.0000   1.0000   1.0000   1.0000   1.0000
     1.0000   1.0000   1.0000   1.0000   1.0000   1.0000   1.0000   1.0000
     1.0000   1.0000   1.0000   1.0000   1.0000   1.0000   1.0000   1.0000
     1.0000   1.0000   1.0000   1.0000   1.0000   1.0000   1.0000   1.0000
     1.0000   1.0000   1.0000   1.0000   1.0000   1.0000   1.0000   1.0000
     1.0000   1.0000   1.0000   1.0000   1.0000   1.0000   1.0000   1.0000
     1.0000   1.0000   1.0000   1.0000   1.0000   1.0000   1.0000   1.0000
     1.0000   1.0000   1.0000   1.0000   1.0000   1.0000   1.0000   1.0000
     1.0000   1.0000   1.0000   1.0000   1.0000   1.0000

          k = 0.1544-1.4252-0.4286 ( 43480 PWs)   bands (ev):

   -20.7008 -20.6840 -20.6696 -20.6529 -15.6639 -15.6637 -15.6544 -15.6544
   -15.6486 -15.6486 -15.5879 -15.5879 -15.5732 -15.5730  -7.2313  -6.9659
    -6.5263  -6.1455  -6.0882  -6.0834  -5.9893  -5.9751  -5.0305  -4.9509
    -4.8831  -4.8354  -4.7867  -4.7354  -4.7225  -4.7191  -4.6991  -4.6644
    -4.6499  -4.6335  -0.9640  -0.8639   1.5904   1.6113   1.8345   1.9146
     2.1046   2.3819   2.4392   2.5176   2.7480   2.8702   3.0600   3.1271
     3.2338   3.2733   3.3505   3.3980   3.5122   3.5904   3.6658   3.7227
     3.7819   4.0536   4.6052   4.6430   4.8266   4.8862   4.8994   4.9150
     5.0057   5.1226   5.2725   5.2838   5.3489   5.3786   5.5111   5.6955
     5.7108   5.9721   6.0389   6.1086   6.1472   6.2574

     occupation numbers 
     1.0000   1.0000   1.0000   1.0000   1.0000   1.0000   1.0000   1.0000
     1.0000   1.0000   1.0000   1.0000   1.0000   1.0000   1.0000   1.0000
     1.0000   1.0000   1.0000   1.0000   1.0000   1.0000   1.0000   1.0000
     1.0000   1.0000   1.0000   1.0000   1.0000   1.0000   1.0000   1.0000
     1.0000   1.0000   1.0000   1.0000   1.0000   1.0000   1.0000   1.0000
     1.0000   1.0000   1.0000   1.0000   1.0000   1.0000   1.0000   1.0000
     1.0000   1.0000   1.0000   1.0000   1.0000   1.0000   1.0000   1.0000
     1.0000   1.0000   1.0000   1.0000   1.0000   1.0000   1.0000   1.0000
     1.0000   1.0000   1.0000   1.0000   1.0000   1.0000   1.0000   1.0000
     1.0000   1.0000   1.0000   1.0000   1.0000   1.0000

          k = 0.1887-1.1951-0.2857 ( 43435 PWs)   bands (ev):

   -20.6949 -20.6791 -20.6738 -20.6584 -15.6638 -15.6638 -15.6546 -15.6545
   -15.6487 -15.6487 -15.5877 -15.5877 -15.5732 -15.5730  -7.1359  -6.9332
    -6.5393  -6.1745  -6.1427  -6.0818  -6.0645  -6.0200  -4.9965  -4.9224
    -4.8700  -4.8326  -4.7755  -4.7710  -4.7448  -4.7412  -4.6878  -4.6713
    -4.6414  -4.6164  -0.9101  -0.8527   1.4039   1.4593   1.8738   1.9160
     2.0722   2.2431   2.3442   2.5891   2.6624   2.9793   3.1033   3.1482
     3.2395   3.2653   3.3468   3.4147   3.4614   3.6756   3.7004   3.7156
     3.7871   3.9681   4.7023   4.7404   4.7627   4.9206   4.9696   4.9818
     5.0474   5.0626   5.1579   5.2827   5.3343   5.3368   5.7043   5.8086
     5.8978   6.0290   6.0403   6.0840   6.1488   6.2270

     occupation numbers 
     1.0000   1.0000   1.0000   1.0000   1.0000   1.0000   1.0000   1.0000
     1.0000   1.0000   1.0000   1.0000   1.0000   1.0000   1.0000   1.0000
     1.0000   1.0000   1.0000   1.0000   1.0000   1.0000   1.0000   1.0000
     1.0000   1.0000   1.0000   1.0000   1.0000   1.0000   1.0000   1.0000
     1.0000   1.0000   1.0000   1.0000   1.0000   1.0000   1.0000   1.0000
     1.0000   1.0000   1.0000   1.0000   1.0000   1.0000   1.0000   1.0000
     1.0000   1.0000   1.0000   1.0000   1.0000   1.0000   1.0000   1.0000
     1.0000   1.0000   1.0000   1.0000   1.0000   1.0000   1.0000   1.0000
     1.0000   1.0000   1.0000   1.0000   1.0000   1.0000   1.0000   1.0000
     1.0000   1.0000   1.0000   1.0000   1.0000   1.0000

          k = 0.2229-0.9651-0.1429 ( 43446 PWs)   bands (ev):

   -20.6860 -20.6806 -20.6719 -20.6668 -15.6638 -15.6638 -15.6547 -15.6547
   -15.6488 -15.6488 -15.5876 -15.5876 -15.5731 -15.5731  -6.9897  -6.9690
    -6.4685  -6.2610  -6.1980  -6.1648  -6.0949  -6.0440  -4.9338  -4.9199
    -4.8581  -4.8107  -4.8000  -4.7956  -4.7570  -4.7465  -4.7132  -4.6622
    -4.6088  -4.5956  -0.8699  -0.8399   1.2398   1.3738   1.8279   1.9368
     2.1194   2.1364   2.3414   2.3581   2.8886   3.0707   3.1146   3.1458
     3.2157   3.2611   3.3441   3.3831   3.4371   3.6624   3.7215   3.7621
     3.7909   3.8955   4.7643   4.8010   4.8227   4.9099   4.9837   4.9954
     5.0053   5.0681   5.1814   5.2606   5.2887   5.3288   5.8387   5.8920
     5.9557   6.0726   6.0797   6.1627   6.1771   6.1819

     occupation numbers 
     1.0000   1.0000   1.0000   1.0000   1.0000   1.0000   1.0000   1.0000
     1.0000   1.0000   1.0000   1.0000   1.0000   1.0000   1.0000   1.0000
     1.0000   1.0000   1.0000   1.0000   1.0000   1.0000   1.0000   1.0000
     1.0000   1.0000   1.0000   1.0000   1.0000   1.0000   1.0000   1.0000
     1.0000   1.0000   1.0000   1.0000   1.0000   1.0000   1.0000   1.0000
     1.0000   1.0000   1.0000   1.0000   1.0000   1.0000   1.0000   1.0000
     1.0000   1.0000   1.0000   1.0000   1.0000   1.0000   1.0000   1.0000
     1.0000   1.0000   1.0000   1.0000   1.0000   1.0000   1.0000   1.0000
     1.0000   1.0000   1.0000   1.0000   1.0000   1.0000   1.0000   1.0000
     1.0000   1.0000   1.0000   1.0000   1.0000   1.0000

          k = 0.2571-0.4691 0.0000 ( 43439 PWs)   bands (ev):

   -20.6935 -20.6838 -20.6691 -20.6597 -15.6638 -15.6638 -15.6546 -15.6545
   -15.6487 -15.6487 -15.5877 -15.5877 -15.5732 -15.5731  -7.1164  -6.9215
    -6.3675  -6.2671  -6.2243  -6.1618  -6.1584  -5.9878  -4.9769  -4.9009
    -4.8148  -4.7921  -4.7705  -4.7620  -4.7478  -4.7208  -4.7193  -4.6677
    -4.6413  -4.6170  -0.9506  -0.8033   1.3148   1.4978   1.6787   1.9655
     2.0720   2.2371   2.4602   2.5883   2.7510   2.9545   3.1182   3.2425
     3.2626   3.3119   3.3251   3.3977   3.4126   3.5407   3.7172   3.7659
     3.7826   3.8613   4.7042   4.7595   4.8196   4.8603   4.9430   5.0031
     5.0266   5.1297   5.1832   5.2353   5.2472   5.4122   5.7792   5.7849
     5.8459   5.9622   6.0447   6.1139   6.1437   6.3005

     occupation numbers 
     1.0000   1.0000   1.0000   1.0000   1.0000   1.0000   1.0000   1.0000
     1.0000   1.0000   1.0000   1.0000   1.0000   1.0000   1.0000   1.0000
     1.0000   1.0000   1.0000   1.0000   1.0000   1.0000   1.0000   1.0000
     1.0000   1.0000   1.0000   1.0000   1.0000   1.0000   1.0000   1.0000
     1.0000   1.0000   1.0000   1.0000   1.0000   1.0000   1.0000   1.0000
     1.0000   1.0000   1.0000   1.0000   1.0000   1.0000   1.0000   1.0000
     1.0000   1.0000   1.0000   1.0000   1.0000   1.0000   1.0000   1.0000
     1.0000   1.0000   1.0000   1.0000   1.0000   1.0000   1.0000   1.0000
     1.0000   1.0000   1.0000   1.0000   1.0000   1.0000   1.0000   1.0000
     1.0000   1.0000   1.0000   1.0000   1.0000   1.0000

          k = 0.2913-0.2390 0.1429 ( 43445 PWs)   bands (ev):

   -20.6972 -20.6913 -20.6623 -20.6565 -15.6638 -15.6638 -15.6544 -15.6544
   -15.6486 -15.6486 -15.5879 -15.5879 -15.5732 -15.5731  -7.1433  -7.0651
    -6.3207  -6.2540  -6.1913  -6.1463  -6.0618  -5.9090  -4.9916  -4.9449
    -4.8751  -4.8451  -4.7600  -4.7455  -4.7376  -4.7218  -4.6856  -4.6432
    -4.6321  -4.6203  -0.9571  -0.8557   1.5984   1.6146   1.6983   1.8945
     2.1501   2.2768   2.3279   2.6843   2.8605   2.9274   3.0164   3.1885
     3.2010   3.2782   3.3115   3.4529   3.4720   3.6763   3.7097   3.7421
     3.7682   3.8002   4.6047   4.6594   4.8663   4.8723   4.8990   4.9114
     4.9784   5.0650   5.2989   5.3272   5.3325   5.4062   5.5974   5.6266
     5.7428   5.9266   5.9996   6.1067   6.2510   6.2579

     occupation numbers 
     1.0000   1.0000   1.0000   1.0000   1.0000   1.0000   1.0000   1.0000
     1.0000   1.0000   1.0000   1.0000   1.0000   1.0000   1.0000   1.0000
     1.0000   1.0000   1.0000   1.0000   1.0000   1.0000   1.0000   1.0000
     1.0000   1.0000   1.0000   1.0000   1.0000   1.0000   1.0000   1.0000
     1.0000   1.0000   1.0000   1.0000   1.0000   1.0000   1.0000   1.0000
     1.0000   1.0000   1.0000   1.0000   1.0000   1.0000   1.0000   1.0000
     1.0000   1.0000   1.0000   1.0000   1.0000   1.0000   1.0000   1.0000
     1.0000   1.0000   1.0000   1.0000   1.0000   1.0000   1.0000   1.0000
     1.0000   1.0000   1.0000   1.0000   1.0000   1.0000   1.0000   1.0000
     1.0000   1.0000   1.0000   1.0000   1.0000   1.0000

          k = 0.3255-0.0090 0.2857 ( 43462 PWs)   bands (ev):

   -20.6974 -20.6953 -20.6587 -20.6565 -15.6638 -15.6638 -15.6543 -15.6543
   -15.6485 -15.6485 -15.5880 -15.5880 -15.5732 -15.5731  -7.1755  -7.1085
    -6.3312  -6.2257  -6.1756  -6.1200  -5.9740  -5.9005  -4.9832  -4.9777
    -4.9069  -4.9064  -4.7405  -4.7303  -4.7193  -4.7075  -4.6783  -4.6628
    -4.6441  -4.6143  -0.9317  -0.9133   1.5926   1.7993   1.8865   1.8899
     2.0751   2.1227   2.4511   2.6782   2.8187   2.9733   3.0432   3.1298
     3.1883   3.2450   3.2901   3.4617   3.5314   3.6518   3.6638   3.6843
     3.7493   3.9501   4.5634   4.6100   4.8416   4.8484   4.9383   4.9720
     4.9738   4.9778   5.3521   5.3572   5.3687   5.3846   5.4864   5.5498
     5.6520   5.9679   6.0244   6.1422   6.1663   6.2151

     occupation numbers 
     1.0000   1.0000   1.0000   1.0000   1.0000   1.0000   1.0000   1.0000
     1.0000   1.0000   1.0000   1.0000   1.0000   1.0000   1.0000   1.0000
     1.0000   1.0000   1.0000   1.0000   1.0000   1.0000   1.0000   1.0000
     1.0000   1.0000   1.0000   1.0000   1.0000   1.0000   1.0000   1.0000
     1.0000   1.0000   1.0000   1.0000   1.0000   1.0000   1.0000   1.0000
     1.0000   1.0000   1.0000   1.0000   1.0000   1.0000   1.0000   1.0000
     1.0000   1.0000   1.0000   1.0000   1.0000   1.0000   1.0000   1.0000
     1.0000   1.0000   1.0000   1.0000   1.0000   1.0000   1.0000   1.0000
     1.0000   1.0000   1.0000   1.0000   1.0000   1.0000   1.0000   1.0000
     1.0000   1.0000   1.0000   1.0000   1.0000   1.0000

          k = 0.3597 0.2210 0.4286 ( 43484 PWs)   bands (ev):

   -20.6987 -20.6890 -20.6646 -20.6550 -15.6638 -15.6637 -15.6544 -15.6544
   -15.6486 -15.6486 -15.5879 -15.5879 -15.5732 -15.5731  -7.1961  -7.0291
    -6.4434  -6.1417  -6.1341  -6.1223  -6.0077  -5.9500  -5.0020  -4.9530
    -4.8878  -4.8260  -4.8146  -4.7409  -4.7207  -4.7184  -4.6906  -4.6565
    -4.6428  -4.6346  -0.9319  -0.8927   1.5870   1.6487   1.8049   1.8405
     2.1593   2.3140   2.5060   2.5178   2.7539   2.8686   3.1364   3.1660
     3.1758   3.2224   3.3042   3.4186   3.4976   3.6261   3.7089   3.7277
     3.7671   4.0021   4.6016   4.6516   4.8396   4.8924   4.9056   4.9085
     5.0046   5.0645   5.3017   5.3138   5.3535   5.3593   5.5279   5.6786
     5.7033   5.9362   6.0482   6.1033   6.1921   6.2709

     occupation numbers 
     1.0000   1.0000   1.0000   1.0000   1.0000   1.0000   1.0000   1.0000
     1.0000   1.0000   1.0000   1.0000   1.0000   1.0000   1.0000   1.0000
     1.0000   1.0000   1.0000   1.0000   1.0000   1.0000   1.0000   1.0000
     1.0000   1.0000   1.0000   1.0000   1.0000   1.0000   1.0000   1.0000
     1.0000   1.0000   1.0000   1.0000   1.0000   1.0000   1.0000   1.0000
     1.0000   1.0000   1.0000   1.0000   1.0000   1.0000   1.0000   1.0000
     1.0000   1.0000   1.0000   1.0000   1.0000   1.0000   1.0000   1.0000
     1.0000   1.0000   1.0000   1.0000   1.0000   1.0000   1.0000   1.0000
     1.0000   1.0000   1.0000   1.0000   1.0000   1.0000   1.0000   1.0000
     1.0000   1.0000   1.0000   1.0000   1.0000   1.0000

          k = 0.1544-1.1592-0.4286 ( 43410 PWs)   bands (ev):

   -20.6942 -20.6821 -20.6709 -20.6591 -15.6638 -15.6638 -15.6546 -15.6545
   -15.6487 -15.6487 -15.5877 -15.5877 -15.5732 -15.5730  -7.1219  -6.9615
    -6.5127  -6.1799  -6.1316  -6.1046  -6.0795  -6.0015  -4.9887  -4.9247
    -4.8722  -4.8244  -4.7808  -4.7616  -4.7460  -4.7439  -4.6984  -4.6856
    -4.6314  -4.6121  -0.8963  -0.8661   1.4072   1.4890   1.8102   1.8530
     2.1509   2.2668   2.3715   2.5819   2.6308   2.9823   3.1307   3.1564
     3.2016   3.2764   3.3544   3.3862   3.4616   3.6556   3.7077   3.7560
     3.7851   3.9545   4.6987   4.7448   4.7690   4.9094   4.9677   4.9857
     5.0519   5.0736   5.1567   5.2792   5.3162   5.3433   5.7004   5.8049
     5.8879   6.0209   6.0288   6.0653   6.1954   6.2533

     occupation numbers 
     1.0000   1.0000   1.0000   1.0000   1.0000   1.0000   1.0000   1.0000
     1.0000   1.0000   1.0000   1.0000   1.0000   1.0000   1.0000   1.0000
     1.0000   1.0000   1.0000   1.0000   1.0000   1.0000   1.0000   1.0000
     1.0000   1.0000   1.0000   1.0000   1.0000   1.0000   1.0000   1.0000
     1.0000   1.0000   1.0000   1.0000   1.0000   1.0000   1.0000   1.0000
     1.0000   1.0000   1.0000   1.0000   1.0000   1.0000   1.0000   1.0000
     1.0000   1.0000   1.0000   1.0000   1.0000   1.0000   1.0000   1.0000
     1.0000   1.0000   1.0000   1.0000   1.0000   1.0000   1.0000   1.0000
     1.0000   1.0000   1.0000   1.0000   1.0000   1.0000   1.0000   1.0000
     1.0000   1.0000   1.0000   1.0000   1.0000   1.0000

          k = 0.1887-0.9291-0.2857 ( 43432 PWs)   bands (ev):

   -20.6861 -20.6803 -20.6722 -20.6667 -15.6638 -15.6638 -15.6547 -15.6547
   -15.6488 -15.6488 -15.5876 -15.5876 -15.5731 -15.5731  -6.9871  -6.9724
    -6.4812  -6.2435  -6.2013  -6.1773  -6.0840  -6.0357  -4.9328  -4.9264
    -4.8545  -4.8113  -4.8054  -4.8014  -4.7552  -4.7533  -4.7112  -4.6587
    -4.6042  -4.5955  -0.8745  -0.8348   1.2237   1.3874   1.8569   1.9975
     2.0786   2.0903   2.3417   2.3574   2.9089   3.0455   3.1054   3.1600
     3.2141   3.2364   3.3643   3.3912   3.4156   3.6858   3.7159   3.7487
     3.7905   3.9110   4.7588   4.7929   4.8257   4.9206   4.9824   4.9898
     4.9975   5.0709   5.1790   5.2580   5.3074   5.3296   5.8461   5.8654
     5.9693   6.0838   6.0870   6.1578   6.1791   6.1885

     occupation numbers 
     1.0000   1.0000   1.0000   1.0000   1.0000   1.0000   1.0000   1.0000
     1.0000   1.0000   1.0000   1.0000   1.0000   1.0000   1.0000   1.0000
     1.0000   1.0000   1.0000   1.0000   1.0000   1.0000   1.0000   1.0000
     1.0000   1.0000   1.0000   1.0000   1.0000   1.0000   1.0000   1.0000
     1.0000   1.0000   1.0000   1.0000   1.0000   1.0000   1.0000   1.0000
     1.0000   1.0000   1.0000   1.0000   1.0000   1.0000   1.0000   1.0000
     1.0000   1.0000   1.0000   1.0000   1.0000   1.0000   1.0000   1.0000
     1.0000   1.0000   1.0000   1.0000   1.0000   1.0000   1.0000   1.0000
     1.0000   1.0000   1.0000   1.0000   1.0000   1.0000   1.0000   1.0000
     1.0000   1.0000   1.0000   1.0000   1.0000   1.0000

          k = 0.2229-0.6991-0.1429 ( 43414 PWs)   bands (ev):

   -20.6860 -20.6806 -20.6720 -20.6668 -15.6638 -15.6638 -15.6547 -15.6547
   -15.6488 -15.6487 -15.5876 -15.5876 -15.5731 -15.5731  -7.0443  -6.8805
    -6.3820  -6.3063  -6.2666  -6.1984  -6.0964  -6.0690  -4.9379  -4.8877
    -4.8472  -4.8032  -4.7942  -4.7760  -4.7371  -4.7230  -4.7158  -4.7095
    -4.6090  -4.5952  -0.9141  -0.7945   1.1715   1.3852   1.8112   2.0238
     2.0316   2.1958   2.2678   2.4433   2.9657   2.9735   3.1463   3.1689
     3.2288   3.2761   3.3050   3.3669   3.4396   3.5982   3.7256   3.7592
     3.8197   3.8820   4.7787   4.8306   4.8377   4.8628   4.9594   5.0223
     5.0330   5.0488   5.1861   5.2400   5.2656   5.3659   5.8262   5.9299
     5.9739   5.9981   6.0318   6.1204   6.1856   6.2863

     occupation numbers 
     1.0000   1.0000   1.0000   1.0000   1.0000   1.0000   1.0000   1.0000
     1.0000   1.0000   1.0000   1.0000   1.0000   1.0000   1.0000   1.0000
     1.0000   1.0000   1.0000   1.0000   1.0000   1.0000   1.0000   1.0000
     1.0000   1.0000   1.0000   1.0000   1.0000   1.0000   1.0000   1.0000
     1.0000   1.0000   1.0000   1.0000   1.0000   1.0000   1.0000   1.0000
     1.0000   1.0000   1.0000   1.0000   1.0000   1.0000   1.0000   1.0000
     1.0000   1.0000   1.0000   1.0000   1.0000   1.0000   1.0000   1.0000
     1.0000   1.0000   1.0000   1.0000   1.0000   1.0000   1.0000   1.0000
     1.0000   1.0000   1.0000   1.0000   1.0000   1.0000   1.0000   1.0000
     1.0000   1.0000   1.0000   1.0000   1.0000   1.0000

          k = 0.2571-0.2030 0.0000 ( 43424 PWs)   bands (ev):

   -20.6999 -20.6865 -20.6671 -20.6539 -15.6638 -15.6638 -15.6544 -15.6544
   -15.6486 -15.6486 -15.5879 -15.5879 -15.5732 -15.5731  -7.1824  -6.9833
    -6.4287  -6.2128  -6.1773  -6.1443  -6.0826  -5.8999  -5.0214  -4.9461
    -4.8607  -4.8056  -4.7702  -4.7371  -4.7337  -4.7199  -4.6861  -4.6524
    -4.6355  -4.6061  -0.9828  -0.8265   1.5460   1.6181   1.6911   1.9847
     2.0919   2.2440   2.3338   2.6789   2.7882   2.9619   3.1018   3.1699
     3.2735   3.2878   3.3519   3.4316   3.4847   3.6025   3.6563   3.6958
     3.8042   3.8176   4.6079   4.6595   4.8481   4.8750   4.8963   4.9205
     4.9642   5.1132   5.2817   5.3112   5.3157   5.4428   5.5580   5.6785
     5.7604   5.9538   5.9919   6.0954   6.2235   6.2513

     occupation numbers 
     1.0000   1.0000   1.0000   1.0000   1.0000   1.0000   1.0000   1.0000
     1.0000   1.0000   1.0000   1.0000   1.0000   1.0000   1.0000   1.0000
     1.0000   1.0000   1.0000   1.0000   1.0000   1.0000   1.0000   1.0000
     1.0000   1.0000   1.0000   1.0000   1.0000   1.0000   1.0000   1.0000
     1.0000   1.0000   1.0000   1.0000   1.0000   1.0000   1.0000   1.0000
     1.0000   1.0000   1.0000   1.0000   1.0000   1.0000   1.0000   1.0000
     1.0000   1.0000   1.0000   1.0000   1.0000   1.0000   1.0000   1.0000
     1.0000   1.0000   1.0000   1.0000   1.0000   1.0000   1.0000   1.0000
     1.0000   1.0000   1.0000   1.0000   1.0000   1.0000   1.0000   1.0000
     1.0000   1.0000   1.0000   1.0000   1.0000   1.0000

          k = 0.2913 0.0270 0.1429 ( 43452 PWs)   bands (ev):

   -20.6993 -20.6928 -20.6610 -20.6546 -15.6638 -15.6638 -15.6544 -15.6543
   -15.6486 -15.6485 -15.5880 -15.5880 -15.5732 -15.5731  -7.1660  -7.0974
    -6.3369  -6.2294  -6.2080  -6.1177  -6.0057  -5.8789  -5.0040  -4.9719
    -4.9040  -4.8827  -4.7481  -4.7189  -4.7180  -4.7091  -4.6745  -4.6599
    -4.6457  -4.5962  -0.9662  -0.8721   1.5755   1.8031   1.8739   1.9008
     2.0823   2.0837   2.3578   2.7796   2.8489   2.8876   3.1154   3.1212
     3.1869   3.2796   3.3101   3.4451   3.5692   3.6113   3.6705   3.7400
     3.7745   3.8035   4.5658   4.6117   4.8443   4.8444   4.9197   4.9487
     4.9610   5.0340   5.3346   5.3644   5.3756   5.3841   5.5128   5.5451
     5.6906   5.9702   6.0169   6.0976   6.2112   6.2113

     occupation numbers 
     1.0000   1.0000   1.0000   1.0000   1.0000   1.0000   1.0000   1.0000
     1.0000   1.0000   1.0000   1.0000   1.0000   1.0000   1.0000   1.0000
     1.0000   1.0000   1.0000   1.0000   1.0000   1.0000   1.0000   1.0000
     1.0000   1.0000   1.0000   1.0000   1.0000   1.0000   1.0000   1.0000
     1.0000   1.0000   1.0000   1.0000   1.0000   1.0000   1.0000   1.0000
     1.0000   1.0000   1.0000   1.0000   1.0000   1.0000   1.0000   1.0000
     1.0000   1.0000   1.0000   1.0000   1.0000   1.0000   1.0000   1.0000
     1.0000   1.0000   1.0000   1.0000   1.0000   1.0000   1.0000   1.0000
     1.0000   1.0000   1.0000   1.0000   1.0000   1.0000   1.0000   1.0000
     1.0000   1.0000   1.0000   1.0000   1.0000   1.0000

          k = 0.3255 0.2570 0.2857 ( 43456 PWs)   bands (ev):

   -20.6955 -20.6935 -20.6602 -20.6582 -15.6638 -15.6638 -15.6544 -15.6544
   -15.6486 -15.6486 -15.5879 -15.5879 -15.5732 -15.5731  -7.1381  -7.0913
    -6.3450  -6.2221  -6.1595  -6.1452  -6.0301  -5.9286  -4.9752  -4.9575
    -4.8746  -4.8613  -4.7865  -4.7407  -4.7303  -4.7220  -4.6835  -4.6408
    -4.6364  -4.6347  -0.9234  -0.8949   1.5955   1.6827   1.7047   1.8339
     2.2137   2.2336   2.4317   2.5883   2.8692   2.9121   3.0228   3.1491
     3.1946   3.2424   3.3188   3.4549   3.4736   3.6519   3.7373   3.7478
     3.7518   3.8879   4.6039   4.6548   4.8586   4.8879   4.9019   4.9022
     5.0164   5.0248   5.3184   5.3253   5.3390   5.3736   5.5720   5.6396
     5.7328   5.9193   6.0221   6.1000   6.2352   6.2681

     occupation numbers 
     1.0000   1.0000   1.0000   1.0000   1.0000   1.0000   1.0000   1.0000
     1.0000   1.0000   1.0000   1.0000   1.0000   1.0000   1.0000   1.0000
     1.0000   1.0000   1.0000   1.0000   1.0000   1.0000   1.0000   1.0000
     1.0000   1.0000   1.0000   1.0000   1.0000   1.0000   1.0000   1.0000
     1.0000   1.0000   1.0000   1.0000   1.0000   1.0000   1.0000   1.0000
     1.0000   1.0000   1.0000   1.0000   1.0000   1.0000   1.0000   1.0000
     1.0000   1.0000   1.0000   1.0000   1.0000   1.0000   1.0000   1.0000
     1.0000   1.0000   1.0000   1.0000   1.0000   1.0000   1.0000   1.0000
     1.0000   1.0000   1.0000   1.0000   1.0000   1.0000   1.0000   1.0000
     1.0000   1.0000   1.0000   1.0000   1.0000   1.0000

          k = 0.3597 0.4871 0.4286 ( 43412 PWs)   bands (ev):

   -20.6926 -20.6856 -20.6674 -20.6606 -15.6638 -15.6638 -15.6546 -15.6545
   -15.6487 -15.6487 -15.5877 -15.5877 -15.5732 -15.5731  -7.0904  -7.0019
    -6.4497  -6.1916  -6.1667  -6.1195  -6.1068  -5.9948  -4.9726  -4.9204
    -4.8631  -4.8070  -4.7769  -4.7558  -4.7518  -4.7365  -4.7306  -4.6885
    -4.6232  -4.6096  -0.8822  -0.8780   1.4245   1.5067   1.7025   1.8023
     2.2464   2.2750   2.3986   2.5561   2.6418   3.0163   3.1095   3.1734
     3.2047   3.2840   3.3401   3.3790   3.4504   3.6450   3.7116   3.7890
     3.7960   3.8924   4.7010   4.7472   4.7899   4.8860   4.9542   4.9899
     5.0659   5.0907   5.1632   5.2628   5.3007   5.3441   5.7083   5.8222
     5.8614   5.9739   6.0329   6.0616   6.2373   6.2831

     occupation numbers 
     1.0000   1.0000   1.0000   1.0000   1.0000   1.0000   1.0000   1.0000
     1.0000   1.0000   1.0000   1.0000   1.0000   1.0000   1.0000   1.0000
     1.0000   1.0000   1.0000   1.0000   1.0000   1.0000   1.0000   1.0000
     1.0000   1.0000   1.0000   1.0000   1.0000   1.0000   1.0000   1.0000
     1.0000   1.0000   1.0000   1.0000   1.0000   1.0000   1.0000   1.0000
     1.0000   1.0000   1.0000   1.0000   1.0000   1.0000   1.0000   1.0000
     1.0000   1.0000   1.0000   1.0000   1.0000   1.0000   1.0000   1.0000
     1.0000   1.0000   1.0000   1.0000   1.0000   1.0000   1.0000   1.0000
     1.0000   1.0000   1.0000   1.0000   1.0000   1.0000   1.0000   1.0000
     1.0000   1.0000   1.0000   1.0000   1.0000   1.0000

          k = 0.1544-0.8932-0.4286 ( 43431 PWs)   bands (ev):

   -20.6857 -20.6810 -20.6715 -20.6670 -15.6638 -15.6638 -15.6547 -15.6547
   -15.6488 -15.6488 -15.5876 -15.5876 -15.5731 -15.5731  -6.9816  -6.9774
    -6.4645  -6.2548  -6.2075  -6.1792  -6.0919  -6.0334  -4.9341  -4.9171
    -4.8624  -4.8066  -4.7989  -4.7939  -4.7591  -4.7428  -4.7148  -4.6599
    -4.6151  -4.5964  -0.8755  -0.8337   1.2431   1.3939   1.7585   1.8902
     2.1431   2.2053   2.3510   2.3777   2.8481   3.0932   3.1047   3.1318
     3.2246   3.2807   3.3562   3.3834   3.4237   3.6594   3.7104   3.7580
     3.8020   3.8914   4.7607   4.8029   4.8248   4.9066   4.9813   5.0038
     5.0164   5.0726   5.1743   5.2523   5.2748   5.3367   5.8174   5.9086
     5.9540   6.0446   6.0924   6.1605   6.1821   6.1898

     occupation numbers 
     1.0000   1.0000   1.0000   1.0000   1.0000   1.0000   1.0000   1.0000
     1.0000   1.0000   1.0000   1.0000   1.0000   1.0000   1.0000   1.0000
     1.0000   1.0000   1.0000   1.0000   1.0000   1.0000   1.0000   1.0000
     1.0000   1.0000   1.0000   1.0000   1.0000   1.0000   1.0000   1.0000
     1.0000   1.0000   1.0000   1.0000   1.0000   1.0000   1.0000   1.0000
     1.0000   1.0000   1.0000   1.0000   1.0000   1.0000   1.0000   1.0000
     1.0000   1.0000   1.0000   1.0000   1.0000   1.0000   1.0000   1.0000
     1.0000   1.0000   1.0000   1.0000   1.0000   1.0000   1.0000   1.0000
     1.0000   1.0000   1.0000   1.0000   1.0000   1.0000   1.0000   1.0000
     1.0000   1.0000   1.0000   1.0000   1.0000   1.0000

          k = 0.1887-0.6631-0.2857 ( 43431 PWs)   bands (ev):

   -20.6861 -20.6803 -20.6722 -20.6667 -15.6638 -15.6638 -15.6547 -15.6547
   -15.6488 -15.6487 -15.5876 -15.5876 -15.5731 -15.5731  -7.0445  -6.8804
    -6.3795  -6.3238  -6.2497  -6.1935  -6.0970  -6.0748  -4.9409  -4.8856
    -4.8472  -4.8028  -4.7913  -4.7794  -4.7363  -4.7213  -4.7167  -4.7144
    -4.6032  -4.5966  -0.9133  -0.7957   1.1693   1.3769   1.8830   1.9667
     2.0764   2.1838   2.2140   2.4449   2.9643   3.0116   3.1239   3.1768
     3.2124   3.2816   3.2970   3.3628   3.4498   3.5971   3.7260   3.7663
     3.8191   3.8806   4.7814   4.8289   4.8402   4.8600   4.9563   5.0196
     5.0337   5.0435   5.1913   5.2435   5.2703   5.3642   5.8442   5.9136
     5.9740   5.9991   6.0291   6.1233   6.1974   6.2751

     occupation numbers 
     1.0000   1.0000   1.0000   1.0000   1.0000   1.0000   1.0000   1.0000
     1.0000   1.0000   1.0000   1.0000   1.0000   1.0000   1.0000   1.0000
     1.0000   1.0000   1.0000   1.0000   1.0000   1.0000   1.0000   1.0000
     1.0000   1.0000   1.0000   1.0000   1.0000   1.0000   1.0000   1.0000
     1.0000   1.0000   1.0000   1.0000   1.0000   1.0000   1.0000   1.0000
     1.0000   1.0000   1.0000   1.0000   1.0000   1.0000   1.0000   1.0000
     1.0000   1.0000   1.0000   1.0000   1.0000   1.0000   1.0000   1.0000
     1.0000   1.0000   1.0000   1.0000   1.0000   1.0000   1.0000   1.0000
     1.0000   1.0000   1.0000   1.0000   1.0000   1.0000   1.0000   1.0000
     1.0000   1.0000   1.0000   1.0000   1.0000   1.0000

          k = 0.2229-0.4331-0.1429 ( 43454 PWs)   bands (ev):

   -20.6947 -20.6803 -20.6726 -20.6586 -15.6638 -15.6638 -15.6546 -15.6545
   -15.6487 -15.6487 -15.5877 -15.5877 -15.5732 -15.5730  -7.1333  -6.8743
    -6.4298  -6.2553  -6.2085  -6.1672  -6.1556  -5.9905  -4.9964  -4.8853
    -4.8234  -4.7944  -4.7600  -4.7502  -4.7410  -4.7291  -4.7035  -4.6588
    -4.6472  -4.6285  -0.9614  -0.7921   1.2800   1.4821   1.7563   2.0110
     2.0693   2.1539   2.4263   2.6167   2.7029   3.0376   3.1264   3.2088
     3.2880   3.3193   3.3455   3.3746   3.4312   3.4920   3.6869   3.7736
     3.8034   3.8603   4.7060   4.7606   4.8068   4.8748   4.9465   5.0046
     5.0173   5.1202   5.1768   5.2411   5.2536   5.4294   5.7650   5.8343
     5.8470   5.9786   6.0333   6.0775   6.1470   6.2562

     occupation numbers 
     1.0000   1.0000   1.0000   1.0000   1.0000   1.0000   1.0000   1.0000
     1.0000   1.0000   1.0000   1.0000   1.0000   1.0000   1.0000   1.0000
     1.0000   1.0000   1.0000   1.0000   1.0000   1.0000   1.0000   1.0000
     1.0000   1.0000   1.0000   1.0000   1.0000   1.0000   1.0000   1.0000
     1.0000   1.0000   1.0000   1.0000   1.0000   1.0000   1.0000   1.0000
     1.0000   1.0000   1.0000   1.0000   1.0000   1.0000   1.0000   1.0000
     1.0000   1.0000   1.0000   1.0000   1.0000   1.0000   1.0000   1.0000
     1.0000   1.0000   1.0000   1.0000   1.0000   1.0000   1.0000   1.0000
     1.0000   1.0000   1.0000   1.0000   1.0000   1.0000   1.0000   1.0000
     1.0000   1.0000   1.0000   1.0000   1.0000   1.0000

          k =-0.5141-0.1259 0.0000 ( 43432 PWs)   bands (ev):

   -20.6964 -20.6964 -20.6576 -20.6576 -15.6638 -15.6638 -15.6543 -15.6543
   -15.6485 -15.6485 -15.5880 -15.5880 -15.5731 -15.5731  -7.1411  -7.1411
    -6.2822  -6.2822  -6.1516  -6.1516  -5.9351  -5.9351  -4.9791  -4.9791
    -4.9070  -4.9070  -4.7361  -4.7361  -4.7122  -4.7122  -4.6671  -4.6671
    -4.6285  -4.6285  -0.9213  -0.9213   1.7113   1.7113   1.8446   1.8446
     2.0954   2.0954   2.5842   2.5842   2.8997   2.8997   3.0241   3.0241
     3.2434   3.2434   3.4237   3.4237   3.6220   3.6220   3.7074   3.7075
     3.7714   3.7714   4.5855   4.5855   4.8450   4.8450   4.9560   4.9561
     4.9736   4.9736   5.3571   5.3571   5.3681   5.3681   5.5188   5.5188
     5.8405   5.8405   6.0611   6.0611   6.1856   6.1856

     occupation numbers 
     1.0000   1.0000   1.0000   1.0000   1.0000   1.0000   1.0000   1.0000
     1.0000   1.0000   1.0000   1.0000   1.0000   1.0000   1.0000   1.0000
     1.0000   1.0000   1.0000   1.0000   1.0000   1.0000   1.0000   1.0000
     1.0000   1.0000   1.0000   1.0000   1.0000   1.0000   1.0000   1.0000
     1.0000   1.0000   1.0000   1.0000   1.0000   1.0000   1.0000   1.0000
     1.0000   1.0000   1.0000   1.0000   1.0000   1.0000   1.0000   1.0000
     1.0000   1.0000   1.0000   1.0000   1.0000   1.0000   1.0000   1.0000
     1.0000   1.0000   1.0000   1.0000   1.0000   1.0000   1.0000   1.0000
     1.0000   1.0000   1.0000   1.0000   1.0000   1.0000   1.0000   1.0000
     1.0000   1.0000   1.0000   1.0000   1.0000   1.0000

          k =-0.4799 0.1041 0.1429 ( 43430 PWs)   bands (ev):

   -20.6980 -20.6902 -20.6634 -20.6557 -15.6638 -15.6638 -15.6544 -15.6544
   -15.6486 -15.6486 -15.5879 -15.5879 -15.5732 -15.5731  -7.1692  -7.0450
    -6.3893  -6.2034  -6.1688  -6.1389  -6.0009  -5.9509  -4.9952  -4.9487
    -4.8810  -4.8358  -4.7853  -4.7455  -4.7299  -4.7257  -4.6711  -4.6494
    -4.6350  -4.6323  -0.9434  -0.8738   1.6163   1.6605   1.6998   1.8332
     2.1548   2.2866   2.4207   2.6065   2.8082   2.9859   3.0010   3.0991
     3.2227   3.2279   3.4002   3.4512   3.5361   3.5969   3.7137   3.7237
     3.7837   3.8553   4.6247   4.6315   4.8529   4.8841   4.9001   4.9095
     4.9899   5.0640   5.3002   5.3277   5.3398   5.3800   5.5641   5.6556
     5.8409   5.8819   6.0180   6.0461   6.2178   6.2664

     occupation numbers 
     1.0000   1.0000   1.0000   1.0000   1.0000   1.0000   1.0000   1.0000
     1.0000   1.0000   1.0000   1.0000   1.0000   1.0000   1.0000   1.0000
     1.0000   1.0000   1.0000   1.0000   1.0000   1.0000   1.0000   1.0000
     1.0000   1.0000   1.0000   1.0000   1.0000   1.0000   1.0000   1.0000
     1.0000   1.0000   1.0000   1.0000   1.0000   1.0000   1.0000   1.0000
     1.0000   1.0000   1.0000   1.0000   1.0000   1.0000   1.0000   1.0000
     1.0000   1.0000   1.0000   1.0000   1.0000   1.0000   1.0000   1.0000
     1.0000   1.0000   1.0000   1.0000   1.0000   1.0000   1.0000   1.0000
     1.0000   1.0000   1.0000   1.0000   1.0000   1.0000   1.0000   1.0000
     1.0000   1.0000   1.0000   1.0000   1.0000   1.0000

          k =-0.4457 0.3341 0.2857 ( 43431 PWs)   bands (ev):

   -20.6939 -20.6829 -20.6700 -20.6594 -15.6638 -15.6638 -15.6546 -15.6545
   -15.6487 -15.6487 -15.5877 -15.5877 -15.5732 -15.5731  -7.1188  -6.9413
    -6.4548  -6.2133  -6.1744  -6.1501  -6.0815  -6.0222  -4.9833  -4.9059
    -4.8367  -4.8177  -4.7712  -4.7599  -4.7477  -4.7321  -4.7126  -4.6753
    -4.6328  -4.6166  -0.9232  -0.8351   1.3926   1.4521   1.7538   1.8765
     2.1359   2.2693   2.3783   2.5832   2.6861   3.0368   3.0913   3.1492
     3.2606   3.3237   3.3557   3.3801   3.4489   3.5799   3.7285   3.7388
     3.8221   3.8657   4.7194   4.7337   4.7935   4.8827   4.9626   4.9843
     5.0380   5.1059   5.1682   5.2589   5.2940   5.3652   5.7405   5.8330
     5.9071   5.9430   6.0207   6.0584   6.2006   6.2507

     occupation numbers 
     1.0000   1.0000   1.0000   1.0000   1.0000   1.0000   1.0000   1.0000
     1.0000   1.0000   1.0000   1.0000   1.0000   1.0000   1.0000   1.0000
     1.0000   1.0000   1.0000   1.0000   1.0000   1.0000   1.0000   1.0000
     1.0000   1.0000   1.0000   1.0000   1.0000   1.0000   1.0000   1.0000
     1.0000   1.0000   1.0000   1.0000   1.0000   1.0000   1.0000   1.0000
     1.0000   1.0000   1.0000   1.0000   1.0000   1.0000   1.0000   1.0000
     1.0000   1.0000   1.0000   1.0000   1.0000   1.0000   1.0000   1.0000
     1.0000   1.0000   1.0000   1.0000   1.0000   1.0000   1.0000   1.0000
     1.0000   1.0000   1.0000   1.0000   1.0000   1.0000   1.0000   1.0000
     1.0000   1.0000   1.0000   1.0000   1.0000   1.0000

          k =-0.4115 0.5642 0.4286 ( 43429 PWs)   bands (ev):

   -20.6860 -20.6804 -20.6721 -20.6667 -15.6638 -15.6638 -15.6547 -15.6547
   -15.6488 -15.6488 -15.5876 -15.5876 -15.5731 -15.5731  -7.0178  -6.9312
    -6.4209  -6.3192  -6.1539  -6.1519  -6.1340  -6.0882  -4.9370  -4.9037
    -4.8557  -4.8112  -4.7880  -4.7836  -4.7499  -4.7335  -4.7176  -4.6854
    -4.6055  -4.5974  -0.8754  -0.8357   1.2729   1.3005   1.9097   1.9395
     2.0516   2.1698   2.2689   2.3795   2.9292   3.0662   3.1309   3.1669
     3.2250   3.2642   3.3065   3.3473   3.5189   3.5748   3.7607   3.7687
     3.8199   3.8402   4.7954   4.8042   4.8286   4.8787   4.9756   5.0045
     5.0179   5.0487   5.2080   5.2540   5.2777   5.3197   5.8815   5.9094
     5.9447   6.0064   6.0980   6.1257   6.1553   6.2196

     occupation numbers 
     1.0000   1.0000   1.0000   1.0000   1.0000   1.0000   1.0000   1.0000
     1.0000   1.0000   1.0000   1.0000   1.0000   1.0000   1.0000   1.0000
     1.0000   1.0000   1.0000   1.0000   1.0000   1.0000   1.0000   1.0000
     1.0000   1.0000   1.0000   1.0000   1.0000   1.0000   1.0000   1.0000
     1.0000   1.0000   1.0000   1.0000   1.0000   1.0000   1.0000   1.0000
     1.0000   1.0000   1.0000   1.0000   1.0000   1.0000   1.0000   1.0000
     1.0000   1.0000   1.0000   1.0000   1.0000   1.0000   1.0000   1.0000
     1.0000   1.0000   1.0000   1.0000   1.0000   1.0000   1.0000   1.0000
     1.0000   1.0000   1.0000   1.0000   1.0000   1.0000   1.0000   1.0000
     1.0000   1.0000   1.0000   1.0000   1.0000   1.0000

          k =-0.5141 0.1401 0.0000 ( 43417 PWs)   bands (ev):

   -20.6945 -20.6945 -20.6592 -20.6592 -15.6638 -15.6638 -15.6544 -15.6544
   -15.6486 -15.6486 -15.5879 -15.5879 -15.5731 -15.5731  -7.1170  -7.1099
    -6.3057  -6.2729  -6.1614  -6.1512  -6.0005  -5.9498  -4.9698  -4.9603
    -4.8689  -4.8676  -4.7722  -4.7547  -4.7325  -4.7256  -4.6662  -4.6476
    -4.6340  -4.6337  -0.9191  -0.8977   1.6294   1.6649   1.7146   1.7836
     2.2146   2.2258   2.4652   2.5561   2.9188   2.9511   2.9820   3.0589
     3.2052   3.2331   3.3948   3.4463   3.5364   3.6301   3.7451   3.7531
     3.7630   3.8099   4.6168   4.6403   4.8684   4.8772   4.9013   4.9026
     5.0132   5.0258   5.3195   5.3254   5.3468   5.3659   5.5992   5.6179
     5.8097   5.9015   6.0104   6.0565   6.2475   6.2569

     occupation numbers 
     1.0000   1.0000   1.0000   1.0000   1.0000   1.0000   1.0000   1.0000
     1.0000   1.0000   1.0000   1.0000   1.0000   1.0000   1.0000   1.0000
     1.0000   1.0000   1.0000   1.0000   1.0000   1.0000   1.0000   1.0000
     1.0000   1.0000   1.0000   1.0000   1.0000   1.0000   1.0000   1.0000
     1.0000   1.0000   1.0000   1.0000   1.0000   1.0000   1.0000   1.0000
     1.0000   1.0000   1.0000   1.0000   1.0000   1.0000   1.0000   1.0000
     1.0000   1.0000   1.0000   1.0000   1.0000   1.0000   1.0000   1.0000
     1.0000   1.0000   1.0000   1.0000   1.0000   1.0000   1.0000   1.0000
     1.0000   1.0000   1.0000   1.0000   1.0000   1.0000   1.0000   1.0000
     1.0000   1.0000   1.0000   1.0000   1.0000   1.0000

          k =-0.4799 0.3701 0.1429 ( 43418 PWs)   bands (ev):

   -20.6921 -20.6864 -20.6666 -20.6611 -15.6638 -15.6638 -15.6546 -15.6545
   -15.6487 -15.6487 -15.5877 -15.5877 -15.5732 -15.5731  -7.0911  -6.9821
    -6.3633  -6.2745  -6.1904  -6.1599  -6.0988  -6.0128  -4.9597  -4.9190
    -4.8101  -4.8008  -4.7895  -4.7634  -4.7527  -4.7423  -4.7138  -4.6818
    -4.6263  -4.6132  -0.9178  -0.8390   1.4015   1.4872   1.6689   1.8177
     2.1796   2.3328   2.3851   2.5423   2.7899   2.9242   3.1251   3.1539
     3.2561   3.3089   3.3596   3.3843   3.4821   3.5539   3.7452   3.7570
     3.8008   3.8392   4.7149   4.7410   4.8210   4.8546   4.9522   4.9818
     5.0550   5.1131   5.1914   5.2300   5.2825   5.3631   5.7703   5.7857
     5.8981   5.9443   6.0174   6.0517   6.2260   6.2981

     occupation numbers 
     1.0000   1.0000   1.0000   1.0000   1.0000   1.0000   1.0000   1.0000
     1.0000   1.0000   1.0000   1.0000   1.0000   1.0000   1.0000   1.0000
     1.0000   1.0000   1.0000   1.0000   1.0000   1.0000   1.0000   1.0000
     1.0000   1.0000   1.0000   1.0000   1.0000   1.0000   1.0000   1.0000
     1.0000   1.0000   1.0000   1.0000   1.0000   1.0000   1.0000   1.0000
     1.0000   1.0000   1.0000   1.0000   1.0000   1.0000   1.0000   1.0000
     1.0000   1.0000   1.0000   1.0000   1.0000   1.0000   1.0000   1.0000
     1.0000   1.0000   1.0000   1.0000   1.0000   1.0000   1.0000   1.0000
     1.0000   1.0000   1.0000   1.0000   1.0000   1.0000   1.0000   1.0000
     1.0000   1.0000   1.0000   1.0000   1.0000   1.0000

          k =-0.4457 0.6002 0.2857 ( 43417 PWs)   bands (ev):

   -20.6856 -20.6813 -20.6713 -20.6671 -15.6638 -15.6638 -15.6547 -15.6547
   -15.6488 -15.6488 -15.5876 -15.5876 -15.5731 -15.5731  -7.0235  -6.9205
    -6.3776  -6.3433  -6.2090  -6.1468  -6.1305  -6.0784  -4.9287  -4.8997
    -4.8493  -4.8156  -4.7891  -4.7737  -4.7482  -4.7262  -4.7188  -4.6852
    -4.6213  -4.5980  -0.8886  -0.8214   1.2511   1.3521   1.7514   1.8706
     2.1382   2.2649   2.3061   2.4052   2.9179   2.9617   3.1770   3.2035
     3.2369   3.2840   3.3225   3.3380   3.5029   3.5501   3.7539   3.7805
     3.7972   3.8452   4.7908   4.8101   4.8459   4.8593   4.9850   5.0158
     5.0419   5.0435   5.1945   5.2236   5.2663   5.3315   5.8405   5.9188
     5.9933   5.9963   6.0603   6.1140   6.1345   6.2614

     occupation numbers 
     1.0000   1.0000   1.0000   1.0000   1.0000   1.0000   1.0000   1.0000
     1.0000   1.0000   1.0000   1.0000   1.0000   1.0000   1.0000   1.0000
     1.0000   1.0000   1.0000   1.0000   1.0000   1.0000   1.0000   1.0000
     1.0000   1.0000   1.0000   1.0000   1.0000   1.0000   1.0000   1.0000
     1.0000   1.0000   1.0000   1.0000   1.0000   1.0000   1.0000   1.0000
     1.0000   1.0000   1.0000   1.0000   1.0000   1.0000   1.0000   1.0000
     1.0000   1.0000   1.0000   1.0000   1.0000   1.0000   1.0000   1.0000
     1.0000   1.0000   1.0000   1.0000   1.0000   1.0000   1.0000   1.0000
     1.0000   1.0000   1.0000   1.0000   1.0000   1.0000   1.0000   1.0000
     1.0000   1.0000   1.0000   1.0000   1.0000   1.0000

          k =-0.4115 0.8302 0.4286 ( 43420 PWs)   bands (ev):

   -20.6860 -20.6804 -20.6721 -20.6667 -15.6638 -15.6638 -15.6547 -15.6547
   -15.6488 -15.6488 -15.5876 -15.5876 -15.5731 -15.5731  -7.0046  -6.9506
    -6.4481  -6.2919  -6.1744  -6.1432  -6.1181  -6.0726  -4.9354  -4.9123
    -4.8574  -4.8118  -4.7932  -4.7894  -4.7548  -4.7401  -4.7151  -4.6733
    -4.6057  -4.5970  -0.8577  -0.8531   1.2671   1.3221   1.8916   1.9411
     2.0773   2.1368   2.3044   2.3629   2.9170   3.0675   3.1361   3.1553
     3.2048   3.2793   3.3038   3.3670   3.4808   3.6231   3.7459   3.7754
     3.7905   3.8706   4.7797   4.8124   4.8153   4.8959   4.9822   4.9971
     5.0080   5.0575   5.1960   5.2675   5.2840   5.3144   5.8716   5.8981
     5.9404   6.0400   6.1054   6.1343   6.1638   6.1956

     occupation numbers 
     1.0000   1.0000   1.0000   1.0000   1.0000   1.0000   1.0000   1.0000
     1.0000   1.0000   1.0000   1.0000   1.0000   1.0000   1.0000   1.0000
     1.0000   1.0000   1.0000   1.0000   1.0000   1.0000   1.0000   1.0000
     1.0000   1.0000   1.0000   1.0000   1.0000   1.0000   1.0000   1.0000
     1.0000   1.0000   1.0000   1.0000   1.0000   1.0000   1.0000   1.0000
     1.0000   1.0000   1.0000   1.0000   1.0000   1.0000   1.0000   1.0000
     1.0000   1.0000   1.0000   1.0000   1.0000   1.0000   1.0000   1.0000
     1.0000   1.0000   1.0000   1.0000   1.0000   1.0000   1.0000   1.0000
     1.0000   1.0000   1.0000   1.0000   1.0000   1.0000   1.0000   1.0000
     1.0000   1.0000   1.0000   1.0000   1.0000   1.0000

          k =-0.6168-0.5500-0.4286 ( 43458 PWs)   bands (ev):

   -20.6948 -20.6796 -20.6733 -20.6585 -15.6638 -15.6638 -15.6546 -15.6545
   -15.6487 -15.6487 -15.5877 -15.5877 -15.5732 -15.5730  -7.1345  -6.9223
    -6.5178  -6.1762  -6.1714  -6.0994  -6.0775  -6.0242  -4.9963  -4.9072
    -4.8596  -4.8295  -4.7712  -4.7606  -4.7448  -4.7399  -4.6946  -4.6694
    -4.6393  -4.6194  -0.9212  -0.8395   1.4133   1.4226   1.8394   1.9335
     2.0663   2.2787   2.3150   2.5911   2.6726   3.0221   3.1011   3.1488
     3.2512   3.2843   3.3491   3.4004   3.4544   3.6416   3.6952   3.7273
     3.8042   3.9272   4.7129   4.7349   4.7732   4.9071   4.9651   4.9863
     5.0399   5.0781   5.1622   5.2757   5.3143   5.3564   5.7185   5.8423
     5.8866   5.9900   6.0266   6.0882   6.1720   6.2074

     occupation numbers 
     1.0000   1.0000   1.0000   1.0000   1.0000   1.0000   1.0000   1.0000
     1.0000   1.0000   1.0000   1.0000   1.0000   1.0000   1.0000   1.0000
     1.0000   1.0000   1.0000   1.0000   1.0000   1.0000   1.0000   1.0000
     1.0000   1.0000   1.0000   1.0000   1.0000   1.0000   1.0000   1.0000
     1.0000   1.0000   1.0000   1.0000   1.0000   1.0000   1.0000   1.0000
     1.0000   1.0000   1.0000   1.0000   1.0000   1.0000   1.0000   1.0000
     1.0000   1.0000   1.0000   1.0000   1.0000   1.0000   1.0000   1.0000
     1.0000   1.0000   1.0000   1.0000   1.0000   1.0000   1.0000   1.0000
     1.0000   1.0000   1.0000   1.0000   1.0000   1.0000   1.0000   1.0000
     1.0000   1.0000   1.0000   1.0000   1.0000   1.0000

          k =-0.5826-0.3200-0.2857 ( 43459 PWs)   bands (ev):

   -20.7004 -20.6852 -20.6683 -20.6534 -15.6638 -15.6637 -15.6544 -15.6544
   -15.6486 -15.6486 -15.5879 -15.5879 -15.5732 -15.5730  -7.2162  -6.9767
    -6.4964  -6.1632  -6.1165  -6.1073  -6.0043  -5.9547  -5.0253  -4.9487
    -4.8790  -4.8189  -4.7962  -4.7347  -4.7254  -4.7209  -4.6890  -4.6588
    -4.6445  -4.6310  -0.9645  -0.8580   1.5909   1.6246   1.7668   1.9097
     2.1071   2.3560   2.4060   2.5712   2.7528   2.9234   3.0447   3.1420
     3.2424   3.2693   3.3608   3.4171   3.5019   3.5847   3.6724   3.7178
     3.7911   3.9793   4.6159   4.6361   4.8333   4.8846   4.8991   4.9155
     4.9943   5.1126   5.2782   5.2978   5.3404   5.3907   5.5240   5.6934
     5.7649   5.9480   6.0124   6.0867   6.1664   6.2604

     occupation numbers 
     1.0000   1.0000   1.0000   1.0000   1.0000   1.0000   1.0000   1.0000
     1.0000   1.0000   1.0000   1.0000   1.0000   1.0000   1.0000   1.0000
     1.0000   1.0000   1.0000   1.0000   1.0000   1.0000   1.0000   1.0000
     1.0000   1.0000   1.0000   1.0000   1.0000   1.0000   1.0000   1.0000
     1.0000   1.0000   1.0000   1.0000   1.0000   1.0000   1.0000   1.0000
     1.0000   1.0000   1.0000   1.0000   1.0000   1.0000   1.0000   1.0000
     1.0000   1.0000   1.0000   1.0000   1.0000   1.0000   1.0000   1.0000
     1.0000   1.0000   1.0000   1.0000   1.0000   1.0000   1.0000   1.0000
     1.0000   1.0000   1.0000   1.0000   1.0000   1.0000   1.0000   1.0000
     1.0000   1.0000   1.0000   1.0000   1.0000   1.0000

          k =-0.5483-0.0900-0.1429 ( 43469 PWs)   bands (ev):

   -20.7002 -20.6916 -20.6623 -20.6538 -15.6638 -15.6637 -15.6543 -15.6543
   -15.6486 -15.6485 -15.5880 -15.5880 -15.5732 -15.5731  -7.2102  -7.0637
    -6.4000  -6.1744  -6.1467  -6.1360  -5.9480  -5.9244  -5.0056  -4.9809
    -4.8985  -4.8838  -4.7496  -4.7416  -4.7140  -4.7080  -4.6683  -4.6610
    -4.6356  -4.6334  -0.9537  -0.8928   1.6748   1.7422   1.7829   1.9464
     2.0740   2.1353   2.5369   2.6449   2.8146   2.9022   2.9731   3.1445
     3.2042   3.2761   3.3868   3.4577   3.5212   3.6258   3.6490   3.7234
     3.7300   3.9385   4.5763   4.5935   4.8408   4.8495   4.9233   4.9407
     4.9791   5.0311   5.3216   5.3493   5.3906   5.3946   5.4528   5.5649
     5.7346   5.9311   6.0172   6.1004   6.1725   6.2122

     occupation numbers 
     1.0000   1.0000   1.0000   1.0000   1.0000   1.0000   1.0000   1.0000
     1.0000   1.0000   1.0000   1.0000   1.0000   1.0000   1.0000   1.0000
     1.0000   1.0000   1.0000   1.0000   1.0000   1.0000   1.0000   1.0000
     1.0000   1.0000   1.0000   1.0000   1.0000   1.0000   1.0000   1.0000
     1.0000   1.0000   1.0000   1.0000   1.0000   1.0000   1.0000   1.0000
     1.0000   1.0000   1.0000   1.0000   1.0000   1.0000   1.0000   1.0000
     1.0000   1.0000   1.0000   1.0000   1.0000   1.0000   1.0000   1.0000
     1.0000   1.0000   1.0000   1.0000   1.0000   1.0000   1.0000   1.0000
     1.0000   1.0000   1.0000   1.0000   1.0000   1.0000   1.0000   1.0000
     1.0000   1.0000   1.0000   1.0000   1.0000   1.0000

          k =-0.5141 0.4061 0.0000 ( 43425 PWs)   bands (ev):

   -20.6896 -20.6896 -20.6635 -20.6635 -15.6638 -15.6638 -15.6546 -15.6546
   -15.6487 -15.6487 -15.5877 -15.5877 -15.5731 -15.5731  -7.0554  -7.0321
    -6.3539  -6.2637  -6.1994  -6.1384  -6.1187  -5.9987  -4.9480  -4.9289
    -4.8330  -4.7824  -4.7746  -4.7693  -4.7614  -4.7574  -4.7102  -4.6920
    -4.6189  -4.6125  -0.9058  -0.8515   1.4267   1.5111   1.6290   1.7886
     2.2153   2.3441   2.4452   2.4713   2.7803   2.9497   3.0751   3.1934
     3.2440   3.2855   3.3307   3.4184   3.4357   3.6183   3.7347   3.7784
     3.7961   3.8370   4.7067   4.7475   4.8243   4.8518   4.9464   4.9840
     5.0792   5.0961   5.1947   5.2276   5.2828   5.3555   5.7363   5.8109
     5.8604   5.9519   6.0362   6.0512   6.2469   6.3109

     occupation numbers 
     1.0000   1.0000   1.0000   1.0000   1.0000   1.0000   1.0000   1.0000
     1.0000   1.0000   1.0000   1.0000   1.0000   1.0000   1.0000   1.0000
     1.0000   1.0000   1.0000   1.0000   1.0000   1.0000   1.0000   1.0000
     1.0000   1.0000   1.0000   1.0000   1.0000   1.0000   1.0000   1.0000
     1.0000   1.0000   1.0000   1.0000   1.0000   1.0000   1.0000   1.0000
     1.0000   1.0000   1.0000   1.0000   1.0000   1.0000   1.0000   1.0000
     1.0000   1.0000   1.0000   1.0000   1.0000   1.0000   1.0000   1.0000
     1.0000   1.0000   1.0000   1.0000   1.0000   1.0000   1.0000   1.0000
     1.0000   1.0000   1.0000   1.0000   1.0000   1.0000   1.0000   1.0000
     1.0000   1.0000   1.0000   1.0000   1.0000   1.0000

          k =-0.4799 0.6361 0.1429 ( 43421 PWs)   bands (ev):

   -20.6848 -20.6825 -20.6701 -20.6678 -15.6638 -15.6638 -15.6547 -15.6547
   -15.6488 -15.6488 -15.5876 -15.5876 -15.5731 -15.5731  -7.0220  -6.9219
    -6.3732  -6.3146  -6.2585  -6.1715  -6.1172  -6.0518  -4.9115  -4.9079
    -4.8622  -4.8075  -4.7903  -4.7611  -4.7504  -4.7410  -4.7040  -4.6752
    -4.6367  -4.6051  -0.8949  -0.8136   1.2627   1.4043   1.6194   1.8081
     2.1591   2.3530   2.3698   2.4418   2.8393   2.9415   3.1477   3.2291
     3.2708   3.2995   3.3482   3.3625   3.4469   3.5627   3.7414   3.7533
     3.8029   3.8542   4.7759   4.8206   4.8410   4.8662   4.9946   5.0363
     5.0385   5.0722   5.1673   5.2029   5.2434   5.3410   5.7976   5.9354
     5.9746   6.0248   6.0509   6.1083   6.1354   6.2730

     occupation numbers 
     1.0000   1.0000   1.0000   1.0000   1.0000   1.0000   1.0000   1.0000
     1.0000   1.0000   1.0000   1.0000   1.0000   1.0000   1.0000   1.0000
     1.0000   1.0000   1.0000   1.0000   1.0000   1.0000   1.0000   1.0000
     1.0000   1.0000   1.0000   1.0000   1.0000   1.0000   1.0000   1.0000
     1.0000   1.0000   1.0000   1.0000   1.0000   1.0000   1.0000   1.0000
     1.0000   1.0000   1.0000   1.0000   1.0000   1.0000   1.0000   1.0000
     1.0000   1.0000   1.0000   1.0000   1.0000   1.0000   1.0000   1.0000
     1.0000   1.0000   1.0000   1.0000   1.0000   1.0000   1.0000   1.0000
     1.0000   1.0000   1.0000   1.0000   1.0000   1.0000   1.0000   1.0000
     1.0000   1.0000   1.0000   1.0000   1.0000   1.0000

          k =-0.4457 0.8662 0.2857 ( 43444 PWs)   bands (ev):

   -20.6856 -20.6813 -20.6713 -20.6671 -15.6638 -15.6638 -15.6547 -15.6547
   -15.6488 -15.6488 -15.5876 -15.5876 -15.5731 -15.5731  -6.9842  -6.9741
    -6.4502  -6.2720  -6.2081  -6.1606  -6.1063  -6.0426  -4.9324  -4.9113
    -4.8640  -4.8090  -4.7940  -4.7880  -4.7601  -4.7361  -4.7172  -4.6629
    -4.6190  -4.5981  -0.8705  -0.8390   1.2612   1.3808   1.7419   1.8515
     2.1716   2.2262   2.3379   2.3936   2.8415   3.0667   3.1189   3.1546
     3.2370   3.2934   3.3389   3.3738   3.4425   3.6353   3.7182   3.7699
     3.8010   3.8743   4.7668   4.8112   4.8213   4.8970   4.9858   5.0093
     5.0215   5.0690   5.1758   5.2464   5.2698   5.3296   5.8234   5.9184
     5.9460   6.0406   6.0816   6.1466   6.1809   6.1955

     occupation numbers 
     1.0000   1.0000   1.0000   1.0000   1.0000   1.0000   1.0000   1.0000
     1.0000   1.0000   1.0000   1.0000   1.0000   1.0000   1.0000   1.0000
     1.0000   1.0000   1.0000   1.0000   1.0000   1.0000   1.0000   1.0000
     1.0000   1.0000   1.0000   1.0000   1.0000   1.0000   1.0000   1.0000
     1.0000   1.0000   1.0000   1.0000   1.0000   1.0000   1.0000   1.0000
     1.0000   1.0000   1.0000   1.0000   1.0000   1.0000   1.0000   1.0000
     1.0000   1.0000   1.0000   1.0000   1.0000   1.0000   1.0000   1.0000
     1.0000   1.0000   1.0000   1.0000   1.0000   1.0000   1.0000   1.0000
     1.0000   1.0000   1.0000   1.0000   1.0000   1.0000   1.0000   1.0000
     1.0000   1.0000   1.0000   1.0000   1.0000   1.0000

          k =-0.4115 1.0962 0.4286 ( 43447 PWs)   bands (ev):

   -20.6948 -20.6796 -20.6733 -20.6585 -15.6638 -15.6638 -15.6546 -15.6545
   -15.6487 -15.6487 -15.5877 -15.5877 -15.5732 -15.5730  -7.1343  -6.9343
    -6.5324  -6.1751  -6.1492  -6.0825  -6.0695  -6.0208  -4.9956  -4.9195
    -4.8683  -4.8314  -4.7759  -4.7673  -4.7451  -4.7412  -4.6899  -4.6734
    -4.6393  -4.6164  -0.9108  -0.8515   1.4074   1.4538   1.8607   1.9089
     2.0811   2.2553   2.3399   2.5883   2.6615   2.9882   3.1050   3.1492
     3.2391   3.2694   3.3486   3.4088   3.4597   3.6641   3.7069   3.7186
     3.7903   3.9587   4.7041   4.7396   4.7654   4.9163   4.9708   4.9812
     5.0460   5.0673   5.1586   5.2809   5.3327   5.3373   5.7068   5.8146
     5.8945   6.0238   6.0367   6.0751   6.1629   6.2254

     occupation numbers 
     1.0000   1.0000   1.0000   1.0000   1.0000   1.0000   1.0000   1.0000
     1.0000   1.0000   1.0000   1.0000   1.0000   1.0000   1.0000   1.0000
     1.0000   1.0000   1.0000   1.0000   1.0000   1.0000   1.0000   1.0000
     1.0000   1.0000   1.0000   1.0000   1.0000   1.0000   1.0000   1.0000
     1.0000   1.0000   1.0000   1.0000   1.0000   1.0000   1.0000   1.0000
     1.0000   1.0000   1.0000   1.0000   1.0000   1.0000   1.0000   1.0000
     1.0000   1.0000   1.0000   1.0000   1.0000   1.0000   1.0000   1.0000
     1.0000   1.0000   1.0000   1.0000   1.0000   1.0000   1.0000   1.0000
     1.0000   1.0000   1.0000   1.0000   1.0000   1.0000   1.0000   1.0000
     1.0000   1.0000   1.0000   1.0000   1.0000   1.0000

          k =-0.6168-0.2840-0.4286 ( 43467 PWs)   bands (ev):

   -20.7016 -20.6802 -20.6733 -20.6521 -15.6639 -15.6637 -15.6544 -15.6544
   -15.6486 -15.6486 -15.5879 -15.5879 -15.5733 -15.5730  -7.2442  -6.9314
    -6.5678  -6.1481  -6.0705  -6.0561  -6.0178  -5.9627  -5.0430  -4.9516
    -4.8730  -4.8486  -4.7606  -4.7338  -4.7272  -4.7177  -4.7097  -4.6659
    -4.6538  -4.6323  -0.9770  -0.8519   1.5892   1.5971   1.8378   1.9695
     2.0778   2.4052   2.4226   2.4707   2.7824   2.8956   3.0126   3.1099
     3.2420   3.2784   3.3858   3.4143   3.5070   3.5727   3.6384   3.7228
     3.7877   4.0713   4.6068   4.6394   4.8214   4.8837   4.8925   4.9178
     5.0114   5.1683   5.2344   5.2719   5.3462   5.3900   5.5069   5.7011
     5.7143   5.9995   6.0262   6.1132   6.1260   6.2462

     occupation numbers 
     1.0000   1.0000   1.0000   1.0000   1.0000   1.0000   1.0000   1.0000
     1.0000   1.0000   1.0000   1.0000   1.0000   1.0000   1.0000   1.0000
     1.0000   1.0000   1.0000   1.0000   1.0000   1.0000   1.0000   1.0000
     1.0000   1.0000   1.0000   1.0000   1.0000   1.0000   1.0000   1.0000
     1.0000   1.0000   1.0000   1.0000   1.0000   1.0000   1.0000   1.0000
     1.0000   1.0000   1.0000   1.0000   1.0000   1.0000   1.0000   1.0000
     1.0000   1.0000   1.0000   1.0000   1.0000   1.0000   1.0000   1.0000
     1.0000   1.0000   1.0000   1.0000   1.0000   1.0000   1.0000   1.0000
     1.0000   1.0000   1.0000   1.0000   1.0000   1.0000   1.0000   1.0000
     1.0000   1.0000   1.0000   1.0000   1.0000   1.0000

          k =-0.5826-0.0540-0.2857 ( 43493 PWs)   bands (ev):

   -20.7028 -20.6862 -20.6677 -20.6512 -15.6639 -15.6637 -15.6544 -15.6543
   -15.6486 -15.6485 -15.5880 -15.5880 -15.5732 -15.5730  -7.2621  -6.9887
    -6.5082  -6.1338  -6.0995  -6.0905  -5.9693  -5.9137  -5.0391  -4.9917
    -4.8717  -4.8520  -4.7752  -4.7625  -4.7106  -4.7041  -4.6735  -4.6557
    -4.6491  -4.6409  -0.9843  -0.8706   1.6553   1.6942   1.8374   2.0423
     2.0728   2.1797   2.5117   2.7002   2.7144   2.8276   3.0176   3.1513
     3.2185   3.2988   3.3290   3.4541   3.4832   3.5927   3.6189   3.7311
     3.7414   4.0797   4.5688   4.5967   4.8377   4.8527   4.8840   4.9309
     5.0057   5.0938   5.2924   5.3438   5.3682   5.4214   5.4224   5.5911
     5.6455   5.9563   6.0324   6.0946   6.1942   6.2303

     occupation numbers 
     1.0000   1.0000   1.0000   1.0000   1.0000   1.0000   1.0000   1.0000
     1.0000   1.0000   1.0000   1.0000   1.0000   1.0000   1.0000   1.0000
     1.0000   1.0000   1.0000   1.0000   1.0000   1.0000   1.0000   1.0000
     1.0000   1.0000   1.0000   1.0000   1.0000   1.0000   1.0000   1.0000
     1.0000   1.0000   1.0000   1.0000   1.0000   1.0000   1.0000   1.0000
     1.0000   1.0000   1.0000   1.0000   1.0000   1.0000   1.0000   1.0000
     1.0000   1.0000   1.0000   1.0000   1.0000   1.0000   1.0000   1.0000
     1.0000   1.0000   1.0000   1.0000   1.0000   1.0000   1.0000   1.0000
     1.0000   1.0000   1.0000   1.0000   1.0000   1.0000   1.0000   1.0000
     1.0000   1.0000   1.0000   1.0000   1.0000   1.0000

          k =-0.5483 0.1761-0.1429 ( 43452 PWs)   bands (ev):

   -20.6980 -20.6902 -20.6634 -20.6557 -15.6638 -15.6638 -15.6544 -15.6544
   -15.6486 -15.6486 -15.5879 -15.5879 -15.5732 -15.5731  -7.1805  -7.0451
    -6.4136  -6.1677  -6.1472  -6.1336  -5.9975  -5.9550  -4.9940  -4.9531
    -4.8852  -4.8357  -4.8036  -4.7401  -4.7273  -4.7218  -4.6796  -4.6533
    -4.6401  -4.6345  -0.9271  -0.8946   1.5992   1.6547   1.7773   1.8151
     2.1666   2.2966   2.4938   2.5307   2.7873   2.8980   3.0936   3.1294
     3.1871   3.2372   3.3374   3.4457   3.4858   3.6269   3.7195   3.7270
     3.7688   3.9497   4.6074   4.6470   4.8460   4.8919   4.9024   4.9075
     5.0035   5.0543   5.3051   5.3223   5.3515   5.3605   5.5433   5.6653
     5.7404   5.9323   6.0265   6.0873   6.2072   6.2704

     occupation numbers 
     1.0000   1.0000   1.0000   1.0000   1.0000   1.0000   1.0000   1.0000
     1.0000   1.0000   1.0000   1.0000   1.0000   1.0000   1.0000   1.0000
     1.0000   1.0000   1.0000   1.0000   1.0000   1.0000   1.0000   1.0000
     1.0000   1.0000   1.0000   1.0000   1.0000   1.0000   1.0000   1.0000
     1.0000   1.0000   1.0000   1.0000   1.0000   1.0000   1.0000   1.0000
     1.0000   1.0000   1.0000   1.0000   1.0000   1.0000   1.0000   1.0000
     1.0000   1.0000   1.0000   1.0000   1.0000   1.0000   1.0000   1.0000
     1.0000   1.0000   1.0000   1.0000   1.0000   1.0000   1.0000   1.0000
     1.0000   1.0000   1.0000   1.0000   1.0000   1.0000   1.0000   1.0000
     1.0000   1.0000   1.0000   1.0000   1.0000   1.0000

          k =-0.5141 0.6721 0.0000 ( 43399 PWs)   bands (ev):

   -20.6838 -20.6837 -20.6689 -20.6689 -15.6638 -15.6638 -15.6547 -15.6547
   -15.6488 -15.6488 -15.5876 -15.5876 -15.5731 -15.5731  -7.0130  -6.9361
    -6.3979  -6.2777  -6.2602  -6.2031  -6.1008  -6.0303  -4.9214  -4.8932
    -4.8856  -4.7954  -4.7862  -4.7671  -4.7628  -4.7362  -4.6920  -4.6838
    -4.6309  -4.6125  -0.8935  -0.8143   1.2857   1.4345   1.5565   1.7802
     2.1722   2.3541   2.4380   2.4464   2.7612   2.9945   3.1088   3.2268
     3.2543   3.3252   3.3741   3.3765   3.4212   3.5840   3.7100   3.7533
     3.8237   3.8475   4.7650   4.8258   4.8305   4.8784   4.9923   5.0371
     5.0569   5.0856   5.1527   5.1996   5.2289   5.3431   5.7784   5.9423
     5.9597   6.0039   6.0767   6.1154   6.1612   6.2544

     occupation numbers 
     1.0000   1.0000   1.0000   1.0000   1.0000   1.0000   1.0000   1.0000
     1.0000   1.0000   1.0000   1.0000   1.0000   1.0000   1.0000   1.0000
     1.0000   1.0000   1.0000   1.0000   1.0000   1.0000   1.0000   1.0000
     1.0000   1.0000   1.0000   1.0000   1.0000   1.0000   1.0000   1.0000
     1.0000   1.0000   1.0000   1.0000   1.0000   1.0000   1.0000   1.0000
     1.0000   1.0000   1.0000   1.0000   1.0000   1.0000   1.0000   1.0000
     1.0000   1.0000   1.0000   1.0000   1.0000   1.0000   1.0000   1.0000
     1.0000   1.0000   1.0000   1.0000   1.0000   1.0000   1.0000   1.0000
     1.0000   1.0000   1.0000   1.0000   1.0000   1.0000   1.0000   1.0000
     1.0000   1.0000   1.0000   1.0000   1.0000   1.0000

          k =-0.4799 0.9021 0.1429 ( 43436 PWs)   bands (ev):

   -20.6848 -20.6825 -20.6701 -20.6679 -15.6638 -15.6638 -15.6547 -15.6547
   -15.6488 -15.6488 -15.5876 -15.5876 -15.5731 -15.5731  -6.9964  -6.9593
    -6.4295  -6.2668  -6.2320  -6.1981  -6.0968  -6.0260  -4.9301  -4.9017
    -4.8778  -4.7968  -4.7869  -4.7805  -4.7687  -4.7248  -4.7158  -4.6683
    -4.6257  -4.6072  -0.8848  -0.8234   1.2781   1.4254   1.6081   1.7954
     2.1797   2.3291   2.3781   2.4463   2.7679   3.0462   3.0996   3.1911
     3.2395   3.3439   3.3524   3.3757   3.4195   3.6174   3.7014   3.7587
     3.8273   3.8535   4.7616   4.8191   4.8257   4.8892   4.9857   5.0271
     5.0507   5.0791   5.1582   5.2224   5.2389   5.3399   5.7882   5.9403
     5.9557   5.9937   6.0912   6.1329   6.1845   6.2189

     occupation numbers 
     1.0000   1.0000   1.0000   1.0000   1.0000   1.0000   1.0000   1.0000
     1.0000   1.0000   1.0000   1.0000   1.0000   1.0000   1.0000   1.0000
     1.0000   1.0000   1.0000   1.0000   1.0000   1.0000   1.0000   1.0000
     1.0000   1.0000   1.0000   1.0000   1.0000   1.0000   1.0000   1.0000
     1.0000   1.0000   1.0000   1.0000   1.0000   1.0000   1.0000   1.0000
     1.0000   1.0000   1.0000   1.0000   1.0000   1.0000   1.0000   1.0000
     1.0000   1.0000   1.0000   1.0000   1.0000   1.0000   1.0000   1.0000
     1.0000   1.0000   1.0000   1.0000   1.0000   1.0000   1.0000   1.0000
     1.0000   1.0000   1.0000   1.0000   1.0000   1.0000   1.0000   1.0000
     1.0000   1.0000   1.0000   1.0000   1.0000   1.0000

          k =-0.4457 1.1322 0.2857 ( 43409 PWs)   bands (ev):

   -20.6939 -20.6829 -20.6700 -20.6594 -15.6638 -15.6638 -15.6546 -15.6545
   -15.6487 -15.6487 -15.5877 -15.5877 -15.5732 -15.5731  -7.1156  -6.9703
    -6.4987  -6.1822  -6.1391  -6.1067  -6.0876  -5.9998  -4.9853  -4.9228
    -4.8707  -4.8208  -4.7802  -4.7585  -4.7468  -4.7436  -4.7066  -4.6860
    -4.6290  -4.6112  -0.8927  -0.8692   1.4115   1.4922   1.7837   1.8380
     2.1742   2.2756   2.3755   2.5807   2.6250   2.9906   3.1367   3.1598
     3.1949   3.2795   3.3580   3.3751   3.4593   3.6513   3.7082   3.7663
     3.7870   3.9408   4.6994   4.7452   4.7735   4.9037   4.9643   4.9880
     5.0536   5.0793   5.1574   5.2759   5.3133   5.3424   5.7021   5.8095
     5.8819   6.0072   6.0287   6.0646   6.2086   6.2595

     occupation numbers 
     1.0000   1.0000   1.0000   1.0000   1.0000   1.0000   1.0000   1.0000
     1.0000   1.0000   1.0000   1.0000   1.0000   1.0000   1.0000   1.0000
     1.0000   1.0000   1.0000   1.0000   1.0000   1.0000   1.0000   1.0000
     1.0000   1.0000   1.0000   1.0000   1.0000   1.0000   1.0000   1.0000
     1.0000   1.0000   1.0000   1.0000   1.0000   1.0000   1.0000   1.0000
     1.0000   1.0000   1.0000   1.0000   1.0000   1.0000   1.0000   1.0000
     1.0000   1.0000   1.0000   1.0000   1.0000   1.0000   1.0000   1.0000
     1.0000   1.0000   1.0000   1.0000   1.0000   1.0000   1.0000   1.0000
     1.0000   1.0000   1.0000   1.0000   1.0000   1.0000   1.0000   1.0000
     1.0000   1.0000   1.0000   1.0000   1.0000   1.0000

          k =-0.4115 1.3622 0.4286 ( 43486 PWs)   bands (ev):

   -20.7016 -20.6802 -20.6733 -20.6521 -15.6639 -15.6637 -15.6544 -15.6544
   -15.6486 -15.6486 -15.5879 -15.5879 -15.5733 -15.5730  -7.2481  -6.9347
    -6.5715  -6.1386  -6.0599  -6.0469  -6.0073  -5.9770  -5.0423  -4.9526
    -4.8775  -4.8536  -4.7606  -4.7320  -4.7291  -4.7188  -4.7125  -4.6685
    -4.6542  -4.6341  -0.9745  -0.8570   1.5842   1.6016   1.8743   1.9592
     2.0831   2.4143   2.4391   2.4562   2.7750   2.8740   2.9851   3.1242
     3.2255   3.2824   3.3877   3.4165   3.5011   3.5822   3.6437   3.7234
     3.7813   4.1013   4.6018   4.6424   4.8195   4.8849   4.8935   4.9166
     5.0164   5.1664   5.2327   5.2707   5.3511   5.3809   5.5036   5.6783
     5.7130   5.9955   6.0560   6.1120   6.1265   6.2465

     occupation numbers 
     1.0000   1.0000   1.0000   1.0000   1.0000   1.0000   1.0000   1.0000
     1.0000   1.0000   1.0000   1.0000   1.0000   1.0000   1.0000   1.0000
     1.0000   1.0000   1.0000   1.0000   1.0000   1.0000   1.0000   1.0000
     1.0000   1.0000   1.0000   1.0000   1.0000   1.0000   1.0000   1.0000
     1.0000   1.0000   1.0000   1.0000   1.0000   1.0000   1.0000   1.0000
     1.0000   1.0000   1.0000   1.0000   1.0000   1.0000   1.0000   1.0000
     1.0000   1.0000   1.0000   1.0000   1.0000   1.0000   1.0000   1.0000
     1.0000   1.0000   1.0000   1.0000   1.0000   1.0000   1.0000   1.0000
     1.0000   1.0000   1.0000   1.0000   1.0000   1.0000   1.0000   1.0000
     1.0000   1.0000   1.0000   1.0000   1.0000   1.0000

          k =-0.6168-0.0180-0.4286 ( 43522 PWs)   bands (ev):

   -20.7042 -20.6806 -20.6733 -20.6498 -15.6639 -15.6637 -15.6544 -15.6543
   -15.6486 -15.6485 -15.5880 -15.5880 -15.5733 -15.5730  -7.2899  -6.9349
    -6.5810  -6.1217  -6.0511  -6.0471  -6.0042  -5.9058  -5.0595  -4.9985
    -4.8396  -4.8230  -4.8062  -4.7899  -4.7020  -4.7017  -4.6829  -4.6711
    -4.6457  -4.6428  -1.0039  -0.8579   1.6473   1.6693   1.8806   2.0723
     2.1164   2.2089   2.5019   2.6067   2.7975   2.8102   2.9447   3.1191
     3.2074   3.3104   3.3601   3.4525   3.4937   3.5538   3.6184   3.7344
     3.7454   4.1559   4.5648   4.5954   4.8360   4.8505   4.8649   4.9259
     5.0239   5.1510   5.2761   5.3027   5.3467   5.4311   5.4408   5.5950
     5.6043   5.9499   6.0642   6.0827   6.2108   6.2371

     occupation numbers 
     1.0000   1.0000   1.0000   1.0000   1.0000   1.0000   1.0000   1.0000
     1.0000   1.0000   1.0000   1.0000   1.0000   1.0000   1.0000   1.0000
     1.0000   1.0000   1.0000   1.0000   1.0000   1.0000   1.0000   1.0000
     1.0000   1.0000   1.0000   1.0000   1.0000   1.0000   1.0000   1.0000
     1.0000   1.0000   1.0000   1.0000   1.0000   1.0000   1.0000   1.0000
     1.0000   1.0000   1.0000   1.0000   1.0000   1.0000   1.0000   1.0000
     1.0000   1.0000   1.0000   1.0000   1.0000   1.0000   1.0000   1.0000
     1.0000   1.0000   1.0000   1.0000   1.0000   1.0000   1.0000   1.0000
     1.0000   1.0000   1.0000   1.0000   1.0000   1.0000   1.0000   1.0000
     1.0000   1.0000   1.0000   1.0000   1.0000   1.0000

          k =-0.5826 0.2120-0.2857 ( 43487 PWs)   bands (ev):

   -20.7004 -20.6852 -20.6683 -20.6534 -15.6639 -15.6637 -15.6544 -15.6544
   -15.6486 -15.6486 -15.5879 -15.5879 -15.5732 -15.5730  -7.2262  -6.9818
    -6.5097  -6.1403  -6.0941  -6.0872  -5.9900  -5.9732  -5.0241  -4.9515
    -4.8870  -4.8330  -4.7963  -4.7379  -4.7196  -4.7186  -4.6983  -4.6644
    -4.6489  -4.6342  -0.9558  -0.8726   1.5856   1.6221   1.8519   1.8844
     2.1195   2.3684   2.4690   2.5151   2.7332   2.8547   3.0853   3.1360
     3.2190   3.2658   3.3268   3.4011   3.5102   3.6029   3.6771   3.7242
     3.7760   4.0583   4.6018   4.6469   4.8283   4.8881   4.9029   4.9131
     5.0061   5.1064   5.2832   5.2885   5.3532   5.3689   5.5114   5.6893
     5.7002   5.9609   6.0550   6.1098   6.1554   6.2618

     occupation numbers 
     1.0000   1.0000   1.0000   1.0000   1.0000   1.0000   1.0000   1.0000
     1.0000   1.0000   1.0000   1.0000   1.0000   1.0000   1.0000   1.0000
     1.0000   1.0000   1.0000   1.0000   1.0000   1.0000   1.0000   1.0000
     1.0000   1.0000   1.0000   1.0000   1.0000   1.0000   1.0000   1.0000
     1.0000   1.0000   1.0000   1.0000   1.0000   1.0000   1.0000   1.0000
     1.0000   1.0000   1.0000   1.0000   1.0000   1.0000   1.0000   1.0000
     1.0000   1.0000   1.0000   1.0000   1.0000   1.0000   1.0000   1.0000
     1.0000   1.0000   1.0000   1.0000   1.0000   1.0000   1.0000   1.0000
     1.0000   1.0000   1.0000   1.0000   1.0000   1.0000   1.0000   1.0000
     1.0000   1.0000   1.0000   1.0000   1.0000   1.0000

          k =-0.5483 0.4421-0.1429 ( 43415 PWs)   bands (ev):

   -20.6921 -20.6865 -20.6666 -20.6611 -15.6638 -15.6638 -15.6546 -15.6545
   -15.6487 -15.6487 -15.5877 -15.5877 -15.5732 -15.5731  -7.0797  -7.0139
    -6.4333  -6.1953  -6.1717  -6.1323  -6.1103  -5.9911  -4.9681  -4.9208
    -4.8608  -4.8012  -4.7754  -4.7566  -4.7535  -4.7404  -4.7307  -4.6898
    -4.6216  -4.6095  -0.8887  -0.8709   1.4264   1.5144   1.6743   1.7996
     2.2606   2.2729   2.4150   2.5391   2.6553   3.0225   3.0963   3.1797
     3.2060   3.2855   3.3337   3.3804   3.4481   3.6473   3.7124   3.7886
     3.8041   3.8771   4.7005   4.7489   4.7954   4.8808   4.9504   4.9906
     5.0724   5.0907   5.1664   5.2583   5.2936   5.3479   5.7089   5.8245
     5.8542   5.9649   6.0376   6.0630   6.2411   6.2931

     occupation numbers 
     1.0000   1.0000   1.0000   1.0000   1.0000   1.0000   1.0000   1.0000
     1.0000   1.0000   1.0000   1.0000   1.0000   1.0000   1.0000   1.0000
     1.0000   1.0000   1.0000   1.0000   1.0000   1.0000   1.0000   1.0000
     1.0000   1.0000   1.0000   1.0000   1.0000   1.0000   1.0000   1.0000
     1.0000   1.0000   1.0000   1.0000   1.0000   1.0000   1.0000   1.0000
     1.0000   1.0000   1.0000   1.0000   1.0000   1.0000   1.0000   1.0000
     1.0000   1.0000   1.0000   1.0000   1.0000   1.0000   1.0000   1.0000
     1.0000   1.0000   1.0000   1.0000   1.0000   1.0000   1.0000   1.0000
     1.0000   1.0000   1.0000   1.0000   1.0000   1.0000   1.0000   1.0000
     1.0000   1.0000   1.0000   1.0000   1.0000   1.0000

     highest occupied level (ev):     6.3200

!    total energy              =   -1568.23797181 Ry
     estimated scf accuracy    <          8.4E-09 Ry

     The total energy is the sum of the following terms:
     one-electron contribution =    -580.32834371 Ry
     hartree contribution      =     398.95564877 Ry
     xc contribution           =    -371.73978666 Ry
     ewald contribution        =    -655.86398196 Ry
     one-center paw contrib.   =    -359.26150824 Ry
      -> PAW hartree energy AE =       0.00000000 Ry
      -> PAW hartree energy PS =       0.00000000 Ry
      -> PAW xc energy AE      =       0.00000000 Ry
      -> PAW xc energy PS      =       0.00000000 Ry
      -> total E_H with PAW    =     398.95564877 Ry
      -> total E_XC with PAW   =    -371.73978666 Ry

     convergence has been achieved in  16 iterations


     Computing stress (Cartesian axis) and pressure

          total   stress  (Ry/bohr**3)                   (kbar)     P=        2.83
   0.00002087   0.00000028   0.00000221            3.07        0.04        0.32
   0.00000028   0.00001711  -0.00000035            0.04        2.52       -0.05
   0.00000221  -0.00000035   0.00001981            0.32       -0.05        2.91

     kinetic stress (kbar)   7812.91     -4.42    -22.22
                               -4.42   7856.31      5.61
                              -22.22      5.61   7823.55

     local   stress (kbar)  -2097.73   3604.08  -6683.44
                             3604.08  -6037.77  -4569.01
                            -6683.44  -4569.01   1103.12

     nonloc. stress (kbar)   2094.61      0.40     -2.10
                                0.40   2095.88     -0.51
                               -2.10     -0.51   2095.62

     hartree stress (kbar)   6344.28  -1720.62   3135.94
                            -1720.62   8294.77   2181.29
                             3135.94   2181.29   4842.41

     exc-cor stress (kbar)   5916.64     -0.23      0.11
                               -0.23   5917.30      0.29
                                0.11      0.29   5916.58

     corecor stress (kbar)  -9314.33      0.29     -0.35
                                0.29  -9314.90     -0.37
                               -0.35     -0.37  -9314.16

     ewald   stress (kbar) -10753.31  -1879.46   3572.39
                            -1879.46  -8809.08   2382.65
                             3572.39   2382.65 -12464.21

     hubbard stress (kbar)      0.00      0.00      0.00
                                0.00      0.00      0.00
                                0.00      0.00      0.00

     DFT-D   stress (kbar)      0.00      0.00      0.00
                                0.00      0.00      0.00
                                0.00      0.00      0.00

     XDM     stress (kbar)      0.00      0.00      0.00
                                0.00      0.00      0.00
                                0.00      0.00      0.00

     dft-nl  stress (kbar)      0.00      0.00      0.00
                                0.00      0.00      0.00
                                0.00      0.00      0.00

     TS-vdW  stress (kbar)      0.00      0.00      0.00
                                0.00      0.00      0.00
                                0.00      0.00      0.00

     MDB     stress (kbar)      0.00      0.00      0.00
                                0.00      0.00      0.00
                                0.00      0.00      0.00

     3D-RISM stress (kbar)      0.00      0.00      0.00
                                0.00      0.00      0.00
                                0.00      0.00      0.00


     Writing all to output data dir ./tmp/k_4x7x7/Rb2Cu2SnS4_k_4x7x7.save/ :
     XML data file, charge density, pseudopotentials, collected wavefunctions

     init_run     :     41.27s CPU     43.14s WALL (       1 calls)
     electrons    :   1954.54s CPU   2003.65s WALL (       1 calls)
     stress       :     38.77s CPU     39.58s WALL (       1 calls)

     Called by init_run:
     wfcinit      :     40.19s CPU     42.00s WALL (       1 calls)
     wfcinit:atom :      0.08s CPU      0.08s WALL (      50 calls)
     wfcinit:wfcr :     39.12s CPU     40.89s WALL (      50 calls)
     potinit      :      0.41s CPU      0.43s WALL (       1 calls)
     hinit0       :      0.15s CPU      0.15s WALL (       1 calls)

     Called by electrons:
     c_bands      :   1700.58s CPU   1727.71s WALL (      16 calls)
     sum_band     :    240.58s CPU    254.73s WALL (      16 calls)
     v_of_rho     :      3.82s CPU      8.96s WALL (      17 calls)
     v_h          :      0.28s CPU      0.41s WALL (      17 calls)
     v_xc         :      3.74s CPU      8.76s WALL (      18 calls)
     newd         :      5.62s CPU      7.25s WALL (      17 calls)
     PAW_pot      :      3.53s CPU      3.61s WALL (      17 calls)
     mix_rho      :      0.52s CPU      0.99s WALL (      16 calls)

     Called by c_bands:
     init_us_2    :      7.96s CPU      8.70s WALL (    1700 calls)
     cegterg      :   1634.30s CPU   1654.99s WALL (     800 calls)

     Called by sum_band:
     sum_band:wei :      0.02s CPU      0.02s WALL (      16 calls)
     sum_band:loo :    233.69s CPU    238.08s WALL (      16 calls)
     sum_band:buf :      0.65s CPU      0.98s WALL (     800 calls)
     sum_band:ini :      3.61s CPU      3.68s WALL (     800 calls)
     sum_band:cal :     40.42s CPU     40.93s WALL (     800 calls)
     sum_band:bec :      0.09s CPU      0.09s WALL (     800 calls)
     addusdens    :      6.20s CPU     15.56s WALL (      16 calls)
                                        0.00s GPU  (      16 calls)
     addusd:skk   :      0.03s CPU      0.21s WALL (      48 calls)
                                        0.00s GPU  (      48 calls)

     Called by *egterg:
     cdiaghg      :     22.28s CPU     22.56s WALL (    4419 calls)
     cegterg:over :     78.43s CPU     79.27s WALL (    3619 calls)
     cegterg:upda :     45.10s CPU     45.57s WALL (    3619 calls)
     cegterg:last :    103.31s CPU    104.44s WALL (    2035 calls)
     h_psi        :   1262.93s CPU   1280.69s WALL (    4469 calls)
     s_psi        :    131.51s CPU    132.91s WALL (    4469 calls)
     g_psi        :      1.09s CPU      1.11s WALL (    3619 calls)

     Called by h_psi:
     h_psi:calbec :    129.33s CPU    131.29s WALL (    4469 calls)
     vloc_psi     :    998.43s CPU   1012.50s WALL (    4469 calls)
                                        0.00s GPU  (    4469 calls)
     add_vuspsi   :    133.65s CPU    135.16s WALL (    4469 calls)

     General routines
     calbec       :    201.76s CPU    204.46s WALL (    5919 calls)
     fft          :      3.62s CPU      4.07s WALL (     233 calls)
     ffts         :      0.16s CPU      0.18s WALL (      33 calls)
     fftw         :   1077.64s CPU   1093.60s WALL (  442286 calls)
     interpolate  :      0.35s CPU      0.42s WALL (      17 calls)

     Parallel routines

     PAW routines
     PAW_pot      :      3.53s CPU      3.61s WALL (      17 calls)
     PAW_symme    :      0.01s CPU      0.01s WALL (      33 calls)

     PWSCF        :  33m55.31s CPU  34m47.92s WALL


   This run was terminated on:  21:14:42   2Jul2026            

=------------------------------------------------------------------------------=
   JOB DONE.
=------------------------------------------------------------------------------=
