
     Program PWSCF v.7.5 starts on  2Jul2026 at 21:14:43 
        Git branch: develop
        Last git commit: ea9b1b3d7915154c244e4a71786faaa0fdafa55c
        Last git commit date: Mon Mar 16 14:03:30 2026 +0000
        Last git commit subject: Merge branch 'dev_td_porting' into 'develop'

     This program is part of the open-source Quantum ESPRESSO suite
     for quantum simulation of materials; please cite
         "P. Giannozzi et al., J. Phys.:Condens. Matter 21 395502 (2009);
         "P. Giannozzi et al., J. Phys.:Condens. Matter 29 465901 (2017);
         "P. Giannozzi et al., J. Chem. Phys. 152 154105 (2020);
          URL http://www.quantum-espresso.org", 
     in publications or presentations arising from this work. More details at
     http://www.quantum-espresso.org/quote

     Parallel version (MPI), running on    12 processors

     MPI processes distributed on     1 nodes
     0 MiB available memory on the printing compute node when the environment starts

     Reading input from inputs/k_5x9x9.in
Warning: card &CELL ignored

     Current dimensions of program PWSCF are:
     Max number of different atomic species (ntypx) = 10
     Max number of k-points (npk) =  40000
     Max angular momentum in pseudopotentials (lmaxx) =  4
     file Cu.paw.z_11.ld1.psl.v1.0.0-low.upf: wavefunction(s)  4S 3D renormalized

     Exact exchange band parallelism type set to band_pairs

     Message from routine setup:
     using ibrav=0 with symmetry is DISCOURAGED, use correct ibrav instead

     K-points division:     npool     =       2
     R & G space division:  proc/nbgrp/npool/nimage =       6
     Subspace diagonalization in iterative solution of the eigenvalue problem:
     a serial algorithm will be used


     Parallelization info
     --------------------
     sticks:   dense  smooth     PW     G-vecs:    dense   smooth      PW
     Min        3063    1532    434               163833    57894    8766
     Max        3064    1533    435               163835    57895    8767
     Sum       18383    9197   2605               983005   347367   52601

     Using Slab Decomposition



     bravais-lattice index     =            0
     lattice parameter (alat)  =      17.9341  a.u.
     unit-cell volume          =    3012.5252 (a.u.)^3
     number of atoms/cell      =           18
     number of atomic types    =            4
     number of electrons       =       156.00
     number of Kohn-Sham states=           78
     kinetic-energy cutoff     =      90.0000  Ry
     charge density cutoff     =     720.0000  Ry
     scf convergence threshold =      1.0E-08
     mixing beta               =       0.3000
     number of iterations used =            8  plain     mixing
     Exchange-correlation= SLA  PW   PBE  PBE
                           (   1   4   3   4   0   0   0)

     celldm(1)=  17.934128  celldm(2)=   0.000000  celldm(3)=   0.000000
     celldm(4)=   0.000000  celldm(5)=   0.000000  celldm(6)=   0.000000

     crystal axes: (cart. coord. in units of alat)
               a(1) = (   0.972506   0.000000  -0.232877 )  
               a(2) = (  -0.131538   0.537029  -0.833245 )  
               a(3) = (   0.000000   0.000000   1.000000 )  

     reciprocal axes: (cart. coord. in units 2 pi/alat)
               b(1) = (  1.028271  0.251861 -0.000000 )  
               b(2) = ( -0.000000  1.862098  0.000000 )  
               b(3) = (  0.239461  1.610237  1.000000 )  


     PseudoPot. # 1 for Cu read from file:
     /Users/kaede/scientific-tools/pseudopotentials/SSSP/1.3.0/PBE/precision/Cu.paw.z_11.ld1.psl.v1.0.0-low.upf
     MD5 check sum: 619f40885d92a09a85a8b37550532d0c
     Pseudo is Projector augmented-wave + core cor, Zval = 11.0
     Generated using &quot;atomic&quot; code by A. Dal Corso  v.6.3MaX
     Shape of augmentation charge: PSQ
     Using radial grid of 1199 points,  6 beta functions with: 
                l(1) =   0
                l(2) =   0
                l(3) =   1
                l(4) =   1
                l(5) =   2
                l(6) =   2
     Q(r) pseudized with 0 coefficients 


     PseudoPot. # 2 for Rb read from file:
     /Users/kaede/scientific-tools/pseudopotentials/SSSP/1.3.0/PBE/precision/Rb_ONCV_PBE-1.0.oncvpsp.upf
     MD5 check sum: 55a5172d6bfbce6759a58e35d43f6aa9
     Pseudo is Norm-conserving, Zval =  9.0
     Generated using ONCVPSP code by D. R. Hamann
     Using radial grid of 2308 points,  6 beta functions with: 
                l(1) =   0
                l(2) =   0
                l(3) =   1
                l(4) =   1
                l(5) =   2
                l(6) =   2

     PseudoPot. # 3 for S  read from file:
     /Users/kaede/scientific-tools/pseudopotentials/SSSP/1.3.0/PBE/precision/s_pbe_v1.4.uspp.F.UPF
     MD5 check sum: 88d86576ff6df21479756cfb9bdac1df
     Pseudo is Ultrasoft + core correction, Zval =  6.0
     Generated by new atomic code, or converted to UPF format
     Using radial grid of  907 points,  6 beta functions with: 
                l(1) =   0
                l(2) =   0
                l(3) =   1
                l(4) =   1
                l(5) =   2
                l(6) =   2
     Q(r) pseudized with  8 coefficients,  rinner =    1.300   1.300   1.300
                                                       1.300   1.300

     PseudoPot. # 4 for Sn read from file:
     /Users/kaede/scientific-tools/pseudopotentials/SSSP/1.3.0/PBE/precision/Sn_pbe_v1.uspp.F.UPF
     MD5 check sum: 4cf58ce39ec5d5d420df3dd08604eb00
     Pseudo is Ultrasoft + core correction, Zval = 14.0
     Generated by new atomic code, or converted to UPF format
     Using radial grid of  891 points,  6 beta functions with: 
                l(1) =   0
                l(2) =   0
                l(3) =   1
                l(4) =   1
                l(5) =   2
                l(6) =   2
     Q(r) pseudized with  6 coefficients,  rinner =    1.200   1.200   1.200
                                                       1.200   1.200

     atomic species   valence    mass     pseudopotential
     Cu               11.00    63.54600     Cu( 1.00)
     Rb                9.00    85.46780     Rb( 1.00)
     S                 6.00    32.06500     S ( 1.00)
     Sn               14.00   118.71000     Sn( 1.00)

      2 Sym. Ops., with inversion, found


                                    s                        frac. trans.

      isym =  1     identity                                     

 cryst.   s( 1) = (     1          0          0      )
                  (     0          1          0      )
                  (     0          0          1      )

 cart.    s( 1) = (  1.0000000 -0.0000000  0.0000000 )
                  (  0.0000000  1.0000000  0.0000000 )
                  (  0.0000000  0.0000000  1.0000000 )


      isym =  2     inversion                                    

 cryst.   s( 2) = (    -1          0          0      )
                  (     0         -1          0      )
                  (     0          0         -1      )

 cart.    s( 2) = ( -1.0000000  0.0000000  0.0000000 )
                  (  0.0000000 -1.0000000  0.0000000 )
                  ( -0.0000000 -0.0000000 -1.0000000 )


   Cartesian axes

     site n.     atom                  positions (alat units)
         1        Rb     tau(   1) = (   0.0251088   0.3911465   0.2168349  )
         2        Rb     tau(   2) = (   0.8158597   0.1458822  -0.2829575  )
         3        Rb     tau(   3) = (   0.3353014   0.1226321   0.3262616  )
         4        Rb     tau(   4) = (   0.5056670   0.4143966  -0.3923843  )
         5        Cu     tau(   5) = (  -0.0747879   0.4027716  -0.3561089  )
         6        Cu     tau(   6) = (   0.9157564   0.1342572   0.2899862  )
         7        Cu     tau(   7) = (   0.3637345   0.4027716  -0.0101979  )
         8        Cu     tau(   8) = (   0.4772340   0.1342572  -0.0559248  )
         9        Sn     tau(   9) = (   0.2102421   0.1342572  -0.2665307  )
        10        Sn     tau(  10) = (   0.6307264   0.4027716  -0.7995920  )
        11        S      tau(  11) = (  -0.1047294   0.4936352  -0.1316011  )
        12        S      tau(  12) = (   0.9456979   0.0433935   0.0654784  )
        13        S      tau(  13) = (   0.2235010   0.2032369  -0.0189694  )
        14        S      tau(  14) = (   0.6174675   0.3337918  -0.0471533  )
        15        S      tau(  15) = (   0.4540847   0.0652775   0.6887123  )
        16        S      tau(  16) = (   0.3868838   0.4717513  -0.7548350  )
        17        S      tau(  17) = (   0.1365746   0.3119079  -0.4375099  )
        18        S      tau(  18) = (   0.7043939   0.2251208   0.3713873  )

   Crystallographic axes

     site n.     atom                  positions (cryst. coord.)
         1        Rb     tau(   1) = (  0.1243330  0.7283530  0.8526860  )
         2        Rb     tau(   2) = (  0.8756670  0.2716470  0.1473140  )
         3        Rb     tau(   3) = (  0.3756670  0.2283530  0.6040200  )
         4        Rb     tau(   4) = (  0.6243330  0.7716470  0.3959800  )
         5        Cu     tau(   5) = (  0.0245400  0.7500000  0.2745400  )
         6        Cu     tau(   6) = (  0.9754600  0.2500000  0.7254600  )
         7        Cu     tau(   7) = (  0.4754600  0.7500000  0.7254600  )
         8        Cu     tau(   8) = (  0.5245400  0.2500000  0.2745400  )
         9        Sn     tau(   9) = (  0.2500000  0.2500000 -0.0000000  )
        10        Sn     tau(  10) = (  0.7500000  0.7500000  0.0000000  )
        11        S      tau(  11) = (  0.0166370  0.9191970  0.6381900  )
        12        S      tau(  12) = (  0.9833630  0.0808030  0.3618100  )
        13        S      tau(  13) = (  0.2810070  0.3784470  0.3618100  )
        14        S      tau(  14) = (  0.7189930  0.6215530  0.6381900  )
        15        S      tau(  15) = (  0.4833630  0.1215530  0.9025600  )
        16        S      tau(  16) = (  0.5166370  0.8784470  0.0974400  )
        17        S      tau(  17) = (  0.2189930  0.5808030  0.0974400  )
        18        S      tau(  18) = (  0.7810070  0.4191970  0.9025600  )

     number of k points=   203
                       cart. coord. in units 2pi/alat
        k(    1) = (   0.0000000   0.0000000   0.0000000), wk =   0.0049383
        k(    2) = (   0.0266068   0.1789152   0.1111111), wk =   0.0098765
        k(    3) = (   0.0532135   0.3578305   0.2222222), wk =   0.0098765
        k(    4) = (   0.0798203   0.5367457   0.3333333), wk =   0.0098765
        k(    5) = (   0.1064271   0.7156609   0.4444444), wk =   0.0098765
        k(    6) = (   0.0000000   0.2068997   0.0000000), wk =   0.0098765
        k(    7) = (   0.0266068   0.3858150   0.1111111), wk =   0.0098765
        k(    8) = (   0.0532135   0.5647302   0.2222222), wk =   0.0098765
        k(    9) = (   0.0798203   0.7436454   0.3333333), wk =   0.0098765
        k(   10) = (   0.1064271   0.9225607   0.4444444), wk =   0.0098765
        k(   11) = (  -0.1064271  -0.5087612  -0.4444444), wk =   0.0098765
        k(   12) = (  -0.0798203  -0.3298459  -0.3333333), wk =   0.0098765
        k(   13) = (  -0.0532135  -0.1509307  -0.2222222), wk =   0.0098765
        k(   14) = (  -0.0266068   0.0279845  -0.1111111), wk =   0.0098765
        k(   15) = (   0.0000000   0.4137995   0.0000000), wk =   0.0098765
        k(   16) = (   0.0266068   0.5927147   0.1111111), wk =   0.0098765
        k(   17) = (   0.0532135   0.7716299   0.2222222), wk =   0.0098765
        k(   18) = (   0.0798203   0.9505452   0.3333333), wk =   0.0098765
        k(   19) = (   0.1064271   1.1294604   0.4444444), wk =   0.0098765
        k(   20) = (  -0.1064271  -0.3018614  -0.4444444), wk =   0.0098765
        k(   21) = (  -0.0798203  -0.1229462  -0.3333333), wk =   0.0098765
        k(   22) = (  -0.0532135   0.0559690  -0.2222222), wk =   0.0098765
        k(   23) = (  -0.0266068   0.2348843  -0.1111111), wk =   0.0098765
        k(   24) = (   0.0000000   0.6206992   0.0000000), wk =   0.0098765
        k(   25) = (   0.0266068   0.7996145   0.1111111), wk =   0.0098765
        k(   26) = (   0.0532135   0.9785297   0.2222222), wk =   0.0098765
        k(   27) = (   0.0798203   1.1574449   0.3333333), wk =   0.0098765
        k(   28) = (   0.1064271   1.3363601   0.4444444), wk =   0.0098765
        k(   29) = (  -0.1064271  -0.0949617  -0.4444444), wk =   0.0098765
        k(   30) = (  -0.0798203   0.0839536  -0.3333333), wk =   0.0098765
        k(   31) = (  -0.0532135   0.2628688  -0.2222222), wk =   0.0098765
        k(   32) = (  -0.0266068   0.4417840  -0.1111111), wk =   0.0098765
        k(   33) = (   0.0000000   0.8275990   0.0000000), wk =   0.0098765
        k(   34) = (   0.0266068   1.0065142   0.1111111), wk =   0.0098765
        k(   35) = (   0.0532135   1.1854294   0.2222222), wk =   0.0098765
        k(   36) = (   0.0798203   1.3643447   0.3333333), wk =   0.0098765
        k(   37) = (   0.1064271   1.5432599   0.4444444), wk =   0.0098765
        k(   38) = (  -0.1064271   0.1119381  -0.4444444), wk =   0.0098765
        k(   39) = (  -0.0798203   0.2908533  -0.3333333), wk =   0.0098765
        k(   40) = (  -0.0532135   0.4697685  -0.2222222), wk =   0.0098765
        k(   41) = (  -0.0266068   0.6486838  -0.1111111), wk =   0.0098765
        k(   42) = (   0.2056542   0.0503721   0.0000000), wk =   0.0098765
        k(   43) = (   0.2322610   0.2292873   0.1111111), wk =   0.0098765
        k(   44) = (   0.2588678   0.4082026   0.2222222), wk =   0.0098765
        k(   45) = (   0.2854745   0.5871178   0.3333333), wk =   0.0098765
        k(   46) = (   0.3120813   0.7660330   0.4444444), wk =   0.0098765
        k(   47) = (   0.0992272  -0.6652888  -0.4444444), wk =   0.0098765
        k(   48) = (   0.1258339  -0.4863736  -0.3333333), wk =   0.0098765
        k(   49) = (   0.1524407  -0.3074583  -0.2222222), wk =   0.0098765
        k(   50) = (   0.1790475  -0.1285431  -0.1111111), wk =   0.0098765
        k(   51) = (   0.2056542   0.2572719   0.0000000), wk =   0.0098765
        k(   52) = (   0.2322610   0.4361871   0.1111111), wk =   0.0098765
        k(   53) = (   0.2588678   0.6151023   0.2222222), wk =   0.0098765
        k(   54) = (   0.2854745   0.7940175   0.3333333), wk =   0.0098765
        k(   55) = (   0.3120813   0.9729328   0.4444444), wk =   0.0098765
        k(   56) = (   0.0992272  -0.4583890  -0.4444444), wk =   0.0098765
        k(   57) = (   0.1258339  -0.2794738  -0.3333333), wk =   0.0098765
        k(   58) = (   0.1524407  -0.1005586  -0.2222222), wk =   0.0098765
        k(   59) = (   0.1790475   0.0783566  -0.1111111), wk =   0.0098765
        k(   60) = (   0.2056542   0.4641716   0.0000000), wk =   0.0098765
        k(   61) = (   0.2322610   0.6430868   0.1111111), wk =   0.0098765
        k(   62) = (   0.2588678   0.8220021   0.2222222), wk =   0.0098765
        k(   63) = (   0.2854745   1.0009173   0.3333333), wk =   0.0098765
        k(   64) = (   0.3120813   1.1798325   0.4444444), wk =   0.0098765
        k(   65) = (   0.0992272  -0.2514893  -0.4444444), wk =   0.0098765
        k(   66) = (   0.1258339  -0.0725741  -0.3333333), wk =   0.0098765
        k(   67) = (   0.1524407   0.1063412  -0.2222222), wk =   0.0098765
        k(   68) = (   0.1790475   0.2852564  -0.1111111), wk =   0.0098765
        k(   69) = (   0.2056542   0.6710714   0.0000000), wk =   0.0098765
        k(   70) = (   0.2322610   0.8499866   0.1111111), wk =   0.0098765
        k(   71) = (   0.2588678   1.0289018   0.2222222), wk =   0.0098765
        k(   72) = (   0.2854745   1.2078170   0.3333333), wk =   0.0098765
        k(   73) = (   0.3120813   1.3867323   0.4444444), wk =   0.0098765
        k(   74) = (   0.0992272  -0.0445896  -0.4444444), wk =   0.0098765
        k(   75) = (   0.1258339   0.1343257  -0.3333333), wk =   0.0098765
        k(   76) = (   0.1524407   0.3132409  -0.2222222), wk =   0.0098765
        k(   77) = (   0.1790475   0.4921561  -0.1111111), wk =   0.0098765
        k(   78) = (   0.2056542   0.8779711   0.0000000), wk =   0.0098765
        k(   79) = (   0.2322610   1.0568863   0.1111111), wk =   0.0098765
        k(   80) = (   0.2588678   1.2358016   0.2222222), wk =   0.0098765
        k(   81) = (   0.2854745   1.4147168   0.3333333), wk =   0.0098765
        k(   82) = (   0.3120813   1.5936320   0.4444444), wk =   0.0098765
        k(   83) = (   0.0992272   0.1623102  -0.4444444), wk =   0.0098765
        k(   84) = (   0.1258339   0.3412254  -0.3333333), wk =   0.0098765
        k(   85) = (   0.1524407   0.5201406  -0.2222222), wk =   0.0098765
        k(   86) = (   0.1790475   0.6990559  -0.1111111), wk =   0.0098765
        k(   87) = (   0.2056542  -0.7772269   0.0000000), wk =   0.0098765
        k(   88) = (   0.2322610  -0.5983116   0.1111111), wk =   0.0098765
        k(   89) = (   0.2588678  -0.4193964   0.2222222), wk =   0.0098765
        k(   90) = (   0.2854745  -0.2404812   0.3333333), wk =   0.0098765
        k(   91) = (   0.3120813  -0.0615660   0.4444444), wk =   0.0098765
        k(   92) = (   0.0992272  -1.4928878  -0.4444444), wk =   0.0098765
        k(   93) = (   0.1258339  -1.3139725  -0.3333333), wk =   0.0098765
        k(   94) = (   0.1524407  -1.1350573  -0.2222222), wk =   0.0098765
        k(   95) = (   0.1790475  -0.9561421  -0.1111111), wk =   0.0098765
        k(   96) = (   0.2056542  -0.5703271   0.0000000), wk =   0.0098765
        k(   97) = (   0.2322610  -0.3914119   0.1111111), wk =   0.0098765
        k(   98) = (   0.2588678  -0.2124967   0.2222222), wk =   0.0098765
        k(   99) = (   0.2854745  -0.0335814   0.3333333), wk =   0.0098765
        k(  100) = (   0.3120813   0.1453338   0.4444444), wk =   0.0098765
        k(  101) = (   0.0992272  -1.2859880  -0.4444444), wk =   0.0098765
        k(  102) = (   0.1258339  -1.1070728  -0.3333333), wk =   0.0098765
        k(  103) = (   0.1524407  -0.9281576  -0.2222222), wk =   0.0098765
        k(  104) = (   0.1790475  -0.7492423  -0.1111111), wk =   0.0098765
        k(  105) = (   0.2056542  -0.3634274   0.0000000), wk =   0.0098765
        k(  106) = (   0.2322610  -0.1845121   0.1111111), wk =   0.0098765
        k(  107) = (   0.2588678  -0.0055969   0.2222222), wk =   0.0098765
        k(  108) = (   0.2854745   0.1733183   0.3333333), wk =   0.0098765
        k(  109) = (   0.3120813   0.3522335   0.4444444), wk =   0.0098765
        k(  110) = (   0.0992272  -1.0790883  -0.4444444), wk =   0.0098765
        k(  111) = (   0.1258339  -0.9001731  -0.3333333), wk =   0.0098765
        k(  112) = (   0.1524407  -0.7212578  -0.2222222), wk =   0.0098765
        k(  113) = (   0.1790475  -0.5423426  -0.1111111), wk =   0.0098765
        k(  114) = (   0.2056542  -0.1565276   0.0000000), wk =   0.0098765
        k(  115) = (   0.2322610   0.0223876   0.1111111), wk =   0.0098765
        k(  116) = (   0.2588678   0.2013028   0.2222222), wk =   0.0098765
        k(  117) = (   0.2854745   0.3802181   0.3333333), wk =   0.0098765
        k(  118) = (   0.3120813   0.5591333   0.4444444), wk =   0.0098765
        k(  119) = (   0.0992272  -0.8721885  -0.4444444), wk =   0.0098765
        k(  120) = (   0.1258339  -0.6932733  -0.3333333), wk =   0.0098765
        k(  121) = (   0.1524407  -0.5143581  -0.2222222), wk =   0.0098765
        k(  122) = (   0.1790475  -0.3354429  -0.1111111), wk =   0.0098765
        k(  123) = (   0.4113085   0.1007442   0.0000000), wk =   0.0098765
        k(  124) = (   0.4379152   0.2796595   0.1111111), wk =   0.0098765
        k(  125) = (   0.4645220   0.4585747   0.2222222), wk =   0.0098765
        k(  126) = (   0.4911288   0.6374899   0.3333333), wk =   0.0098765
        k(  127) = (   0.5177355   0.8164051   0.4444444), wk =   0.0098765
        k(  128) = (   0.3048814  -0.6149167  -0.4444444), wk =   0.0098765
        k(  129) = (   0.3314882  -0.4360014  -0.3333333), wk =   0.0098765
        k(  130) = (   0.3580949  -0.2570862  -0.2222222), wk =   0.0098765
        k(  131) = (   0.3847017  -0.0781710  -0.1111111), wk =   0.0098765
        k(  132) = (   0.4113085   0.3076440   0.0000000), wk =   0.0098765
        k(  133) = (   0.4379152   0.4865592   0.1111111), wk =   0.0098765
        k(  134) = (   0.4645220   0.6654744   0.2222222), wk =   0.0098765
        k(  135) = (   0.4911288   0.8443897   0.3333333), wk =   0.0098765
        k(  136) = (   0.5177355   1.0233049   0.4444444), wk =   0.0098765
        k(  137) = (   0.3048814  -0.4080169  -0.4444444), wk =   0.0098765
        k(  138) = (   0.3314882  -0.2291017  -0.3333333), wk =   0.0098765
        k(  139) = (   0.3580949  -0.0501865  -0.2222222), wk =   0.0098765
        k(  140) = (   0.3847017   0.1287288  -0.1111111), wk =   0.0098765
        k(  141) = (   0.4113085   0.5145437   0.0000000), wk =   0.0098765
        k(  142) = (   0.4379152   0.6934590   0.1111111), wk =   0.0098765
        k(  143) = (   0.4645220   0.8723742   0.2222222), wk =   0.0098765
        k(  144) = (   0.4911288   1.0512894   0.3333333), wk =   0.0098765
        k(  145) = (   0.5177355   1.2302046   0.4444444), wk =   0.0098765
        k(  146) = (   0.3048814  -0.2011172  -0.4444444), wk =   0.0098765
        k(  147) = (   0.3314882  -0.0222020  -0.3333333), wk =   0.0098765
        k(  148) = (   0.3580949   0.1567133  -0.2222222), wk =   0.0098765
        k(  149) = (   0.3847017   0.3356285  -0.1111111), wk =   0.0098765
        k(  150) = (   0.4113085   0.7214435   0.0000000), wk =   0.0098765
        k(  151) = (   0.4379152   0.9003587   0.1111111), wk =   0.0098765
        k(  152) = (   0.4645220   1.0792739   0.2222222), wk =   0.0098765
        k(  153) = (   0.4911288   1.2581891   0.3333333), wk =   0.0098765
        k(  154) = (   0.5177355   1.4371044   0.4444444), wk =   0.0098765
        k(  155) = (   0.3048814   0.0057826  -0.4444444), wk =   0.0098765
        k(  156) = (   0.3314882   0.1846978  -0.3333333), wk =   0.0098765
        k(  157) = (   0.3580949   0.3636130  -0.2222222), wk =   0.0098765
        k(  158) = (   0.3847017   0.5425282  -0.1111111), wk =   0.0098765
        k(  159) = (   0.4113085   0.9283432   0.0000000), wk =   0.0098765
        k(  160) = (   0.4379152   1.1072584   0.1111111), wk =   0.0098765
        k(  161) = (   0.4645220   1.2861737   0.2222222), wk =   0.0098765
        k(  162) = (   0.4911288   1.4650889   0.3333333), wk =   0.0098765
        k(  163) = (   0.5177355   1.6440041   0.4444444), wk =   0.0098765
        k(  164) = (   0.3048814   0.2126823  -0.4444444), wk =   0.0098765
        k(  165) = (   0.3314882   0.3915975  -0.3333333), wk =   0.0098765
        k(  166) = (   0.3580949   0.5705128  -0.2222222), wk =   0.0098765
        k(  167) = (   0.3847017   0.7494280  -0.1111111), wk =   0.0098765
        k(  168) = (   0.4113085  -0.7268547   0.0000000), wk =   0.0098765
        k(  169) = (   0.4379152  -0.5479395   0.1111111), wk =   0.0098765
        k(  170) = (   0.4645220  -0.3690243   0.2222222), wk =   0.0098765
        k(  171) = (   0.4911288  -0.1901091   0.3333333), wk =   0.0098765
        k(  172) = (   0.5177355  -0.0111938   0.4444444), wk =   0.0098765
        k(  173) = (   0.3048814  -1.4425157  -0.4444444), wk =   0.0098765
        k(  174) = (   0.3314882  -1.2636004  -0.3333333), wk =   0.0098765
        k(  175) = (   0.3580949  -1.0846852  -0.2222222), wk =   0.0098765
        k(  176) = (   0.3847017  -0.9057700  -0.1111111), wk =   0.0098765
        k(  177) = (   0.4113085  -0.5199550   0.0000000), wk =   0.0098765
        k(  178) = (   0.4379152  -0.3410398   0.1111111), wk =   0.0098765
        k(  179) = (   0.4645220  -0.1621245   0.2222222), wk =   0.0098765
        k(  180) = (   0.4911288   0.0167907   0.3333333), wk =   0.0098765
        k(  181) = (   0.5177355   0.1957059   0.4444444), wk =   0.0098765
        k(  182) = (   0.3048814  -1.2356159  -0.4444444), wk =   0.0098765
        k(  183) = (   0.3314882  -1.0567007  -0.3333333), wk =   0.0098765
        k(  184) = (   0.3580949  -0.8777855  -0.2222222), wk =   0.0098765
        k(  185) = (   0.3847017  -0.6988702  -0.1111111), wk =   0.0098765
        k(  186) = (   0.4113085  -0.3130553   0.0000000), wk =   0.0098765
        k(  187) = (   0.4379152  -0.1341400   0.1111111), wk =   0.0098765
        k(  188) = (   0.4645220   0.0447752   0.2222222), wk =   0.0098765
        k(  189) = (   0.4911288   0.2236904   0.3333333), wk =   0.0098765
        k(  190) = (   0.5177355   0.4026057   0.4444444), wk =   0.0098765
        k(  191) = (   0.3048814  -1.0287162  -0.4444444), wk =   0.0098765
        k(  192) = (   0.3314882  -0.8498009  -0.3333333), wk =   0.0098765
        k(  193) = (   0.3580949  -0.6708857  -0.2222222), wk =   0.0098765
        k(  194) = (   0.3847017  -0.4919705  -0.1111111), wk =   0.0098765
        k(  195) = (   0.4113085  -0.1061555   0.0000000), wk =   0.0098765
        k(  196) = (   0.4379152   0.0727597   0.1111111), wk =   0.0098765
        k(  197) = (   0.4645220   0.2516749   0.2222222), wk =   0.0098765
        k(  198) = (   0.4911288   0.4305902   0.3333333), wk =   0.0098765
        k(  199) = (   0.5177355   0.6095054   0.4444444), wk =   0.0098765
        k(  200) = (   0.3048814  -0.8218164  -0.4444444), wk =   0.0098765
        k(  201) = (   0.3314882  -0.6429012  -0.3333333), wk =   0.0098765
        k(  202) = (   0.3580949  -0.4639860  -0.2222222), wk =   0.0098765
        k(  203) = (   0.3847017  -0.2850707  -0.1111111), wk =   0.0098765

                       cryst. coord.
        k(    1) = (   0.0000000   0.0000000   0.0000000), wk =   0.0049383
        k(    2) = (  -0.0000000   0.0000000   0.1111111), wk =   0.0098765
        k(    3) = (  -0.0000000   0.0000000   0.2222222), wk =   0.0098765
        k(    4) = (  -0.0000000   0.0000000   0.3333333), wk =   0.0098765
        k(    5) = (  -0.0000000   0.0000000   0.4444444), wk =   0.0098765
        k(    6) = (   0.0000000   0.1111111   0.0000000), wk =   0.0098765
        k(    7) = (  -0.0000000   0.1111111   0.1111111), wk =   0.0098765
        k(    8) = (  -0.0000000   0.1111111   0.2222222), wk =   0.0098765
        k(    9) = (  -0.0000000   0.1111111   0.3333333), wk =   0.0098765
        k(   10) = (  -0.0000000   0.1111111   0.4444444), wk =   0.0098765
        k(   11) = (   0.0000000   0.1111111  -0.4444444), wk =   0.0098765
        k(   12) = (   0.0000000   0.1111111  -0.3333333), wk =   0.0098765
        k(   13) = (   0.0000000   0.1111111  -0.2222222), wk =   0.0098765
        k(   14) = (   0.0000000   0.1111111  -0.1111111), wk =   0.0098765
        k(   15) = (   0.0000000   0.2222222   0.0000000), wk =   0.0098765
        k(   16) = (  -0.0000000   0.2222222   0.1111111), wk =   0.0098765
        k(   17) = (  -0.0000000   0.2222222   0.2222222), wk =   0.0098765
        k(   18) = (  -0.0000000   0.2222222   0.3333333), wk =   0.0098765
        k(   19) = (  -0.0000000   0.2222222   0.4444444), wk =   0.0098765
        k(   20) = (   0.0000000   0.2222222  -0.4444444), wk =   0.0098765
        k(   21) = (   0.0000000   0.2222222  -0.3333333), wk =   0.0098765
        k(   22) = (   0.0000000   0.2222222  -0.2222222), wk =   0.0098765
        k(   23) = (   0.0000000   0.2222222  -0.1111111), wk =   0.0098765
        k(   24) = (   0.0000000   0.3333333   0.0000000), wk =   0.0098765
        k(   25) = (  -0.0000000   0.3333333   0.1111111), wk =   0.0098765
        k(   26) = (  -0.0000000   0.3333333   0.2222222), wk =   0.0098765
        k(   27) = (  -0.0000000   0.3333333   0.3333333), wk =   0.0098765
        k(   28) = (  -0.0000000   0.3333333   0.4444444), wk =   0.0098765
        k(   29) = (   0.0000000   0.3333333  -0.4444444), wk =   0.0098765
        k(   30) = (   0.0000000   0.3333333  -0.3333333), wk =   0.0098765
        k(   31) = (   0.0000000   0.3333333  -0.2222222), wk =   0.0098765
        k(   32) = (   0.0000000   0.3333333  -0.1111111), wk =   0.0098765
        k(   33) = (   0.0000000   0.4444444   0.0000000), wk =   0.0098765
        k(   34) = (  -0.0000000   0.4444444   0.1111111), wk =   0.0098765
        k(   35) = (  -0.0000000   0.4444444   0.2222222), wk =   0.0098765
        k(   36) = (  -0.0000000   0.4444444   0.3333333), wk =   0.0098765
        k(   37) = (  -0.0000000   0.4444444   0.4444444), wk =   0.0098765
        k(   38) = (   0.0000000   0.4444444  -0.4444444), wk =   0.0098765
        k(   39) = (   0.0000000   0.4444444  -0.3333333), wk =   0.0098765
        k(   40) = (   0.0000000   0.4444444  -0.2222222), wk =   0.0098765
        k(   41) = (   0.0000000   0.4444444  -0.1111111), wk =   0.0098765
        k(   42) = (   0.2000000   0.0000000   0.0000000), wk =   0.0098765
        k(   43) = (   0.2000000   0.0000000   0.1111111), wk =   0.0098765
        k(   44) = (   0.2000000   0.0000000   0.2222222), wk =   0.0098765
        k(   45) = (   0.2000000  -0.0000000   0.3333333), wk =   0.0098765
        k(   46) = (   0.2000000   0.0000000   0.4444444), wk =   0.0098765
        k(   47) = (   0.2000000  -0.0000000  -0.4444444), wk =   0.0098765
        k(   48) = (   0.2000000  -0.0000000  -0.3333333), wk =   0.0098765
        k(   49) = (   0.2000000  -0.0000000  -0.2222222), wk =   0.0098765
        k(   50) = (   0.2000000  -0.0000000  -0.1111111), wk =   0.0098765
        k(   51) = (   0.2000000   0.1111111   0.0000000), wk =   0.0098765
        k(   52) = (   0.2000000   0.1111111   0.1111111), wk =   0.0098765
        k(   53) = (   0.2000000   0.1111111   0.2222222), wk =   0.0098765
        k(   54) = (   0.2000000   0.1111111   0.3333333), wk =   0.0098765
        k(   55) = (   0.2000000   0.1111111   0.4444444), wk =   0.0098765
        k(   56) = (   0.2000000   0.1111111  -0.4444444), wk =   0.0098765
        k(   57) = (   0.2000000   0.1111111  -0.3333333), wk =   0.0098765
        k(   58) = (   0.2000000   0.1111111  -0.2222222), wk =   0.0098765
        k(   59) = (   0.2000000   0.1111111  -0.1111111), wk =   0.0098765
        k(   60) = (   0.2000000   0.2222222   0.0000000), wk =   0.0098765
        k(   61) = (   0.2000000   0.2222222   0.1111111), wk =   0.0098765
        k(   62) = (   0.2000000   0.2222222   0.2222222), wk =   0.0098765
        k(   63) = (   0.2000000   0.2222222   0.3333333), wk =   0.0098765
        k(   64) = (   0.2000000   0.2222222   0.4444444), wk =   0.0098765
        k(   65) = (   0.2000000   0.2222222  -0.4444444), wk =   0.0098765
        k(   66) = (   0.2000000   0.2222222  -0.3333333), wk =   0.0098765
        k(   67) = (   0.2000000   0.2222222  -0.2222222), wk =   0.0098765
        k(   68) = (   0.2000000   0.2222222  -0.1111111), wk =   0.0098765
        k(   69) = (   0.2000000   0.3333333   0.0000000), wk =   0.0098765
        k(   70) = (   0.2000000   0.3333333   0.1111111), wk =   0.0098765
        k(   71) = (   0.2000000   0.3333333   0.2222222), wk =   0.0098765
        k(   72) = (   0.2000000   0.3333333   0.3333333), wk =   0.0098765
        k(   73) = (   0.2000000   0.3333333   0.4444444), wk =   0.0098765
        k(   74) = (   0.2000000   0.3333333  -0.4444444), wk =   0.0098765
        k(   75) = (   0.2000000   0.3333333  -0.3333333), wk =   0.0098765
        k(   76) = (   0.2000000   0.3333333  -0.2222222), wk =   0.0098765
        k(   77) = (   0.2000000   0.3333333  -0.1111111), wk =   0.0098765
        k(   78) = (   0.2000000   0.4444444   0.0000000), wk =   0.0098765
        k(   79) = (   0.2000000   0.4444444   0.1111111), wk =   0.0098765
        k(   80) = (   0.2000000   0.4444444   0.2222222), wk =   0.0098765
        k(   81) = (   0.2000000   0.4444444   0.3333333), wk =   0.0098765
        k(   82) = (   0.2000000   0.4444444   0.4444444), wk =   0.0098765
        k(   83) = (   0.2000000   0.4444444  -0.4444444), wk =   0.0098765
        k(   84) = (   0.2000000   0.4444444  -0.3333333), wk =   0.0098765
        k(   85) = (   0.2000000   0.4444444  -0.2222222), wk =   0.0098765
        k(   86) = (   0.2000000   0.4444444  -0.1111111), wk =   0.0098765
        k(   87) = (   0.2000000  -0.4444444   0.0000000), wk =   0.0098765
        k(   88) = (   0.2000000  -0.4444444   0.1111111), wk =   0.0098765
        k(   89) = (   0.2000000  -0.4444444   0.2222222), wk =   0.0098765
        k(   90) = (   0.2000000  -0.4444444   0.3333333), wk =   0.0098765
        k(   91) = (   0.2000000  -0.4444444   0.4444444), wk =   0.0098765
        k(   92) = (   0.2000000  -0.4444444  -0.4444444), wk =   0.0098765
        k(   93) = (   0.2000000  -0.4444444  -0.3333333), wk =   0.0098765
        k(   94) = (   0.2000000  -0.4444444  -0.2222222), wk =   0.0098765
        k(   95) = (   0.2000000  -0.4444444  -0.1111111), wk =   0.0098765
        k(   96) = (   0.2000000  -0.3333333   0.0000000), wk =   0.0098765
        k(   97) = (   0.2000000  -0.3333333   0.1111111), wk =   0.0098765
        k(   98) = (   0.2000000  -0.3333333   0.2222222), wk =   0.0098765
        k(   99) = (   0.2000000  -0.3333333   0.3333333), wk =   0.0098765
        k(  100) = (   0.2000000  -0.3333333   0.4444444), wk =   0.0098765
        k(  101) = (   0.2000000  -0.3333333  -0.4444444), wk =   0.0098765
        k(  102) = (   0.2000000  -0.3333333  -0.3333333), wk =   0.0098765
        k(  103) = (   0.2000000  -0.3333333  -0.2222222), wk =   0.0098765
        k(  104) = (   0.2000000  -0.3333333  -0.1111111), wk =   0.0098765
        k(  105) = (   0.2000000  -0.2222222   0.0000000), wk =   0.0098765
        k(  106) = (   0.2000000  -0.2222222   0.1111111), wk =   0.0098765
        k(  107) = (   0.2000000  -0.2222222   0.2222222), wk =   0.0098765
        k(  108) = (   0.2000000  -0.2222222   0.3333333), wk =   0.0098765
        k(  109) = (   0.2000000  -0.2222222   0.4444444), wk =   0.0098765
        k(  110) = (   0.2000000  -0.2222222  -0.4444444), wk =   0.0098765
        k(  111) = (   0.2000000  -0.2222222  -0.3333333), wk =   0.0098765
        k(  112) = (   0.2000000  -0.2222222  -0.2222222), wk =   0.0098765
        k(  113) = (   0.2000000  -0.2222222  -0.1111111), wk =   0.0098765
        k(  114) = (   0.2000000  -0.1111111   0.0000000), wk =   0.0098765
        k(  115) = (   0.2000000  -0.1111111   0.1111111), wk =   0.0098765
        k(  116) = (   0.2000000  -0.1111111   0.2222222), wk =   0.0098765
        k(  117) = (   0.2000000  -0.1111111   0.3333333), wk =   0.0098765
        k(  118) = (   0.2000000  -0.1111111   0.4444444), wk =   0.0098765
        k(  119) = (   0.2000000  -0.1111111  -0.4444444), wk =   0.0098765
        k(  120) = (   0.2000000  -0.1111111  -0.3333333), wk =   0.0098765
        k(  121) = (   0.2000000  -0.1111111  -0.2222222), wk =   0.0098765
        k(  122) = (   0.2000000  -0.1111111  -0.1111111), wk =   0.0098765
        k(  123) = (   0.4000000   0.0000000   0.0000000), wk =   0.0098765
        k(  124) = (   0.4000000   0.0000000   0.1111111), wk =   0.0098765
        k(  125) = (   0.4000000   0.0000000   0.2222222), wk =   0.0098765
        k(  126) = (   0.4000000   0.0000000   0.3333333), wk =   0.0098765
        k(  127) = (   0.4000000   0.0000000   0.4444444), wk =   0.0098765
        k(  128) = (   0.4000000  -0.0000000  -0.4444444), wk =   0.0098765
        k(  129) = (   0.4000000  -0.0000000  -0.3333333), wk =   0.0098765
        k(  130) = (   0.4000000  -0.0000000  -0.2222222), wk =   0.0098765
        k(  131) = (   0.4000000  -0.0000000  -0.1111111), wk =   0.0098765
        k(  132) = (   0.4000000   0.1111111   0.0000000), wk =   0.0098765
        k(  133) = (   0.4000000   0.1111111   0.1111111), wk =   0.0098765
        k(  134) = (   0.4000000   0.1111111   0.2222222), wk =   0.0098765
        k(  135) = (   0.4000000   0.1111111   0.3333333), wk =   0.0098765
        k(  136) = (   0.4000000   0.1111111   0.4444444), wk =   0.0098765
        k(  137) = (   0.4000000   0.1111111  -0.4444444), wk =   0.0098765
        k(  138) = (   0.4000000   0.1111111  -0.3333333), wk =   0.0098765
        k(  139) = (   0.4000000   0.1111111  -0.2222222), wk =   0.0098765
        k(  140) = (   0.4000000   0.1111111  -0.1111111), wk =   0.0098765
        k(  141) = (   0.4000000   0.2222222   0.0000000), wk =   0.0098765
        k(  142) = (   0.4000000   0.2222222   0.1111111), wk =   0.0098765
        k(  143) = (   0.4000000   0.2222222   0.2222222), wk =   0.0098765
        k(  144) = (   0.4000000   0.2222222   0.3333333), wk =   0.0098765
        k(  145) = (   0.4000000   0.2222222   0.4444444), wk =   0.0098765
        k(  146) = (   0.4000000   0.2222222  -0.4444444), wk =   0.0098765
        k(  147) = (   0.4000000   0.2222222  -0.3333333), wk =   0.0098765
        k(  148) = (   0.4000000   0.2222222  -0.2222222), wk =   0.0098765
        k(  149) = (   0.4000000   0.2222222  -0.1111111), wk =   0.0098765
        k(  150) = (   0.4000000   0.3333333   0.0000000), wk =   0.0098765
        k(  151) = (   0.4000000   0.3333333   0.1111111), wk =   0.0098765
        k(  152) = (   0.4000000   0.3333333   0.2222222), wk =   0.0098765
        k(  153) = (   0.4000000   0.3333333   0.3333333), wk =   0.0098765
        k(  154) = (   0.4000000   0.3333333   0.4444444), wk =   0.0098765
        k(  155) = (   0.4000000   0.3333333  -0.4444444), wk =   0.0098765
        k(  156) = (   0.4000000   0.3333333  -0.3333333), wk =   0.0098765
        k(  157) = (   0.4000000   0.3333333  -0.2222222), wk =   0.0098765
        k(  158) = (   0.4000000   0.3333333  -0.1111111), wk =   0.0098765
        k(  159) = (   0.4000000   0.4444444   0.0000000), wk =   0.0098765
        k(  160) = (   0.4000000   0.4444444   0.1111111), wk =   0.0098765
        k(  161) = (   0.4000000   0.4444444   0.2222222), wk =   0.0098765
        k(  162) = (   0.4000000   0.4444444   0.3333333), wk =   0.0098765
        k(  163) = (   0.4000000   0.4444444   0.4444444), wk =   0.0098765
        k(  164) = (   0.4000000   0.4444444  -0.4444444), wk =   0.0098765
        k(  165) = (   0.4000000   0.4444444  -0.3333333), wk =   0.0098765
        k(  166) = (   0.4000000   0.4444444  -0.2222222), wk =   0.0098765
        k(  167) = (   0.4000000   0.4444444  -0.1111111), wk =   0.0098765
        k(  168) = (   0.4000000  -0.4444444   0.0000000), wk =   0.0098765
        k(  169) = (   0.4000000  -0.4444444   0.1111111), wk =   0.0098765
        k(  170) = (   0.4000000  -0.4444444   0.2222222), wk =   0.0098765
        k(  171) = (   0.4000000  -0.4444444   0.3333333), wk =   0.0098765
        k(  172) = (   0.4000000  -0.4444444   0.4444444), wk =   0.0098765
        k(  173) = (   0.4000000  -0.4444444  -0.4444444), wk =   0.0098765
        k(  174) = (   0.4000000  -0.4444444  -0.3333333), wk =   0.0098765
        k(  175) = (   0.4000000  -0.4444444  -0.2222222), wk =   0.0098765
        k(  176) = (   0.4000000  -0.4444444  -0.1111111), wk =   0.0098765
        k(  177) = (   0.4000000  -0.3333333   0.0000000), wk =   0.0098765
        k(  178) = (   0.4000000  -0.3333333   0.1111111), wk =   0.0098765
        k(  179) = (   0.4000000  -0.3333333   0.2222222), wk =   0.0098765
        k(  180) = (   0.4000000  -0.3333333   0.3333333), wk =   0.0098765
        k(  181) = (   0.4000000  -0.3333333   0.4444444), wk =   0.0098765
        k(  182) = (   0.4000000  -0.3333333  -0.4444444), wk =   0.0098765
        k(  183) = (   0.4000000  -0.3333333  -0.3333333), wk =   0.0098765
        k(  184) = (   0.4000000  -0.3333333  -0.2222222), wk =   0.0098765
        k(  185) = (   0.4000000  -0.3333333  -0.1111111), wk =   0.0098765
        k(  186) = (   0.4000000  -0.2222222   0.0000000), wk =   0.0098765
        k(  187) = (   0.4000000  -0.2222222   0.1111111), wk =   0.0098765
        k(  188) = (   0.4000000  -0.2222222   0.2222222), wk =   0.0098765
        k(  189) = (   0.4000000  -0.2222222   0.3333333), wk =   0.0098765
        k(  190) = (   0.4000000  -0.2222222   0.4444444), wk =   0.0098765
        k(  191) = (   0.4000000  -0.2222222  -0.4444444), wk =   0.0098765
        k(  192) = (   0.4000000  -0.2222222  -0.3333333), wk =   0.0098765
        k(  193) = (   0.4000000  -0.2222222  -0.2222222), wk =   0.0098765
        k(  194) = (   0.4000000  -0.2222222  -0.1111111), wk =   0.0098765
        k(  195) = (   0.4000000  -0.1111111   0.0000000), wk =   0.0098765
        k(  196) = (   0.4000000  -0.1111111   0.1111111), wk =   0.0098765
        k(  197) = (   0.4000000  -0.1111111   0.2222222), wk =   0.0098765
        k(  198) = (   0.4000000  -0.1111111   0.3333333), wk =   0.0098765
        k(  199) = (   0.4000000  -0.1111111   0.4444444), wk =   0.0098765
        k(  200) = (   0.4000000  -0.1111111  -0.4444444), wk =   0.0098765
        k(  201) = (   0.4000000  -0.1111111  -0.3333333), wk =   0.0098765
        k(  202) = (   0.4000000  -0.1111111  -0.2222222), wk =   0.0098765
        k(  203) = (   0.4000000  -0.1111111  -0.1111111), wk =   0.0098765

     Dense  grid:   983005 G-vectors     FFT dimensions: ( 160, 160, 160)

     Smooth grid:   347367 G-vectors     FFT dimensions: ( 120, 120, 120)

     Dynamical RAM for                 wfc:       8.62 MB

     Dynamical RAM for     wfc (w. buffer):     887.42 MB

     Dynamical RAM for           str. fact:      10.00 MB

     Dynamical RAM for           local pot:       0.00 MB

     Dynamical RAM for          nlocal pot:      35.79 MB

     Dynamical RAM for                qrad:       8.61 MB

     Dynamical RAM for          rho,v,vnew:      23.32 MB

     Dynamical RAM for               rhoin:       7.77 MB

     Dynamical RAM for            rho*nmix:      40.00 MB

     Dynamical RAM for           G-vectors:       9.82 MB

     Dynamical RAM for          h,s,v(r/c):       1.11 MB

     Dynamical RAM for          <psi|beta>:       0.39 MB

     Dynamical RAM for                 psi:      17.23 MB

     Dynamical RAM for                hpsi:      17.23 MB

     Dynamical RAM for                spsi:      17.23 MB

     Dynamical RAM for      wfcinit/wfcrot:      17.37 MB

     Dynamical RAM for           addusdens:     243.74 MB

     Dynamical RAM for         addusstress:     251.87 MB

     Estimated static dynamical RAM per process >    1021.60 MB

     Estimated max dynamical RAM per process >       1.28 GB

     Estimated total dynamical RAM >      15.16 GB

     Initial potential from superposition of free atoms

     starting charge     153.8996, renormalised to     156.0000
     Starting wfcs are  106 randomized atomic wfcs
     Checking if some PAW data can be deallocated... 
       PAW data deallocated on   10 nodes for type:  1

     total cpu time spent up to now is       90.5 secs

     Self-consistent Calculation

     iteration #  1     ecut=    90.00 Ry     beta= 0.30
     Davidson diagonalization with overlap

---- Real-time Memory Report at c_bands before calling an iterative solver
             0 MiB given to the printing process from OS
             0 MiB allocation reported by mallinfo(arena+hblkhd)
             0 MiB available memory on the node where the printing process lives
------------------
     ethr =  1.00E-02,  avg # of iterations =  2.0

     total cpu time spent up to now is      284.4 secs

     total energy              =   -1567.61950008 Ry
     estimated scf accuracy    <       2.30970166 Ry

     iteration #  2     ecut=    90.00 Ry     beta= 0.30
     Davidson diagonalization with overlap

---- Real-time Memory Report at c_bands before calling an iterative solver
             0 MiB given to the printing process from OS
             0 MiB allocation reported by mallinfo(arena+hblkhd)
             0 MiB available memory on the node where the printing process lives
------------------
     ethr =  1.48E-03,  avg # of iterations =  4.9

     total cpu time spent up to now is      528.2 secs

     total energy              =   -1568.17143283 Ry
     estimated scf accuracy    <       0.70447849 Ry

     iteration #  3     ecut=    90.00 Ry     beta= 0.30
     Davidson diagonalization with overlap

---- Real-time Memory Report at c_bands before calling an iterative solver
             0 MiB given to the printing process from OS
             0 MiB allocation reported by mallinfo(arena+hblkhd)
             0 MiB available memory on the node where the printing process lives
------------------
     ethr =  4.52E-04,  avg # of iterations =  2.0

     total cpu time spent up to now is      744.6 secs

     total energy              =   -1568.18644779 Ry
     estimated scf accuracy    <       0.11960490 Ry

     iteration #  4     ecut=    90.00 Ry     beta= 0.30
     Davidson diagonalization with overlap

---- Real-time Memory Report at c_bands before calling an iterative solver
             0 MiB given to the printing process from OS
             0 MiB allocation reported by mallinfo(arena+hblkhd)
             0 MiB available memory on the node where the printing process lives
------------------
     ethr =  7.67E-05,  avg # of iterations =  6.1

     total cpu time spent up to now is     1058.2 secs

     total energy              =   -1568.20811805 Ry
     estimated scf accuracy    <       0.18679531 Ry

     iteration #  5     ecut=    90.00 Ry     beta= 0.30
     Davidson diagonalization with overlap

---- Real-time Memory Report at c_bands before calling an iterative solver
             0 MiB given to the printing process from OS
             0 MiB allocation reported by mallinfo(arena+hblkhd)
             0 MiB available memory on the node where the printing process lives
------------------
     ethr =  7.67E-05,  avg # of iterations =  4.1

     total cpu time spent up to now is     1303.1 secs

     total energy              =   -1568.23534633 Ry
     estimated scf accuracy    <       0.00809676 Ry

     iteration #  6     ecut=    90.00 Ry     beta= 0.30
     Davidson diagonalization with overlap

---- Real-time Memory Report at c_bands before calling an iterative solver
             0 MiB given to the printing process from OS
             0 MiB allocation reported by mallinfo(arena+hblkhd)
             0 MiB available memory on the node where the printing process lives
------------------
     ethr =  5.19E-06,  avg # of iterations =  4.7

     total cpu time spent up to now is     1576.8 secs

     total energy              =   -1568.23706929 Ry
     estimated scf accuracy    <       0.00278335 Ry

     iteration #  7     ecut=    90.00 Ry     beta= 0.30
     Davidson diagonalization with overlap

---- Real-time Memory Report at c_bands before calling an iterative solver
             0 MiB given to the printing process from OS
             0 MiB allocation reported by mallinfo(arena+hblkhd)
             0 MiB available memory on the node where the printing process lives
------------------
     ethr =  1.78E-06,  avg # of iterations =  5.9

     total cpu time spent up to now is     1869.9 secs

     total energy              =   -1568.23738219 Ry
     estimated scf accuracy    <       0.00995121 Ry

     iteration #  8     ecut=    90.00 Ry     beta= 0.30
     Davidson diagonalization with overlap

---- Real-time Memory Report at c_bands before calling an iterative solver
             0 MiB given to the printing process from OS
             0 MiB allocation reported by mallinfo(arena+hblkhd)
             0 MiB available memory on the node where the printing process lives
------------------
     ethr =  1.78E-06,  avg # of iterations =  3.3

     total cpu time spent up to now is     2099.0 secs

     total energy              =   -1568.23750497 Ry
     estimated scf accuracy    <       0.00180174 Ry

     iteration #  9     ecut=    90.00 Ry     beta= 0.30
     Davidson diagonalization with overlap

---- Real-time Memory Report at c_bands before calling an iterative solver
             0 MiB given to the printing process from OS
             0 MiB allocation reported by mallinfo(arena+hblkhd)
             0 MiB available memory on the node where the printing process lives
------------------
     ethr =  1.15E-06,  avg # of iterations =  5.0

     total cpu time spent up to now is     2348.0 secs

     total energy              =   -1568.23794193 Ry
     estimated scf accuracy    <       0.00021193 Ry

     iteration # 10     ecut=    90.00 Ry     beta= 0.30
     Davidson diagonalization with overlap

---- Real-time Memory Report at c_bands before calling an iterative solver
             0 MiB given to the printing process from OS
             0 MiB allocation reported by mallinfo(arena+hblkhd)
             0 MiB available memory on the node where the printing process lives
------------------
     ethr =  1.36E-07,  avg # of iterations =  3.0

     total cpu time spent up to now is     2574.8 secs

     total energy              =   -1568.23793818 Ry
     estimated scf accuracy    <       0.00007442 Ry

     iteration # 11     ecut=    90.00 Ry     beta= 0.30
     Davidson diagonalization with overlap

---- Real-time Memory Report at c_bands before calling an iterative solver
             0 MiB given to the printing process from OS
             0 MiB allocation reported by mallinfo(arena+hblkhd)
             0 MiB available memory on the node where the printing process lives
------------------
     ethr =  4.77E-08,  avg # of iterations =  5.1

     total cpu time spent up to now is     2841.4 secs

     total energy              =   -1568.23796158 Ry
     estimated scf accuracy    <       0.00005579 Ry

     iteration # 12     ecut=    90.00 Ry     beta= 0.30
     Davidson diagonalization with overlap

---- Real-time Memory Report at c_bands before calling an iterative solver
             0 MiB given to the printing process from OS
             0 MiB allocation reported by mallinfo(arena+hblkhd)
             0 MiB available memory on the node where the printing process lives
------------------
     ethr =  3.58E-08,  avg # of iterations =  2.4

     total cpu time spent up to now is     3066.3 secs

     total energy              =   -1568.23797136 Ry
     estimated scf accuracy    <       0.00000089 Ry

     iteration # 13     ecut=    90.00 Ry     beta= 0.30
     Davidson diagonalization with overlap

---- Real-time Memory Report at c_bands before calling an iterative solver
             0 MiB given to the printing process from OS
             0 MiB allocation reported by mallinfo(arena+hblkhd)
             0 MiB available memory on the node where the printing process lives
------------------
     ethr =  5.69E-10,  avg # of iterations =  7.8

     total cpu time spent up to now is     3476.1 secs

     total energy              =   -1568.23797286 Ry
     estimated scf accuracy    <       0.00000782 Ry

     iteration # 14     ecut=    90.00 Ry     beta= 0.30
     Davidson diagonalization with overlap

---- Real-time Memory Report at c_bands before calling an iterative solver
             0 MiB given to the printing process from OS
             0 MiB allocation reported by mallinfo(arena+hblkhd)
             0 MiB available memory on the node where the printing process lives
------------------
     ethr =  5.69E-10,  avg # of iterations =  4.6

     total cpu time spent up to now is     3746.8 secs

     total energy              =   -1568.23797332 Ry
     estimated scf accuracy    <       0.00000089 Ry

     iteration # 15     ecut=    90.00 Ry     beta= 0.30
     Davidson diagonalization with overlap

---- Real-time Memory Report at c_bands before calling an iterative solver
             0 MiB given to the printing process from OS
             0 MiB allocation reported by mallinfo(arena+hblkhd)
             0 MiB available memory on the node where the printing process lives
------------------
     ethr =  5.69E-10,  avg # of iterations =  5.4

     total cpu time spent up to now is     4006.5 secs

     total energy              =   -1568.23797369 Ry
     estimated scf accuracy    <       0.00000012 Ry

     iteration # 16     ecut=    90.00 Ry     beta= 0.30
     Davidson diagonalization with overlap

---- Real-time Memory Report at c_bands before calling an iterative solver
             0 MiB given to the printing process from OS
             0 MiB allocation reported by mallinfo(arena+hblkhd)
             0 MiB available memory on the node where the printing process lives
------------------
     ethr =  7.42E-11,  avg # of iterations =  3.2

     total cpu time spent up to now is     4223.7 secs

     total energy              =   -1568.23797376 Ry
     estimated scf accuracy    <       0.00000002 Ry

     iteration # 17     ecut=    90.00 Ry     beta= 0.30
     Davidson diagonalization with overlap

---- Real-time Memory Report at c_bands before calling an iterative solver
             0 MiB given to the printing process from OS
             0 MiB allocation reported by mallinfo(arena+hblkhd)
             0 MiB available memory on the node where the printing process lives
------------------
     ethr =  1.38E-11,  avg # of iterations =  5.2

     total cpu time spent up to now is     4502.5 secs

     total energy              =   -1568.23797380 Ry
     estimated scf accuracy    <       0.00000001 Ry

     iteration # 18     ecut=    90.00 Ry     beta= 0.30
     Davidson diagonalization with overlap

---- Real-time Memory Report at c_bands before calling an iterative solver
             0 MiB given to the printing process from OS
             0 MiB allocation reported by mallinfo(arena+hblkhd)
             0 MiB available memory on the node where the printing process lives
------------------
     ethr =  8.23E-12,  avg # of iterations =  3.5

     total cpu time spent up to now is     4733.0 secs

     End of self-consistent calculation

          k = 0.0000 0.0000 0.0000 ( 43377 PWs)   bands (ev):

   -20.7044 -20.6789 -20.6750 -20.6497 -15.6638 -15.6637 -15.6544 -15.6543
   -15.6486 -15.6485 -15.5880 -15.5880 -15.5733 -15.5730  -7.2342  -6.9051
    -6.5753  -6.2547  -6.0862  -6.0829  -6.0828  -5.8512  -5.0692  -4.9924
    -4.8278  -4.8225  -4.7663  -4.7531  -4.7131  -4.7127  -4.6709  -4.6442
    -4.6425  -4.5685  -1.0177  -0.8124   1.5625   1.6586   1.8861   2.0273
     2.0983   2.1722   2.2131   2.5476   2.8979   3.0170   3.1426   3.1865
     3.3151   3.3222   3.4143   3.4214   3.4412   3.4705   3.5916   3.6968
     3.8224   3.8390   4.5700   4.6164   4.8383   4.8448   4.8507   4.9493
     4.9686   5.1913   5.2826   5.3111   5.3470   5.4115   5.5165   5.6123
     5.7129   5.8957   6.0308   6.1860   6.2265   6.2864

     occupation numbers 
     1.0000   1.0000   1.0000   1.0000   1.0000   1.0000   1.0000   1.0000
     1.0000   1.0000   1.0000   1.0000   1.0000   1.0000   1.0000   1.0000
     1.0000   1.0000   1.0000   1.0000   1.0000   1.0000   1.0000   1.0000
     1.0000   1.0000   1.0000   1.0000   1.0000   1.0000   1.0000   1.0000
     1.0000   1.0000   1.0000   1.0000   1.0000   1.0000   1.0000   1.0000
     1.0000   1.0000   1.0000   1.0000   1.0000   1.0000   1.0000   1.0000
     1.0000   1.0000   1.0000   1.0000   1.0000   1.0000   1.0000   1.0000
     1.0000   1.0000   1.0000   1.0000   1.0000   1.0000   1.0000   1.0000
     1.0000   1.0000   1.0000   1.0000   1.0000   1.0000   1.0000   1.0000
     1.0000   1.0000   1.0000   1.0000   1.0000   1.0000

          k = 0.0266 0.1789 0.1111 ( 43416 PWs)   bands (ev):

   -20.7025 -20.6817 -20.6719 -20.6515 -15.6638 -15.6637 -15.6544 -15.6543
   -15.6486 -15.6485 -15.5880 -15.5879 -15.5732 -15.5730  -7.2128  -6.9196
    -6.5243  -6.2369  -6.1266  -6.1186  -6.0897  -5.8772  -5.0516  -4.9650
    -4.8394  -4.7941  -4.7772  -4.7313  -4.7276  -4.7141  -4.6812  -4.6558
    -4.6424  -4.5860  -1.0051  -0.8106   1.5562   1.6048   1.7416   2.0520
     2.0945   2.1950   2.2988   2.5678   2.8946   2.9488   3.1456   3.1819
     3.3212   3.3229   3.3810   3.4268   3.4957   3.4986   3.5733   3.6974
     3.8262   3.8274   4.5937   4.6449   4.8467   4.8641   4.8750   4.9208
     4.9664   5.1713   5.2767   5.2936   5.3178   5.4703   5.5070   5.6733
     5.7381   5.9448   6.0693   6.0812   6.2218   6.2256

     occupation numbers 
     1.0000   1.0000   1.0000   1.0000   1.0000   1.0000   1.0000   1.0000
     1.0000   1.0000   1.0000   1.0000   1.0000   1.0000   1.0000   1.0000
     1.0000   1.0000   1.0000   1.0000   1.0000   1.0000   1.0000   1.0000
     1.0000   1.0000   1.0000   1.0000   1.0000   1.0000   1.0000   1.0000
     1.0000   1.0000   1.0000   1.0000   1.0000   1.0000   1.0000   1.0000
     1.0000   1.0000   1.0000   1.0000   1.0000   1.0000   1.0000   1.0000
     1.0000   1.0000   1.0000   1.0000   1.0000   1.0000   1.0000   1.0000
     1.0000   1.0000   1.0000   1.0000   1.0000   1.0000   1.0000   1.0000
     1.0000   1.0000   1.0000   1.0000   1.0000   1.0000   1.0000   1.0000
     1.0000   1.0000   1.0000   1.0000   1.0000   1.0000

          k = 0.0532 0.3578 0.2222 ( 43449 PWs)   bands (ev):

   -20.6972 -20.6843 -20.6690 -20.6564 -15.6638 -15.6638 -15.6545 -15.6544
   -15.6487 -15.6486 -15.5878 -15.5878 -15.5732 -15.5731  -7.1540  -6.9359
    -6.4130  -6.2137  -6.1892  -6.1885  -6.1323  -5.9439  -5.0046  -4.9124
    -4.8375  -4.7812  -4.7556  -4.7495  -4.7488  -4.7348  -4.7048  -4.6398
    -4.6368  -4.6345  -0.9711  -0.8081   1.3982   1.5713   1.6622   2.0029
     2.0664   2.2138   2.4609   2.6529   2.6895   3.0260   3.0631   3.2207
     3.2991   3.3164   3.3256   3.4149   3.4288   3.5414   3.6870   3.7337
     3.7956   3.8471   4.6576   4.7144   4.8215   4.8833   4.9131   4.9701
     4.9918   5.1201   5.2347   5.2567   5.2771   5.4389   5.6720   5.7627
     5.8043   5.9407   6.0217   6.1152   6.1784   6.2595

     occupation numbers 
     1.0000   1.0000   1.0000   1.0000   1.0000   1.0000   1.0000   1.0000
     1.0000   1.0000   1.0000   1.0000   1.0000   1.0000   1.0000   1.0000
     1.0000   1.0000   1.0000   1.0000   1.0000   1.0000   1.0000   1.0000
     1.0000   1.0000   1.0000   1.0000   1.0000   1.0000   1.0000   1.0000
     1.0000   1.0000   1.0000   1.0000   1.0000   1.0000   1.0000   1.0000
     1.0000   1.0000   1.0000   1.0000   1.0000   1.0000   1.0000   1.0000
     1.0000   1.0000   1.0000   1.0000   1.0000   1.0000   1.0000   1.0000
     1.0000   1.0000   1.0000   1.0000   1.0000   1.0000   1.0000   1.0000
     1.0000   1.0000   1.0000   1.0000   1.0000   1.0000   1.0000   1.0000
     1.0000   1.0000   1.0000   1.0000   1.0000   1.0000

          k = 0.0798 0.5367 0.3333 ( 43429 PWs)   bands (ev):

   -20.6900 -20.6845 -20.6684 -20.6631 -15.6638 -15.6638 -15.6546 -15.6546
   -15.6487 -15.6487 -15.5877 -15.5876 -15.5731 -15.5731  -7.0765  -6.9329
    -6.3194  -6.3089  -6.2496  -6.1825  -6.1309  -6.0137  -4.9453  -4.9097
    -4.8313  -4.7823  -4.7746  -4.7647  -4.7569  -4.7291  -4.7069  -4.6998
    -4.6367  -4.6052  -0.9278  -0.8079   1.2937   1.4668   1.6357   1.8886
     2.1144   2.3186   2.4268   2.5158   2.8539   2.8663   3.1482   3.2203
     3.2698   3.2896   3.3335   3.3939   3.4093   3.5677   3.7333   3.7652
     3.7845   3.8652   4.7369   4.7889   4.8347   4.8366   4.9631   5.0153
     5.0562   5.1484   5.1591   5.1928   5.2379   5.3814   5.7725   5.8623
     5.8852   5.9829   6.0477   6.1020   6.1557   6.3257

     occupation numbers 
     1.0000   1.0000   1.0000   1.0000   1.0000   1.0000   1.0000   1.0000
     1.0000   1.0000   1.0000   1.0000   1.0000   1.0000   1.0000   1.0000
     1.0000   1.0000   1.0000   1.0000   1.0000   1.0000   1.0000   1.0000
     1.0000   1.0000   1.0000   1.0000   1.0000   1.0000   1.0000   1.0000
     1.0000   1.0000   1.0000   1.0000   1.0000   1.0000   1.0000   1.0000
     1.0000   1.0000   1.0000   1.0000   1.0000   1.0000   1.0000   1.0000
     1.0000   1.0000   1.0000   1.0000   1.0000   1.0000   1.0000   1.0000
     1.0000   1.0000   1.0000   1.0000   1.0000   1.0000   1.0000   1.0000
     1.0000   1.0000   1.0000   1.0000   1.0000   1.0000   1.0000   1.0000
     1.0000   1.0000   1.0000   1.0000   1.0000   1.0000

          k = 0.1064 0.7157 0.4444 ( 43398 PWs)   bands (ev):

   -20.6837 -20.6829 -20.6697 -20.6690 -15.6638 -15.6638 -15.6547 -15.6547
   -15.6488 -15.6488 -15.5876 -15.5875 -15.5731 -15.5731  -7.0158  -6.9212
    -6.3943  -6.2848  -6.2643  -6.2141  -6.0976  -6.0339  -4.9152  -4.8980
    -4.8826  -4.7983  -4.7903  -4.7615  -4.7605  -4.7441  -4.6866  -4.6752
    -4.6377  -4.6116  -0.8961  -0.8087   1.2673   1.4289   1.5577   1.7933
     2.1607   2.3616   2.4258   2.4436   2.7791   2.9882   3.1022   3.2389
     3.2561   3.3193   3.3719   3.3800   3.4223   3.5785   3.7120   3.7467
     3.8215   3.8540   4.7658   4.8300   4.8387   4.8806   4.9944   5.0281
     5.0567   5.0793   5.1557   5.2049   5.2241   5.3470   5.7768   5.9500
     5.9655   6.0171   6.0799   6.1239   6.1402   6.2552

     occupation numbers 
     1.0000   1.0000   1.0000   1.0000   1.0000   1.0000   1.0000   1.0000
     1.0000   1.0000   1.0000   1.0000   1.0000   1.0000   1.0000   1.0000
     1.0000   1.0000   1.0000   1.0000   1.0000   1.0000   1.0000   1.0000
     1.0000   1.0000   1.0000   1.0000   1.0000   1.0000   1.0000   1.0000
     1.0000   1.0000   1.0000   1.0000   1.0000   1.0000   1.0000   1.0000
     1.0000   1.0000   1.0000   1.0000   1.0000   1.0000   1.0000   1.0000
     1.0000   1.0000   1.0000   1.0000   1.0000   1.0000   1.0000   1.0000
     1.0000   1.0000   1.0000   1.0000   1.0000   1.0000   1.0000   1.0000
     1.0000   1.0000   1.0000   1.0000   1.0000   1.0000   1.0000   1.0000
     1.0000   1.0000   1.0000   1.0000   1.0000   1.0000

          k = 0.0000 0.2069 0.0000 ( 43413 PWs)   bands (ev):

   -20.7029 -20.6788 -20.6748 -20.6511 -15.6638 -15.6637 -15.6544 -15.6543
   -15.6486 -15.6485 -15.5880 -15.5879 -15.5733 -15.5730  -7.2199  -6.8955
    -6.5545  -6.2371  -6.1204  -6.1064  -6.0928  -5.8773  -5.0580  -4.9666
    -4.8214  -4.8140  -4.7543  -4.7461  -4.7266  -4.7134  -4.6815  -4.6507
    -4.6484  -4.5861  -1.0086  -0.8074   1.5521   1.6082   1.7369   2.0445
     2.1113   2.2034   2.3105   2.5235   2.9060   2.9601   3.1524   3.1655
     3.3330   3.3386   3.4086   3.4323   3.4565   3.4952   3.5433   3.7004
     3.8311   3.8400   4.5950   4.6433   4.8442   4.8656   4.8691   4.9217
     4.9707   5.1997   5.2655   5.2747   5.3168   5.4802   5.4954   5.6794
     5.7504   5.9339   6.0605   6.1309   6.1692   6.2333

     occupation numbers 
     1.0000   1.0000   1.0000   1.0000   1.0000   1.0000   1.0000   1.0000
     1.0000   1.0000   1.0000   1.0000   1.0000   1.0000   1.0000   1.0000
     1.0000   1.0000   1.0000   1.0000   1.0000   1.0000   1.0000   1.0000
     1.0000   1.0000   1.0000   1.0000   1.0000   1.0000   1.0000   1.0000
     1.0000   1.0000   1.0000   1.0000   1.0000   1.0000   1.0000   1.0000
     1.0000   1.0000   1.0000   1.0000   1.0000   1.0000   1.0000   1.0000
     1.0000   1.0000   1.0000   1.0000   1.0000   1.0000   1.0000   1.0000
     1.0000   1.0000   1.0000   1.0000   1.0000   1.0000   1.0000   1.0000
     1.0000   1.0000   1.0000   1.0000   1.0000   1.0000   1.0000   1.0000
     1.0000   1.0000   1.0000   1.0000   1.0000   1.0000

          k = 0.0266 0.3858 0.1111 ( 43443 PWs)   bands (ev):

   -20.6981 -20.6810 -20.6723 -20.6555 -15.6638 -15.6637 -15.6545 -15.6544
   -15.6487 -15.6486 -15.5878 -15.5878 -15.5732 -15.5730  -7.1689  -6.8911
    -6.4718  -6.2003  -6.1973  -6.1717  -6.1306  -5.9443  -5.0206  -4.9083
    -4.8283  -4.7983  -4.7472  -4.7378  -4.7312  -4.7261  -4.7087  -4.6516
    -4.6472  -4.6268  -0.9803  -0.7985   1.3733   1.5613   1.6976   2.0315
     2.0776   2.1663   2.4746   2.5697   2.7229   3.0598   3.0873   3.1969
     3.3124   3.3510   3.3683   3.3979   3.4276   3.4817   3.6466   3.7402
     3.8165   3.8489   4.6596   4.7134   4.8127   4.8863   4.9206   4.9730
     4.9853   5.1451   5.2042   5.2584   5.2738   5.4536   5.6580   5.7963
     5.8105   5.9701   6.0200   6.1102   6.1320   6.2312

     occupation numbers 
     1.0000   1.0000   1.0000   1.0000   1.0000   1.0000   1.0000   1.0000
     1.0000   1.0000   1.0000   1.0000   1.0000   1.0000   1.0000   1.0000
     1.0000   1.0000   1.0000   1.0000   1.0000   1.0000   1.0000   1.0000
     1.0000   1.0000   1.0000   1.0000   1.0000   1.0000   1.0000   1.0000
     1.0000   1.0000   1.0000   1.0000   1.0000   1.0000   1.0000   1.0000
     1.0000   1.0000   1.0000   1.0000   1.0000   1.0000   1.0000   1.0000
     1.0000   1.0000   1.0000   1.0000   1.0000   1.0000   1.0000   1.0000
     1.0000   1.0000   1.0000   1.0000   1.0000   1.0000   1.0000   1.0000
     1.0000   1.0000   1.0000   1.0000   1.0000   1.0000   1.0000   1.0000
     1.0000   1.0000   1.0000   1.0000   1.0000   1.0000

          k = 0.0532 0.5647 0.2222 ( 43424 PWs)   bands (ev):

   -20.6911 -20.6823 -20.6705 -20.6620 -15.6638 -15.6638 -15.6546 -15.6546
   -15.6487 -15.6487 -15.5877 -15.5876 -15.5732 -15.5731  -7.0926  -6.8975
    -6.3623  -6.2989  -6.2398  -6.1742  -6.1397  -6.0207  -4.9625  -4.8947
    -4.8236  -4.7819  -4.7737  -4.7715  -4.7497  -4.7365  -4.6947  -4.6876
    -4.6441  -4.6071  -0.9373  -0.7983   1.2568   1.4476   1.7072   1.9637
     2.0727   2.2245   2.4288   2.5263   2.8140   2.9411   3.1604   3.2279
     3.2439   3.3141   3.3224   3.3777   3.4248   3.5360   3.7244   3.7741
     3.7915   3.8668   4.7389   4.7906   4.8222   4.8504   4.9638   5.0179
     5.0377   5.1156   5.1789   5.2112   5.2427   5.3952   5.8001   5.8492
     5.8882   5.9931   6.0433   6.1078   6.1276   6.3071

     occupation numbers 
     1.0000   1.0000   1.0000   1.0000   1.0000   1.0000   1.0000   1.0000
     1.0000   1.0000   1.0000   1.0000   1.0000   1.0000   1.0000   1.0000
     1.0000   1.0000   1.0000   1.0000   1.0000   1.0000   1.0000   1.0000
     1.0000   1.0000   1.0000   1.0000   1.0000   1.0000   1.0000   1.0000
     1.0000   1.0000   1.0000   1.0000   1.0000   1.0000   1.0000   1.0000
     1.0000   1.0000   1.0000   1.0000   1.0000   1.0000   1.0000   1.0000
     1.0000   1.0000   1.0000   1.0000   1.0000   1.0000   1.0000   1.0000
     1.0000   1.0000   1.0000   1.0000   1.0000   1.0000   1.0000   1.0000
     1.0000   1.0000   1.0000   1.0000   1.0000   1.0000   1.0000   1.0000
     1.0000   1.0000   1.0000   1.0000   1.0000   1.0000

          k = 0.0798 0.7436 0.3333 ( 43422 PWs)   bands (ev):

   -20.6843 -20.6821 -20.6705 -20.6684 -15.6638 -15.6638 -15.6547 -15.6547
   -15.6488 -15.6488 -15.5876 -15.5875 -15.5731 -15.5731  -7.0225  -6.9101
    -6.3861  -6.2945  -6.2715  -6.1985  -6.1026  -6.0472  -4.9109  -4.9064
    -4.8681  -4.8048  -4.7946  -4.7620  -4.7492  -4.7442  -4.6969  -4.6789
    -4.6326  -4.6041  -0.8991  -0.8061   1.2372   1.4086   1.6183   1.8375
     2.1423   2.3570   2.3693   2.4242   2.8354   2.9721   3.1242   3.2275
     3.2666   3.2960   3.3496   3.3688   3.4344   3.5799   3.7287   3.7451
     3.8132   3.8634   4.7718   4.8288   4.8415   4.8754   4.9880   5.0289
     5.0414   5.0679   5.1665   5.2180   5.2343   5.3492   5.7882   5.9549
     5.9757   6.0177   6.0626   6.1262   6.1273   6.2729

     occupation numbers 
     1.0000   1.0000   1.0000   1.0000   1.0000   1.0000   1.0000   1.0000
     1.0000   1.0000   1.0000   1.0000   1.0000   1.0000   1.0000   1.0000
     1.0000   1.0000   1.0000   1.0000   1.0000   1.0000   1.0000   1.0000
     1.0000   1.0000   1.0000   1.0000   1.0000   1.0000   1.0000   1.0000
     1.0000   1.0000   1.0000   1.0000   1.0000   1.0000   1.0000   1.0000
     1.0000   1.0000   1.0000   1.0000   1.0000   1.0000   1.0000   1.0000
     1.0000   1.0000   1.0000   1.0000   1.0000   1.0000   1.0000   1.0000
     1.0000   1.0000   1.0000   1.0000   1.0000   1.0000   1.0000   1.0000
     1.0000   1.0000   1.0000   1.0000   1.0000   1.0000   1.0000   1.0000
     1.0000   1.0000   1.0000   1.0000   1.0000   1.0000

          k = 0.1064 0.9226 0.4444 ( 43416 PWs)   bands (ev):

   -20.6837 -20.6829 -20.6697 -20.6690 -15.6638 -15.6638 -15.6547 -15.6547
   -15.6488 -15.6488 -15.5876 -15.5875 -15.5731 -15.5731  -7.0039  -6.9392
    -6.4082  -6.2791  -6.2591  -6.1956  -6.1015  -6.0318  -4.9210  -4.8931
    -4.8853  -4.8002  -4.7852  -4.7708  -4.7696  -4.7358  -4.6928  -4.6722
    -4.6298  -4.6152  -0.8882  -0.8169   1.2831   1.4262   1.5643   1.7727
     2.1775   2.3422   2.4202   2.4510   2.7694   3.0048   3.1002   3.2284
     3.2532   3.3349   3.3679   3.3729   3.4265   3.5882   3.7067   3.7554
     3.8302   3.8410   4.7652   4.8283   4.8349   4.8843   4.9944   5.0262
     5.0579   5.0779   5.1568   5.2031   5.2325   5.3402   5.7846   5.9394
     5.9707   6.0042   6.0861   6.1314   6.1641   6.2250

     occupation numbers 
     1.0000   1.0000   1.0000   1.0000   1.0000   1.0000   1.0000   1.0000
     1.0000   1.0000   1.0000   1.0000   1.0000   1.0000   1.0000   1.0000
     1.0000   1.0000   1.0000   1.0000   1.0000   1.0000   1.0000   1.0000
     1.0000   1.0000   1.0000   1.0000   1.0000   1.0000   1.0000   1.0000
     1.0000   1.0000   1.0000   1.0000   1.0000   1.0000   1.0000   1.0000
     1.0000   1.0000   1.0000   1.0000   1.0000   1.0000   1.0000   1.0000
     1.0000   1.0000   1.0000   1.0000   1.0000   1.0000   1.0000   1.0000
     1.0000   1.0000   1.0000   1.0000   1.0000   1.0000   1.0000   1.0000
     1.0000   1.0000   1.0000   1.0000   1.0000   1.0000   1.0000   1.0000
     1.0000   1.0000   1.0000   1.0000   1.0000   1.0000

          k =-0.1064-0.5088-0.4444 ( 43406 PWs)   bands (ev):

   -20.6885 -20.6866 -20.6663 -20.6645 -15.6638 -15.6638 -15.6546 -15.6546
   -15.6487 -15.6487 -15.5877 -15.5876 -15.5731 -15.5731  -7.0529  -6.9753
    -6.3520  -6.2724  -6.2374  -6.1689  -6.1249  -6.0115  -4.9359  -4.9188
    -4.8472  -4.7770  -4.7730  -4.7667  -4.7535  -4.7288  -4.7257  -4.7087
    -4.6243  -4.6071  -0.9113  -0.8253   1.3442   1.4776   1.5999   1.8159
     2.1684   2.3831   2.4123   2.4819   2.7782   2.9352   3.1312   3.2029
     3.2598   3.2946   3.3382   3.4019   3.4137   3.5983   3.7292   3.7708
     3.7916   3.8534   4.7373   4.7844   4.8200   4.8497   4.9625   5.0137
     5.0825   5.1324   5.1651   5.1808   5.2501   5.3601   5.7624   5.8717
     5.8878   5.9723   6.0437   6.0790   6.2029   6.3186

     occupation numbers 
     1.0000   1.0000   1.0000   1.0000   1.0000   1.0000   1.0000   1.0000
     1.0000   1.0000   1.0000   1.0000   1.0000   1.0000   1.0000   1.0000
     1.0000   1.0000   1.0000   1.0000   1.0000   1.0000   1.0000   1.0000
     1.0000   1.0000   1.0000   1.0000   1.0000   1.0000   1.0000   1.0000
     1.0000   1.0000   1.0000   1.0000   1.0000   1.0000   1.0000   1.0000
     1.0000   1.0000   1.0000   1.0000   1.0000   1.0000   1.0000   1.0000
     1.0000   1.0000   1.0000   1.0000   1.0000   1.0000   1.0000   1.0000
     1.0000   1.0000   1.0000   1.0000   1.0000   1.0000   1.0000   1.0000
     1.0000   1.0000   1.0000   1.0000   1.0000   1.0000   1.0000   1.0000
     1.0000   1.0000   1.0000   1.0000   1.0000   1.0000

          k =-0.0798-0.3298-0.3333 ( 43422 PWs)   bands (ev):

   -20.6956 -20.6876 -20.6657 -20.6580 -15.6638 -15.6638 -15.6545 -15.6545
   -15.6486 -15.6486 -15.5878 -15.5878 -15.5732 -15.5731  -7.1311  -6.9934
    -6.3478  -6.2522  -6.1850  -6.1754  -6.1180  -5.9495  -4.9836  -4.9216
    -4.8406  -4.7834  -4.7776  -4.7638  -4.7502  -4.7393  -4.7003  -4.6468
    -4.6293  -4.6284  -0.9530  -0.8283   1.4473   1.5797   1.6341   1.9113
     2.1213   2.2959   2.4101   2.6281   2.7757   2.9642   3.0364   3.2086
     3.2514   3.2883   3.3351   3.4281   3.4374   3.6153   3.7239   3.7280
     3.7823   3.8383   4.6573   4.7108   4.8340   4.8736   4.9103   4.9596
     5.0110   5.0959   5.2570   5.2608   5.2861   5.4108   5.6907   5.7223
     5.8099   5.9231   6.0227   6.0950   6.2292   6.2849

     occupation numbers 
     1.0000   1.0000   1.0000   1.0000   1.0000   1.0000   1.0000   1.0000
     1.0000   1.0000   1.0000   1.0000   1.0000   1.0000   1.0000   1.0000
     1.0000   1.0000   1.0000   1.0000   1.0000   1.0000   1.0000   1.0000
     1.0000   1.0000   1.0000   1.0000   1.0000   1.0000   1.0000   1.0000
     1.0000   1.0000   1.0000   1.0000   1.0000   1.0000   1.0000   1.0000
     1.0000   1.0000   1.0000   1.0000   1.0000   1.0000   1.0000   1.0000
     1.0000   1.0000   1.0000   1.0000   1.0000   1.0000   1.0000   1.0000
     1.0000   1.0000   1.0000   1.0000   1.0000   1.0000   1.0000   1.0000
     1.0000   1.0000   1.0000   1.0000   1.0000   1.0000   1.0000   1.0000
     1.0000   1.0000   1.0000   1.0000   1.0000   1.0000

          k =-0.0532-0.1509-0.2222 ( 43418 PWs)   bands (ev):

   -20.7013 -20.6859 -20.6678 -20.6527 -15.6638 -15.6637 -15.6544 -15.6543
   -15.6486 -15.6485 -15.5880 -15.5879 -15.5732 -15.5730  -7.1979  -6.9773
    -6.4575  -6.2239  -6.1532  -6.1297  -6.0711  -5.8840  -5.0334  -4.9606
    -4.8617  -4.8106  -4.7743  -4.7301  -4.7266  -4.7150  -4.6810  -4.6565
    -4.6376  -4.5948  -0.9918  -0.8261   1.5756   1.6193   1.7422   2.0087
     2.0784   2.2392   2.2804   2.6671   2.8396   2.9370   3.1300   3.1595
     3.2825   3.2917   3.3541   3.4300   3.5060   3.5899   3.6249   3.6925
     3.8115   3.8133   4.5932   4.6425   4.8517   4.8645   4.8887   4.9173
     4.9611   5.1247   5.2869   5.3237   5.3289   5.4459   5.5194   5.6542
     5.7449   5.9487   6.0196   6.0814   6.2147   6.2576

     occupation numbers 
     1.0000   1.0000   1.0000   1.0000   1.0000   1.0000   1.0000   1.0000
     1.0000   1.0000   1.0000   1.0000   1.0000   1.0000   1.0000   1.0000
     1.0000   1.0000   1.0000   1.0000   1.0000   1.0000   1.0000   1.0000
     1.0000   1.0000   1.0000   1.0000   1.0000   1.0000   1.0000   1.0000
     1.0000   1.0000   1.0000   1.0000   1.0000   1.0000   1.0000   1.0000
     1.0000   1.0000   1.0000   1.0000   1.0000   1.0000   1.0000   1.0000
     1.0000   1.0000   1.0000   1.0000   1.0000   1.0000   1.0000   1.0000
     1.0000   1.0000   1.0000   1.0000   1.0000   1.0000   1.0000   1.0000
     1.0000   1.0000   1.0000   1.0000   1.0000   1.0000   1.0000   1.0000
     1.0000   1.0000   1.0000   1.0000   1.0000   1.0000

          k =-0.0266 0.0280-0.1111 ( 43392 PWs)   bands (ev):

   -20.7040 -20.6821 -20.6718 -20.6501 -15.6638 -15.6637 -15.6544 -15.6543
   -15.6486 -15.6485 -15.5880 -15.5880 -15.5733 -15.5730  -7.2305  -6.9327
    -6.5447  -6.2471  -6.0970  -6.0952  -6.0649  -5.8546  -5.0622  -4.9904
    -4.8508  -4.7996  -4.7925  -4.7374  -4.7131  -4.7118  -4.6710  -4.6449
    -4.6444  -4.5739  -1.0128  -0.8187   1.5660   1.6754   1.8764   2.0326
     2.1000   2.1250   2.2389   2.5959   2.8905   2.9912   3.1148   3.1910
     3.2951   3.3456   3.3526   3.4219   3.4915   3.5128   3.5903   3.6974
     3.8140   3.8382   4.5703   4.6145   4.8388   4.8472   4.8547   4.9492
     4.9677   5.1645   5.2869   5.3346   5.3477   5.4087   5.5059   5.6072
     5.7240   5.9002   6.0350   6.1549   6.2121   6.2778

     occupation numbers 
     1.0000   1.0000   1.0000   1.0000   1.0000   1.0000   1.0000   1.0000
     1.0000   1.0000   1.0000   1.0000   1.0000   1.0000   1.0000   1.0000
     1.0000   1.0000   1.0000   1.0000   1.0000   1.0000   1.0000   1.0000
     1.0000   1.0000   1.0000   1.0000   1.0000   1.0000   1.0000   1.0000
     1.0000   1.0000   1.0000   1.0000   1.0000   1.0000   1.0000   1.0000
     1.0000   1.0000   1.0000   1.0000   1.0000   1.0000   1.0000   1.0000
     1.0000   1.0000   1.0000   1.0000   1.0000   1.0000   1.0000   1.0000
     1.0000   1.0000   1.0000   1.0000   1.0000   1.0000   1.0000   1.0000
     1.0000   1.0000   1.0000   1.0000   1.0000   1.0000   1.0000   1.0000
     1.0000   1.0000   1.0000   1.0000   1.0000   1.0000

          k = 0.0000 0.4138 0.0000 ( 43444 PWs)   bands (ev):

   -20.6985 -20.6788 -20.6744 -20.6552 -15.6638 -15.6637 -15.6545 -15.6544
   -15.6487 -15.6486 -15.5878 -15.5878 -15.5732 -15.5730  -7.1757  -6.8781
    -6.5020  -6.1978  -6.1894  -6.1513  -6.1235  -5.9488  -5.0261  -4.9072
    -4.8210  -4.8187  -4.7467  -4.7311  -4.7290  -4.7185  -4.7099  -4.6576
    -4.6543  -4.6238  -0.9798  -0.8001   1.3771   1.5519   1.7225   2.0280
     2.0652   2.1959   2.4452   2.5578   2.7290   3.0693   3.1002   3.1621
     3.3148   3.3532   3.3727   3.3796   3.4544   3.4951   3.6233   3.7381
     3.8417   3.8439   4.6624   4.7083   4.8075   4.8881   4.9246   4.9681
     4.9915   5.1661   5.1771   5.2610   5.2788   5.4492   5.6502   5.8123
     5.8275   5.9585   6.0265   6.1047   6.1192   6.2148

     occupation numbers 
     1.0000   1.0000   1.0000   1.0000   1.0000   1.0000   1.0000   1.0000
     1.0000   1.0000   1.0000   1.0000   1.0000   1.0000   1.0000   1.0000
     1.0000   1.0000   1.0000   1.0000   1.0000   1.0000   1.0000   1.0000
     1.0000   1.0000   1.0000   1.0000   1.0000   1.0000   1.0000   1.0000
     1.0000   1.0000   1.0000   1.0000   1.0000   1.0000   1.0000   1.0000
     1.0000   1.0000   1.0000   1.0000   1.0000   1.0000   1.0000   1.0000
     1.0000   1.0000   1.0000   1.0000   1.0000   1.0000   1.0000   1.0000
     1.0000   1.0000   1.0000   1.0000   1.0000   1.0000   1.0000   1.0000
     1.0000   1.0000   1.0000   1.0000   1.0000   1.0000   1.0000   1.0000
     1.0000   1.0000   1.0000   1.0000   1.0000   1.0000

          k = 0.0266 0.5927 0.1111 ( 43453 PWs)   bands (ev):

   -20.6918 -20.6802 -20.6726 -20.6614 -15.6638 -15.6638 -15.6546 -15.6546
   -15.6487 -15.6487 -15.5877 -15.5876 -15.5732 -15.5731  -7.1015  -6.8782
    -6.4120  -6.2848  -6.2122  -6.1607  -6.1472  -6.0276  -4.9755  -4.8834
    -4.8338  -4.7797  -4.7737  -4.7647  -4.7496  -4.7416  -4.6993  -4.6769
    -4.6371  -4.6136  -0.9389  -0.7974   1.2466   1.4263   1.7953   1.9991
     2.0469   2.1779   2.3661   2.5378   2.7909   3.0202   3.1543   3.1904
     3.2576   3.2930   3.3456   3.3580   3.4644   3.5142   3.7121   3.7801
     3.8103   3.8589   4.7424   4.7890   4.8074   4.8667   4.9610   5.0189
     5.0348   5.0861   5.1876   5.2246   5.2570   5.3980   5.8263   5.8477
     5.8973   5.9765   6.0441   6.0839   6.1514   6.2673

     occupation numbers 
     1.0000   1.0000   1.0000   1.0000   1.0000   1.0000   1.0000   1.0000
     1.0000   1.0000   1.0000   1.0000   1.0000   1.0000   1.0000   1.0000
     1.0000   1.0000   1.0000   1.0000   1.0000   1.0000   1.0000   1.0000
     1.0000   1.0000   1.0000   1.0000   1.0000   1.0000   1.0000   1.0000
     1.0000   1.0000   1.0000   1.0000   1.0000   1.0000   1.0000   1.0000
     1.0000   1.0000   1.0000   1.0000   1.0000   1.0000   1.0000   1.0000
     1.0000   1.0000   1.0000   1.0000   1.0000   1.0000   1.0000   1.0000
     1.0000   1.0000   1.0000   1.0000   1.0000   1.0000   1.0000   1.0000
     1.0000   1.0000   1.0000   1.0000   1.0000   1.0000   1.0000   1.0000
     1.0000   1.0000   1.0000   1.0000   1.0000   1.0000

          k = 0.0532 0.7716 0.2222 ( 43429 PWs)   bands (ev):

   -20.6848 -20.6814 -20.6712 -20.6679 -15.6638 -15.6638 -15.6547 -15.6547
   -15.6488 -15.6488 -15.5876 -15.5875 -15.5731 -15.5731  -7.0238  -6.9081
    -6.3786  -6.3316  -6.2393  -6.1755  -6.1114  -6.0669  -4.9234  -4.8994
    -4.8536  -4.8140  -4.7944  -4.7725  -4.7425  -4.7338  -4.7068  -4.6930
    -4.6183  -4.5979  -0.8968  -0.8095   1.2179   1.3750   1.7197   1.8967
     2.1200   2.2757   2.3248   2.4012   2.9162   2.9671   3.1539   3.2021
     3.2424   3.2962   3.3062   3.3567   3.4653   3.5807   3.7399   3.7630
     3.8061   3.8638   4.7822   4.8242   4.8453   4.8677   4.9781   5.0236
     5.0315   5.0495   5.1860   5.2322   5.2543   5.3441   5.8174   5.9501
     5.9828   6.0139   6.0418   6.1284   6.1404   6.2720

     occupation numbers 
     1.0000   1.0000   1.0000   1.0000   1.0000   1.0000   1.0000   1.0000
     1.0000   1.0000   1.0000   1.0000   1.0000   1.0000   1.0000   1.0000
     1.0000   1.0000   1.0000   1.0000   1.0000   1.0000   1.0000   1.0000
     1.0000   1.0000   1.0000   1.0000   1.0000   1.0000   1.0000   1.0000
     1.0000   1.0000   1.0000   1.0000   1.0000   1.0000   1.0000   1.0000
     1.0000   1.0000   1.0000   1.0000   1.0000   1.0000   1.0000   1.0000
     1.0000   1.0000   1.0000   1.0000   1.0000   1.0000   1.0000   1.0000
     1.0000   1.0000   1.0000   1.0000   1.0000   1.0000   1.0000   1.0000
     1.0000   1.0000   1.0000   1.0000   1.0000   1.0000   1.0000   1.0000
     1.0000   1.0000   1.0000   1.0000   1.0000   1.0000

          k = 0.0798 0.9505 0.3333 ( 43433 PWs)   bands (ev):

   -20.6843 -20.6822 -20.6705 -20.6684 -15.6638 -15.6638 -15.6547 -15.6547
   -15.6488 -15.6488 -15.5876 -15.5876 -15.5731 -15.5731  -6.9872  -6.9604
    -6.4215  -6.2892  -6.2330  -6.1650  -6.1143  -6.0426  -4.9233  -4.9009
    -4.8718  -4.8100  -4.7875  -4.7802  -4.7651  -4.7286  -4.7112  -4.6648
    -4.6262  -4.6077  -0.8764  -0.8297   1.2777   1.3960   1.6411   1.7835
     2.1900   2.3052   2.3674   2.4275   2.8092   3.0164   3.1174   3.2058
     3.2565   3.3317   3.3366   3.3614   3.4450   3.6003   3.7161   3.7687
     3.8158   3.8475   4.7699   4.8241   4.8309   4.8866   4.9930   5.0196
     5.0396   5.0695   5.1694   5.2160   5.2534   5.3306   5.8093   5.9258
     5.9739   6.0106   6.0830   6.1389   6.1866   6.1912

     occupation numbers 
     1.0000   1.0000   1.0000   1.0000   1.0000   1.0000   1.0000   1.0000
     1.0000   1.0000   1.0000   1.0000   1.0000   1.0000   1.0000   1.0000
     1.0000   1.0000   1.0000   1.0000   1.0000   1.0000   1.0000   1.0000
     1.0000   1.0000   1.0000   1.0000   1.0000   1.0000   1.0000   1.0000
     1.0000   1.0000   1.0000   1.0000   1.0000   1.0000   1.0000   1.0000
     1.0000   1.0000   1.0000   1.0000   1.0000   1.0000   1.0000   1.0000
     1.0000   1.0000   1.0000   1.0000   1.0000   1.0000   1.0000   1.0000
     1.0000   1.0000   1.0000   1.0000   1.0000   1.0000   1.0000   1.0000
     1.0000   1.0000   1.0000   1.0000   1.0000   1.0000   1.0000   1.0000
     1.0000   1.0000   1.0000   1.0000   1.0000   1.0000

          k = 0.1064 1.1295 0.4444 ( 43390 PWs)   bands (ev):

   -20.6885 -20.6866 -20.6663 -20.6646 -15.6638 -15.6638 -15.6546 -15.6546
   -15.6487 -15.6487 -15.5877 -15.5877 -15.5731 -15.5731  -7.0218  -7.0168
    -6.3898  -6.2580  -6.2117  -6.1354  -6.1252  -6.0189  -4.9440  -4.9145
    -4.8555  -4.7837  -4.7721  -4.7700  -4.7499  -4.7337  -4.7320  -4.7065
    -4.6177  -4.6092  -0.8896  -0.8482   1.3797   1.4679   1.6251   1.7648
     2.2259   2.3239   2.4204   2.4850   2.7321   2.9878   3.1179   3.1851
     3.2589   3.2995   3.3337   3.3990   3.4308   3.6069   3.7243   3.7835
     3.8131   3.8347   4.7409   4.7776   4.8061   4.8614   4.9666   5.0110
     5.1030   5.1095   5.1358   5.2092   5.2741   5.3362   5.7693   5.8691
     5.8984   5.9747   6.0314   6.0640   6.2366   6.2889

     occupation numbers 
     1.0000   1.0000   1.0000   1.0000   1.0000   1.0000   1.0000   1.0000
     1.0000   1.0000   1.0000   1.0000   1.0000   1.0000   1.0000   1.0000
     1.0000   1.0000   1.0000   1.0000   1.0000   1.0000   1.0000   1.0000
     1.0000   1.0000   1.0000   1.0000   1.0000   1.0000   1.0000   1.0000
     1.0000   1.0000   1.0000   1.0000   1.0000   1.0000   1.0000   1.0000
     1.0000   1.0000   1.0000   1.0000   1.0000   1.0000   1.0000   1.0000
     1.0000   1.0000   1.0000   1.0000   1.0000   1.0000   1.0000   1.0000
     1.0000   1.0000   1.0000   1.0000   1.0000   1.0000   1.0000   1.0000
     1.0000   1.0000   1.0000   1.0000   1.0000   1.0000   1.0000   1.0000
     1.0000   1.0000   1.0000   1.0000   1.0000   1.0000

          k =-0.1064-0.3019-0.4444 ( 43429 PWs)   bands (ev):

   -20.6934 -20.6907 -20.6627 -20.6601 -15.6638 -15.6638 -15.6545 -15.6545
   -15.6486 -15.6486 -15.5878 -15.5878 -15.5731 -15.5731  -7.0994  -7.0501
    -6.3040  -6.2904  -6.1754  -6.1597  -6.0863  -5.9641  -4.9645  -4.9369
    -4.8311  -4.8063  -4.7983  -4.7644  -4.7501  -4.7426  -4.6923  -4.6612
    -4.6243  -4.6229  -0.9273  -0.8569   1.5032   1.5786   1.6369   1.8252
     2.1968   2.3387   2.3926   2.5490   2.8883   2.8940   3.0149   3.1636
     3.2297   3.2690   3.3484   3.4364   3.4608   3.6364   3.7445   3.7580
     3.7793   3.8252   4.6599   4.7032   4.8497   4.8563   4.9164   4.9480
     5.0345   5.0721   5.2599   5.2746   5.3020   5.3784   5.6899   5.7116
     5.8241   5.9216   6.0205   6.0652   6.2584   6.2974

     occupation numbers 
     1.0000   1.0000   1.0000   1.0000   1.0000   1.0000   1.0000   1.0000
     1.0000   1.0000   1.0000   1.0000   1.0000   1.0000   1.0000   1.0000
     1.0000   1.0000   1.0000   1.0000   1.0000   1.0000   1.0000   1.0000
     1.0000   1.0000   1.0000   1.0000   1.0000   1.0000   1.0000   1.0000
     1.0000   1.0000   1.0000   1.0000   1.0000   1.0000   1.0000   1.0000
     1.0000   1.0000   1.0000   1.0000   1.0000   1.0000   1.0000   1.0000
     1.0000   1.0000   1.0000   1.0000   1.0000   1.0000   1.0000   1.0000
     1.0000   1.0000   1.0000   1.0000   1.0000   1.0000   1.0000   1.0000
     1.0000   1.0000   1.0000   1.0000   1.0000   1.0000   1.0000   1.0000
     1.0000   1.0000   1.0000   1.0000   1.0000   1.0000

          k =-0.0798-0.1229-0.3333 ( 43433 PWs)   bands (ev):

   -20.6994 -20.6899 -20.6638 -20.6545 -15.6638 -15.6638 -15.6544 -15.6543
   -15.6486 -15.6485 -15.5880 -15.5879 -15.5732 -15.5731  -7.1744  -7.0426
    -6.3812  -6.2071  -6.1979  -6.1334  -6.0394  -5.8993  -5.0087  -4.9555
    -4.8814  -4.8446  -4.7613  -4.7389  -4.7275  -4.7164  -4.6777  -4.6518
    -4.6360  -4.6097  -0.9692  -0.8526   1.6072   1.6505   1.7378   1.9134
     2.1184   2.2371   2.3323   2.7259   2.8126   2.9240   3.0787   3.1321
     3.2152   3.2588   3.3840   3.4346   3.5237   3.6493   3.6885   3.6973
     3.7872   3.7987   4.5947   4.6361   4.8589   4.8657   4.9036   4.9134
     4.9633   5.0777   5.3030   5.3353   5.3474   5.4116   5.5397   5.6236
     5.7657   5.9262   6.0036   6.0832   6.2147   6.2594

     occupation numbers 
     1.0000   1.0000   1.0000   1.0000   1.0000   1.0000   1.0000   1.0000
     1.0000   1.0000   1.0000   1.0000   1.0000   1.0000   1.0000   1.0000
     1.0000   1.0000   1.0000   1.0000   1.0000   1.0000   1.0000   1.0000
     1.0000   1.0000   1.0000   1.0000   1.0000   1.0000   1.0000   1.0000
     1.0000   1.0000   1.0000   1.0000   1.0000   1.0000   1.0000   1.0000
     1.0000   1.0000   1.0000   1.0000   1.0000   1.0000   1.0000   1.0000
     1.0000   1.0000   1.0000   1.0000   1.0000   1.0000   1.0000   1.0000
     1.0000   1.0000   1.0000   1.0000   1.0000   1.0000   1.0000   1.0000
     1.0000   1.0000   1.0000   1.0000   1.0000   1.0000   1.0000   1.0000
     1.0000   1.0000   1.0000   1.0000   1.0000   1.0000

          k =-0.0532 0.0560-0.2222 ( 43426 PWs)   bands (ev):

   -20.7028 -20.6865 -20.6674 -20.6513 -15.6638 -15.6637 -15.6544 -15.6543
   -15.6486 -15.6485 -15.5880 -15.5880 -15.5732 -15.5730  -7.2184  -6.9929
    -6.4759  -6.2263  -6.1300  -6.1070  -6.0356  -5.8655  -5.0430  -4.9851
    -4.8749  -4.8299  -4.7758  -4.7299  -4.7137  -4.7086  -4.6695  -4.6500
    -4.6463  -4.5878  -0.9978  -0.8373   1.5841   1.7153   1.8477   2.0305
     2.0549   2.1035   2.3002   2.7004   2.8653   2.9278   3.0568   3.2056
     3.2647   3.2746   3.3866   3.4155   3.5552   3.5900   3.5901   3.6972
     3.7903   3.8338   4.5714   4.6089   4.8402   4.8477   4.8733   4.9496
     4.9653   5.1124   5.2993   5.3492   5.3738   5.4004   5.4839   5.5916
     5.7517   5.9048   6.0448   6.0887   6.1968   6.2547

     occupation numbers 
     1.0000   1.0000   1.0000   1.0000   1.0000   1.0000   1.0000   1.0000
     1.0000   1.0000   1.0000   1.0000   1.0000   1.0000   1.0000   1.0000
     1.0000   1.0000   1.0000   1.0000   1.0000   1.0000   1.0000   1.0000
     1.0000   1.0000   1.0000   1.0000   1.0000   1.0000   1.0000   1.0000
     1.0000   1.0000   1.0000   1.0000   1.0000   1.0000   1.0000   1.0000
     1.0000   1.0000   1.0000   1.0000   1.0000   1.0000   1.0000   1.0000
     1.0000   1.0000   1.0000   1.0000   1.0000   1.0000   1.0000   1.0000
     1.0000   1.0000   1.0000   1.0000   1.0000   1.0000   1.0000   1.0000
     1.0000   1.0000   1.0000   1.0000   1.0000   1.0000   1.0000   1.0000
     1.0000   1.0000   1.0000   1.0000   1.0000   1.0000

          k =-0.0266 0.2349-0.1111 ( 43425 PWs)   bands (ev):

   -20.7025 -20.6817 -20.6719 -20.6515 -15.6638 -15.6637 -15.6544 -15.6543
   -15.6486 -15.6485 -15.5880 -15.5879 -15.5732 -15.5730  -7.2188  -6.9227
    -6.5296  -6.2248  -6.1196  -6.1119  -6.0788  -5.8841  -5.0509  -4.9649
    -4.8433  -4.7993  -4.7789  -4.7349  -4.7248  -4.7134  -4.6819  -4.6561
    -4.6427  -4.5947  -1.0021  -0.8165   1.5662   1.6260   1.7288   2.0437
     2.0692   2.2420   2.3072   2.5684   2.8740   2.9632   3.1120   3.1599
     3.2896   3.3611   3.3909   3.4122   3.4846   3.5242   3.5773   3.7013
     3.8220   3.8530   4.5970   4.6378   4.8446   4.8659   4.8759   4.9198
     4.9716   5.1693   5.2746   5.2937   5.3216   5.4631   5.4957   5.6733
     5.7795   5.9162   6.0557   6.0836   6.1740   6.2507

     occupation numbers 
     1.0000   1.0000   1.0000   1.0000   1.0000   1.0000   1.0000   1.0000
     1.0000   1.0000   1.0000   1.0000   1.0000   1.0000   1.0000   1.0000
     1.0000   1.0000   1.0000   1.0000   1.0000   1.0000   1.0000   1.0000
     1.0000   1.0000   1.0000   1.0000   1.0000   1.0000   1.0000   1.0000
     1.0000   1.0000   1.0000   1.0000   1.0000   1.0000   1.0000   1.0000
     1.0000   1.0000   1.0000   1.0000   1.0000   1.0000   1.0000   1.0000
     1.0000   1.0000   1.0000   1.0000   1.0000   1.0000   1.0000   1.0000
     1.0000   1.0000   1.0000   1.0000   1.0000   1.0000   1.0000   1.0000
     1.0000   1.0000   1.0000   1.0000   1.0000   1.0000   1.0000   1.0000
     1.0000   1.0000   1.0000   1.0000   1.0000   1.0000

          k = 0.0000 0.6207 0.0000 ( 43492 PWs)   bands (ev):

   -20.6920 -20.6791 -20.6737 -20.6611 -15.6638 -15.6638 -15.6546 -15.6546
   -15.6487 -15.6487 -15.5877 -15.5876 -15.5732 -15.5730  -7.1026  -6.8815
    -6.4455  -6.2668  -6.1813  -6.1513  -6.1487  -6.0328  -4.9796  -4.8821
    -4.8451  -4.7882  -4.7741  -4.7566  -4.7565  -4.7415  -4.7035  -4.6704
    -4.6246  -4.6233  -0.9323  -0.8051   1.2655   1.4071   1.8557   1.9842
     2.0276   2.2045   2.3052   2.5346   2.7829   3.0690   3.1239   3.1730
     3.2652   3.2819   3.3400   3.3648   3.4903   3.5218   3.7082   3.7736
     3.8343   3.8449   4.7467   4.7830   4.7952   4.8799   4.9607   5.0171
     5.0409   5.0670   5.1847   5.2412   5.2669   5.3880   5.8171   5.8724
     5.9166   5.9437   6.0512   6.0922   6.1616   6.2286

     occupation numbers 
     1.0000   1.0000   1.0000   1.0000   1.0000   1.0000   1.0000   1.0000
     1.0000   1.0000   1.0000   1.0000   1.0000   1.0000   1.0000   1.0000
     1.0000   1.0000   1.0000   1.0000   1.0000   1.0000   1.0000   1.0000
     1.0000   1.0000   1.0000   1.0000   1.0000   1.0000   1.0000   1.0000
     1.0000   1.0000   1.0000   1.0000   1.0000   1.0000   1.0000   1.0000
     1.0000   1.0000   1.0000   1.0000   1.0000   1.0000   1.0000   1.0000
     1.0000   1.0000   1.0000   1.0000   1.0000   1.0000   1.0000   1.0000
     1.0000   1.0000   1.0000   1.0000   1.0000   1.0000   1.0000   1.0000
     1.0000   1.0000   1.0000   1.0000   1.0000   1.0000   1.0000   1.0000
     1.0000   1.0000   1.0000   1.0000   1.0000   1.0000

          k = 0.0266 0.7996 0.1111 ( 43426 PWs)   bands (ev):

   -20.6851 -20.6809 -20.6717 -20.6677 -15.6638 -15.6638 -15.6547 -15.6547
   -15.6488 -15.6488 -15.5876 -15.5875 -15.5731 -15.5731  -7.0203  -6.9149
    -6.3728  -6.3600  -6.1972  -6.1605  -6.1194  -6.0867  -4.9317  -4.8983
    -4.8507  -4.8166  -4.7902  -4.7807  -4.7406  -4.7256  -4.7168  -4.7015
    -4.6058  -4.5953  -0.8893  -0.8183   1.2212   1.3373   1.8426   1.9599
     2.0670   2.2101   2.2512   2.3898   2.9588   3.0175   3.1420   3.1896
     3.2150   3.2653   3.3130   3.3383   3.5089   3.5696   3.7472   3.7873
     3.8029   3.8532   4.7940   4.8162   4.8519   4.8583   4.9710   5.0107
     5.0316   5.0351   5.2084   5.2464   5.2661   5.3329   5.8568   5.9351
     5.9757   5.9944   6.0561   6.1369   6.1583   6.2505

     occupation numbers 
     1.0000   1.0000   1.0000   1.0000   1.0000   1.0000   1.0000   1.0000
     1.0000   1.0000   1.0000   1.0000   1.0000   1.0000   1.0000   1.0000
     1.0000   1.0000   1.0000   1.0000   1.0000   1.0000   1.0000   1.0000
     1.0000   1.0000   1.0000   1.0000   1.0000   1.0000   1.0000   1.0000
     1.0000   1.0000   1.0000   1.0000   1.0000   1.0000   1.0000   1.0000
     1.0000   1.0000   1.0000   1.0000   1.0000   1.0000   1.0000   1.0000
     1.0000   1.0000   1.0000   1.0000   1.0000   1.0000   1.0000   1.0000
     1.0000   1.0000   1.0000   1.0000   1.0000   1.0000   1.0000   1.0000
     1.0000   1.0000   1.0000   1.0000   1.0000   1.0000   1.0000   1.0000
     1.0000   1.0000   1.0000   1.0000   1.0000   1.0000

          k = 0.0532 0.9785 0.2222 ( 43428 PWs)   bands (ev):

   -20.6848 -20.6814 -20.6712 -20.6680 -15.6638 -15.6638 -15.6547 -15.6547
   -15.6488 -15.6488 -15.5876 -15.5876 -15.5731 -15.5731  -6.9812  -6.9674
    -6.4269  -6.3037  -6.1974  -6.1435  -6.1279  -6.0646  -4.9253  -4.9070
    -4.8591  -4.8186  -4.7910  -4.7854  -4.7563  -4.7263  -4.7220  -4.6702
    -4.6171  -4.5994  -0.8619  -0.8454   1.2726   1.3466   1.7580   1.8261
     2.1920   2.2231   2.3242   2.3813   2.8754   3.0281   3.1424   3.1795
     3.2517   3.2969   3.3070   3.3590   3.4752   3.6024   3.7362   3.7861
     3.7940   3.8528   4.7796   4.8185   4.8289   4.8864   4.9941   5.0055
     5.0199   5.0581   5.1888   5.2348   5.2761   5.3172   5.8462   5.9099
     5.9627   6.0508   6.0676   6.1302   6.1718   6.2032

     occupation numbers 
     1.0000   1.0000   1.0000   1.0000   1.0000   1.0000   1.0000   1.0000
     1.0000   1.0000   1.0000   1.0000   1.0000   1.0000   1.0000   1.0000
     1.0000   1.0000   1.0000   1.0000   1.0000   1.0000   1.0000   1.0000
     1.0000   1.0000   1.0000   1.0000   1.0000   1.0000   1.0000   1.0000
     1.0000   1.0000   1.0000   1.0000   1.0000   1.0000   1.0000   1.0000
     1.0000   1.0000   1.0000   1.0000   1.0000   1.0000   1.0000   1.0000
     1.0000   1.0000   1.0000   1.0000   1.0000   1.0000   1.0000   1.0000
     1.0000   1.0000   1.0000   1.0000   1.0000   1.0000   1.0000   1.0000
     1.0000   1.0000   1.0000   1.0000   1.0000   1.0000   1.0000   1.0000
     1.0000   1.0000   1.0000   1.0000   1.0000   1.0000

          k = 0.0798 1.1574 0.3333 ( 43409 PWs)   bands (ev):

   -20.6900 -20.6845 -20.6684 -20.6631 -15.6638 -15.6638 -15.6546 -15.6546
   -15.6487 -15.6487 -15.5877 -15.5877 -15.5731 -15.5731  -7.0522  -6.9843
    -6.4243  -6.2479  -6.1888  -6.1365  -6.0993  -6.0365  -4.9540  -4.9115
    -4.8538  -4.7913  -4.7798  -4.7705  -4.7568  -4.7420  -4.7099  -4.6985
    -4.6239  -4.6063  -0.8738  -0.8650   1.3867   1.4299   1.7087   1.7565
     2.2457   2.2807   2.3494   2.5200   2.7257   3.0133   3.1129   3.1720
     3.2692   3.2990   3.3411   3.3837   3.4441   3.6002   3.7252   3.7926
     3.8031   3.8458   4.7477   4.7697   4.7948   4.8718   4.9767   5.0042
     5.0746   5.1083   5.1348   5.2324   5.3049   5.3134   5.7844   5.8607
     5.9101   5.9903   6.0253   6.0541   6.2421   6.2533

     occupation numbers 
     1.0000   1.0000   1.0000   1.0000   1.0000   1.0000   1.0000   1.0000
     1.0000   1.0000   1.0000   1.0000   1.0000   1.0000   1.0000   1.0000
     1.0000   1.0000   1.0000   1.0000   1.0000   1.0000   1.0000   1.0000
     1.0000   1.0000   1.0000   1.0000   1.0000   1.0000   1.0000   1.0000
     1.0000   1.0000   1.0000   1.0000   1.0000   1.0000   1.0000   1.0000
     1.0000   1.0000   1.0000   1.0000   1.0000   1.0000   1.0000   1.0000
     1.0000   1.0000   1.0000   1.0000   1.0000   1.0000   1.0000   1.0000
     1.0000   1.0000   1.0000   1.0000   1.0000   1.0000   1.0000   1.0000
     1.0000   1.0000   1.0000   1.0000   1.0000   1.0000   1.0000   1.0000
     1.0000   1.0000   1.0000   1.0000   1.0000   1.0000

          k = 0.1064 1.3364 0.4444 ( 43426 PWs)   bands (ev):

   -20.6934 -20.6907 -20.6627 -20.6601 -15.6638 -15.6638 -15.6545 -15.6545
   -15.6486 -15.6486 -15.5878 -15.5878 -15.5731 -15.5731  -7.0988  -7.0584
    -6.3580  -6.2455  -6.1691  -6.1478  -6.0452  -5.9900  -4.9632  -4.9421
    -4.8297  -4.8112  -4.8084  -4.7656  -4.7499  -4.7431  -4.6860  -4.6714
    -4.6245  -4.6208  -0.8964  -0.8899   1.5303   1.5619   1.6949   1.7609
     2.2623   2.2902   2.4497   2.4853   2.8114   2.9872   3.0109   3.1186
     3.2322   3.2555   3.3587   3.4400   3.4802   3.6167   3.7368   3.7771
     3.7962   3.8323   4.6662   4.6931   4.8374   4.8668   4.9279   4.9374
     5.0484   5.0593   5.2569   5.2782   5.3258   5.3504   5.6702   5.7318
     5.8429   5.9303   6.0161   6.0358   6.2656   6.2922

     occupation numbers 
     1.0000   1.0000   1.0000   1.0000   1.0000   1.0000   1.0000   1.0000
     1.0000   1.0000   1.0000   1.0000   1.0000   1.0000   1.0000   1.0000
     1.0000   1.0000   1.0000   1.0000   1.0000   1.0000   1.0000   1.0000
     1.0000   1.0000   1.0000   1.0000   1.0000   1.0000   1.0000   1.0000
     1.0000   1.0000   1.0000   1.0000   1.0000   1.0000   1.0000   1.0000
     1.0000   1.0000   1.0000   1.0000   1.0000   1.0000   1.0000   1.0000
     1.0000   1.0000   1.0000   1.0000   1.0000   1.0000   1.0000   1.0000
     1.0000   1.0000   1.0000   1.0000   1.0000   1.0000   1.0000   1.0000
     1.0000   1.0000   1.0000   1.0000   1.0000   1.0000   1.0000   1.0000
     1.0000   1.0000   1.0000   1.0000   1.0000   1.0000

          k =-0.1064-0.0950-0.4444 ( 43440 PWs)   bands (ev):

   -20.6968 -20.6936 -20.6602 -20.6571 -15.6638 -15.6638 -15.6544 -15.6544
   -15.6486 -15.6486 -15.5879 -15.5879 -15.5732 -15.5731  -7.1410  -7.1023
    -6.3085  -6.2652  -6.1741  -6.1412  -5.9994  -5.9250  -4.9835  -4.9589
    -4.8881  -4.8734  -4.7550  -4.7514  -4.7267  -4.7189  -4.6681  -4.6485
    -4.6367  -4.6260  -0.9385  -0.8869   1.6401   1.6952   1.7344   1.8230
     2.1656   2.2026   2.4357   2.6309   2.9078   2.9220   3.0188   3.0634
     3.2021   3.2384   3.4017   3.4414   3.5495   3.6418   3.7212   3.7515
     3.7644   3.7865   4.5995   4.6266   4.8644   4.8669   4.9095   4.9112
     4.9850   5.0336   5.3240   5.3453   5.3501   5.3782   5.5678   5.5880
     5.7927   5.9014   6.0128   6.0686   6.2270   6.2432

     occupation numbers 
     1.0000   1.0000   1.0000   1.0000   1.0000   1.0000   1.0000   1.0000
     1.0000   1.0000   1.0000   1.0000   1.0000   1.0000   1.0000   1.0000
     1.0000   1.0000   1.0000   1.0000   1.0000   1.0000   1.0000   1.0000
     1.0000   1.0000   1.0000   1.0000   1.0000   1.0000   1.0000   1.0000
     1.0000   1.0000   1.0000   1.0000   1.0000   1.0000   1.0000   1.0000
     1.0000   1.0000   1.0000   1.0000   1.0000   1.0000   1.0000   1.0000
     1.0000   1.0000   1.0000   1.0000   1.0000   1.0000   1.0000   1.0000
     1.0000   1.0000   1.0000   1.0000   1.0000   1.0000   1.0000   1.0000
     1.0000   1.0000   1.0000   1.0000   1.0000   1.0000   1.0000   1.0000
     1.0000   1.0000   1.0000   1.0000   1.0000   1.0000

          k =-0.0798 0.0840-0.3333 ( 43448 PWs)   bands (ev):

   -20.7008 -20.6907 -20.6632 -20.6533 -15.6638 -15.6638 -15.6544 -15.6543
   -15.6486 -15.6485 -15.5880 -15.5880 -15.5732 -15.5731  -7.1964  -7.0582
    -6.3967  -6.1989  -6.1805  -6.1198  -5.9974  -5.8858  -5.0160  -4.9779
    -4.8955  -4.8686  -4.7555  -4.7299  -4.7139  -4.7087  -4.6671  -4.6582
    -4.6442  -4.6051  -0.9729  -0.8664   1.6232   1.7640   1.8020   1.9481
     2.0704   2.1049   2.3953   2.7813   2.8155   2.8920   3.0004   3.1736
     3.2235   3.2568   3.4149   3.4158   3.5979   3.6014   3.6733   3.6953
     3.7570   3.8208   4.5747   4.6004   4.8420   4.8471   4.9052   4.9514
     4.9621   5.0557   5.3188   5.3537   5.3879   5.3902   5.4777   5.5666
     5.7869   5.8890   6.0549   6.0578   6.1839   6.2238

     occupation numbers 
     1.0000   1.0000   1.0000   1.0000   1.0000   1.0000   1.0000   1.0000
     1.0000   1.0000   1.0000   1.0000   1.0000   1.0000   1.0000   1.0000
     1.0000   1.0000   1.0000   1.0000   1.0000   1.0000   1.0000   1.0000
     1.0000   1.0000   1.0000   1.0000   1.0000   1.0000   1.0000   1.0000
     1.0000   1.0000   1.0000   1.0000   1.0000   1.0000   1.0000   1.0000
     1.0000   1.0000   1.0000   1.0000   1.0000   1.0000   1.0000   1.0000
     1.0000   1.0000   1.0000   1.0000   1.0000   1.0000   1.0000   1.0000
     1.0000   1.0000   1.0000   1.0000   1.0000   1.0000   1.0000   1.0000
     1.0000   1.0000   1.0000   1.0000   1.0000   1.0000   1.0000   1.0000
     1.0000   1.0000   1.0000   1.0000   1.0000   1.0000

          k =-0.0532 0.2629-0.2222 ( 43442 PWs)   bands (ev):

   -20.7013 -20.6859 -20.6678 -20.6527 -15.6638 -15.6637 -15.6544 -15.6543
   -15.6486 -15.6485 -15.5880 -15.5879 -15.5732 -15.5730  -7.2081  -6.9797
    -6.4706  -6.2038  -6.1417  -6.1222  -6.0457  -5.8989  -5.0323  -4.9609
    -4.8678  -4.8123  -4.7857  -4.7327  -4.7234  -4.7152  -4.6794  -4.6567
    -4.6380  -4.6093  -0.9852  -0.8373   1.6009   1.6508   1.7171   1.9689
     2.0859   2.2689   2.3246   2.6578   2.8117   2.9581   3.0473   3.1640
     3.2498   3.2841   3.4030   3.4388   3.5160   3.5616   3.6368   3.7022
     3.8028   3.8596   4.6002   4.6294   4.8482   4.8677   4.8902   4.9161
     4.9704   5.1197   5.2863   5.3241   5.3333   5.4300   5.5063   5.6554
     5.8175   5.8840   6.0324   6.0677   6.1801   6.2616

     occupation numbers 
     1.0000   1.0000   1.0000   1.0000   1.0000   1.0000   1.0000   1.0000
     1.0000   1.0000   1.0000   1.0000   1.0000   1.0000   1.0000   1.0000
     1.0000   1.0000   1.0000   1.0000   1.0000   1.0000   1.0000   1.0000
     1.0000   1.0000   1.0000   1.0000   1.0000   1.0000   1.0000   1.0000
     1.0000   1.0000   1.0000   1.0000   1.0000   1.0000   1.0000   1.0000
     1.0000   1.0000   1.0000   1.0000   1.0000   1.0000   1.0000   1.0000
     1.0000   1.0000   1.0000   1.0000   1.0000   1.0000   1.0000   1.0000
     1.0000   1.0000   1.0000   1.0000   1.0000   1.0000   1.0000   1.0000
     1.0000   1.0000   1.0000   1.0000   1.0000   1.0000   1.0000   1.0000
     1.0000   1.0000   1.0000   1.0000   1.0000   1.0000

          k =-0.0266 0.4418-0.1111 ( 43428 PWs)   bands (ev):

   -20.6981 -20.6810 -20.6723 -20.6555 -15.6638 -15.6637 -15.6545 -15.6544
   -15.6487 -15.6486 -15.5878 -15.5878 -15.5732 -15.5730  -7.1734  -6.9045
    -6.4933  -6.1913  -6.1763  -6.1443  -6.1049  -5.9585  -5.0197  -4.9087
    -4.8396  -4.8159  -4.7475  -4.7379  -4.7331  -4.7264  -4.7118  -4.6555
    -4.6496  -4.6244  -0.9697  -0.8127   1.4077   1.5451   1.7265   1.9977
     2.0681   2.2277   2.4534   2.5671   2.7067   3.0596   3.1015   3.1247
     3.2792   3.3604   3.3709   3.3804   3.4503   3.5423   3.6492   3.7299
     3.8341   3.8631   4.6660   4.7000   4.8065   4.8899   4.9250   4.9632
     4.9989   5.1392   5.1996   5.2634   5.2922   5.4269   5.6485   5.8023
     5.8605   5.9147   6.0238   6.0878   6.1608   6.2212

     occupation numbers 
     1.0000   1.0000   1.0000   1.0000   1.0000   1.0000   1.0000   1.0000
     1.0000   1.0000   1.0000   1.0000   1.0000   1.0000   1.0000   1.0000
     1.0000   1.0000   1.0000   1.0000   1.0000   1.0000   1.0000   1.0000
     1.0000   1.0000   1.0000   1.0000   1.0000   1.0000   1.0000   1.0000
     1.0000   1.0000   1.0000   1.0000   1.0000   1.0000   1.0000   1.0000
     1.0000   1.0000   1.0000   1.0000   1.0000   1.0000   1.0000   1.0000
     1.0000   1.0000   1.0000   1.0000   1.0000   1.0000   1.0000   1.0000
     1.0000   1.0000   1.0000   1.0000   1.0000   1.0000   1.0000   1.0000
     1.0000   1.0000   1.0000   1.0000   1.0000   1.0000   1.0000   1.0000
     1.0000   1.0000   1.0000   1.0000   1.0000   1.0000

          k = 0.0000 0.8276 0.0000 ( 43427 PWs)   bands (ev):

   -20.6852 -20.6807 -20.6719 -20.6676 -15.6638 -15.6638 -15.6547 -15.6547
   -15.6488 -15.6488 -15.5876 -15.5876 -15.5731 -15.5731  -7.0119  -6.9286
    -6.4003  -6.3427  -6.1585  -6.1524  -6.1337  -6.0960  -4.9333  -4.9033
    -4.8533  -4.8168  -4.7882  -4.7844  -4.7430  -4.7261  -4.7219  -4.6965
    -4.5982  -4.5977  -0.8772  -0.8312   1.2480   1.3037   1.9620   1.9767
     1.9987   2.1407   2.2584   2.3701   2.9630   3.0850   3.1046   3.1637
     3.2329   3.2409   3.3174   3.3316   3.5450   3.5535   3.7576   3.7791
     3.8260   3.8329   4.8038   4.8055   4.8420   4.8691   4.9715   5.0034
     5.0191   5.0400   5.2193   5.2628   5.2650   5.3199   5.8845   5.9271
     5.9523   5.9931   6.0851   6.1388   6.1675   6.2225

     occupation numbers 
     1.0000   1.0000   1.0000   1.0000   1.0000   1.0000   1.0000   1.0000
     1.0000   1.0000   1.0000   1.0000   1.0000   1.0000   1.0000   1.0000
     1.0000   1.0000   1.0000   1.0000   1.0000   1.0000   1.0000   1.0000
     1.0000   1.0000   1.0000   1.0000   1.0000   1.0000   1.0000   1.0000
     1.0000   1.0000   1.0000   1.0000   1.0000   1.0000   1.0000   1.0000
     1.0000   1.0000   1.0000   1.0000   1.0000   1.0000   1.0000   1.0000
     1.0000   1.0000   1.0000   1.0000   1.0000   1.0000   1.0000   1.0000
     1.0000   1.0000   1.0000   1.0000   1.0000   1.0000   1.0000   1.0000
     1.0000   1.0000   1.0000   1.0000   1.0000   1.0000   1.0000   1.0000
     1.0000   1.0000   1.0000   1.0000   1.0000   1.0000

          k = 0.0266 1.0065 0.1111 ( 43424 PWs)   bands (ev):

   -20.6851 -20.6809 -20.6717 -20.6677 -15.6638 -15.6638 -15.6547 -15.6547
   -15.6488 -15.6488 -15.5876 -15.5876 -15.5731 -15.5731  -6.9988  -6.9470
    -6.4201  -6.3216  -6.1639  -6.1486  -6.1274  -6.0894  -4.9296  -4.9081
    -4.8542  -4.8190  -4.7901  -4.7866  -4.7488  -4.7300  -4.7207  -4.6835
    -4.6058  -4.5958  -0.8620  -0.8462   1.2806   1.2931   1.8838   1.8965
     2.1069   2.1653   2.2914   2.3569   2.9370   3.0492   3.1445   3.1668
     3.2224   3.2720   3.2998   3.3485   3.5112   3.5872   3.7594   3.7734
     3.8085   3.8458   4.7925   4.8117   4.8323   4.8811   4.9833   4.9990
     5.0144   5.0477   5.2090   5.2520   5.2834   5.3089   5.8860   5.9000
     5.9551   6.0249   6.1072   6.1100   6.1677   6.2121

     occupation numbers 
     1.0000   1.0000   1.0000   1.0000   1.0000   1.0000   1.0000   1.0000
     1.0000   1.0000   1.0000   1.0000   1.0000   1.0000   1.0000   1.0000
     1.0000   1.0000   1.0000   1.0000   1.0000   1.0000   1.0000   1.0000
     1.0000   1.0000   1.0000   1.0000   1.0000   1.0000   1.0000   1.0000
     1.0000   1.0000   1.0000   1.0000   1.0000   1.0000   1.0000   1.0000
     1.0000   1.0000   1.0000   1.0000   1.0000   1.0000   1.0000   1.0000
     1.0000   1.0000   1.0000   1.0000   1.0000   1.0000   1.0000   1.0000
     1.0000   1.0000   1.0000   1.0000   1.0000   1.0000   1.0000   1.0000
     1.0000   1.0000   1.0000   1.0000   1.0000   1.0000   1.0000   1.0000
     1.0000   1.0000   1.0000   1.0000   1.0000   1.0000

          k = 0.0532 1.1854 0.2222 ( 43420 PWs)   bands (ev):

   -20.6911 -20.6823 -20.6705 -20.6620 -15.6638 -15.6638 -15.6546 -15.6546
   -15.6487 -15.6487 -15.5877 -15.5877 -15.5732 -15.5731  -7.0787  -6.9435
    -6.4486  -6.2420  -6.1743  -6.1485  -6.0911  -6.0485  -4.9647  -4.9053
    -4.8491  -4.7955  -4.7837  -4.7697  -4.7565  -4.7457  -4.6984  -4.6829
    -4.6322  -4.6069  -0.8980  -0.8410   1.3662   1.3912   1.7705   1.8376
     2.1591   2.2703   2.3250   2.5180   2.7492   3.0305   3.1153   3.1685
     3.2615   3.3061   3.3549   3.3630   3.4531   3.5888   3.7351   3.7601
     3.8144   3.8582   4.7544   4.7648   4.7889   4.8802   4.9866   4.9950
     5.0538   5.0864   5.1557   5.2492   5.2919   5.3373   5.7974   5.8593
     5.9196   5.9812   6.0490   6.0595   6.1870   6.2517

     occupation numbers 
     1.0000   1.0000   1.0000   1.0000   1.0000   1.0000   1.0000   1.0000
     1.0000   1.0000   1.0000   1.0000   1.0000   1.0000   1.0000   1.0000
     1.0000   1.0000   1.0000   1.0000   1.0000   1.0000   1.0000   1.0000
     1.0000   1.0000   1.0000   1.0000   1.0000   1.0000   1.0000   1.0000
     1.0000   1.0000   1.0000   1.0000   1.0000   1.0000   1.0000   1.0000
     1.0000   1.0000   1.0000   1.0000   1.0000   1.0000   1.0000   1.0000
     1.0000   1.0000   1.0000   1.0000   1.0000   1.0000   1.0000   1.0000
     1.0000   1.0000   1.0000   1.0000   1.0000   1.0000   1.0000   1.0000
     1.0000   1.0000   1.0000   1.0000   1.0000   1.0000   1.0000   1.0000
     1.0000   1.0000   1.0000   1.0000   1.0000   1.0000

          k = 0.0798 1.3643 0.3333 ( 43441 PWs)   bands (ev):

   -20.6955 -20.6877 -20.6657 -20.6580 -15.6638 -15.6638 -15.6545 -15.6545
   -15.6486 -15.6486 -15.5878 -15.5878 -15.5732 -15.5731  -7.1360  -7.0088
    -6.4109  -6.2090  -6.1700  -6.1435  -6.0284  -6.0045  -4.9834  -4.9286
    -4.8456  -4.8156  -4.7817  -4.7615  -4.7486  -4.7408  -4.6962  -4.6638
    -4.6293  -4.6222  -0.9225  -0.8640   1.5101   1.5463   1.7200   1.8016
     2.1938   2.3511   2.3771   2.5619   2.7326   3.0212   3.0447   3.0991
     3.2469   3.2668   3.3643   3.4407   3.4723   3.5946   3.7233   3.7529
     3.8073   3.8622   4.6736   4.6847   4.8214   4.8813   4.9287   4.9422
     5.0267   5.0843   5.2448   5.2745   5.3267   5.3591   5.6586   5.7529
     5.8622   5.9295   6.0159   6.0249   6.2531   6.2702

     occupation numbers 
     1.0000   1.0000   1.0000   1.0000   1.0000   1.0000   1.0000   1.0000
     1.0000   1.0000   1.0000   1.0000   1.0000   1.0000   1.0000   1.0000
     1.0000   1.0000   1.0000   1.0000   1.0000   1.0000   1.0000   1.0000
     1.0000   1.0000   1.0000   1.0000   1.0000   1.0000   1.0000   1.0000
     1.0000   1.0000   1.0000   1.0000   1.0000   1.0000   1.0000   1.0000
     1.0000   1.0000   1.0000   1.0000   1.0000   1.0000   1.0000   1.0000
     1.0000   1.0000   1.0000   1.0000   1.0000   1.0000   1.0000   1.0000
     1.0000   1.0000   1.0000   1.0000   1.0000   1.0000   1.0000   1.0000
     1.0000   1.0000   1.0000   1.0000   1.0000   1.0000   1.0000   1.0000
     1.0000   1.0000   1.0000   1.0000   1.0000   1.0000

          k = 0.1064 1.5433 0.4444 ( 43436 PWs)   bands (ev):

   -20.6968 -20.6936 -20.6602 -20.6571 -15.6638 -15.6638 -15.6544 -15.6544
   -15.6486 -15.6486 -15.5879 -15.5879 -15.5732 -15.5731  -7.1507  -7.0964
    -6.3319  -6.2438  -6.1561  -6.1497  -5.9612  -5.9583  -4.9794  -4.9636
    -4.8899  -4.8732  -4.7662  -4.7460  -4.7244  -4.7211  -4.6602  -4.6514
    -4.6367  -4.6344  -0.9241  -0.9030   1.6634   1.7002   1.7388   1.7916
     2.1630   2.2112   2.5153   2.5565   2.8866   2.9581   2.9869   3.0596
     3.2090   3.2255   3.4098   3.4452   3.5704   3.6155   3.7298   3.7368
     3.7516   3.8260   4.6078   4.6161   4.8610   4.8701   4.9093   4.9118
     4.9966   5.0232   5.3272   5.3442   5.3564   5.3659   5.5540   5.5986
     5.8204   5.8818   6.0224   6.0533   6.2186   6.2448

     occupation numbers 
     1.0000   1.0000   1.0000   1.0000   1.0000   1.0000   1.0000   1.0000
     1.0000   1.0000   1.0000   1.0000   1.0000   1.0000   1.0000   1.0000
     1.0000   1.0000   1.0000   1.0000   1.0000   1.0000   1.0000   1.0000
     1.0000   1.0000   1.0000   1.0000   1.0000   1.0000   1.0000   1.0000
     1.0000   1.0000   1.0000   1.0000   1.0000   1.0000   1.0000   1.0000
     1.0000   1.0000   1.0000   1.0000   1.0000   1.0000   1.0000   1.0000
     1.0000   1.0000   1.0000   1.0000   1.0000   1.0000   1.0000   1.0000
     1.0000   1.0000   1.0000   1.0000   1.0000   1.0000   1.0000   1.0000
     1.0000   1.0000   1.0000   1.0000   1.0000   1.0000   1.0000   1.0000
     1.0000   1.0000   1.0000   1.0000   1.0000   1.0000

          k =-0.1064 0.1119-0.4444 ( 43425 PWs)   bands (ev):

   -20.6980 -20.6946 -20.6593 -20.6560 -15.6638 -15.6638 -15.6543 -15.6543
   -15.6485 -15.6485 -15.5880 -15.5880 -15.5732 -15.5731  -7.1627  -7.1163
    -6.3190  -6.2471  -6.1656  -6.1391  -5.9553  -5.9164  -4.9887  -4.9748
    -4.9078  -4.8995  -4.7409  -4.7330  -4.7131  -4.7111  -4.6675  -4.6654
    -4.6349  -4.6213  -0.9398  -0.9024   1.6797   1.7433   1.8163   1.8755
     2.0885   2.1005   2.5172   2.6525   2.8940   2.8969   2.9878   3.0728
     3.2381   3.2479   3.4208   3.4248   3.6149   3.6235   3.6973   3.7222
     3.7447   3.7928   4.5812   4.5904   4.8441   4.8458   4.9477   4.9553
     4.9582   4.9999   5.3437   5.3615   5.3720   5.3741   5.5025   5.5354
     5.8231   5.8575   6.0594   6.0609   6.1806   6.1953

     occupation numbers 
     1.0000   1.0000   1.0000   1.0000   1.0000   1.0000   1.0000   1.0000
     1.0000   1.0000   1.0000   1.0000   1.0000   1.0000   1.0000   1.0000
     1.0000   1.0000   1.0000   1.0000   1.0000   1.0000   1.0000   1.0000
     1.0000   1.0000   1.0000   1.0000   1.0000   1.0000   1.0000   1.0000
     1.0000   1.0000   1.0000   1.0000   1.0000   1.0000   1.0000   1.0000
     1.0000   1.0000   1.0000   1.0000   1.0000   1.0000   1.0000   1.0000
     1.0000   1.0000   1.0000   1.0000   1.0000   1.0000   1.0000   1.0000
     1.0000   1.0000   1.0000   1.0000   1.0000   1.0000   1.0000   1.0000
     1.0000   1.0000   1.0000   1.0000   1.0000   1.0000   1.0000   1.0000
     1.0000   1.0000   1.0000   1.0000   1.0000   1.0000

          k =-0.0798 0.2909-0.3333 ( 43448 PWs)   bands (ev):

   -20.6994 -20.6899 -20.6638 -20.6545 -15.6638 -15.6638 -15.6544 -15.6543
   -15.6486 -15.6486 -15.5879 -15.5879 -15.5732 -15.5731  -7.1859  -7.0414
    -6.4015  -6.1908  -6.1749  -6.1320  -6.0037  -5.9236  -5.0065  -4.9575
    -4.8867  -4.8452  -4.7761  -4.7378  -4.7235  -4.7191  -4.6712  -4.6516
    -4.6366  -4.6256  -0.9584  -0.8675   1.6497   1.6785   1.7047   1.8767
     2.1223   2.2481   2.4072   2.6675   2.8058   2.9615   2.9906   3.1400
     3.2182   3.2322   3.4080   3.4488   3.5550   3.5930   3.6914   3.7100
     3.7782   3.8528   4.6061   4.6191   4.8544   4.8698   4.9048   4.9128
     4.9749   5.0696   5.3043   5.3402   5.3481   5.3946   5.5257   5.6288
     5.8486   5.8553   6.0230   6.0586   6.1948   6.2582

     occupation numbers 
     1.0000   1.0000   1.0000   1.0000   1.0000   1.0000   1.0000   1.0000
     1.0000   1.0000   1.0000   1.0000   1.0000   1.0000   1.0000   1.0000
     1.0000   1.0000   1.0000   1.0000   1.0000   1.0000   1.0000   1.0000
     1.0000   1.0000   1.0000   1.0000   1.0000   1.0000   1.0000   1.0000
     1.0000   1.0000   1.0000   1.0000   1.0000   1.0000   1.0000   1.0000
     1.0000   1.0000   1.0000   1.0000   1.0000   1.0000   1.0000   1.0000
     1.0000   1.0000   1.0000   1.0000   1.0000   1.0000   1.0000   1.0000
     1.0000   1.0000   1.0000   1.0000   1.0000   1.0000   1.0000   1.0000
     1.0000   1.0000   1.0000   1.0000   1.0000   1.0000   1.0000   1.0000
     1.0000   1.0000   1.0000   1.0000   1.0000   1.0000

          k =-0.0532 0.4698-0.2222 ( 43447 PWs)   bands (ev):

   -20.6971 -20.6843 -20.6690 -20.6564 -15.6638 -15.6638 -15.6545 -15.6544
   -15.6487 -15.6486 -15.5878 -15.5878 -15.5732 -15.5730  -7.1607  -6.9542
    -6.4582  -6.1864  -6.1741  -6.1458  -6.0687  -5.9765  -5.0040  -4.9157
    -4.8500  -4.8159  -4.7559  -4.7516  -4.7437  -4.7363  -4.7071  -4.6563
    -4.6383  -4.6244  -0.9501  -0.8349   1.4576   1.5430   1.7194   1.9066
     2.1232   2.2805   2.4322   2.6046   2.6775   3.0432   3.0755   3.1039
     3.2542   3.3193   3.3656   3.4254   3.4488   3.5729   3.7046   3.7217
     3.8216   3.8723   4.6709   4.6901   4.8109   4.8891   4.9251   4.9548
     5.0098   5.1106   5.2247   5.2681   5.3090   5.3940   5.6516   5.7776
     5.8811   5.9024   6.0181   6.0510   6.2167   6.2432

     occupation numbers 
     1.0000   1.0000   1.0000   1.0000   1.0000   1.0000   1.0000   1.0000
     1.0000   1.0000   1.0000   1.0000   1.0000   1.0000   1.0000   1.0000
     1.0000   1.0000   1.0000   1.0000   1.0000   1.0000   1.0000   1.0000
     1.0000   1.0000   1.0000   1.0000   1.0000   1.0000   1.0000   1.0000
     1.0000   1.0000   1.0000   1.0000   1.0000   1.0000   1.0000   1.0000
     1.0000   1.0000   1.0000   1.0000   1.0000   1.0000   1.0000   1.0000
     1.0000   1.0000   1.0000   1.0000   1.0000   1.0000   1.0000   1.0000
     1.0000   1.0000   1.0000   1.0000   1.0000   1.0000   1.0000   1.0000
     1.0000   1.0000   1.0000   1.0000   1.0000   1.0000   1.0000   1.0000
     1.0000   1.0000   1.0000   1.0000   1.0000   1.0000

          k =-0.0266 0.6487-0.1111 ( 43437 PWs)   bands (ev):

   -20.6918 -20.6802 -20.6726 -20.6614 -15.6638 -15.6638 -15.6546 -15.6546
   -15.6487 -15.6487 -15.5877 -15.5876 -15.5732 -15.5730  -7.0954  -6.9061
    -6.4573  -6.2488  -6.1706  -6.1526  -6.1208  -6.0398  -4.9748  -4.8933
    -4.8475  -4.7950  -4.7785  -4.7637  -4.7577  -4.7435  -4.6992  -4.6704
    -4.6335  -4.6130  -0.9183  -0.8202   1.3091   1.3941   1.8216   1.9487
     2.0623   2.2285   2.3165   2.5191   2.7725   3.0563   3.1182   3.1687
     3.2557   3.3057   3.3306   3.3730   3.4693   3.5654   3.7227   3.7572
     3.8293   3.8532   4.7516   4.7724   4.7892   4.8842   4.9711   5.0083
     5.0441   5.0700   5.1730   5.2545   5.2742   5.3665   5.8065   5.8691
     5.9274   5.9507   6.0500   6.1133   6.1363   6.2358

     occupation numbers 
     1.0000   1.0000   1.0000   1.0000   1.0000   1.0000   1.0000   1.0000
     1.0000   1.0000   1.0000   1.0000   1.0000   1.0000   1.0000   1.0000
     1.0000   1.0000   1.0000   1.0000   1.0000   1.0000   1.0000   1.0000
     1.0000   1.0000   1.0000   1.0000   1.0000   1.0000   1.0000   1.0000
     1.0000   1.0000   1.0000   1.0000   1.0000   1.0000   1.0000   1.0000
     1.0000   1.0000   1.0000   1.0000   1.0000   1.0000   1.0000   1.0000
     1.0000   1.0000   1.0000   1.0000   1.0000   1.0000   1.0000   1.0000
     1.0000   1.0000   1.0000   1.0000   1.0000   1.0000   1.0000   1.0000
     1.0000   1.0000   1.0000   1.0000   1.0000   1.0000   1.0000   1.0000
     1.0000   1.0000   1.0000   1.0000   1.0000   1.0000

          k = 0.2057 0.0504 0.0000 ( 43436 PWs)   bands (ev):

   -20.7031 -20.6856 -20.6683 -20.6510 -15.6638 -15.6637 -15.6544 -15.6543
   -15.6486 -15.6485 -15.5880 -15.5880 -15.5732 -15.5730  -7.2215  -6.9799
    -6.4911  -6.2313  -6.1215  -6.1049  -6.0422  -5.8626  -5.0476  -4.9864
    -4.8702  -4.8221  -4.7804  -4.7305  -4.7136  -4.7091  -4.6700  -4.6486
    -4.6461  -4.5845  -1.0016  -0.8326   1.5789   1.7063   1.8549   2.0388
     2.0612   2.1028   2.2852   2.6777   2.8729   2.9412   3.0691   3.2022
     3.2733   3.2878   3.3788   3.4166   3.5437   3.5732   3.5896   3.6974
     3.7960   3.8352   4.5711   4.6102   4.8398   4.8478   4.8684   4.9495
     4.9659   5.1235   5.2962   5.3486   5.3668   5.4024   5.4881   5.5955
     5.7453   5.9050   6.0426   6.1006   6.1998   6.2602

     occupation numbers 
     1.0000   1.0000   1.0000   1.0000   1.0000   1.0000   1.0000   1.0000
     1.0000   1.0000   1.0000   1.0000   1.0000   1.0000   1.0000   1.0000
     1.0000   1.0000   1.0000   1.0000   1.0000   1.0000   1.0000   1.0000
     1.0000   1.0000   1.0000   1.0000   1.0000   1.0000   1.0000   1.0000
     1.0000   1.0000   1.0000   1.0000   1.0000   1.0000   1.0000   1.0000
     1.0000   1.0000   1.0000   1.0000   1.0000   1.0000   1.0000   1.0000
     1.0000   1.0000   1.0000   1.0000   1.0000   1.0000   1.0000   1.0000
     1.0000   1.0000   1.0000   1.0000   1.0000   1.0000   1.0000   1.0000
     1.0000   1.0000   1.0000   1.0000   1.0000   1.0000   1.0000   1.0000
     1.0000   1.0000   1.0000   1.0000   1.0000   1.0000

          k = 0.2323 0.2293 0.1111 ( 43436 PWs)   bands (ev):

   -20.6998 -20.6891 -20.6646 -20.6541 -15.6638 -15.6638 -15.6544 -15.6543
   -15.6486 -15.6485 -15.5880 -15.5879 -15.5732 -15.5731  -7.1799  -7.0297
    -6.3964  -6.2074  -6.1915  -6.1325  -6.0466  -5.8955  -5.0139  -4.9563
    -4.8780  -4.8380  -4.7634  -4.7365  -4.7275  -4.7161  -4.6789  -4.6529
    -4.6360  -4.6064  -0.9745  -0.8465   1.6003   1.6429   1.7390   1.9323
     2.1095   2.2427   2.3150   2.7318   2.8020   2.9263   3.0907   3.1407
     3.2252   3.2637   3.3789   3.4332   3.5195   3.6447   3.6739   3.6932
     3.7925   3.8019   4.5941   4.6377   4.8573   4.8655   4.9011   4.9141
     4.9616   5.0869   5.2993   5.3328   5.3452   5.4188   5.5349   5.6304
     5.7608   5.9321   6.0033   6.0843   6.2137   6.2609

     occupation numbers 
     1.0000   1.0000   1.0000   1.0000   1.0000   1.0000   1.0000   1.0000
     1.0000   1.0000   1.0000   1.0000   1.0000   1.0000   1.0000   1.0000
     1.0000   1.0000   1.0000   1.0000   1.0000   1.0000   1.0000   1.0000
     1.0000   1.0000   1.0000   1.0000   1.0000   1.0000   1.0000   1.0000
     1.0000   1.0000   1.0000   1.0000   1.0000   1.0000   1.0000   1.0000
     1.0000   1.0000   1.0000   1.0000   1.0000   1.0000   1.0000   1.0000
     1.0000   1.0000   1.0000   1.0000   1.0000   1.0000   1.0000   1.0000
     1.0000   1.0000   1.0000   1.0000   1.0000   1.0000   1.0000   1.0000
     1.0000   1.0000   1.0000   1.0000   1.0000   1.0000   1.0000   1.0000
     1.0000   1.0000   1.0000   1.0000   1.0000   1.0000

          k = 0.2589 0.4082 0.2222 ( 43420 PWs)   bands (ev):

   -20.6939 -20.6901 -20.6633 -20.6596 -15.6638 -15.6638 -15.6545 -15.6545
   -15.6486 -15.6486 -15.5878 -15.5878 -15.5731 -15.5731  -7.1065  -7.0393
    -6.3022  -6.2918  -6.1773  -6.1627  -6.0937  -5.9603  -4.9678  -4.9336
    -4.8340  -4.8014  -4.7949  -4.7641  -4.7502  -4.7422  -4.6942  -4.6583
    -4.6248  -4.6238  -0.9329  -0.8507   1.4932   1.5802   1.6321   1.8413
     2.1806   2.3470   2.3799   2.5661   2.8715   2.9038   3.0184   3.1735
     3.2321   3.2724   3.3460   3.4351   3.4556   3.6374   3.7419   3.7506
     3.7777   3.8278   4.6591   4.7050   4.8464   4.8601   4.9146   4.9503
     5.0297   5.0769   5.2596   5.2728   5.2981   5.3848   5.6952   5.7075
     5.8208   5.9208   6.0213   6.0715   6.2544   6.2962

     occupation numbers 
     1.0000   1.0000   1.0000   1.0000   1.0000   1.0000   1.0000   1.0000
     1.0000   1.0000   1.0000   1.0000   1.0000   1.0000   1.0000   1.0000
     1.0000   1.0000   1.0000   1.0000   1.0000   1.0000   1.0000   1.0000
     1.0000   1.0000   1.0000   1.0000   1.0000   1.0000   1.0000   1.0000
     1.0000   1.0000   1.0000   1.0000   1.0000   1.0000   1.0000   1.0000
     1.0000   1.0000   1.0000   1.0000   1.0000   1.0000   1.0000   1.0000
     1.0000   1.0000   1.0000   1.0000   1.0000   1.0000   1.0000   1.0000
     1.0000   1.0000   1.0000   1.0000   1.0000   1.0000   1.0000   1.0000
     1.0000   1.0000   1.0000   1.0000   1.0000   1.0000   1.0000   1.0000
     1.0000   1.0000   1.0000   1.0000   1.0000   1.0000

          k = 0.2855 0.5871 0.3333 ( 43399 PWs)   bands (ev):

   -20.6881 -20.6870 -20.6659 -20.6649 -15.6638 -15.6638 -15.6546 -15.6546
   -15.6487 -15.6487 -15.5877 -15.5876 -15.5731 -15.5731  -7.0286  -7.0089
    -6.3823  -6.2603  -6.2169  -6.1424  -6.1248  -6.0165  -4.9420  -4.9153
    -4.8548  -4.7819  -4.7714  -4.7701  -4.7470  -4.7366  -4.7311  -4.7076
    -4.6179  -4.6093  -0.8943  -0.8433   1.3751   1.4721   1.6144   1.7723
     2.2147   2.3366   2.4342   2.4729   2.7383   2.9796   3.1200   3.1886
     3.2570   3.2993   3.3344   3.4004   3.4273   3.6070   3.7249   3.7807
     3.8088   3.8383   4.7399   4.7791   4.8087   4.8592   4.9653   5.0117
     5.1043   5.1089   5.1415   5.2039   5.2686   5.3410   5.7669   5.8704
     5.8959   5.9728   6.0340   6.0664   6.2312   6.2964

     occupation numbers 
     1.0000   1.0000   1.0000   1.0000   1.0000   1.0000   1.0000   1.0000
     1.0000   1.0000   1.0000   1.0000   1.0000   1.0000   1.0000   1.0000
     1.0000   1.0000   1.0000   1.0000   1.0000   1.0000   1.0000   1.0000
     1.0000   1.0000   1.0000   1.0000   1.0000   1.0000   1.0000   1.0000
     1.0000   1.0000   1.0000   1.0000   1.0000   1.0000   1.0000   1.0000
     1.0000   1.0000   1.0000   1.0000   1.0000   1.0000   1.0000   1.0000
     1.0000   1.0000   1.0000   1.0000   1.0000   1.0000   1.0000   1.0000
     1.0000   1.0000   1.0000   1.0000   1.0000   1.0000   1.0000   1.0000
     1.0000   1.0000   1.0000   1.0000   1.0000   1.0000   1.0000   1.0000
     1.0000   1.0000   1.0000   1.0000   1.0000   1.0000

          k = 0.3121 0.7660 0.4444 ( 43423 PWs)   bands (ev):

   -20.6842 -20.6823 -20.6703 -20.6685 -15.6638 -15.6638 -15.6547 -15.6547
   -15.6488 -15.6488 -15.5876 -15.5876 -15.5731 -15.5731  -6.9908  -6.9561
    -6.4193  -6.2865  -6.2397  -6.1709  -6.1113  -6.0394  -4.9230  -4.8994
    -4.8746  -4.8078  -4.7867  -4.7786  -4.7667  -4.7299  -4.7077  -4.6654
    -4.6270  -4.6096  -0.8790  -0.8268   1.2795   1.4041   1.6215   1.7787
     2.1880   2.3154   2.3785   2.4352   2.7982   3.0143   3.1128   3.2109
     3.2558   3.3354   3.3445   3.3619   3.4403   3.5984   3.7132   3.7657
     3.8199   3.8455   4.7686   4.8251   4.8316   4.8863   4.9932   5.0213
     5.0442   5.0715   5.1661   5.2126   5.2487   5.3328   5.8032   5.9287
     5.9756   6.0052   6.0845   6.1382   6.1826   6.1974

     occupation numbers 
     1.0000   1.0000   1.0000   1.0000   1.0000   1.0000   1.0000   1.0000
     1.0000   1.0000   1.0000   1.0000   1.0000   1.0000   1.0000   1.0000
     1.0000   1.0000   1.0000   1.0000   1.0000   1.0000   1.0000   1.0000
     1.0000   1.0000   1.0000   1.0000   1.0000   1.0000   1.0000   1.0000
     1.0000   1.0000   1.0000   1.0000   1.0000   1.0000   1.0000   1.0000
     1.0000   1.0000   1.0000   1.0000   1.0000   1.0000   1.0000   1.0000
     1.0000   1.0000   1.0000   1.0000   1.0000   1.0000   1.0000   1.0000
     1.0000   1.0000   1.0000   1.0000   1.0000   1.0000   1.0000   1.0000
     1.0000   1.0000   1.0000   1.0000   1.0000   1.0000   1.0000   1.0000
     1.0000   1.0000   1.0000   1.0000   1.0000   1.0000

          k = 0.0992-0.6653-0.4444 ( 43412 PWs)   bands (ev):

   -20.6847 -20.6816 -20.6710 -20.6680 -15.6638 -15.6638 -15.6547 -15.6547
   -15.6488 -15.6488 -15.5876 -15.5875 -15.5731 -15.5731  -7.0240  -6.9078
    -6.3804  -6.3241  -6.2469  -6.1797  -6.1096  -6.0627  -4.9211  -4.9004
    -4.8559  -4.8125  -4.7948  -4.7705  -4.7434  -4.7360  -4.7048  -4.6903
    -4.6212  -4.5989  -0.8977  -0.8084   1.2201   1.3823   1.6972   1.8841
     2.1257   2.2911   2.3396   2.4035   2.8996   2.9665   3.1486   3.2075
     3.2504   3.2937   3.3149   3.3598   3.4578   3.5813   3.7386   3.7578
     3.8075   3.8646   4.7799   4.8254   4.8443   4.8695   4.9801   5.0268
     5.0311   5.0533   5.1816   5.2293   5.2505   5.3457   5.8104   5.9521
     5.9831   6.0143   6.0447   6.1271   6.1371   6.2739

     occupation numbers 
     1.0000   1.0000   1.0000   1.0000   1.0000   1.0000   1.0000   1.0000
     1.0000   1.0000   1.0000   1.0000   1.0000   1.0000   1.0000   1.0000
     1.0000   1.0000   1.0000   1.0000   1.0000   1.0000   1.0000   1.0000
     1.0000   1.0000   1.0000   1.0000   1.0000   1.0000   1.0000   1.0000
     1.0000   1.0000   1.0000   1.0000   1.0000   1.0000   1.0000   1.0000
     1.0000   1.0000   1.0000   1.0000   1.0000   1.0000   1.0000   1.0000
     1.0000   1.0000   1.0000   1.0000   1.0000   1.0000   1.0000   1.0000
     1.0000   1.0000   1.0000   1.0000   1.0000   1.0000   1.0000   1.0000
     1.0000   1.0000   1.0000   1.0000   1.0000   1.0000   1.0000   1.0000
     1.0000   1.0000   1.0000   1.0000   1.0000   1.0000

          k = 0.1258-0.4864-0.3333 ( 43459 PWs)   bands (ev):

   -20.6917 -20.6806 -20.6722 -20.6615 -15.6638 -15.6638 -15.6546 -15.6546
   -15.6487 -15.6487 -15.5877 -15.5876 -15.5732 -15.5731  -7.1003  -6.8804
    -6.4030  -6.2878  -6.2186  -6.1632  -6.1460  -6.0264  -4.9735  -4.8851
    -4.8311  -4.7781  -4.7743  -4.7675  -4.7486  -4.7414  -4.6976  -4.6787
    -4.6394  -4.6120  -0.9392  -0.7969   1.2463   1.4305   1.7775   1.9991
     2.0502   2.1799   2.3815   2.5361   2.7938   3.0059   3.1580   3.1970
     3.2542   3.2982   3.3409   3.3619   3.4548   3.5181   3.7143   3.7799
     3.8057   3.8611   4.7416   4.7896   4.8103   4.8635   4.9617   5.0190
     5.0341   5.0915   5.1868   5.2217   5.2542   5.3984   5.8246   5.8443
     5.8949   5.9826   6.0426   6.0862   6.1468   6.2764

     occupation numbers 
     1.0000   1.0000   1.0000   1.0000   1.0000   1.0000   1.0000   1.0000
     1.0000   1.0000   1.0000   1.0000   1.0000   1.0000   1.0000   1.0000
     1.0000   1.0000   1.0000   1.0000   1.0000   1.0000   1.0000   1.0000
     1.0000   1.0000   1.0000   1.0000   1.0000   1.0000   1.0000   1.0000
     1.0000   1.0000   1.0000   1.0000   1.0000   1.0000   1.0000   1.0000
     1.0000   1.0000   1.0000   1.0000   1.0000   1.0000   1.0000   1.0000
     1.0000   1.0000   1.0000   1.0000   1.0000   1.0000   1.0000   1.0000
     1.0000   1.0000   1.0000   1.0000   1.0000   1.0000   1.0000   1.0000
     1.0000   1.0000   1.0000   1.0000   1.0000   1.0000   1.0000   1.0000
     1.0000   1.0000   1.0000   1.0000   1.0000   1.0000

          k = 0.1524-0.3075-0.2222 ( 43441 PWs)   bands (ev):

   -20.6984 -20.6789 -20.6743 -20.6552 -15.6638 -15.6637 -15.6545 -15.6544
   -15.6487 -15.6486 -15.5878 -15.5878 -15.5732 -15.5730  -7.1750  -6.8774
    -6.4992  -6.1984  -6.1920  -6.1550  -6.1251  -5.9475  -5.0260  -4.9072
    -4.8215  -4.8152  -4.7467  -4.7312  -4.7292  -4.7181  -4.7100  -4.6573
    -4.6535  -4.6240  -0.9807  -0.7989   1.3740   1.5536   1.7192   2.0271
     2.0711   2.1885   2.4487   2.5578   2.7302   3.0691   3.0986   3.1692
     3.3162   3.3577   3.3742   3.3785   3.4517   3.4860   3.6249   3.7391
     3.8367   3.8453   4.6618   4.7096   4.8083   4.8877   4.9242   4.9689
     4.9901   5.1644   5.1798   5.2605   5.2770   5.4516   5.6512   5.8114
     5.8225   5.9660   6.0255   6.1003   6.1217   6.2163

     occupation numbers 
     1.0000   1.0000   1.0000   1.0000   1.0000   1.0000   1.0000   1.0000
     1.0000   1.0000   1.0000   1.0000   1.0000   1.0000   1.0000   1.0000
     1.0000   1.0000   1.0000   1.0000   1.0000   1.0000   1.0000   1.0000
     1.0000   1.0000   1.0000   1.0000   1.0000   1.0000   1.0000   1.0000
     1.0000   1.0000   1.0000   1.0000   1.0000   1.0000   1.0000   1.0000
     1.0000   1.0000   1.0000   1.0000   1.0000   1.0000   1.0000   1.0000
     1.0000   1.0000   1.0000   1.0000   1.0000   1.0000   1.0000   1.0000
     1.0000   1.0000   1.0000   1.0000   1.0000   1.0000   1.0000   1.0000
     1.0000   1.0000   1.0000   1.0000   1.0000   1.0000   1.0000   1.0000
     1.0000   1.0000   1.0000   1.0000   1.0000   1.0000

          k = 0.1790-0.1285-0.1111 ( 43426 PWs)   bands (ev):

   -20.7026 -20.6810 -20.6727 -20.6514 -15.6638 -15.6637 -15.6544 -15.6543
   -15.6486 -15.6485 -15.5880 -15.5879 -15.5732 -15.5730  -7.2197  -6.9139
    -6.5383  -6.2282  -6.1192  -6.1089  -6.0835  -5.8822  -5.0534  -4.9655
    -4.8383  -4.8024  -4.7729  -4.7366  -4.7253  -4.7133  -4.6819  -4.6551
    -4.6439  -4.5924  -1.0042  -0.8137   1.5617   1.6216   1.7307   2.0471
     2.0764   2.2338   2.3084   2.5536   2.8832   2.9636   3.1242   3.1586
     3.2997   3.3673   3.3891   3.4122   3.4785   3.5181   3.5663   3.7012
     3.8247   3.8507   4.5966   4.6392   4.8443   4.8657   4.8738   4.9204
     4.9717   5.1783   5.2727   5.2872   5.3202   5.4686   5.4944   5.6755
     5.7727   5.9209   6.0574   6.0936   6.1721   6.2472

     occupation numbers 
     1.0000   1.0000   1.0000   1.0000   1.0000   1.0000   1.0000   1.0000
     1.0000   1.0000   1.0000   1.0000   1.0000   1.0000   1.0000   1.0000
     1.0000   1.0000   1.0000   1.0000   1.0000   1.0000   1.0000   1.0000
     1.0000   1.0000   1.0000   1.0000   1.0000   1.0000   1.0000   1.0000
     1.0000   1.0000   1.0000   1.0000   1.0000   1.0000   1.0000   1.0000
     1.0000   1.0000   1.0000   1.0000   1.0000   1.0000   1.0000   1.0000
     1.0000   1.0000   1.0000   1.0000   1.0000   1.0000   1.0000   1.0000
     1.0000   1.0000   1.0000   1.0000   1.0000   1.0000   1.0000   1.0000
     1.0000   1.0000   1.0000   1.0000   1.0000   1.0000   1.0000   1.0000
     1.0000   1.0000   1.0000   1.0000   1.0000   1.0000

          k = 0.2057 0.2573 0.0000 ( 43430 PWs)   bands (ev):

   -20.7016 -20.6851 -20.6686 -20.6524 -15.6638 -15.6637 -15.6544 -15.6543
   -15.6486 -15.6485 -15.5880 -15.5879 -15.5732 -15.5730  -7.2111  -6.9674
    -6.4837  -6.2084  -6.1346  -6.1209  -6.0533  -5.8952  -5.0367  -4.9618
    -4.8631  -4.8056  -4.7878  -4.7324  -4.7234  -4.7147  -4.6802  -4.6572
    -4.6387  -4.6061  -0.9894  -0.8323   1.5923   1.6456   1.7197   1.9868
     2.0799   2.2684   2.3148   2.6399   2.8254   2.9590   3.0602   3.1639
     3.2562   3.3005   3.4022   3.4331   3.5092   3.5535   3.6250   3.7017
     3.8073   3.8591   4.5994   4.6313   4.8472   4.8672   4.8870   4.9169
     4.9706   5.1299   5.2835   5.3193   5.3302   5.4370   5.5035   5.6598
     5.8097   5.8912   6.0368   6.0688   6.1786   6.2606

     occupation numbers 
     1.0000   1.0000   1.0000   1.0000   1.0000   1.0000   1.0000   1.0000
     1.0000   1.0000   1.0000   1.0000   1.0000   1.0000   1.0000   1.0000
     1.0000   1.0000   1.0000   1.0000   1.0000   1.0000   1.0000   1.0000
     1.0000   1.0000   1.0000   1.0000   1.0000   1.0000   1.0000   1.0000
     1.0000   1.0000   1.0000   1.0000   1.0000   1.0000   1.0000   1.0000
     1.0000   1.0000   1.0000   1.0000   1.0000   1.0000   1.0000   1.0000
     1.0000   1.0000   1.0000   1.0000   1.0000   1.0000   1.0000   1.0000
     1.0000   1.0000   1.0000   1.0000   1.0000   1.0000   1.0000   1.0000
     1.0000   1.0000   1.0000   1.0000   1.0000   1.0000   1.0000   1.0000
     1.0000   1.0000   1.0000   1.0000   1.0000   1.0000

          k = 0.2323 0.4362 0.1111 ( 43437 PWs)   bands (ev):

   -20.6959 -20.6870 -20.6663 -20.6576 -15.6638 -15.6638 -15.6545 -15.6544
   -15.6486 -15.6486 -15.5878 -15.5878 -15.5732 -15.5731  -7.1385  -6.9880
    -6.3876  -6.2290  -6.1777  -6.1682  -6.0863  -5.9653  -4.9876  -4.9213
    -4.8441  -4.7909  -4.7750  -4.7660  -4.7481  -4.7400  -4.6984  -4.6519
    -4.6307  -4.6261  -0.9464  -0.8365   1.4612   1.5650   1.6665   1.8815
     2.1460   2.2938   2.4124   2.6135   2.7385   3.0007   3.0621   3.1277
     3.2485   3.2920   3.3806   3.4142   3.4809   3.5732   3.7240   3.7299
     3.8096   3.8329   4.6650   4.6993   4.8263   4.8788   4.9163   4.9546
     5.0136   5.0965   5.2493   5.2654   5.2987   5.3962   5.6760   5.7417
     5.8552   5.9144   6.0108   6.0642   6.2379   6.2701

     occupation numbers 
     1.0000   1.0000   1.0000   1.0000   1.0000   1.0000   1.0000   1.0000
     1.0000   1.0000   1.0000   1.0000   1.0000   1.0000   1.0000   1.0000
     1.0000   1.0000   1.0000   1.0000   1.0000   1.0000   1.0000   1.0000
     1.0000   1.0000   1.0000   1.0000   1.0000   1.0000   1.0000   1.0000
     1.0000   1.0000   1.0000   1.0000   1.0000   1.0000   1.0000   1.0000
     1.0000   1.0000   1.0000   1.0000   1.0000   1.0000   1.0000   1.0000
     1.0000   1.0000   1.0000   1.0000   1.0000   1.0000   1.0000   1.0000
     1.0000   1.0000   1.0000   1.0000   1.0000   1.0000   1.0000   1.0000
     1.0000   1.0000   1.0000   1.0000   1.0000   1.0000   1.0000   1.0000
     1.0000   1.0000   1.0000   1.0000   1.0000   1.0000

          k = 0.2589 0.6151 0.2222 ( 43392 PWs)   bands (ev):

   -20.6888 -20.6862 -20.6667 -20.6642 -15.6638 -15.6638 -15.6546 -15.6546
   -15.6487 -15.6487 -15.5877 -15.5876 -15.5731 -15.5731  -7.0506  -6.9792
    -6.3356  -6.3169  -6.2131  -6.1456  -6.1218  -6.0323  -4.9353  -4.9211
    -4.8309  -4.7960  -4.7732  -4.7711  -4.7507  -4.7261  -4.7217  -4.7088
    -4.6241  -4.6083  -0.9005  -0.8368   1.3643   1.4536   1.6351   1.7779
     2.1942   2.3533   2.3938   2.4898   2.8388   2.8724   3.1553   3.1952
     3.2600   3.3101   3.3389   3.3783   3.4641   3.5591   3.7515   3.7649
     3.7927   3.8420   4.7462   4.7753   4.8305   4.8372   4.9723   5.0021
     5.0815   5.1316   5.1630   5.1811   5.2686   5.3440   5.7915   5.8491
     5.9158   5.9749   6.0246   6.0591   6.2144   6.3018

     occupation numbers 
     1.0000   1.0000   1.0000   1.0000   1.0000   1.0000   1.0000   1.0000
     1.0000   1.0000   1.0000   1.0000   1.0000   1.0000   1.0000   1.0000
     1.0000   1.0000   1.0000   1.0000   1.0000   1.0000   1.0000   1.0000
     1.0000   1.0000   1.0000   1.0000   1.0000   1.0000   1.0000   1.0000
     1.0000   1.0000   1.0000   1.0000   1.0000   1.0000   1.0000   1.0000
     1.0000   1.0000   1.0000   1.0000   1.0000   1.0000   1.0000   1.0000
     1.0000   1.0000   1.0000   1.0000   1.0000   1.0000   1.0000   1.0000
     1.0000   1.0000   1.0000   1.0000   1.0000   1.0000   1.0000   1.0000
     1.0000   1.0000   1.0000   1.0000   1.0000   1.0000   1.0000   1.0000
     1.0000   1.0000   1.0000   1.0000   1.0000   1.0000

          k = 0.2855 0.7940 0.3333 ( 43425 PWs)   bands (ev):

   -20.6835 -20.6831 -20.6696 -20.6692 -15.6638 -15.6638 -15.6547 -15.6547
   -15.6488 -15.6488 -15.5876 -15.5876 -15.5731 -15.5731  -6.9921  -6.9538
    -6.3885  -6.3169  -6.2370  -6.1434  -6.1368  -6.0560  -4.9139  -4.8947
    -4.8707  -4.8171  -4.7806  -4.7721  -4.7622  -4.7423  -4.6870  -4.6748
    -4.6289  -4.6201  -0.8742  -0.8319   1.3112   1.3955   1.5985   1.7222
     2.2080   2.3040   2.4293   2.4492   2.8090   2.9454   3.1452   3.2319
     3.2846   3.3255   3.3458   3.3596   3.4591   3.5531   3.7335   3.7745
     3.8082   3.8256   4.7792   4.8170   4.8451   4.8739   5.0060   5.0350
     5.0455   5.0659   5.1627   5.1871   5.2578   5.3195   5.8159   5.9074
     5.9894   6.0256   6.0635   6.1072   6.1754   6.2095

     occupation numbers 
     1.0000   1.0000   1.0000   1.0000   1.0000   1.0000   1.0000   1.0000
     1.0000   1.0000   1.0000   1.0000   1.0000   1.0000   1.0000   1.0000
     1.0000   1.0000   1.0000   1.0000   1.0000   1.0000   1.0000   1.0000
     1.0000   1.0000   1.0000   1.0000   1.0000   1.0000   1.0000   1.0000
     1.0000   1.0000   1.0000   1.0000   1.0000   1.0000   1.0000   1.0000
     1.0000   1.0000   1.0000   1.0000   1.0000   1.0000   1.0000   1.0000
     1.0000   1.0000   1.0000   1.0000   1.0000   1.0000   1.0000   1.0000
     1.0000   1.0000   1.0000   1.0000   1.0000   1.0000   1.0000   1.0000
     1.0000   1.0000   1.0000   1.0000   1.0000   1.0000   1.0000   1.0000
     1.0000   1.0000   1.0000   1.0000   1.0000   1.0000

          k = 0.3121 0.9729 0.4444 ( 43399 PWs)   bands (ev):

   -20.6842 -20.6823 -20.6703 -20.6685 -15.6638 -15.6638 -15.6547 -15.6547
   -15.6488 -15.6488 -15.5876 -15.5876 -15.5731 -15.5731  -7.0083  -6.9324
    -6.3722  -6.3347  -6.2382  -6.1482  -6.1319  -6.0648  -4.9093  -4.9053
    -4.8590  -4.8191  -4.7889  -4.7660  -4.7523  -4.7437  -4.6973  -4.6738
    -4.6336  -4.6080  -0.8830  -0.8233   1.2782   1.3818   1.6380   1.7752
     2.1811   2.3222   2.3747   2.4319   2.8627   2.9289   3.1596   3.2290
     3.2758   3.3049   3.3402   3.3498   3.4704   3.5507   3.7507   3.7663
     3.7944   3.8421   4.7838   4.8163   4.8501   4.8672   5.0009   5.0317
     5.0369   5.0579   5.1728   5.2004   5.2572   5.3263   5.8171   5.9190
     5.9950   6.0339   6.0566   6.0985   6.1403   6.2486

     occupation numbers 
     1.0000   1.0000   1.0000   1.0000   1.0000   1.0000   1.0000   1.0000
     1.0000   1.0000   1.0000   1.0000   1.0000   1.0000   1.0000   1.0000
     1.0000   1.0000   1.0000   1.0000   1.0000   1.0000   1.0000   1.0000
     1.0000   1.0000   1.0000   1.0000   1.0000   1.0000   1.0000   1.0000
     1.0000   1.0000   1.0000   1.0000   1.0000   1.0000   1.0000   1.0000
     1.0000   1.0000   1.0000   1.0000   1.0000   1.0000   1.0000   1.0000
     1.0000   1.0000   1.0000   1.0000   1.0000   1.0000   1.0000   1.0000
     1.0000   1.0000   1.0000   1.0000   1.0000   1.0000   1.0000   1.0000
     1.0000   1.0000   1.0000   1.0000   1.0000   1.0000   1.0000   1.0000
     1.0000   1.0000   1.0000   1.0000   1.0000   1.0000

          k = 0.0992-0.4584-0.4444 ( 43416 PWs)   bands (ev):

   -20.6909 -20.6827 -20.6701 -20.6622 -15.6638 -15.6638 -15.6546 -15.6546
   -15.6487 -15.6487 -15.5877 -15.5876 -15.5732 -15.5731  -7.0849  -6.9209
    -6.3936  -6.2793  -6.2112  -6.1501  -6.1358  -6.0325  -4.9600  -4.9008
    -4.8271  -4.7881  -4.7805  -4.7732  -4.7498  -4.7388  -4.6982  -4.6872
    -4.6395  -4.6068  -0.9218  -0.8152   1.3006   1.4299   1.7144   1.8956
     2.1208   2.2530   2.3931   2.5203   2.7952   2.9580   3.1698   3.1811
     3.2549   3.3229   3.3415   3.3606   3.4644   3.5313   3.7393   3.7636
     3.8059   3.8504   4.7460   4.7794   4.8122   4.8581   4.9725   5.0076
     5.0464   5.1111   5.1667   5.2228   5.2586   5.3714   5.8131   5.8388
     5.9180   5.9745   6.0343   6.0937   6.1463   6.2923

     occupation numbers 
     1.0000   1.0000   1.0000   1.0000   1.0000   1.0000   1.0000   1.0000
     1.0000   1.0000   1.0000   1.0000   1.0000   1.0000   1.0000   1.0000
     1.0000   1.0000   1.0000   1.0000   1.0000   1.0000   1.0000   1.0000
     1.0000   1.0000   1.0000   1.0000   1.0000   1.0000   1.0000   1.0000
     1.0000   1.0000   1.0000   1.0000   1.0000   1.0000   1.0000   1.0000
     1.0000   1.0000   1.0000   1.0000   1.0000   1.0000   1.0000   1.0000
     1.0000   1.0000   1.0000   1.0000   1.0000   1.0000   1.0000   1.0000
     1.0000   1.0000   1.0000   1.0000   1.0000   1.0000   1.0000   1.0000
     1.0000   1.0000   1.0000   1.0000   1.0000   1.0000   1.0000   1.0000
     1.0000   1.0000   1.0000   1.0000   1.0000   1.0000

          k = 0.1258-0.2795-0.3333 ( 43437 PWs)   bands (ev):

   -20.6980 -20.6816 -20.6717 -20.6556 -15.6638 -15.6637 -15.6545 -15.6544
   -15.6487 -15.6486 -15.5878 -15.5878 -15.5732 -15.5730  -7.1706  -6.9099
    -6.4822  -6.1918  -6.1804  -6.1515  -6.1065  -5.9571  -5.0174  -4.9092
    -4.8400  -4.8110  -4.7476  -4.7407  -4.7341  -4.7291  -4.7108  -4.6536
    -4.6472  -4.6251  -0.9694  -0.8125   1.4070   1.5486   1.7170   1.9925
     2.0751   2.2222   2.4601   2.5750   2.7030   3.0577   3.0985   3.1301
     3.2770   3.3604   3.3693   3.3919   3.4430   3.5362   3.6577   3.7299
     3.8352   3.8544   4.6652   4.7016   4.8086   4.8891   4.9235   4.9637
     4.9980   5.1350   5.2060   5.2629   5.2904   5.4277   5.6516   5.7968
     5.8544   5.9203   6.0208   6.0871   6.1677   6.2264

     occupation numbers 
     1.0000   1.0000   1.0000   1.0000   1.0000   1.0000   1.0000   1.0000
     1.0000   1.0000   1.0000   1.0000   1.0000   1.0000   1.0000   1.0000
     1.0000   1.0000   1.0000   1.0000   1.0000   1.0000   1.0000   1.0000
     1.0000   1.0000   1.0000   1.0000   1.0000   1.0000   1.0000   1.0000
     1.0000   1.0000   1.0000   1.0000   1.0000   1.0000   1.0000   1.0000
     1.0000   1.0000   1.0000   1.0000   1.0000   1.0000   1.0000   1.0000
     1.0000   1.0000   1.0000   1.0000   1.0000   1.0000   1.0000   1.0000
     1.0000   1.0000   1.0000   1.0000   1.0000   1.0000   1.0000   1.0000
     1.0000   1.0000   1.0000   1.0000   1.0000   1.0000   1.0000   1.0000
     1.0000   1.0000   1.0000   1.0000   1.0000   1.0000

          k = 0.1524-0.1006-0.2222 ( 43441 PWs)   bands (ev):

   -20.7029 -20.6790 -20.6746 -20.6511 -15.6638 -15.6637 -15.6544 -15.6543
   -15.6486 -15.6485 -15.5880 -15.5879 -15.5733 -15.5730  -7.2296  -6.9031
    -6.5600  -6.2166  -6.1070  -6.0917  -6.0808  -5.8884  -5.0566  -4.9664
    -4.8317  -4.8188  -4.7599  -4.7479  -4.7236  -4.7124  -4.6841  -4.6518
    -4.6487  -4.6006  -1.0039  -0.8171   1.5663   1.6472   1.7156   2.0472
     2.0625   2.2750   2.3217   2.5274   2.8757   2.9733   3.0868   3.1667
     3.3040   3.3431   3.3808   3.4059   3.5100   3.5232   3.5482   3.7069
     3.8214   3.8875   4.6001   4.6321   4.8411   4.8682   4.8708   4.9200
     4.9793   5.1961   5.2589   5.2783   5.3228   5.4672   5.4809   5.6787
     5.8152   5.8838   6.0448   6.1125   6.1384   6.2487

     occupation numbers 
     1.0000   1.0000   1.0000   1.0000   1.0000   1.0000   1.0000   1.0000
     1.0000   1.0000   1.0000   1.0000   1.0000   1.0000   1.0000   1.0000
     1.0000   1.0000   1.0000   1.0000   1.0000   1.0000   1.0000   1.0000
     1.0000   1.0000   1.0000   1.0000   1.0000   1.0000   1.0000   1.0000
     1.0000   1.0000   1.0000   1.0000   1.0000   1.0000   1.0000   1.0000
     1.0000   1.0000   1.0000   1.0000   1.0000   1.0000   1.0000   1.0000
     1.0000   1.0000   1.0000   1.0000   1.0000   1.0000   1.0000   1.0000
     1.0000   1.0000   1.0000   1.0000   1.0000   1.0000   1.0000   1.0000
     1.0000   1.0000   1.0000   1.0000   1.0000   1.0000   1.0000   1.0000
     1.0000   1.0000   1.0000   1.0000   1.0000   1.0000

          k = 0.1790 0.0784-0.1111 ( 43437 PWs)   bands (ev):

   -20.7042 -20.6812 -20.6727 -20.6500 -15.6638 -15.6637 -15.6544 -15.6543
   -15.6486 -15.6485 -15.5880 -15.5880 -15.5733 -15.5730  -7.2444  -6.9268
    -6.5598  -6.2232  -6.0870  -6.0839  -6.0547  -5.8628  -5.0635  -4.9924
    -4.8454  -4.8041  -4.7947  -4.7524  -4.7107  -4.7080  -4.6700  -4.6450
    -4.6440  -4.5936  -1.0115  -0.8253   1.6123   1.6716   1.8210   2.0361
     2.1201   2.1227   2.3055   2.5886   2.8828   3.0072   3.0144   3.2235
     3.2686   3.3274   3.3961   3.4322   3.4649   3.5118   3.5886   3.7076
     3.8086   3.8887   4.5757   4.6039   4.8382   4.8477   4.8556   4.9450
     4.9775   5.1689   5.2825   5.3258   5.3452   5.4151   5.4795   5.6081
     5.8007   5.8585   6.0169   6.1089   6.1905   6.2710

     occupation numbers 
     1.0000   1.0000   1.0000   1.0000   1.0000   1.0000   1.0000   1.0000
     1.0000   1.0000   1.0000   1.0000   1.0000   1.0000   1.0000   1.0000
     1.0000   1.0000   1.0000   1.0000   1.0000   1.0000   1.0000   1.0000
     1.0000   1.0000   1.0000   1.0000   1.0000   1.0000   1.0000   1.0000
     1.0000   1.0000   1.0000   1.0000   1.0000   1.0000   1.0000   1.0000
     1.0000   1.0000   1.0000   1.0000   1.0000   1.0000   1.0000   1.0000
     1.0000   1.0000   1.0000   1.0000   1.0000   1.0000   1.0000   1.0000
     1.0000   1.0000   1.0000   1.0000   1.0000   1.0000   1.0000   1.0000
     1.0000   1.0000   1.0000   1.0000   1.0000   1.0000   1.0000   1.0000
     1.0000   1.0000   1.0000   1.0000   1.0000   1.0000

          k = 0.2057 0.4642 0.0000 ( 43452 PWs)   bands (ev):

   -20.6974 -20.6837 -20.6696 -20.6562 -15.6638 -15.6637 -15.6545 -15.6544
   -15.6487 -15.6486 -15.5878 -15.5878 -15.5732 -15.5730  -7.1642  -6.9434
    -6.4665  -6.1859  -6.1737  -6.1461  -6.0767  -5.9720  -5.0077  -4.9137
    -4.8490  -4.8158  -4.7520  -4.7497  -4.7415  -4.7350  -4.7086  -4.6556
    -4.6405  -4.6247  -0.9548  -0.8298   1.4467   1.5430   1.7208   1.9269
     2.1104   2.2675   2.4408   2.5993   2.6795   3.0465   3.0834   3.1055
     3.2574   3.3302   3.3658   3.4166   3.4481   3.5676   3.6934   3.7229
     3.8242   3.8718   4.6698   4.6921   4.8095   4.8897   4.9249   4.9568
     5.0072   5.1161   5.2199   5.2669   5.3055   5.4010   5.6507   5.7830
     5.8834   5.8974   6.0191   6.0584   6.2065   6.2382

     occupation numbers 
     1.0000   1.0000   1.0000   1.0000   1.0000   1.0000   1.0000   1.0000
     1.0000   1.0000   1.0000   1.0000   1.0000   1.0000   1.0000   1.0000
     1.0000   1.0000   1.0000   1.0000   1.0000   1.0000   1.0000   1.0000
     1.0000   1.0000   1.0000   1.0000   1.0000   1.0000   1.0000   1.0000
     1.0000   1.0000   1.0000   1.0000   1.0000   1.0000   1.0000   1.0000
     1.0000   1.0000   1.0000   1.0000   1.0000   1.0000   1.0000   1.0000
     1.0000   1.0000   1.0000   1.0000   1.0000   1.0000   1.0000   1.0000
     1.0000   1.0000   1.0000   1.0000   1.0000   1.0000   1.0000   1.0000
     1.0000   1.0000   1.0000   1.0000   1.0000   1.0000   1.0000   1.0000
     1.0000   1.0000   1.0000   1.0000   1.0000   1.0000

          k = 0.2323 0.6431 0.1111 ( 43407 PWs)   bands (ev):

   -20.6902 -20.6841 -20.6688 -20.6628 -15.6638 -15.6638 -15.6546 -15.6546
   -15.6487 -15.6487 -15.5877 -15.5876 -15.5731 -15.5731  -7.0690  -6.9535
    -6.3925  -6.2788  -6.1917  -6.1598  -6.1031  -6.0456  -4.9516  -4.9097
    -4.8282  -4.7979  -4.7801  -4.7737  -4.7515  -4.7361  -4.7055  -4.6956
    -4.6319  -4.6064  -0.9033  -0.8346   1.3523   1.4237   1.6977   1.8104
     2.1783   2.3083   2.3551   2.5191   2.7880   2.9449   3.1627   3.1735
     3.2628   3.3354   3.3376   3.3558   3.4765   3.5423   3.7481   3.7653
     3.8085   3.8377   4.7523   4.7695   4.8110   4.8567   4.9809   4.9973
     5.0611   5.1213   5.1497   5.2183   5.2761   5.3453   5.8161   5.8327
     5.9399   5.9596   6.0325   6.0585   6.1909   6.2866

     occupation numbers 
     1.0000   1.0000   1.0000   1.0000   1.0000   1.0000   1.0000   1.0000
     1.0000   1.0000   1.0000   1.0000   1.0000   1.0000   1.0000   1.0000
     1.0000   1.0000   1.0000   1.0000   1.0000   1.0000   1.0000   1.0000
     1.0000   1.0000   1.0000   1.0000   1.0000   1.0000   1.0000   1.0000
     1.0000   1.0000   1.0000   1.0000   1.0000   1.0000   1.0000   1.0000
     1.0000   1.0000   1.0000   1.0000   1.0000   1.0000   1.0000   1.0000
     1.0000   1.0000   1.0000   1.0000   1.0000   1.0000   1.0000   1.0000
     1.0000   1.0000   1.0000   1.0000   1.0000   1.0000   1.0000   1.0000
     1.0000   1.0000   1.0000   1.0000   1.0000   1.0000   1.0000   1.0000
     1.0000   1.0000   1.0000   1.0000   1.0000   1.0000

          k = 0.2589 0.8220 0.2222 ( 43414 PWs)   bands (ev):

   -20.6838 -20.6828 -20.6699 -20.6689 -15.6638 -15.6638 -15.6547 -15.6547
   -15.6488 -15.6488 -15.5876 -15.5876 -15.5731 -15.5731  -6.9911  -6.9548
    -6.3640  -6.3491  -6.2115  -6.1638  -6.1144  -6.0800  -4.9059  -4.9045
    -4.8515  -4.8320  -4.7824  -4.7694  -4.7552  -4.7472  -4.6904  -4.6720
    -4.6332  -4.6160  -0.8670  -0.8396   1.3233   1.3676   1.6390   1.7029
     2.2219   2.2847   2.4132   2.4460   2.8675   2.8921   3.1831   3.2157
     3.2995   3.3153   3.3387   3.3440   3.4902   3.5240   3.7629   3.7773
     3.7874   3.8209   4.7924   4.8060   4.8559   4.8625   5.0156   5.0280
     5.0444   5.0545   5.1717   5.1827   5.2744   5.3054   5.8405   5.8862
     6.0080   6.0289   6.0677   6.0788   6.1630   6.2203

     occupation numbers 
     1.0000   1.0000   1.0000   1.0000   1.0000   1.0000   1.0000   1.0000
     1.0000   1.0000   1.0000   1.0000   1.0000   1.0000   1.0000   1.0000
     1.0000   1.0000   1.0000   1.0000   1.0000   1.0000   1.0000   1.0000
     1.0000   1.0000   1.0000   1.0000   1.0000   1.0000   1.0000   1.0000
     1.0000   1.0000   1.0000   1.0000   1.0000   1.0000   1.0000   1.0000
     1.0000   1.0000   1.0000   1.0000   1.0000   1.0000   1.0000   1.0000
     1.0000   1.0000   1.0000   1.0000   1.0000   1.0000   1.0000   1.0000
     1.0000   1.0000   1.0000   1.0000   1.0000   1.0000   1.0000   1.0000
     1.0000   1.0000   1.0000   1.0000   1.0000   1.0000   1.0000   1.0000
     1.0000   1.0000   1.0000   1.0000   1.0000   1.0000

          k = 0.2855 1.0009 0.3333 ( 43419 PWs)   bands (ev):

   -20.6835 -20.6831 -20.6696 -20.6691 -15.6638 -15.6638 -15.6547 -15.6547
   -15.6488 -15.6488 -15.5876 -15.5876 -15.5731 -15.5731  -6.9867  -6.9598
    -6.3659  -6.3462  -6.2114  -6.1654  -6.1139  -6.0785  -4.9062  -4.9026
    -4.8530  -4.8321  -4.7800  -4.7710  -4.7532  -4.7509  -4.6842  -4.6761
    -4.6305  -4.6205  -0.8648  -0.8417   1.3310   1.3712   1.6297   1.6890
     2.2283   2.2803   2.4325   2.4456   2.8537   2.8947   3.1808   3.2172
     3.3047   3.3175   3.3392   3.3479   3.4871   3.5227   3.7591   3.7783
     3.7914   3.8171   4.7914   4.8063   4.8550   4.8638   5.0168   5.0307
     5.0451   5.0566   5.1690   5.1787   5.2748   5.3035   5.8405   5.8834
     6.0066   6.0292   6.0653   6.0811   6.1731   6.2104

     occupation numbers 
     1.0000   1.0000   1.0000   1.0000   1.0000   1.0000   1.0000   1.0000
     1.0000   1.0000   1.0000   1.0000   1.0000   1.0000   1.0000   1.0000
     1.0000   1.0000   1.0000   1.0000   1.0000   1.0000   1.0000   1.0000
     1.0000   1.0000   1.0000   1.0000   1.0000   1.0000   1.0000   1.0000
     1.0000   1.0000   1.0000   1.0000   1.0000   1.0000   1.0000   1.0000
     1.0000   1.0000   1.0000   1.0000   1.0000   1.0000   1.0000   1.0000
     1.0000   1.0000   1.0000   1.0000   1.0000   1.0000   1.0000   1.0000
     1.0000   1.0000   1.0000   1.0000   1.0000   1.0000   1.0000   1.0000
     1.0000   1.0000   1.0000   1.0000   1.0000   1.0000   1.0000   1.0000
     1.0000   1.0000   1.0000   1.0000   1.0000   1.0000

          k = 0.3121 1.1798 0.4444 ( 43408 PWs)   bands (ev):

   -20.6897 -20.6850 -20.6679 -20.6634 -15.6638 -15.6638 -15.6546 -15.6546
   -15.6487 -15.6487 -15.5877 -15.5877 -15.5731 -15.5731  -7.0599  -6.9674
    -6.3754  -6.2910  -6.1927  -6.1603  -6.0988  -6.0475  -4.9454  -4.9142
    -4.8247  -4.8029  -4.7770  -4.7736  -4.7517  -4.7315  -4.7127  -4.7007
    -4.6282  -4.6071  -0.8978  -0.8400   1.3671   1.4299   1.6790   1.7797
     2.1968   2.3418   2.3447   2.5126   2.8038   2.9172   3.1681   3.1731
     3.2651   3.3251   3.3438   3.3580   3.4845   3.5391   3.7501   3.7698
     3.8018   3.8356   4.7528   4.7685   4.8170   4.8502   4.9810   4.9954
     5.0700   5.1340   5.1416   5.2073   5.2789   5.3384   5.8156   5.8306
     5.9397   5.9605   6.0290   6.0504   6.2073   6.2890

     occupation numbers 
     1.0000   1.0000   1.0000   1.0000   1.0000   1.0000   1.0000   1.0000
     1.0000   1.0000   1.0000   1.0000   1.0000   1.0000   1.0000   1.0000
     1.0000   1.0000   1.0000   1.0000   1.0000   1.0000   1.0000   1.0000
     1.0000   1.0000   1.0000   1.0000   1.0000   1.0000   1.0000   1.0000
     1.0000   1.0000   1.0000   1.0000   1.0000   1.0000   1.0000   1.0000
     1.0000   1.0000   1.0000   1.0000   1.0000   1.0000   1.0000   1.0000
     1.0000   1.0000   1.0000   1.0000   1.0000   1.0000   1.0000   1.0000
     1.0000   1.0000   1.0000   1.0000   1.0000   1.0000   1.0000   1.0000
     1.0000   1.0000   1.0000   1.0000   1.0000   1.0000   1.0000   1.0000
     1.0000   1.0000   1.0000   1.0000   1.0000   1.0000

          k = 0.0992-0.2515-0.4444 ( 43445 PWs)   bands (ev):

   -20.6969 -20.6850 -20.6683 -20.6567 -15.6638 -15.6638 -15.6545 -15.6544
   -15.6487 -15.6486 -15.5878 -15.5878 -15.5732 -15.5731  -7.1557  -6.9625
    -6.4431  -6.1932  -6.1768  -6.1514  -6.0705  -5.9750  -5.0001  -4.9169
    -4.8489  -4.8107  -4.7605  -4.7532  -4.7462  -4.7374  -4.7046  -4.6551
    -4.6362  -4.6248  -0.9487  -0.8358   1.4590   1.5477   1.7078   1.8972
     2.1317   2.2822   2.4284   2.6127   2.6822   3.0398   3.0804   3.0963
     3.2525   3.3123   3.3706   3.4305   3.4521   3.5694   3.7120   3.7220
     3.8220   3.8602   4.6703   4.6914   4.8142   4.8871   4.9232   4.9544
     5.0105   5.1068   5.2308   5.2679   5.3072   5.3936   5.6565   5.7701
     5.8864   5.8965   6.0150   6.0514   6.2243   6.2485

     occupation numbers 
     1.0000   1.0000   1.0000   1.0000   1.0000   1.0000   1.0000   1.0000
     1.0000   1.0000   1.0000   1.0000   1.0000   1.0000   1.0000   1.0000
     1.0000   1.0000   1.0000   1.0000   1.0000   1.0000   1.0000   1.0000
     1.0000   1.0000   1.0000   1.0000   1.0000   1.0000   1.0000   1.0000
     1.0000   1.0000   1.0000   1.0000   1.0000   1.0000   1.0000   1.0000
     1.0000   1.0000   1.0000   1.0000   1.0000   1.0000   1.0000   1.0000
     1.0000   1.0000   1.0000   1.0000   1.0000   1.0000   1.0000   1.0000
     1.0000   1.0000   1.0000   1.0000   1.0000   1.0000   1.0000   1.0000
     1.0000   1.0000   1.0000   1.0000   1.0000   1.0000   1.0000   1.0000
     1.0000   1.0000   1.0000   1.0000   1.0000   1.0000

          k = 0.1258-0.0726-0.3333 ( 43439 PWs)   bands (ev):

   -20.7023 -20.6826 -20.6711 -20.6517 -15.6638 -15.6637 -15.6544 -15.6543
   -15.6486 -15.6485 -15.5880 -15.5879 -15.5732 -15.5730  -7.2292  -6.9384
    -6.5300  -6.1968  -6.1075  -6.1022  -6.0494  -5.9018  -5.0467  -4.9644
    -4.8566  -4.8073  -4.7877  -4.7363  -4.7216  -4.7135  -4.6834  -4.6577
    -4.6424  -4.6140  -0.9934  -0.8319   1.5896   1.6783   1.7003   2.0042
     2.0688   2.3009   2.3368   2.5796   2.8349   2.9649   3.0366   3.1668
     3.2532   3.3275   3.3975   3.4045   3.5029   3.5444   3.6062   3.7105
     3.8075   3.9178   4.6041   4.6230   4.8414   4.8690   4.8801   4.9173
     4.9822   5.1554   5.2741   5.2994   5.3300   5.4377   5.4882   5.6704
     5.8376   5.8628   6.0285   6.0881   6.1534   6.2559

     occupation numbers 
     1.0000   1.0000   1.0000   1.0000   1.0000   1.0000   1.0000   1.0000
     1.0000   1.0000   1.0000   1.0000   1.0000   1.0000   1.0000   1.0000
     1.0000   1.0000   1.0000   1.0000   1.0000   1.0000   1.0000   1.0000
     1.0000   1.0000   1.0000   1.0000   1.0000   1.0000   1.0000   1.0000
     1.0000   1.0000   1.0000   1.0000   1.0000   1.0000   1.0000   1.0000
     1.0000   1.0000   1.0000   1.0000   1.0000   1.0000   1.0000   1.0000
     1.0000   1.0000   1.0000   1.0000   1.0000   1.0000   1.0000   1.0000
     1.0000   1.0000   1.0000   1.0000   1.0000   1.0000   1.0000   1.0000
     1.0000   1.0000   1.0000   1.0000   1.0000   1.0000   1.0000   1.0000
     1.0000   1.0000   1.0000   1.0000   1.0000   1.0000

          k = 0.1524 0.1063-0.2222 ( 43424 PWs)   bands (ev):

   -20.7044 -20.6791 -20.6748 -20.6497 -15.6638 -15.6637 -15.6544 -15.6543
   -15.6486 -15.6485 -15.5880 -15.5880 -15.5733 -15.5730  -7.2577  -6.9146
    -6.5807  -6.2036  -6.0704  -6.0673  -6.0577  -5.8689  -5.0666  -4.9947
    -4.8301  -4.8186  -4.7882  -4.7702  -4.7085  -4.7056  -4.6712  -4.6446
    -4.6427  -4.6109  -1.0124  -0.8291   1.6565   1.6640   1.7811   2.0404
     2.1307   2.1430   2.3500   2.5694   2.8804   2.9483   3.0478   3.2135
     3.2474   3.3325   3.3508   3.4672   3.4738   3.4921   3.5870   3.7166
     3.8040   3.9435   4.5801   4.5955   4.8375   4.8466   4.8558   4.9411
     4.9871   5.1822   5.2778   5.3078   5.3435   5.4222   5.4662   5.6100
     5.8059   5.8594   6.0009   6.0836   6.1954   6.2669

     occupation numbers 
     1.0000   1.0000   1.0000   1.0000   1.0000   1.0000   1.0000   1.0000
     1.0000   1.0000   1.0000   1.0000   1.0000   1.0000   1.0000   1.0000
     1.0000   1.0000   1.0000   1.0000   1.0000   1.0000   1.0000   1.0000
     1.0000   1.0000   1.0000   1.0000   1.0000   1.0000   1.0000   1.0000
     1.0000   1.0000   1.0000   1.0000   1.0000   1.0000   1.0000   1.0000
     1.0000   1.0000   1.0000   1.0000   1.0000   1.0000   1.0000   1.0000
     1.0000   1.0000   1.0000   1.0000   1.0000   1.0000   1.0000   1.0000
     1.0000   1.0000   1.0000   1.0000   1.0000   1.0000   1.0000   1.0000
     1.0000   1.0000   1.0000   1.0000   1.0000   1.0000   1.0000   1.0000
     1.0000   1.0000   1.0000   1.0000   1.0000   1.0000

          k = 0.1790 0.2853-0.1111 ( 43436 PWs)   bands (ev):

   -20.7026 -20.6810 -20.6727 -20.6514 -15.6638 -15.6637 -15.6544 -15.6543
   -15.6486 -15.6485 -15.5880 -15.5879 -15.5732 -15.5730  -7.2341  -6.9221
    -6.5494  -6.1983  -6.1015  -6.0919  -6.0580  -5.8998  -5.0517  -4.9656
    -4.8490  -4.8148  -4.7764  -4.7408  -4.7216  -4.7126  -4.6852  -4.6563
    -4.6451  -4.6128  -0.9973  -0.8280   1.5829   1.6790   1.7001   2.0227
     2.0615   2.3077   2.3352   2.5510   2.8480   2.9643   3.0502   3.1636
     3.2615   3.3350   3.3845   3.4037   3.5083   3.5390   3.5874   3.7118
     3.8107   3.9260   4.6040   4.6233   4.8399   4.8691   4.8760   4.9180
     4.9847   5.1739   5.2672   5.2871   5.3287   5.4441   5.4838   5.6749
     5.8350   5.8645   6.0302   6.0945   6.1469   6.2529

     occupation numbers 
     1.0000   1.0000   1.0000   1.0000   1.0000   1.0000   1.0000   1.0000
     1.0000   1.0000   1.0000   1.0000   1.0000   1.0000   1.0000   1.0000
     1.0000   1.0000   1.0000   1.0000   1.0000   1.0000   1.0000   1.0000
     1.0000   1.0000   1.0000   1.0000   1.0000   1.0000   1.0000   1.0000
     1.0000   1.0000   1.0000   1.0000   1.0000   1.0000   1.0000   1.0000
     1.0000   1.0000   1.0000   1.0000   1.0000   1.0000   1.0000   1.0000
     1.0000   1.0000   1.0000   1.0000   1.0000   1.0000   1.0000   1.0000
     1.0000   1.0000   1.0000   1.0000   1.0000   1.0000   1.0000   1.0000
     1.0000   1.0000   1.0000   1.0000   1.0000   1.0000   1.0000   1.0000
     1.0000   1.0000   1.0000   1.0000   1.0000   1.0000

          k = 0.2057 0.6711 0.0000 ( 43424 PWs)   bands (ev):

   -20.6913 -20.6819 -20.6710 -20.6619 -15.6638 -15.6638 -15.6546 -15.6546
   -15.6487 -15.6487 -15.5877 -15.5877 -15.5732 -15.5731  -7.0828  -6.9355
    -6.4518  -6.2422  -6.1727  -6.1502  -6.0952  -6.0474  -4.9669  -4.9033
    -4.8485  -4.7960  -4.7830  -4.7689  -4.7568  -4.7455  -4.6979  -4.6795
    -4.6334  -4.6077  -0.9025  -0.8365   1.3548   1.3905   1.7799   1.8609
     2.1398   2.2606   2.3262   2.5166   2.7547   3.0348   3.1162   3.1685
     3.2595   3.3075   3.3484   3.3666   3.4555   3.5855   3.7371   3.7538
     3.8173   3.8586   4.7546   4.7653   4.7885   4.8814   4.9844   4.9968
     5.0510   5.0826   5.1595   5.2514   5.2878   5.3435   5.7993   5.8605
     5.9212   5.9761   6.0489   6.0700   6.1758   6.2494

     occupation numbers 
     1.0000   1.0000   1.0000   1.0000   1.0000   1.0000   1.0000   1.0000
     1.0000   1.0000   1.0000   1.0000   1.0000   1.0000   1.0000   1.0000
     1.0000   1.0000   1.0000   1.0000   1.0000   1.0000   1.0000   1.0000
     1.0000   1.0000   1.0000   1.0000   1.0000   1.0000   1.0000   1.0000
     1.0000   1.0000   1.0000   1.0000   1.0000   1.0000   1.0000   1.0000
     1.0000   1.0000   1.0000   1.0000   1.0000   1.0000   1.0000   1.0000
     1.0000   1.0000   1.0000   1.0000   1.0000   1.0000   1.0000   1.0000
     1.0000   1.0000   1.0000   1.0000   1.0000   1.0000   1.0000   1.0000
     1.0000   1.0000   1.0000   1.0000   1.0000   1.0000   1.0000   1.0000
     1.0000   1.0000   1.0000   1.0000   1.0000   1.0000

          k = 0.2323 0.8500 0.1111 ( 43415 PWs)   bands (ev):

   -20.6844 -20.6820 -20.6706 -20.6683 -15.6638 -15.6638 -15.6547 -15.6547
   -15.6488 -15.6488 -15.5876 -15.5876 -15.5731 -15.5731  -6.9886  -6.9583
    -6.3917  -6.3326  -6.1828  -6.1728  -6.1106  -6.0865  -4.9180  -4.9009
    -4.8525  -4.8281  -4.7846  -4.7780  -4.7569  -4.7329  -4.7083  -4.6710
    -4.6273  -4.6060  -0.8583  -0.8489   1.3206   1.3280   1.7217   1.7326
     2.2299   2.2541   2.3485   2.4185   2.8736   2.9511   3.1818   3.2027
     3.2832   3.2967   3.3236   3.3383   3.4996   3.5473   3.7548   3.7863
     3.8042   3.8161   4.7935   4.8061   4.8464   4.8701   5.0085   5.0139
     5.0357   5.0502   5.1852   5.2035   5.2879   5.2987   5.8671   5.8732
     5.9984   6.0355   6.0617   6.0979   6.1586   6.2204

     occupation numbers 
     1.0000   1.0000   1.0000   1.0000   1.0000   1.0000   1.0000   1.0000
     1.0000   1.0000   1.0000   1.0000   1.0000   1.0000   1.0000   1.0000
     1.0000   1.0000   1.0000   1.0000   1.0000   1.0000   1.0000   1.0000
     1.0000   1.0000   1.0000   1.0000   1.0000   1.0000   1.0000   1.0000
     1.0000   1.0000   1.0000   1.0000   1.0000   1.0000   1.0000   1.0000
     1.0000   1.0000   1.0000   1.0000   1.0000   1.0000   1.0000   1.0000
     1.0000   1.0000   1.0000   1.0000   1.0000   1.0000   1.0000   1.0000
     1.0000   1.0000   1.0000   1.0000   1.0000   1.0000   1.0000   1.0000
     1.0000   1.0000   1.0000   1.0000   1.0000   1.0000   1.0000   1.0000
     1.0000   1.0000   1.0000   1.0000   1.0000   1.0000

          k = 0.2589 1.0289 0.2222 ( 43418 PWs)   bands (ev):

   -20.6838 -20.6828 -20.6699 -20.6689 -15.6638 -15.6638 -15.6547 -15.6547
   -15.6488 -15.6488 -15.5876 -15.5876 -15.5731 -15.5731  -6.9859  -6.9608
    -6.3643  -6.3508  -6.1985  -6.1755  -6.1035  -6.0887  -4.9076  -4.9028
    -4.8470  -4.8370  -4.7810  -4.7712  -4.7566  -4.7457  -4.6909  -4.6717
    -4.6322  -4.6167  -0.8615  -0.8452   1.3346   1.3573   1.6533   1.6866
     2.2342   2.2716   2.4128   2.4466   2.8769   2.8828   3.1941   3.2056
     3.3028   3.3184   3.3346   3.3409   3.4994   3.5165   3.7663   3.7759
     3.7924   3.8144   4.7968   4.8014   4.8569   4.8614   5.0196   5.0239
     5.0475   5.0508   5.1736   5.1807   5.2820   5.2979   5.8518   5.8746
     6.0141   6.0238   6.0674   6.0786   6.1684   6.2137

     occupation numbers 
     1.0000   1.0000   1.0000   1.0000   1.0000   1.0000   1.0000   1.0000
     1.0000   1.0000   1.0000   1.0000   1.0000   1.0000   1.0000   1.0000
     1.0000   1.0000   1.0000   1.0000   1.0000   1.0000   1.0000   1.0000
     1.0000   1.0000   1.0000   1.0000   1.0000   1.0000   1.0000   1.0000
     1.0000   1.0000   1.0000   1.0000   1.0000   1.0000   1.0000   1.0000
     1.0000   1.0000   1.0000   1.0000   1.0000   1.0000   1.0000   1.0000
     1.0000   1.0000   1.0000   1.0000   1.0000   1.0000   1.0000   1.0000
     1.0000   1.0000   1.0000   1.0000   1.0000   1.0000   1.0000   1.0000
     1.0000   1.0000   1.0000   1.0000   1.0000   1.0000   1.0000   1.0000
     1.0000   1.0000   1.0000   1.0000   1.0000   1.0000

          k = 0.2855 1.2078 0.3333 ( 43396 PWs)   bands (ev):

   -20.6881 -20.6870 -20.6659 -20.6649 -15.6638 -15.6638 -15.6546 -15.6546
   -15.6487 -15.6487 -15.5877 -15.5877 -15.5731 -15.5731  -7.0254  -7.0114
    -6.3502  -6.3134  -6.1796  -6.1689  -6.0760  -6.0624  -4.9336  -4.9239
    -4.8243  -4.8097  -4.7723  -4.7720  -4.7446  -4.7346  -4.7212  -4.7117
    -4.6168  -4.6126  -0.8699  -0.8681   1.4154   1.4239   1.6831   1.6953
     2.2694   2.2780   2.4265   2.4691   2.8231   2.8876   3.1616   3.1757
     3.2869   3.2939   3.3466   3.3637   3.5024   3.5375   3.7523   3.7720
     3.8142   3.8168   4.7576   4.7623   4.8252   4.8408   4.9834   4.9899
     5.0995   5.1126   5.1594   5.1848   5.3049   5.3066   5.8139   5.8310
     5.9417   5.9590   6.0256   6.0333   6.2600   6.2642

     occupation numbers 
     1.0000   1.0000   1.0000   1.0000   1.0000   1.0000   1.0000   1.0000
     1.0000   1.0000   1.0000   1.0000   1.0000   1.0000   1.0000   1.0000
     1.0000   1.0000   1.0000   1.0000   1.0000   1.0000   1.0000   1.0000
     1.0000   1.0000   1.0000   1.0000   1.0000   1.0000   1.0000   1.0000
     1.0000   1.0000   1.0000   1.0000   1.0000   1.0000   1.0000   1.0000
     1.0000   1.0000   1.0000   1.0000   1.0000   1.0000   1.0000   1.0000
     1.0000   1.0000   1.0000   1.0000   1.0000   1.0000   1.0000   1.0000
     1.0000   1.0000   1.0000   1.0000   1.0000   1.0000   1.0000   1.0000
     1.0000   1.0000   1.0000   1.0000   1.0000   1.0000   1.0000   1.0000
     1.0000   1.0000   1.0000   1.0000   1.0000   1.0000

          k = 0.3121 1.3867 0.4444 ( 43441 PWs)   bands (ev):

   -20.6951 -20.6883 -20.6651 -20.6584 -15.6638 -15.6638 -15.6545 -15.6545
   -15.6486 -15.6486 -15.5878 -15.5878 -15.5732 -15.5731  -7.1291  -7.0177
    -6.3947  -6.2224  -6.1698  -6.1481  -6.0296  -6.0035  -4.9789  -4.9306
    -4.8430  -4.8103  -4.7871  -4.7649  -4.7491  -4.7418  -4.6931  -4.6640
    -4.6279  -4.6221  -0.9201  -0.8660   1.5131   1.5498   1.7113   1.7917
     2.2034   2.3470   2.3798   2.5526   2.7555   3.0173   3.0422   3.0905
     3.2458   3.2636   3.3713   3.4335   3.4894   3.5896   3.7261   3.7579
     3.8066   3.8482   4.6751   4.6837   4.8256   4.8777   4.9276   4.9413
     5.0291   5.0806   5.2497   5.2742   5.3257   5.3580   5.6650   5.7450
     5.8709   5.9212   6.0147   6.0238   6.2602   6.2725

     occupation numbers 
     1.0000   1.0000   1.0000   1.0000   1.0000   1.0000   1.0000   1.0000
     1.0000   1.0000   1.0000   1.0000   1.0000   1.0000   1.0000   1.0000
     1.0000   1.0000   1.0000   1.0000   1.0000   1.0000   1.0000   1.0000
     1.0000   1.0000   1.0000   1.0000   1.0000   1.0000   1.0000   1.0000
     1.0000   1.0000   1.0000   1.0000   1.0000   1.0000   1.0000   1.0000
     1.0000   1.0000   1.0000   1.0000   1.0000   1.0000   1.0000   1.0000
     1.0000   1.0000   1.0000   1.0000   1.0000   1.0000   1.0000   1.0000
     1.0000   1.0000   1.0000   1.0000   1.0000   1.0000   1.0000   1.0000
     1.0000   1.0000   1.0000   1.0000   1.0000   1.0000   1.0000   1.0000
     1.0000   1.0000   1.0000   1.0000   1.0000   1.0000

          k = 0.0992-0.0446-0.4444 ( 43438 PWs)   bands (ev):

   -20.7010 -20.6867 -20.6670 -20.6530 -15.6638 -15.6637 -15.6544 -15.6543
   -15.6486 -15.6485 -15.5879 -15.5879 -15.5732 -15.5730  -7.2165  -6.9944
    -6.4718  -6.1748  -6.1329  -6.1160  -6.0075  -5.9244  -5.0260  -4.9609
    -4.8795  -4.8202  -4.7965  -4.7327  -4.7219  -4.7170  -4.6777  -4.6563
    -4.6382  -4.6293  -0.9723  -0.8565   1.6261   1.6776   1.7190   1.9260
     2.0974   2.2886   2.3983   2.6424   2.7768   2.9450   3.0000   3.1678
     3.2380   3.2529   3.3894   3.4540   3.4951   3.5790   3.6600   3.7133
     3.7868   3.9314   4.6074   4.6157   4.8453   4.8714   4.8953   4.9139
     4.9821   5.1031   5.2893   5.3301   5.3401   5.4054   5.4988   5.6520
     5.7973   5.9032   6.0124   6.0842   6.1671   6.2598

     occupation numbers 
     1.0000   1.0000   1.0000   1.0000   1.0000   1.0000   1.0000   1.0000
     1.0000   1.0000   1.0000   1.0000   1.0000   1.0000   1.0000   1.0000
     1.0000   1.0000   1.0000   1.0000   1.0000   1.0000   1.0000   1.0000
     1.0000   1.0000   1.0000   1.0000   1.0000   1.0000   1.0000   1.0000
     1.0000   1.0000   1.0000   1.0000   1.0000   1.0000   1.0000   1.0000
     1.0000   1.0000   1.0000   1.0000   1.0000   1.0000   1.0000   1.0000
     1.0000   1.0000   1.0000   1.0000   1.0000   1.0000   1.0000   1.0000
     1.0000   1.0000   1.0000   1.0000   1.0000   1.0000   1.0000   1.0000
     1.0000   1.0000   1.0000   1.0000   1.0000   1.0000   1.0000   1.0000
     1.0000   1.0000   1.0000   1.0000   1.0000   1.0000

          k = 0.1258 0.1343-0.3333 ( 43439 PWs)   bands (ev):

   -20.7038 -20.6829 -20.6709 -20.6503 -15.6638 -15.6637 -15.6544 -15.6543
   -15.6486 -15.6485 -15.5880 -15.5880 -15.5733 -15.5730  -7.2590  -6.9491
    -6.5467  -6.1782  -6.0843  -6.0809  -6.0190  -5.8826  -5.0560  -4.9931
    -4.8547  -4.8196  -4.7935  -4.7617  -4.7072  -4.7059  -4.6665  -4.6486
    -4.6463  -4.6273  -1.0026  -0.8440   1.6722   1.7162   1.7364   2.0474
     2.0958   2.1568   2.4016   2.6312   2.8511   2.8993   3.0022   3.1771
     3.2685   3.2804   3.3989   3.4317   3.4789   3.5501   3.5957   3.7207
     3.7843   3.9861   4.5847   4.5862   4.8377   4.8503   4.8642   4.9379
     4.9926   5.1426   5.2828   5.3365   5.3456   5.4215   5.4474   5.6024
     5.7524   5.9137   5.9937   6.0752   6.1938   6.2510

     occupation numbers 
     1.0000   1.0000   1.0000   1.0000   1.0000   1.0000   1.0000   1.0000
     1.0000   1.0000   1.0000   1.0000   1.0000   1.0000   1.0000   1.0000
     1.0000   1.0000   1.0000   1.0000   1.0000   1.0000   1.0000   1.0000
     1.0000   1.0000   1.0000   1.0000   1.0000   1.0000   1.0000   1.0000
     1.0000   1.0000   1.0000   1.0000   1.0000   1.0000   1.0000   1.0000
     1.0000   1.0000   1.0000   1.0000   1.0000   1.0000   1.0000   1.0000
     1.0000   1.0000   1.0000   1.0000   1.0000   1.0000   1.0000   1.0000
     1.0000   1.0000   1.0000   1.0000   1.0000   1.0000   1.0000   1.0000
     1.0000   1.0000   1.0000   1.0000   1.0000   1.0000   1.0000   1.0000
     1.0000   1.0000   1.0000   1.0000   1.0000   1.0000

          k = 0.1524 0.3132-0.2222 ( 43435 PWs)   bands (ev):

   -20.7028 -20.6791 -20.6747 -20.6511 -15.6638 -15.6637 -15.6544 -15.6543
   -15.6486 -15.6485 -15.5880 -15.5879 -15.5733 -15.5730  -7.2463  -6.9141
    -6.5710  -6.1807  -6.0845  -6.0670  -6.0558  -5.9100  -5.0545  -4.9667
    -4.8468  -4.8316  -4.7635  -4.7518  -4.7198  -4.7112  -4.6908  -4.6549
    -4.6503  -4.6227  -0.9966  -0.8337   1.5907   1.6701   1.7311   2.0264
     2.0570   2.3365   2.3656   2.5213   2.8407   2.9397   3.0642   3.1196
     3.2652   3.2942   3.3807   3.4257   3.4999   3.5581   3.5827   3.7189
     3.8034   3.9850   4.6057   4.6169   4.8361   4.8717   4.8733   4.9170
     4.9953   5.1923   5.2504   5.2774   5.3332   5.4330   5.4791   5.6778
     5.7772   5.9186   6.0178   6.0976   6.1457   6.2487

     occupation numbers 
     1.0000   1.0000   1.0000   1.0000   1.0000   1.0000   1.0000   1.0000
     1.0000   1.0000   1.0000   1.0000   1.0000   1.0000   1.0000   1.0000
     1.0000   1.0000   1.0000   1.0000   1.0000   1.0000   1.0000   1.0000
     1.0000   1.0000   1.0000   1.0000   1.0000   1.0000   1.0000   1.0000
     1.0000   1.0000   1.0000   1.0000   1.0000   1.0000   1.0000   1.0000
     1.0000   1.0000   1.0000   1.0000   1.0000   1.0000   1.0000   1.0000
     1.0000   1.0000   1.0000   1.0000   1.0000   1.0000   1.0000   1.0000
     1.0000   1.0000   1.0000   1.0000   1.0000   1.0000   1.0000   1.0000
     1.0000   1.0000   1.0000   1.0000   1.0000   1.0000   1.0000   1.0000
     1.0000   1.0000   1.0000   1.0000   1.0000   1.0000

          k = 0.1790 0.4922-0.1111 ( 43458 PWs)   bands (ev):

   -20.6982 -20.6804 -20.6729 -20.6554 -15.6638 -15.6637 -15.6545 -15.6544
   -15.6487 -15.6486 -15.5878 -15.5878 -15.5732 -15.5730  -7.1816  -6.9161
    -6.5244  -6.1789  -6.1446  -6.1070  -6.0706  -5.9804  -5.0203  -4.9113
    -4.8527  -4.8402  -4.7501  -4.7359  -4.7355  -4.7283  -4.7116  -4.6632
    -4.6521  -4.6229  -0.9570  -0.8305   1.4544   1.5223   1.7768   1.9647
     2.0686   2.2927   2.4089   2.5612   2.6976   3.0163   3.0899   3.1208
     3.2664   3.3044   3.3645   3.3911   3.4791   3.5961   3.6544   3.7228
     3.8162   3.9294   4.6702   4.6874   4.7970   4.8963   4.9314   4.9567
     5.0110   5.1340   5.1892   5.2678   5.3175   5.3959   5.6326   5.8094
     5.8426   5.9355   6.0362   6.0678   6.1621   6.2220

     occupation numbers 
     1.0000   1.0000   1.0000   1.0000   1.0000   1.0000   1.0000   1.0000
     1.0000   1.0000   1.0000   1.0000   1.0000   1.0000   1.0000   1.0000
     1.0000   1.0000   1.0000   1.0000   1.0000   1.0000   1.0000   1.0000
     1.0000   1.0000   1.0000   1.0000   1.0000   1.0000   1.0000   1.0000
     1.0000   1.0000   1.0000   1.0000   1.0000   1.0000   1.0000   1.0000
     1.0000   1.0000   1.0000   1.0000   1.0000   1.0000   1.0000   1.0000
     1.0000   1.0000   1.0000   1.0000   1.0000   1.0000   1.0000   1.0000
     1.0000   1.0000   1.0000   1.0000   1.0000   1.0000   1.0000   1.0000
     1.0000   1.0000   1.0000   1.0000   1.0000   1.0000   1.0000   1.0000
     1.0000   1.0000   1.0000   1.0000   1.0000   1.0000

          k = 0.2057 0.8780 0.0000 ( 43419 PWs)   bands (ev):

   -20.6849 -20.6813 -20.6713 -20.6679 -15.6638 -15.6638 -15.6547 -15.6547
   -15.6488 -15.6488 -15.5876 -15.5876 -15.5731 -15.5731  -6.9850  -6.9633
    -6.4266  -6.3070  -6.1903  -6.1427  -6.1284  -6.0698  -4.9260  -4.9077
    -4.8574  -4.8193  -4.7912  -4.7859  -4.7547  -4.7275  -4.7217  -4.6726
    -4.6147  -4.5982  -0.8588  -0.8487   1.2730   1.3358   1.7836   1.8379
     2.1891   2.2020   2.3174   2.3732   2.8892   3.0312   3.1462   3.1752
     3.2466   3.2931   3.3014   3.3576   3.4822   3.6009   3.7408   3.7885
     3.7914   3.8525   4.7820   4.8172   4.8291   4.8858   4.9944   5.0015
     5.0178   5.0558   5.1931   5.2386   5.2798   5.3142   5.8545   5.9069
     5.9609   6.0531   6.0692   6.1265   6.1705   6.2056

     occupation numbers 
     1.0000   1.0000   1.0000   1.0000   1.0000   1.0000   1.0000   1.0000
     1.0000   1.0000   1.0000   1.0000   1.0000   1.0000   1.0000   1.0000
     1.0000   1.0000   1.0000   1.0000   1.0000   1.0000   1.0000   1.0000
     1.0000   1.0000   1.0000   1.0000   1.0000   1.0000   1.0000   1.0000
     1.0000   1.0000   1.0000   1.0000   1.0000   1.0000   1.0000   1.0000
     1.0000   1.0000   1.0000   1.0000   1.0000   1.0000   1.0000   1.0000
     1.0000   1.0000   1.0000   1.0000   1.0000   1.0000   1.0000   1.0000
     1.0000   1.0000   1.0000   1.0000   1.0000   1.0000   1.0000   1.0000
     1.0000   1.0000   1.0000   1.0000   1.0000   1.0000   1.0000   1.0000
     1.0000   1.0000   1.0000   1.0000   1.0000   1.0000

          k = 0.2323 1.0569 0.1111 ( 43413 PWs)   bands (ev):

   -20.6844 -20.6820 -20.6706 -20.6683 -15.6638 -15.6638 -15.6547 -15.6547
   -15.6488 -15.6488 -15.5876 -15.5876 -15.5731 -15.5731  -7.0077  -6.9334
    -6.3688  -6.3466  -6.2225  -6.1456  -6.1315  -6.0745  -4.9147  -4.9030
    -4.8529  -4.8233  -4.7891  -4.7704  -4.7512  -4.7382  -4.7031  -4.6768
    -4.6289  -4.6047  -0.8802  -0.8265   1.2754   1.3640   1.6769   1.7893
     2.1810   2.3083   2.3459   2.4177   2.8960   2.9237   3.1730   3.2195
     3.2649   3.3065   3.3246   3.3428   3.4884   3.5470   3.7579   3.7751
     3.7889   3.8394   4.7892   4.8125   4.8527   4.8635   4.9988   5.0241
     5.0383   5.0496   5.1818   5.2063   5.2651   5.3220   5.8303   5.9130
     6.0035   6.0255   6.0592   6.0963   6.1405   6.2482

     occupation numbers 
     1.0000   1.0000   1.0000   1.0000   1.0000   1.0000   1.0000   1.0000
     1.0000   1.0000   1.0000   1.0000   1.0000   1.0000   1.0000   1.0000
     1.0000   1.0000   1.0000   1.0000   1.0000   1.0000   1.0000   1.0000
     1.0000   1.0000   1.0000   1.0000   1.0000   1.0000   1.0000   1.0000
     1.0000   1.0000   1.0000   1.0000   1.0000   1.0000   1.0000   1.0000
     1.0000   1.0000   1.0000   1.0000   1.0000   1.0000   1.0000   1.0000
     1.0000   1.0000   1.0000   1.0000   1.0000   1.0000   1.0000   1.0000
     1.0000   1.0000   1.0000   1.0000   1.0000   1.0000   1.0000   1.0000
     1.0000   1.0000   1.0000   1.0000   1.0000   1.0000   1.0000   1.0000
     1.0000   1.0000   1.0000   1.0000   1.0000   1.0000

          k = 0.2589 1.2358 0.2222 ( 43398 PWs)   bands (ev):

   -20.6888 -20.6862 -20.6667 -20.6642 -15.6638 -15.6638 -15.6546 -15.6546
   -15.6487 -15.6487 -15.5877 -15.5876 -15.5731 -15.5731  -7.0483  -6.9828
    -6.3387  -6.3183  -6.2050  -6.1514  -6.1101  -6.0390  -4.9355  -4.9213
    -4.8271  -4.8013  -4.7731  -4.7719  -4.7500  -4.7263  -4.7219  -4.7087
    -4.6234  -4.6088  -0.8961  -0.8414   1.3734   1.4469   1.6452   1.7635
     2.2052   2.3417   2.3936   2.4899   2.8523   2.8590   3.1603   3.1882
     3.2644   3.3108   3.3419   3.3715   3.4777   3.5495   3.7570   3.7622
     3.7955   3.8377   4.7490   4.7722   4.8305   4.8367   4.9754   4.9988
     5.0828   5.1298   5.1598   5.1841   5.2748   5.3380   5.7996   5.8427
     5.9244   5.9712   6.0231   6.0525   6.2204   6.2959

     occupation numbers 
     1.0000   1.0000   1.0000   1.0000   1.0000   1.0000   1.0000   1.0000
     1.0000   1.0000   1.0000   1.0000   1.0000   1.0000   1.0000   1.0000
     1.0000   1.0000   1.0000   1.0000   1.0000   1.0000   1.0000   1.0000
     1.0000   1.0000   1.0000   1.0000   1.0000   1.0000   1.0000   1.0000
     1.0000   1.0000   1.0000   1.0000   1.0000   1.0000   1.0000   1.0000
     1.0000   1.0000   1.0000   1.0000   1.0000   1.0000   1.0000   1.0000
     1.0000   1.0000   1.0000   1.0000   1.0000   1.0000   1.0000   1.0000
     1.0000   1.0000   1.0000   1.0000   1.0000   1.0000   1.0000   1.0000
     1.0000   1.0000   1.0000   1.0000   1.0000   1.0000   1.0000   1.0000
     1.0000   1.0000   1.0000   1.0000   1.0000   1.0000

          k = 0.2855 1.4147 0.3333 ( 43435 PWs)   bands (ev):

   -20.6929 -20.6913 -20.6621 -20.6606 -15.6638 -15.6638 -15.6545 -15.6545
   -15.6486 -15.6486 -15.5878 -15.5878 -15.5731 -15.5731  -7.0901  -7.0667
    -6.3424  -6.2616  -6.1686  -6.1519  -6.0436  -5.9915  -4.9593  -4.9446
    -4.8258  -4.8138  -4.8052  -4.7694  -4.7497  -4.7438  -4.6835  -4.6716
    -4.6239  -4.6211  -0.8991  -0.8868   1.5323   1.5608   1.6910   1.7576
     2.2657   2.2874   2.4543   2.4770   2.8365   2.9631   3.0193   3.1114
     3.2340   3.2552   3.3664   3.4331   3.4950   3.6101   3.7423   3.7744
     3.7968   3.8213   4.6679   4.6917   4.8421   4.8622   4.9271   4.9371
     5.0517   5.0556   5.2601   5.2766   5.3253   5.3505   5.6780   5.7242
     5.8517   5.9256   6.0137   6.0339   6.2690   6.2918

     occupation numbers 
     1.0000   1.0000   1.0000   1.0000   1.0000   1.0000   1.0000   1.0000
     1.0000   1.0000   1.0000   1.0000   1.0000   1.0000   1.0000   1.0000
     1.0000   1.0000   1.0000   1.0000   1.0000   1.0000   1.0000   1.0000
     1.0000   1.0000   1.0000   1.0000   1.0000   1.0000   1.0000   1.0000
     1.0000   1.0000   1.0000   1.0000   1.0000   1.0000   1.0000   1.0000
     1.0000   1.0000   1.0000   1.0000   1.0000   1.0000   1.0000   1.0000
     1.0000   1.0000   1.0000   1.0000   1.0000   1.0000   1.0000   1.0000
     1.0000   1.0000   1.0000   1.0000   1.0000   1.0000   1.0000   1.0000
     1.0000   1.0000   1.0000   1.0000   1.0000   1.0000   1.0000   1.0000
     1.0000   1.0000   1.0000   1.0000   1.0000   1.0000

          k = 0.3121 1.5936 0.4444 ( 43442 PWs)   bands (ev):

   -20.6989 -20.6907 -20.6631 -20.6550 -15.6638 -15.6637 -15.6544 -15.6543
   -15.6486 -15.6486 -15.5879 -15.5879 -15.5732 -15.5731  -7.1896  -7.0513
    -6.4033  -6.1799  -6.1528  -6.1354  -5.9651  -5.9563  -4.9991  -4.9603
    -4.8927  -4.8516  -4.7850  -4.7350  -4.7252  -4.7181  -4.6697  -4.6496
    -4.6409  -4.6364  -0.9420  -0.8879   1.6401   1.6876   1.7542   1.8428
     2.1335   2.2557   2.4886   2.5860   2.8111   2.9200   3.0189   3.1371
     3.1950   3.2358   3.3801   3.4716   3.4981   3.6147   3.7005   3.7215
     3.7627   3.9192   4.6010   4.6215   4.8516   4.8739   4.9073   4.9123
     4.9881   5.0524   5.3104   5.3482   5.3494   5.3754   5.5184   5.6276
     5.7677   5.9212   6.0124   6.0828   6.1914   6.2562

     occupation numbers 
     1.0000   1.0000   1.0000   1.0000   1.0000   1.0000   1.0000   1.0000
     1.0000   1.0000   1.0000   1.0000   1.0000   1.0000   1.0000   1.0000
     1.0000   1.0000   1.0000   1.0000   1.0000   1.0000   1.0000   1.0000
     1.0000   1.0000   1.0000   1.0000   1.0000   1.0000   1.0000   1.0000
     1.0000   1.0000   1.0000   1.0000   1.0000   1.0000   1.0000   1.0000
     1.0000   1.0000   1.0000   1.0000   1.0000   1.0000   1.0000   1.0000
     1.0000   1.0000   1.0000   1.0000   1.0000   1.0000   1.0000   1.0000
     1.0000   1.0000   1.0000   1.0000   1.0000   1.0000   1.0000   1.0000
     1.0000   1.0000   1.0000   1.0000   1.0000   1.0000   1.0000   1.0000
     1.0000   1.0000   1.0000   1.0000   1.0000   1.0000

          k = 0.0992 0.1623-0.4444 ( 43481 PWs)   bands (ev):

   -20.7024 -20.6874 -20.6665 -20.6517 -15.6638 -15.6637 -15.6544 -15.6543
   -15.6486 -15.6485 -15.5880 -15.5880 -15.5732 -15.5730  -7.2459  -7.0041
    -6.4826  -6.1538  -6.1126  -6.1087  -5.9760  -5.9055  -5.0339  -4.9883
    -4.8783  -4.8545  -4.7698  -4.7530  -4.7107  -4.7065  -4.6630  -4.6575
    -4.6468  -4.6347  -0.9812  -0.8683   1.6890   1.7023   1.7738   2.0191
     2.0701   2.1583   2.4780   2.7259   2.7435   2.8682   2.9828   3.1815
     3.2211   3.2826   3.3860   3.4535   3.4742   3.6037   3.6132   3.7229
     3.7537   4.0043   4.5770   4.5914   4.8387   4.8514   4.8886   4.9363
     4.9924   5.0852   5.2978   5.3439   5.3842   5.4128   5.4275   5.5869
     5.7107   5.9465   6.0028   6.0893   6.1853   6.2302

     occupation numbers 
     1.0000   1.0000   1.0000   1.0000   1.0000   1.0000   1.0000   1.0000
     1.0000   1.0000   1.0000   1.0000   1.0000   1.0000   1.0000   1.0000
     1.0000   1.0000   1.0000   1.0000   1.0000   1.0000   1.0000   1.0000
     1.0000   1.0000   1.0000   1.0000   1.0000   1.0000   1.0000   1.0000
     1.0000   1.0000   1.0000   1.0000   1.0000   1.0000   1.0000   1.0000
     1.0000   1.0000   1.0000   1.0000   1.0000   1.0000   1.0000   1.0000
     1.0000   1.0000   1.0000   1.0000   1.0000   1.0000   1.0000   1.0000
     1.0000   1.0000   1.0000   1.0000   1.0000   1.0000   1.0000   1.0000
     1.0000   1.0000   1.0000   1.0000   1.0000   1.0000   1.0000   1.0000
     1.0000   1.0000   1.0000   1.0000   1.0000   1.0000

          k = 0.1258 0.3412-0.3333 ( 43454 PWs)   bands (ev):

   -20.7023 -20.6826 -20.6711 -20.6517 -15.6638 -15.6637 -15.6544 -15.6543
   -15.6486 -15.6485 -15.5879 -15.5879 -15.5732 -15.5730  -7.2453  -6.9462
    -6.5435  -6.1614  -6.0876  -6.0821  -6.0158  -5.9279  -5.0446  -4.9653
    -4.8692  -4.8227  -4.7903  -4.7372  -4.7204  -4.7136  -4.6889  -4.6606
    -4.6456  -4.6326  -0.9853  -0.8490   1.6125   1.6498   1.7745   1.9806
     2.0772   2.3340   2.4070   2.5581   2.8006   2.9047   3.0308   3.1255
     3.2511   3.2897   3.3800   3.4043   3.5077   3.5665   3.6258   3.7216
     3.7887   4.0216   4.6007   4.6183   4.8364   4.8727   4.8826   4.9145
     4.9985   5.1485   5.2725   5.2946   5.3398   5.4110   5.4812   5.6695
     5.7334   5.9590   6.0054   6.1063   6.1467   6.2523

     occupation numbers 
     1.0000   1.0000   1.0000   1.0000   1.0000   1.0000   1.0000   1.0000
     1.0000   1.0000   1.0000   1.0000   1.0000   1.0000   1.0000   1.0000
     1.0000   1.0000   1.0000   1.0000   1.0000   1.0000   1.0000   1.0000
     1.0000   1.0000   1.0000   1.0000   1.0000   1.0000   1.0000   1.0000
     1.0000   1.0000   1.0000   1.0000   1.0000   1.0000   1.0000   1.0000
     1.0000   1.0000   1.0000   1.0000   1.0000   1.0000   1.0000   1.0000
     1.0000   1.0000   1.0000   1.0000   1.0000   1.0000   1.0000   1.0000
     1.0000   1.0000   1.0000   1.0000   1.0000   1.0000   1.0000   1.0000
     1.0000   1.0000   1.0000   1.0000   1.0000   1.0000   1.0000   1.0000
     1.0000   1.0000   1.0000   1.0000   1.0000   1.0000

          k = 0.1524 0.5201-0.2222 ( 43448 PWs)   bands (ev):

   -20.6984 -20.6790 -20.6743 -20.6552 -15.6638 -15.6637 -15.6545 -15.6544
   -15.6487 -15.6486 -15.5878 -15.5878 -15.5732 -15.5730  -7.1886  -6.9163
    -6.5472  -6.1711  -6.1233  -6.0756  -6.0619  -5.9932  -5.0226  -4.9145
    -4.8582  -4.8551  -4.7507  -4.7408  -4.7330  -4.7297  -4.7055  -4.6676
    -4.6568  -4.6227  -0.9521  -0.8385   1.4795   1.5081   1.8154   1.9638
     2.0596   2.3301   2.3668   2.5598   2.7000   2.9803   3.0797   3.1241
     3.2623   3.2782   3.3545   3.4105   3.4939   3.6123   3.6533   3.7200
     3.8062   3.9732   4.6649   4.6883   4.7903   4.9014   4.9341   4.9548
     5.0176   5.1360   5.1768   5.2690   5.3316   5.3810   5.6217   5.8005
     5.8204   5.9770   6.0442   6.0708   6.1400   6.2262

     occupation numbers 
     1.0000   1.0000   1.0000   1.0000   1.0000   1.0000   1.0000   1.0000
     1.0000   1.0000   1.0000   1.0000   1.0000   1.0000   1.0000   1.0000
     1.0000   1.0000   1.0000   1.0000   1.0000   1.0000   1.0000   1.0000
     1.0000   1.0000   1.0000   1.0000   1.0000   1.0000   1.0000   1.0000
     1.0000   1.0000   1.0000   1.0000   1.0000   1.0000   1.0000   1.0000
     1.0000   1.0000   1.0000   1.0000   1.0000   1.0000   1.0000   1.0000
     1.0000   1.0000   1.0000   1.0000   1.0000   1.0000   1.0000   1.0000
     1.0000   1.0000   1.0000   1.0000   1.0000   1.0000   1.0000   1.0000
     1.0000   1.0000   1.0000   1.0000   1.0000   1.0000   1.0000   1.0000
     1.0000   1.0000   1.0000   1.0000   1.0000   1.0000

          k = 0.1790 0.6991-0.1111 ( 43428 PWs)   bands (ev):

   -20.6919 -20.6799 -20.6729 -20.6613 -15.6638 -15.6638 -15.6546 -15.6546
   -15.6487 -15.6487 -15.5877 -15.5877 -15.5732 -15.5730  -7.0904  -6.9286
    -6.4955  -6.2138  -6.1760  -6.1127  -6.0962  -6.0411  -4.9753  -4.9076
    -4.8620  -4.8048  -4.7837  -4.7731  -4.7592  -4.7467  -4.6970  -4.6652
    -4.6290  -4.6120  -0.8979  -0.8421   1.3606   1.3762   1.8582   1.9136
     2.0748   2.2329   2.2995   2.5100   2.7542   3.0502   3.1158   3.1548
     3.2391   3.2828   3.3463   3.3933   3.4430   3.6394   3.7272   3.7368
     3.7995   3.9005   4.7491   4.7669   4.7705   4.9053   4.9800   4.9995
     5.0448   5.0581   5.1610   5.2793   5.2987   5.3369   5.7832   5.8675
     5.9091   6.0072   6.0578   6.0965   6.1751   6.2010

     occupation numbers 
     1.0000   1.0000   1.0000   1.0000   1.0000   1.0000   1.0000   1.0000
     1.0000   1.0000   1.0000   1.0000   1.0000   1.0000   1.0000   1.0000
     1.0000   1.0000   1.0000   1.0000   1.0000   1.0000   1.0000   1.0000
     1.0000   1.0000   1.0000   1.0000   1.0000   1.0000   1.0000   1.0000
     1.0000   1.0000   1.0000   1.0000   1.0000   1.0000   1.0000   1.0000
     1.0000   1.0000   1.0000   1.0000   1.0000   1.0000   1.0000   1.0000
     1.0000   1.0000   1.0000   1.0000   1.0000   1.0000   1.0000   1.0000
     1.0000   1.0000   1.0000   1.0000   1.0000   1.0000   1.0000   1.0000
     1.0000   1.0000   1.0000   1.0000   1.0000   1.0000   1.0000   1.0000
     1.0000   1.0000   1.0000   1.0000   1.0000   1.0000

          k = 0.2057-0.7772 0.0000 ( 43422 PWs)   bands (ev):

   -20.6849 -20.6813 -20.6713 -20.6679 -15.6638 -15.6638 -15.6547 -15.6547
   -15.6488 -15.6488 -15.5876 -15.5875 -15.5731 -15.5731  -7.0235  -6.9088
    -6.3765  -6.3390  -6.2313  -6.1716  -6.1130  -6.0712  -4.9255  -4.8986
    -4.8519  -4.8153  -4.7938  -4.7745  -4.7418  -4.7317  -4.7088  -4.6956
    -4.6155  -4.5970  -0.8957  -0.8109   1.2166   1.3675   1.7431   1.9096
     2.1130   2.2616   2.3082   2.3993   2.9316   2.9696   3.1576   3.1975
     3.2342   3.2967   3.3001   3.3535   3.4734   3.5796   3.7412   3.7686
     3.8047   3.8626   4.7846   4.8229   4.8465   4.8657   4.9763   5.0206
     5.0321   5.0458   5.1905   5.2351   5.2577   5.3422   5.8249   5.9475
     5.9819   6.0124   6.0409   6.1299   6.1439   6.2692

     occupation numbers 
     1.0000   1.0000   1.0000   1.0000   1.0000   1.0000   1.0000   1.0000
     1.0000   1.0000   1.0000   1.0000   1.0000   1.0000   1.0000   1.0000
     1.0000   1.0000   1.0000   1.0000   1.0000   1.0000   1.0000   1.0000
     1.0000   1.0000   1.0000   1.0000   1.0000   1.0000   1.0000   1.0000
     1.0000   1.0000   1.0000   1.0000   1.0000   1.0000   1.0000   1.0000
     1.0000   1.0000   1.0000   1.0000   1.0000   1.0000   1.0000   1.0000
     1.0000   1.0000   1.0000   1.0000   1.0000   1.0000   1.0000   1.0000
     1.0000   1.0000   1.0000   1.0000   1.0000   1.0000   1.0000   1.0000
     1.0000   1.0000   1.0000   1.0000   1.0000   1.0000   1.0000   1.0000
     1.0000   1.0000   1.0000   1.0000   1.0000   1.0000

          k = 0.2323-0.5983 0.1111 ( 43405 PWs)   bands (ev):

   -20.6902 -20.6841 -20.6688 -20.6628 -15.6638 -15.6638 -15.6546 -15.6546
   -15.6487 -15.6487 -15.5877 -15.5876 -15.5731 -15.5731  -7.0762  -6.9359
    -6.3562  -6.2973  -6.2278  -6.1470  -6.1428  -6.0260  -4.9496  -4.9081
    -4.8248  -4.7907  -4.7751  -4.7738  -4.7519  -4.7320  -4.7043  -4.6964
    -4.6364  -4.6058  -0.9204  -0.8162   1.3094   1.4483   1.6656   1.8662
     2.1343   2.3015   2.4030   2.5181   2.8281   2.8985   3.1630   3.2054
     3.2486   3.3244   3.3315   3.3762   3.4465   3.5454   3.7447   3.7637
     3.7901   3.8552   4.7428   4.7820   4.8244   4.8454   4.9697   5.0085
     5.0552   5.1340   5.1580   5.2054   5.2521   5.3698   5.7946   5.8477
     5.9062   5.9829   6.0320   6.0877   6.1632   6.3099

     occupation numbers 
     1.0000   1.0000   1.0000   1.0000   1.0000   1.0000   1.0000   1.0000
     1.0000   1.0000   1.0000   1.0000   1.0000   1.0000   1.0000   1.0000
     1.0000   1.0000   1.0000   1.0000   1.0000   1.0000   1.0000   1.0000
     1.0000   1.0000   1.0000   1.0000   1.0000   1.0000   1.0000   1.0000
     1.0000   1.0000   1.0000   1.0000   1.0000   1.0000   1.0000   1.0000
     1.0000   1.0000   1.0000   1.0000   1.0000   1.0000   1.0000   1.0000
     1.0000   1.0000   1.0000   1.0000   1.0000   1.0000   1.0000   1.0000
     1.0000   1.0000   1.0000   1.0000   1.0000   1.0000   1.0000   1.0000
     1.0000   1.0000   1.0000   1.0000   1.0000   1.0000   1.0000   1.0000
     1.0000   1.0000   1.0000   1.0000   1.0000   1.0000

          k = 0.2589-0.4194 0.2222 ( 43422 PWs)   bands (ev):

   -20.6939 -20.6901 -20.6633 -20.6596 -15.6638 -15.6638 -15.6545 -15.6545
   -15.6486 -15.6486 -15.5878 -15.5878 -15.5731 -15.5731  -7.1065  -7.0400
    -6.3087  -6.2891  -6.1750  -6.1631  -6.0850  -5.9650  -4.9674  -4.9344
    -4.8341  -4.8016  -4.7932  -4.7682  -4.7497  -4.7427  -4.6923  -4.6594
    -4.6244  -4.6239  -0.9303  -0.8535   1.4973   1.5768   1.6398   1.8308
     2.1886   2.3432   2.3832   2.5590   2.8664   2.9111   3.0238   3.1556
     3.2333   3.2708   3.3564   3.4308   3.4702   3.6268   3.7428   3.7527
     3.7803   3.8258   4.6612   4.7022   4.8454   4.8607   4.9160   4.9487
     5.0308   5.0759   5.2610   5.2718   5.3015   5.3806   5.6983   5.7052
     5.8313   5.9204   6.0174   6.0640   6.2573   6.2940

     occupation numbers 
     1.0000   1.0000   1.0000   1.0000   1.0000   1.0000   1.0000   1.0000
     1.0000   1.0000   1.0000   1.0000   1.0000   1.0000   1.0000   1.0000
     1.0000   1.0000   1.0000   1.0000   1.0000   1.0000   1.0000   1.0000
     1.0000   1.0000   1.0000   1.0000   1.0000   1.0000   1.0000   1.0000
     1.0000   1.0000   1.0000   1.0000   1.0000   1.0000   1.0000   1.0000
     1.0000   1.0000   1.0000   1.0000   1.0000   1.0000   1.0000   1.0000
     1.0000   1.0000   1.0000   1.0000   1.0000   1.0000   1.0000   1.0000
     1.0000   1.0000   1.0000   1.0000   1.0000   1.0000   1.0000   1.0000
     1.0000   1.0000   1.0000   1.0000   1.0000   1.0000   1.0000   1.0000
     1.0000   1.0000   1.0000   1.0000   1.0000   1.0000

          k = 0.2855-0.2405 0.3333 ( 43439 PWs)   bands (ev):

   -20.6962 -20.6943 -20.6595 -20.6577 -15.6638 -15.6638 -15.6544 -15.6544
   -15.6486 -15.6486 -15.5879 -15.5879 -15.5732 -15.5731  -7.1482  -7.1015
    -6.3319  -6.2365  -6.1619  -6.1414  -5.9943  -5.9290  -4.9763  -4.9655
    -4.8887  -4.8773  -4.7702  -4.7382  -4.7285  -4.7173  -4.6720  -4.6468
    -4.6380  -4.6317  -0.9215  -0.9063   1.6203   1.7200   1.7540   1.8131
     2.1723   2.2090   2.4680   2.5934   2.8723   2.9432   3.0179   3.0855
     3.1908   3.2427   3.3643   3.4631   3.5034   3.6438   3.7289   3.7374
     3.7409   3.8750   4.5941   4.6313   4.8581   4.8738   4.9085   4.9127
     5.0073   5.0114   5.3342   5.3388   5.3558   5.3670   5.5496   5.6002
     5.7455   5.9234   6.0129   6.0919   6.2203   6.2468

     occupation numbers 
     1.0000   1.0000   1.0000   1.0000   1.0000   1.0000   1.0000   1.0000
     1.0000   1.0000   1.0000   1.0000   1.0000   1.0000   1.0000   1.0000
     1.0000   1.0000   1.0000   1.0000   1.0000   1.0000   1.0000   1.0000
     1.0000   1.0000   1.0000   1.0000   1.0000   1.0000   1.0000   1.0000
     1.0000   1.0000   1.0000   1.0000   1.0000   1.0000   1.0000   1.0000
     1.0000   1.0000   1.0000   1.0000   1.0000   1.0000   1.0000   1.0000
     1.0000   1.0000   1.0000   1.0000   1.0000   1.0000   1.0000   1.0000
     1.0000   1.0000   1.0000   1.0000   1.0000   1.0000   1.0000   1.0000
     1.0000   1.0000   1.0000   1.0000   1.0000   1.0000   1.0000   1.0000
     1.0000   1.0000   1.0000   1.0000   1.0000   1.0000

          k = 0.3121-0.0616 0.4444 ( 43469 PWs)   bands (ev):

   -20.7002 -20.6916 -20.6624 -20.6538 -15.6638 -15.6637 -15.6543 -15.6543
   -15.6486 -15.6485 -15.5880 -15.5880 -15.5732 -15.5731  -7.2171  -7.0603
    -6.4070  -6.1640  -6.1399  -6.1335  -5.9363  -5.9357  -5.0047  -4.9826
    -4.8981  -4.8859  -4.7488  -4.7446  -4.7158  -4.7065  -4.6738  -4.6598
    -4.6391  -4.6334  -0.9500  -0.8987   1.6421   1.7456   1.8276   1.9533
     2.0733   2.1454   2.5728   2.5980   2.8039   2.8823   3.0208   3.1432
     3.1892   3.2884   3.3389   3.4651   3.4999   3.6308   3.6465   3.7166
     3.7316   3.9889   4.5695   4.5999   4.8402   4.8504   4.9261   4.9368
     4.9861   5.0273   5.3218   5.3484   5.3919   5.3987   5.4436   5.5675
     5.6833   5.9543   6.0229   6.1161   6.1724   6.2140

     occupation numbers 
     1.0000   1.0000   1.0000   1.0000   1.0000   1.0000   1.0000   1.0000
     1.0000   1.0000   1.0000   1.0000   1.0000   1.0000   1.0000   1.0000
     1.0000   1.0000   1.0000   1.0000   1.0000   1.0000   1.0000   1.0000
     1.0000   1.0000   1.0000   1.0000   1.0000   1.0000   1.0000   1.0000
     1.0000   1.0000   1.0000   1.0000   1.0000   1.0000   1.0000   1.0000
     1.0000   1.0000   1.0000   1.0000   1.0000   1.0000   1.0000   1.0000
     1.0000   1.0000   1.0000   1.0000   1.0000   1.0000   1.0000   1.0000
     1.0000   1.0000   1.0000   1.0000   1.0000   1.0000   1.0000   1.0000
     1.0000   1.0000   1.0000   1.0000   1.0000   1.0000   1.0000   1.0000
     1.0000   1.0000   1.0000   1.0000   1.0000   1.0000

          k = 0.0992-1.4929-0.4444 ( 43478 PWs)   bands (ev):

   -20.7009 -20.6868 -20.6670 -20.6530 -15.6638 -15.6637 -15.6544 -15.6543
   -15.6486 -15.6485 -15.5879 -15.5879 -15.5732 -15.5730  -7.2293  -6.9969
    -6.4863  -6.1462  -6.1105  -6.1072  -5.9747  -5.9537  -5.0243  -4.9629
    -4.8877  -4.8211  -4.8097  -4.7306  -4.7238  -4.7148  -4.6831  -4.6574
    -4.6456  -4.6379  -0.9634  -0.8721   1.6224   1.6526   1.8086   1.9092
     2.1063   2.3099   2.4688   2.5856   2.7550   2.8705   3.0509   3.1493
     3.2297   3.2559   3.3376   3.4291   3.5004   3.5991   3.6637   3.7238
     3.7699   4.0249   4.5937   4.6253   4.8406   4.8753   4.8979   4.9117
     4.9960   5.0953   5.2907   5.3278   5.3468   5.3866   5.4876   5.6533
     5.7082   5.9521   6.0250   6.1151   6.1560   6.2576

     occupation numbers 
     1.0000   1.0000   1.0000   1.0000   1.0000   1.0000   1.0000   1.0000
     1.0000   1.0000   1.0000   1.0000   1.0000   1.0000   1.0000   1.0000
     1.0000   1.0000   1.0000   1.0000   1.0000   1.0000   1.0000   1.0000
     1.0000   1.0000   1.0000   1.0000   1.0000   1.0000   1.0000   1.0000
     1.0000   1.0000   1.0000   1.0000   1.0000   1.0000   1.0000   1.0000
     1.0000   1.0000   1.0000   1.0000   1.0000   1.0000   1.0000   1.0000
     1.0000   1.0000   1.0000   1.0000   1.0000   1.0000   1.0000   1.0000
     1.0000   1.0000   1.0000   1.0000   1.0000   1.0000   1.0000   1.0000
     1.0000   1.0000   1.0000   1.0000   1.0000   1.0000   1.0000   1.0000
     1.0000   1.0000   1.0000   1.0000   1.0000   1.0000

          k = 0.1258-1.3140-0.3333 ( 43458 PWs)   bands (ev):

   -20.6980 -20.6816 -20.6717 -20.6556 -15.6638 -15.6637 -15.6545 -15.6544
   -15.6487 -15.6486 -15.5878 -15.5878 -15.5732 -15.5730  -7.1831  -6.9433
    -6.5318  -6.1652  -6.1134  -6.0837  -6.0335  -6.0075  -5.0151  -4.9224
    -4.8623  -4.8569  -4.7576  -4.7403  -4.7396  -4.7301  -4.7122  -4.6708
    -4.6475  -4.6227  -0.9393  -0.8531   1.4991   1.5168   1.8242   1.9014
     2.1027   2.3468   2.3826   2.5533   2.6819   2.9485   3.0766   3.1396
     3.2496   3.2690   3.3606   3.3897   3.4945   3.6122   3.6987   3.7161
     3.7984   3.9901   4.6583   4.6927   4.7911   4.9023   4.9396   4.9488
     5.0220   5.1141   5.1942   5.2721   5.3433   5.3607   5.6172   5.7747
     5.8159   6.0055   6.0382   6.0460   6.1693   6.2462

     occupation numbers 
     1.0000   1.0000   1.0000   1.0000   1.0000   1.0000   1.0000   1.0000
     1.0000   1.0000   1.0000   1.0000   1.0000   1.0000   1.0000   1.0000
     1.0000   1.0000   1.0000   1.0000   1.0000   1.0000   1.0000   1.0000
     1.0000   1.0000   1.0000   1.0000   1.0000   1.0000   1.0000   1.0000
     1.0000   1.0000   1.0000   1.0000   1.0000   1.0000   1.0000   1.0000
     1.0000   1.0000   1.0000   1.0000   1.0000   1.0000   1.0000   1.0000
     1.0000   1.0000   1.0000   1.0000   1.0000   1.0000   1.0000   1.0000
     1.0000   1.0000   1.0000   1.0000   1.0000   1.0000   1.0000   1.0000
     1.0000   1.0000   1.0000   1.0000   1.0000   1.0000   1.0000   1.0000
     1.0000   1.0000   1.0000   1.0000   1.0000   1.0000

          k = 0.1524-1.1351-0.2222 ( 43422 PWs)   bands (ev):

   -20.6920 -20.6792 -20.6736 -20.6612 -15.6638 -15.6638 -15.6546 -15.6546
   -15.6487 -15.6487 -15.5877 -15.5877 -15.5732 -15.5730  -7.0903  -6.9348
    -6.5157  -6.1941  -6.1805  -6.1039  -6.0824  -6.0326  -4.9764  -4.9181
    -4.8670  -4.8084  -4.7857  -4.7828  -4.7580  -4.7488  -4.6950  -4.6604
    -4.6271  -4.6122  -0.8899  -0.8508   1.3450   1.4053   1.8834   1.9286
     2.0590   2.1954   2.3202   2.5056   2.7511   3.0212   3.1376   3.1449
     3.2294   3.2646   3.3538   3.4059   3.4346   3.6787   3.7219   3.7257
     3.7839   3.9273   4.7419   4.7588   4.7716   4.9199   4.9800   4.9997
     5.0290   5.0621   5.1569   5.2921   5.3115   5.3247   5.7729   5.8471
     5.9215   6.0366   6.0604   6.1063   6.1600   6.2009

     occupation numbers 
     1.0000   1.0000   1.0000   1.0000   1.0000   1.0000   1.0000   1.0000
     1.0000   1.0000   1.0000   1.0000   1.0000   1.0000   1.0000   1.0000
     1.0000   1.0000   1.0000   1.0000   1.0000   1.0000   1.0000   1.0000
     1.0000   1.0000   1.0000   1.0000   1.0000   1.0000   1.0000   1.0000
     1.0000   1.0000   1.0000   1.0000   1.0000   1.0000   1.0000   1.0000
     1.0000   1.0000   1.0000   1.0000   1.0000   1.0000   1.0000   1.0000
     1.0000   1.0000   1.0000   1.0000   1.0000   1.0000   1.0000   1.0000
     1.0000   1.0000   1.0000   1.0000   1.0000   1.0000   1.0000   1.0000
     1.0000   1.0000   1.0000   1.0000   1.0000   1.0000   1.0000   1.0000
     1.0000   1.0000   1.0000   1.0000   1.0000   1.0000

          k = 0.1790-0.9561-0.1111 ( 43444 PWs)   bands (ev):

   -20.6851 -20.6808 -20.6717 -20.6676 -15.6638 -15.6638 -15.6547 -15.6547
   -15.6488 -15.6488 -15.5876 -15.5876 -15.5731 -15.5731  -6.9804  -6.9691
    -6.4540  -6.2822  -6.1919  -6.1628  -6.1030  -6.0584  -4.9280  -4.9182
    -4.8545  -4.8176  -4.7987  -4.7939  -4.7535  -4.7405  -4.7169  -4.6692
    -4.6042  -4.5949  -0.8677  -0.8395   1.2350   1.3523   1.8516   1.9526
     2.1092   2.1194   2.3316   2.3394   2.9251   3.0655   3.1191   3.1516
     3.2082   3.2656   3.3225   3.3740   3.4590   3.6462   3.7316   3.7697
     3.7908   3.8854   4.7727   4.8122   4.8246   4.9032   4.9858   4.9910
     5.0035   5.0601   5.1940   5.2580   5.2889   5.3227   5.8550   5.8996
     5.9566   6.0647   6.0830   6.1552   6.1810   6.1870

     occupation numbers 
     1.0000   1.0000   1.0000   1.0000   1.0000   1.0000   1.0000   1.0000
     1.0000   1.0000   1.0000   1.0000   1.0000   1.0000   1.0000   1.0000
     1.0000   1.0000   1.0000   1.0000   1.0000   1.0000   1.0000   1.0000
     1.0000   1.0000   1.0000   1.0000   1.0000   1.0000   1.0000   1.0000
     1.0000   1.0000   1.0000   1.0000   1.0000   1.0000   1.0000   1.0000
     1.0000   1.0000   1.0000   1.0000   1.0000   1.0000   1.0000   1.0000
     1.0000   1.0000   1.0000   1.0000   1.0000   1.0000   1.0000   1.0000
     1.0000   1.0000   1.0000   1.0000   1.0000   1.0000   1.0000   1.0000
     1.0000   1.0000   1.0000   1.0000   1.0000   1.0000   1.0000   1.0000
     1.0000   1.0000   1.0000   1.0000   1.0000   1.0000

          k = 0.2057-0.5703 0.0000 ( 43432 PWs)   bands (ev):

   -20.6913 -20.6818 -20.6710 -20.6618 -15.6638 -15.6638 -15.6546 -15.6546
   -15.6487 -15.6487 -15.5877 -15.5876 -15.5732 -15.5731  -7.0950  -6.8921
    -6.3730  -6.2961  -6.2353  -6.1714  -6.1414  -6.0222  -4.9656  -4.8920
    -4.8246  -4.7796  -4.7738  -4.7723  -4.7488  -4.7381  -4.6945  -4.6852
    -4.6439  -4.6081  -0.9383  -0.7974   1.2524   1.4434   1.7242   1.9763
     2.0661   2.2090   2.4204   2.5287   2.8073   2.9582   3.1613   3.2210
     3.2453   3.3122   3.3259   3.3739   3.4308   3.5310   3.7218   3.7762
     3.7943   3.8659   4.7395   4.7905   4.8192   4.8537   4.9635   5.0184
     5.0357   5.1093   5.1817   5.2138   5.2454   5.3967   5.8070   5.8468
     5.8895   5.9928   6.0422   6.1006   6.1324   6.3005

     occupation numbers 
     1.0000   1.0000   1.0000   1.0000   1.0000   1.0000   1.0000   1.0000
     1.0000   1.0000   1.0000   1.0000   1.0000   1.0000   1.0000   1.0000
     1.0000   1.0000   1.0000   1.0000   1.0000   1.0000   1.0000   1.0000
     1.0000   1.0000   1.0000   1.0000   1.0000   1.0000   1.0000   1.0000
     1.0000   1.0000   1.0000   1.0000   1.0000   1.0000   1.0000   1.0000
     1.0000   1.0000   1.0000   1.0000   1.0000   1.0000   1.0000   1.0000
     1.0000   1.0000   1.0000   1.0000   1.0000   1.0000   1.0000   1.0000
     1.0000   1.0000   1.0000   1.0000   1.0000   1.0000   1.0000   1.0000
     1.0000   1.0000   1.0000   1.0000   1.0000   1.0000   1.0000   1.0000
     1.0000   1.0000   1.0000   1.0000   1.0000   1.0000

          k = 0.2323-0.3914 0.1111 ( 43419 PWs)   bands (ev):

   -20.6959 -20.6870 -20.6663 -20.6576 -15.6638 -15.6638 -15.6545 -15.6544
   -15.6487 -15.6486 -15.5878 -15.5878 -15.5732 -15.5731  -7.1366  -6.9824
    -6.3642  -6.2414  -6.1850  -6.1778  -6.1178  -5.9498  -4.9878  -4.9195
    -4.8413  -4.7808  -4.7727  -4.7650  -4.7496  -4.7387  -4.7009  -4.6452
    -4.6309  -4.6293  -0.9560  -0.8251   1.4391   1.5767   1.6415   1.9230
     2.1140   2.2800   2.4206   2.6382   2.7495   2.9810   3.0440   3.2004
     3.2572   3.2922   3.3436   3.4241   3.4413   3.5983   3.7187   3.7273
     3.7878   3.8394   4.6581   4.7104   4.8306   4.8766   4.9108   4.9609
     5.0076   5.1002   5.2538   5.2595   5.2856   5.4144   5.6854   5.7315
     5.8138   5.9248   6.0206   6.0952   6.2230   6.2793

     occupation numbers 
     1.0000   1.0000   1.0000   1.0000   1.0000   1.0000   1.0000   1.0000
     1.0000   1.0000   1.0000   1.0000   1.0000   1.0000   1.0000   1.0000
     1.0000   1.0000   1.0000   1.0000   1.0000   1.0000   1.0000   1.0000
     1.0000   1.0000   1.0000   1.0000   1.0000   1.0000   1.0000   1.0000
     1.0000   1.0000   1.0000   1.0000   1.0000   1.0000   1.0000   1.0000
     1.0000   1.0000   1.0000   1.0000   1.0000   1.0000   1.0000   1.0000
     1.0000   1.0000   1.0000   1.0000   1.0000   1.0000   1.0000   1.0000
     1.0000   1.0000   1.0000   1.0000   1.0000   1.0000   1.0000   1.0000
     1.0000   1.0000   1.0000   1.0000   1.0000   1.0000   1.0000   1.0000
     1.0000   1.0000   1.0000   1.0000   1.0000   1.0000

          k = 0.2589-0.2125 0.2222 ( 43454 PWs)   bands (ev):

   -20.6974 -20.6929 -20.6609 -20.6565 -15.6638 -15.6638 -15.6544 -15.6543
   -15.6486 -15.6486 -15.5879 -15.5879 -15.5732 -15.5731  -7.1429  -7.0937
    -6.3075  -6.2617  -6.1901  -6.1359  -6.0306  -5.9035  -4.9906  -4.9544
    -4.8870  -4.8684  -4.7544  -4.7414  -4.7304  -4.7166  -4.6794  -4.6478
    -4.6365  -4.6158  -0.9526  -0.8711   1.5984   1.6876   1.7440   1.8735
     2.1546   2.2125   2.3624   2.6897   2.8942   2.9032   3.0317   3.1397
     3.1909   3.2603   3.3396   3.4523   3.5013   3.6644   3.7026   3.7540
     3.7647   3.8035   4.5906   4.6394   4.8622   4.8684   4.9082   4.9120
     4.9728   5.0476   5.3175   5.3435   5.3489   5.3933   5.5705   5.5890
     5.7308   5.9348   5.9988   6.1031   6.2352   6.2470

     occupation numbers 
     1.0000   1.0000   1.0000   1.0000   1.0000   1.0000   1.0000   1.0000
     1.0000   1.0000   1.0000   1.0000   1.0000   1.0000   1.0000   1.0000
     1.0000   1.0000   1.0000   1.0000   1.0000   1.0000   1.0000   1.0000
     1.0000   1.0000   1.0000   1.0000   1.0000   1.0000   1.0000   1.0000
     1.0000   1.0000   1.0000   1.0000   1.0000   1.0000   1.0000   1.0000
     1.0000   1.0000   1.0000   1.0000   1.0000   1.0000   1.0000   1.0000
     1.0000   1.0000   1.0000   1.0000   1.0000   1.0000   1.0000   1.0000
     1.0000   1.0000   1.0000   1.0000   1.0000   1.0000   1.0000   1.0000
     1.0000   1.0000   1.0000   1.0000   1.0000   1.0000   1.0000   1.0000
     1.0000   1.0000   1.0000   1.0000   1.0000   1.0000

          k = 0.2855-0.0336 0.3333 ( 43469 PWs)   bands (ev):

   -20.6974 -20.6954 -20.6586 -20.6566 -15.6638 -15.6638 -15.6543 -15.6543
   -15.6485 -15.6485 -15.5880 -15.5880 -15.5732 -15.5731  -7.1729  -7.1108
    -6.3278  -6.2303  -6.1738  -6.1228  -5.9705  -5.9033  -4.9828  -4.9778
    -4.9070  -4.9064  -4.7401  -4.7311  -4.7187  -4.7076  -4.6770  -4.6631
    -4.6431  -4.6153  -0.9307  -0.9140   1.6012   1.8022   1.8687   1.8865
     2.0765   2.1205   2.4659   2.6704   2.8237   2.9777   3.0357   3.0927
     3.1902   3.2874   3.2934   3.4578   3.5347   3.6425   3.6774   3.6865
     3.7478   3.9342   4.5651   4.6079   4.8419   4.8481   4.9397   4.9719
     4.9727   4.9773   5.3519   5.3576   5.3680   5.3831   5.4892   5.5463
     5.6694   5.9657   6.0211   6.1325   6.1707   6.2107

     occupation numbers 
     1.0000   1.0000   1.0000   1.0000   1.0000   1.0000   1.0000   1.0000
     1.0000   1.0000   1.0000   1.0000   1.0000   1.0000   1.0000   1.0000
     1.0000   1.0000   1.0000   1.0000   1.0000   1.0000   1.0000   1.0000
     1.0000   1.0000   1.0000   1.0000   1.0000   1.0000   1.0000   1.0000
     1.0000   1.0000   1.0000   1.0000   1.0000   1.0000   1.0000   1.0000
     1.0000   1.0000   1.0000   1.0000   1.0000   1.0000   1.0000   1.0000
     1.0000   1.0000   1.0000   1.0000   1.0000   1.0000   1.0000   1.0000
     1.0000   1.0000   1.0000   1.0000   1.0000   1.0000   1.0000   1.0000
     1.0000   1.0000   1.0000   1.0000   1.0000   1.0000   1.0000   1.0000
     1.0000   1.0000   1.0000   1.0000   1.0000   1.0000

          k = 0.3121 0.1453 0.4444 ( 43475 PWs)   bands (ev):

   -20.6989 -20.6907 -20.6631 -20.6550 -15.6638 -15.6637 -15.6544 -15.6543
   -15.6486 -15.6486 -15.5879 -15.5879 -15.5732 -15.5731  -7.1979  -7.0498
    -6.4155  -6.1575  -6.1371  -6.1356  -5.9844  -5.9400  -4.9980  -4.9628
    -4.8957  -4.8516  -4.7931  -4.7328  -4.7228  -4.7153  -4.6815  -4.6472
    -4.6451  -4.6383  -0.9334  -0.8998   1.6078   1.6880   1.8185   1.8419
     2.1415   2.2659   2.5128   2.5514   2.7987   2.8707   3.1036   3.1455
     3.1772   3.2327   3.3152   3.4512   3.4875   3.6299   3.6961   3.7312
     3.7490   3.9884   4.5888   4.6336   4.8477   4.8775   4.9082   4.9122
     4.9978   5.0455   5.3137   5.3462   5.3559   5.3644   5.5063   5.6334
     5.6962   5.9338   6.0370   6.1156   6.1853   6.2583

     occupation numbers 
     1.0000   1.0000   1.0000   1.0000   1.0000   1.0000   1.0000   1.0000
     1.0000   1.0000   1.0000   1.0000   1.0000   1.0000   1.0000   1.0000
     1.0000   1.0000   1.0000   1.0000   1.0000   1.0000   1.0000   1.0000
     1.0000   1.0000   1.0000   1.0000   1.0000   1.0000   1.0000   1.0000
     1.0000   1.0000   1.0000   1.0000   1.0000   1.0000   1.0000   1.0000
     1.0000   1.0000   1.0000   1.0000   1.0000   1.0000   1.0000   1.0000
     1.0000   1.0000   1.0000   1.0000   1.0000   1.0000   1.0000   1.0000
     1.0000   1.0000   1.0000   1.0000   1.0000   1.0000   1.0000   1.0000
     1.0000   1.0000   1.0000   1.0000   1.0000   1.0000   1.0000   1.0000
     1.0000   1.0000   1.0000   1.0000   1.0000   1.0000

          k = 0.0992-1.2860-0.4444 ( 43436 PWs)   bands (ev):

   -20.6968 -20.6850 -20.6683 -20.6567 -15.6638 -15.6637 -15.6545 -15.6544
   -15.6486 -15.6486 -15.5878 -15.5878 -15.5732 -15.5730  -7.1642  -6.9843
    -6.4886  -6.1644  -6.1195  -6.0994  -6.0562  -5.9873  -5.0005  -4.9297
    -4.8564  -4.8526  -4.7625  -4.7605  -4.7390  -4.7270  -4.7157  -4.6739
    -4.6362  -4.6214  -0.9195  -0.8725   1.5020   1.5499   1.7953   1.8300
     2.1668   2.3492   2.4104   2.5478   2.6617   2.9321   3.1175   3.1568
     3.2176   3.2579   3.3429   3.3750   3.4892   3.6263   3.7152   3.7411
     3.7933   3.9720   4.6535   4.6991   4.8003   4.8974   4.9390   4.9458
     5.0279   5.0912   5.2169   5.2777   5.3368   5.3542   5.6191   5.7658
     5.7997   5.9767   6.0470   6.0487   6.2056   6.2724

     occupation numbers 
     1.0000   1.0000   1.0000   1.0000   1.0000   1.0000   1.0000   1.0000
     1.0000   1.0000   1.0000   1.0000   1.0000   1.0000   1.0000   1.0000
     1.0000   1.0000   1.0000   1.0000   1.0000   1.0000   1.0000   1.0000
     1.0000   1.0000   1.0000   1.0000   1.0000   1.0000   1.0000   1.0000
     1.0000   1.0000   1.0000   1.0000   1.0000   1.0000   1.0000   1.0000
     1.0000   1.0000   1.0000   1.0000   1.0000   1.0000   1.0000   1.0000
     1.0000   1.0000   1.0000   1.0000   1.0000   1.0000   1.0000   1.0000
     1.0000   1.0000   1.0000   1.0000   1.0000   1.0000   1.0000   1.0000
     1.0000   1.0000   1.0000   1.0000   1.0000   1.0000   1.0000   1.0000
     1.0000   1.0000   1.0000   1.0000   1.0000   1.0000

          k = 0.1258-1.1071-0.3333 ( 43422 PWs)   bands (ev):

   -20.6917 -20.6806 -20.6722 -20.6615 -15.6638 -15.6638 -15.6546 -15.6546
   -15.6487 -15.6487 -15.5877 -15.5877 -15.5732 -15.5730  -7.0813  -6.9526
    -6.5095  -6.1924  -6.1785  -6.1148  -6.0808  -6.0172  -4.9730  -4.9227
    -4.8709  -4.8035  -4.7903  -4.7800  -4.7586  -4.7521  -4.6943  -4.6697
    -4.6272  -4.6068  -0.8789  -0.8616   1.3422   1.4370   1.8274   1.8795
     2.1289   2.2068   2.3441   2.5079   2.7222   3.0238   3.1402   3.1456
     3.2087   3.2745   3.3635   3.3979   3.4312   3.6741   3.7103   3.7582
     3.7769   3.9293   4.7362   4.7588   4.7753   4.9155   4.9841   4.9974
     5.0409   5.0664   5.1496   5.2872   5.3069   5.3253   5.7636   5.8397
     5.9241   6.0456   6.0582   6.0727   6.1879   6.2244

     occupation numbers 
     1.0000   1.0000   1.0000   1.0000   1.0000   1.0000   1.0000   1.0000
     1.0000   1.0000   1.0000   1.0000   1.0000   1.0000   1.0000   1.0000
     1.0000   1.0000   1.0000   1.0000   1.0000   1.0000   1.0000   1.0000
     1.0000   1.0000   1.0000   1.0000   1.0000   1.0000   1.0000   1.0000
     1.0000   1.0000   1.0000   1.0000   1.0000   1.0000   1.0000   1.0000
     1.0000   1.0000   1.0000   1.0000   1.0000   1.0000   1.0000   1.0000
     1.0000   1.0000   1.0000   1.0000   1.0000   1.0000   1.0000   1.0000
     1.0000   1.0000   1.0000   1.0000   1.0000   1.0000   1.0000   1.0000
     1.0000   1.0000   1.0000   1.0000   1.0000   1.0000   1.0000   1.0000
     1.0000   1.0000   1.0000   1.0000   1.0000   1.0000

          k = 0.1524-0.9282-0.2222 ( 43457 PWs)   bands (ev):

   -20.6852 -20.6807 -20.6719 -20.6676 -15.6638 -15.6638 -15.6547 -15.6547
   -15.6488 -15.6488 -15.5876 -15.5876 -15.5731 -15.5731  -6.9754  -6.9746
    -6.4679  -6.2619  -6.1982  -6.1799  -6.0900  -6.0467  -4.9267  -4.9242
    -4.8512  -4.8181  -4.8035  -4.8001  -4.7536  -4.7466  -4.7148  -4.6644
    -4.6011  -4.5943  -0.8748  -0.8319   1.2158   1.3720   1.8684   2.0178
     2.0685   2.0778   2.3201   2.3552   2.9413   3.0455   3.1119   3.1514
     3.2062   3.2455   3.3436   3.3838   3.4360   3.6712   3.7230   3.7535
     3.7946   3.9022   4.7657   4.8028   4.8290   4.9138   4.9840   4.9864
     4.9982   5.0642   5.1896   5.2530   5.3071   5.3258   5.8586   5.8728
     5.9714   6.0772   6.0837   6.1595   6.1803   6.1951

     occupation numbers 
     1.0000   1.0000   1.0000   1.0000   1.0000   1.0000   1.0000   1.0000
     1.0000   1.0000   1.0000   1.0000   1.0000   1.0000   1.0000   1.0000
     1.0000   1.0000   1.0000   1.0000   1.0000   1.0000   1.0000   1.0000
     1.0000   1.0000   1.0000   1.0000   1.0000   1.0000   1.0000   1.0000
     1.0000   1.0000   1.0000   1.0000   1.0000   1.0000   1.0000   1.0000
     1.0000   1.0000   1.0000   1.0000   1.0000   1.0000   1.0000   1.0000
     1.0000   1.0000   1.0000   1.0000   1.0000   1.0000   1.0000   1.0000
     1.0000   1.0000   1.0000   1.0000   1.0000   1.0000   1.0000   1.0000
     1.0000   1.0000   1.0000   1.0000   1.0000   1.0000   1.0000   1.0000
     1.0000   1.0000   1.0000   1.0000   1.0000   1.0000

          k = 0.1790-0.7492-0.1111 ( 43424 PWs)   bands (ev):

   -20.6852 -20.6808 -20.6718 -20.6676 -15.6638 -15.6638 -15.6547 -15.6547
   -15.6488 -15.6487 -15.5876 -15.5875 -15.5731 -15.5731  -7.0330  -6.8914
    -6.3893  -6.3187  -6.2428  -6.1938  -6.0948  -6.0756  -4.9341  -4.8912
    -4.8483  -4.8108  -4.7950  -4.7810  -4.7354  -4.7275  -4.7145  -4.7077
    -4.6040  -4.5942  -0.9060  -0.8002   1.1759   1.3722   1.8344   2.0196
     2.0319   2.2048   2.2323   2.4238   2.9753   3.0015   3.1277   3.1693
     3.2174   3.2795   3.2992   3.3628   3.4546   3.6045   3.7291   3.7631
     3.8169   3.8799   4.7829   4.8301   4.8388   4.8686   4.9609   5.0172
     5.0282   5.0431   5.1945   5.2392   5.2753   5.3546   5.8369   5.9280
     5.9848   6.0085   6.0294   6.1314   6.1853   6.2742

     occupation numbers 
     1.0000   1.0000   1.0000   1.0000   1.0000   1.0000   1.0000   1.0000
     1.0000   1.0000   1.0000   1.0000   1.0000   1.0000   1.0000   1.0000
     1.0000   1.0000   1.0000   1.0000   1.0000   1.0000   1.0000   1.0000
     1.0000   1.0000   1.0000   1.0000   1.0000   1.0000   1.0000   1.0000
     1.0000   1.0000   1.0000   1.0000   1.0000   1.0000   1.0000   1.0000
     1.0000   1.0000   1.0000   1.0000   1.0000   1.0000   1.0000   1.0000
     1.0000   1.0000   1.0000   1.0000   1.0000   1.0000   1.0000   1.0000
     1.0000   1.0000   1.0000   1.0000   1.0000   1.0000   1.0000   1.0000
     1.0000   1.0000   1.0000   1.0000   1.0000   1.0000   1.0000   1.0000
     1.0000   1.0000   1.0000   1.0000   1.0000   1.0000

          k = 0.2057-0.3634 0.0000 ( 43436 PWs)   bands (ev):

   -20.6974 -20.6836 -20.6696 -20.6562 -15.6638 -15.6638 -15.6545 -15.6544
   -15.6487 -15.6486 -15.5878 -15.5878 -15.5732 -15.5730  -7.1576  -6.9254
    -6.4260  -6.2092  -6.1914  -6.1868  -6.1330  -5.9436  -5.0084  -4.9112
    -4.8359  -4.7840  -4.7517  -4.7484  -4.7444  -4.7339  -4.7056  -4.6422
    -4.6388  -4.6326  -0.9737  -0.8053   1.3910   1.5694   1.6693   2.0194
     2.0593   2.1998   2.4681   2.6317   2.6978   3.0351   3.0684   3.2180
     3.3082   3.3201   3.3310   3.4117   3.4287   3.5258   3.6788   3.7356
     3.7992   3.8481   4.6579   4.7145   4.8195   4.8842   4.9145   4.9718
     4.9889   5.1250   5.2289   5.2567   5.2760   5.4431   5.6688   5.7705
     5.8046   5.9462   6.0212   6.1173   6.1668   6.2536

     occupation numbers 
     1.0000   1.0000   1.0000   1.0000   1.0000   1.0000   1.0000   1.0000
     1.0000   1.0000   1.0000   1.0000   1.0000   1.0000   1.0000   1.0000
     1.0000   1.0000   1.0000   1.0000   1.0000   1.0000   1.0000   1.0000
     1.0000   1.0000   1.0000   1.0000   1.0000   1.0000   1.0000   1.0000
     1.0000   1.0000   1.0000   1.0000   1.0000   1.0000   1.0000   1.0000
     1.0000   1.0000   1.0000   1.0000   1.0000   1.0000   1.0000   1.0000
     1.0000   1.0000   1.0000   1.0000   1.0000   1.0000   1.0000   1.0000
     1.0000   1.0000   1.0000   1.0000   1.0000   1.0000   1.0000   1.0000
     1.0000   1.0000   1.0000   1.0000   1.0000   1.0000   1.0000   1.0000
     1.0000   1.0000   1.0000   1.0000   1.0000   1.0000

          k = 0.2323-0.1845 0.1111 ( 43436 PWs)   bands (ev):

   -20.6998 -20.6891 -20.6646 -20.6541 -15.6638 -15.6638 -15.6544 -15.6543
   -15.6486 -15.6485 -15.5880 -15.5879 -15.5732 -15.5731  -7.1760  -7.0298
    -6.3892  -6.2138  -6.1973  -6.1336  -6.0587  -5.8885  -5.0145  -4.9559
    -4.8761  -4.8376  -4.7580  -4.7344  -4.7300  -4.7161  -4.6814  -4.6530
    -4.6359  -4.6010  -0.9778  -0.8418   1.5818   1.6394   1.7482   1.9512
     2.1054   2.2500   2.2795   2.7454   2.8070   2.9161   3.1056   3.1745
     3.2246   3.2947   3.3100   3.4434   3.5003   3.6604   3.6744   3.6932
     3.7880   3.7959   4.5907   4.6435   4.8592   4.8638   4.9006   4.9145
     4.9578   5.0895   5.2989   5.3317   5.3447   5.4255   5.5413   5.6286
     5.7283   5.9693   5.9769   6.0985   6.2287   6.2595

     occupation numbers 
     1.0000   1.0000   1.0000   1.0000   1.0000   1.0000   1.0000   1.0000
     1.0000   1.0000   1.0000   1.0000   1.0000   1.0000   1.0000   1.0000
     1.0000   1.0000   1.0000   1.0000   1.0000   1.0000   1.0000   1.0000
     1.0000   1.0000   1.0000   1.0000   1.0000   1.0000   1.0000   1.0000
     1.0000   1.0000   1.0000   1.0000   1.0000   1.0000   1.0000   1.0000
     1.0000   1.0000   1.0000   1.0000   1.0000   1.0000   1.0000   1.0000
     1.0000   1.0000   1.0000   1.0000   1.0000   1.0000   1.0000   1.0000
     1.0000   1.0000   1.0000   1.0000   1.0000   1.0000   1.0000   1.0000
     1.0000   1.0000   1.0000   1.0000   1.0000   1.0000   1.0000   1.0000
     1.0000   1.0000   1.0000   1.0000   1.0000   1.0000

          k = 0.2589-0.0056 0.2222 ( 43467 PWs)   bands (ev):

   -20.6986 -20.6939 -20.6601 -20.6554 -15.6638 -15.6638 -15.6543 -15.6543
   -15.6485 -15.6485 -15.5880 -15.5880 -15.5732 -15.5731  -7.1544  -7.1151
    -6.3117  -6.2500  -6.2042  -6.1176  -6.0015  -5.8811  -4.9982  -4.9704
    -4.9069  -4.8905  -4.7451  -4.7188  -4.7185  -4.7095  -4.6760  -4.6611
    -4.6458  -4.5983  -0.9601  -0.8792   1.5734   1.8212   1.8707   1.8922
     2.0803   2.0902   2.3666   2.7623   2.8398   2.9216   3.0916   3.1498
     3.1747   3.2758   3.2829   3.4517   3.5610   3.6218   3.6644   3.7291
     3.7673   3.8420   4.5645   4.6128   4.8438   4.8453   4.9294   4.9457
     4.9645   5.0215   5.3419   5.3686   5.3712   5.3795   5.5227   5.5338
     5.6736   5.9893   5.9999   6.1100   6.2021   6.2156

     occupation numbers 
     1.0000   1.0000   1.0000   1.0000   1.0000   1.0000   1.0000   1.0000
     1.0000   1.0000   1.0000   1.0000   1.0000   1.0000   1.0000   1.0000
     1.0000   1.0000   1.0000   1.0000   1.0000   1.0000   1.0000   1.0000
     1.0000   1.0000   1.0000   1.0000   1.0000   1.0000   1.0000   1.0000
     1.0000   1.0000   1.0000   1.0000   1.0000   1.0000   1.0000   1.0000
     1.0000   1.0000   1.0000   1.0000   1.0000   1.0000   1.0000   1.0000
     1.0000   1.0000   1.0000   1.0000   1.0000   1.0000   1.0000   1.0000
     1.0000   1.0000   1.0000   1.0000   1.0000   1.0000   1.0000   1.0000
     1.0000   1.0000   1.0000   1.0000   1.0000   1.0000   1.0000   1.0000
     1.0000   1.0000   1.0000   1.0000   1.0000   1.0000

          k = 0.2855 0.1733 0.3333 ( 43481 PWs)   bands (ev):

   -20.6962 -20.6943 -20.6595 -20.6577 -15.6638 -15.6638 -15.6544 -15.6544
   -15.6486 -15.6486 -15.5879 -15.5879 -15.5732 -15.5731  -7.1518  -7.0987
    -6.3391  -6.2226  -6.1665  -6.1351  -6.0129  -5.9156  -4.9786  -4.9637
    -4.8891  -4.8771  -4.7734  -4.7335  -4.7263  -4.7161  -4.6829  -4.6450
    -4.6386  -4.6294  -0.9281  -0.9003   1.5964   1.7250   1.7512   1.8496
     2.1788   2.2097   2.4256   2.6252   2.8580   2.9283   3.0295   3.1495
     3.1934   3.2381   3.3015   3.4705   3.4731   3.6522   3.7255   3.7290
     3.7438   3.9119   4.5875   4.6395   4.8557   4.8763   4.9080   4.9133
     5.0030   5.0164   5.3361   5.3369   5.3528   5.3719   5.5424   5.6067
     5.7001   5.9275   6.0228   6.1171   6.2188   6.2520

     occupation numbers 
     1.0000   1.0000   1.0000   1.0000   1.0000   1.0000   1.0000   1.0000
     1.0000   1.0000   1.0000   1.0000   1.0000   1.0000   1.0000   1.0000
     1.0000   1.0000   1.0000   1.0000   1.0000   1.0000   1.0000   1.0000
     1.0000   1.0000   1.0000   1.0000   1.0000   1.0000   1.0000   1.0000
     1.0000   1.0000   1.0000   1.0000   1.0000   1.0000   1.0000   1.0000
     1.0000   1.0000   1.0000   1.0000   1.0000   1.0000   1.0000   1.0000
     1.0000   1.0000   1.0000   1.0000   1.0000   1.0000   1.0000   1.0000
     1.0000   1.0000   1.0000   1.0000   1.0000   1.0000   1.0000   1.0000
     1.0000   1.0000   1.0000   1.0000   1.0000   1.0000   1.0000   1.0000
     1.0000   1.0000   1.0000   1.0000   1.0000   1.0000

          k = 0.3121 0.3522 0.4444 ( 43449 PWs)   bands (ev):

   -20.6951 -20.6883 -20.6651 -20.6584 -15.6638 -15.6638 -15.6545 -15.6545
   -15.6486 -15.6486 -15.5878 -15.5878 -15.5732 -15.5731  -7.1322  -7.0281
    -6.4292  -6.1688  -6.1537  -6.1190  -6.0846  -5.9683  -4.9819  -4.9351
    -4.8430  -4.8407  -4.7879  -4.7622  -4.7404  -4.7293  -4.7087  -4.6742
    -4.6283  -4.6199  -0.8954  -0.8941   1.5101   1.5759   1.7081   1.8150
     2.2350   2.2961   2.4637   2.5161   2.6954   2.9443   3.1221   3.1759
     3.1908   3.2516   3.3174   3.3852   3.4783   3.6445   3.7193   3.7738
     3.7887   3.9188   4.6520   4.7049   4.8167   4.8860   4.9284   4.9470
     5.0406   5.0704   5.2369   5.2834   5.3178   5.3617   5.6306   5.7713
     5.7747   5.9442   6.0465   6.0623   6.2358   6.2945

     occupation numbers 
     1.0000   1.0000   1.0000   1.0000   1.0000   1.0000   1.0000   1.0000
     1.0000   1.0000   1.0000   1.0000   1.0000   1.0000   1.0000   1.0000
     1.0000   1.0000   1.0000   1.0000   1.0000   1.0000   1.0000   1.0000
     1.0000   1.0000   1.0000   1.0000   1.0000   1.0000   1.0000   1.0000
     1.0000   1.0000   1.0000   1.0000   1.0000   1.0000   1.0000   1.0000
     1.0000   1.0000   1.0000   1.0000   1.0000   1.0000   1.0000   1.0000
     1.0000   1.0000   1.0000   1.0000   1.0000   1.0000   1.0000   1.0000
     1.0000   1.0000   1.0000   1.0000   1.0000   1.0000   1.0000   1.0000
     1.0000   1.0000   1.0000   1.0000   1.0000   1.0000   1.0000   1.0000
     1.0000   1.0000   1.0000   1.0000   1.0000   1.0000

          k = 0.0992-1.0791-0.4444 ( 43421 PWs)   bands (ev):

   -20.6909 -20.6827 -20.6701 -20.6622 -15.6638 -15.6638 -15.6546 -15.6546
   -15.6487 -15.6487 -15.5877 -15.5877 -15.5732 -15.5731  -7.0635  -6.9773
    -6.4806  -6.2041  -6.1720  -6.1431  -6.0898  -6.0058  -4.9669  -4.9175
    -4.8745  -4.7913  -4.7882  -4.7722  -4.7579  -4.7555  -4.6969  -4.6901
    -4.6240  -4.6037  -0.8736  -0.8662   1.3520   1.4623   1.7339   1.8304
     2.2155   2.2302   2.3653   2.5185   2.6823   3.0493   3.1460   3.1498
     3.1810   3.2966   3.3725   3.3744   3.4289   3.6592   3.7041   3.7773
     3.7930   3.9043   4.7338   4.7691   4.7786   4.9006   4.9704   5.0163
     5.0672   5.0718   5.1395   5.2706   5.2883   5.3327   5.7549   5.8489
     5.9165   6.0081   6.0447   6.0828   6.2159   6.2515

     occupation numbers 
     1.0000   1.0000   1.0000   1.0000   1.0000   1.0000   1.0000   1.0000
     1.0000   1.0000   1.0000   1.0000   1.0000   1.0000   1.0000   1.0000
     1.0000   1.0000   1.0000   1.0000   1.0000   1.0000   1.0000   1.0000
     1.0000   1.0000   1.0000   1.0000   1.0000   1.0000   1.0000   1.0000
     1.0000   1.0000   1.0000   1.0000   1.0000   1.0000   1.0000   1.0000
     1.0000   1.0000   1.0000   1.0000   1.0000   1.0000   1.0000   1.0000
     1.0000   1.0000   1.0000   1.0000   1.0000   1.0000   1.0000   1.0000
     1.0000   1.0000   1.0000   1.0000   1.0000   1.0000   1.0000   1.0000
     1.0000   1.0000   1.0000   1.0000   1.0000   1.0000   1.0000   1.0000
     1.0000   1.0000   1.0000   1.0000   1.0000   1.0000

          k = 0.1258-0.9002-0.3333 ( 43443 PWs)   bands (ev):

   -20.6851 -20.6810 -20.6716 -20.6677 -15.6638 -15.6638 -15.6547 -15.6547
   -15.6488 -15.6488 -15.5876 -15.5876 -15.5731 -15.5731  -6.9817  -6.9679
    -6.4654  -6.2538  -6.2051  -6.1968  -6.0877  -6.0365  -4.9291  -4.9198
    -4.8564  -4.8124  -4.8043  -4.7976  -4.7558  -4.7429  -4.7162  -4.6615
    -4.6079  -4.5946  -0.8792  -0.8269   1.2189   1.3893   1.7902   1.9365
     2.1082   2.1782   2.3390   2.3618   2.8899   3.0827   3.1092   3.1216
     3.2266   3.2602   3.3554   3.3851   3.4225   3.6687   3.7116   3.7505
     3.8034   3.8991   4.7616   4.8052   4.8308   4.9110   4.9809   4.9935
     5.0090   5.0691   5.1828   5.2462   5.2884   5.3390   5.8256   5.9022
     5.9678   6.0548   6.0933   6.1682   6.1785   6.1957

     occupation numbers 
     1.0000   1.0000   1.0000   1.0000   1.0000   1.0000   1.0000   1.0000
     1.0000   1.0000   1.0000   1.0000   1.0000   1.0000   1.0000   1.0000
     1.0000   1.0000   1.0000   1.0000   1.0000   1.0000   1.0000   1.0000
     1.0000   1.0000   1.0000   1.0000   1.0000   1.0000   1.0000   1.0000
     1.0000   1.0000   1.0000   1.0000   1.0000   1.0000   1.0000   1.0000
     1.0000   1.0000   1.0000   1.0000   1.0000   1.0000   1.0000   1.0000
     1.0000   1.0000   1.0000   1.0000   1.0000   1.0000   1.0000   1.0000
     1.0000   1.0000   1.0000   1.0000   1.0000   1.0000   1.0000   1.0000
     1.0000   1.0000   1.0000   1.0000   1.0000   1.0000   1.0000   1.0000
     1.0000   1.0000   1.0000   1.0000   1.0000   1.0000

          k = 0.1524-0.7213-0.2222 ( 43440 PWs)   bands (ev):

   -20.6852 -20.6807 -20.6719 -20.6676 -15.6638 -15.6638 -15.6547 -15.6547
   -15.6488 -15.6487 -15.5876 -15.5875 -15.5731 -15.5731  -7.0362  -6.8848
    -6.3960  -6.2924  -6.2681  -6.1990  -6.0863  -6.0786  -4.9364  -4.8880
    -4.8465  -4.8082  -4.7959  -4.7843  -4.7336  -4.7265  -4.7205  -4.7066
    -4.6003  -4.5944  -0.9100  -0.7960   1.1621   1.3770   1.8848   1.9676
     2.0880   2.1864   2.1900   2.4361   2.9951   3.0066   3.1076   3.1618
     3.2185   3.2688   3.3049   3.3675   3.4427   3.6139   3.7245   3.7585
     3.8216   3.8867   4.7819   4.8329   4.8348   4.8709   4.9563   5.0169
     5.0267   5.0436   5.1935   5.2370   5.2845   5.3591   5.8450   5.9066
     5.9960   6.0092   6.0233   6.1308   6.2012   6.2751

     occupation numbers 
     1.0000   1.0000   1.0000   1.0000   1.0000   1.0000   1.0000   1.0000
     1.0000   1.0000   1.0000   1.0000   1.0000   1.0000   1.0000   1.0000
     1.0000   1.0000   1.0000   1.0000   1.0000   1.0000   1.0000   1.0000
     1.0000   1.0000   1.0000   1.0000   1.0000   1.0000   1.0000   1.0000
     1.0000   1.0000   1.0000   1.0000   1.0000   1.0000   1.0000   1.0000
     1.0000   1.0000   1.0000   1.0000   1.0000   1.0000   1.0000   1.0000
     1.0000   1.0000   1.0000   1.0000   1.0000   1.0000   1.0000   1.0000
     1.0000   1.0000   1.0000   1.0000   1.0000   1.0000   1.0000   1.0000
     1.0000   1.0000   1.0000   1.0000   1.0000   1.0000   1.0000   1.0000
     1.0000   1.0000   1.0000   1.0000   1.0000   1.0000

          k = 0.1790-0.5423-0.1111 ( 43422 PWs)   bands (ev):

   -20.6919 -20.6799 -20.6729 -20.6613 -15.6638 -15.6638 -15.6546 -15.6546
   -15.6487 -15.6487 -15.5877 -15.5876 -15.5732 -15.5730  -7.1051  -6.8623
    -6.3903  -6.3019  -6.2369  -6.1746  -6.1432  -6.0231  -4.9775  -4.8779
    -4.8302  -4.7721  -4.7710  -4.7632  -4.7476  -4.7411  -4.7003  -4.6801
    -4.6357  -4.6155  -0.9479  -0.7874   1.2195   1.4382   1.8010   1.9918
     2.0778   2.1428   2.3715   2.5547   2.7971   3.0136   3.1524   3.2215
     3.2446   3.3100   3.3172   3.3687   3.4245   3.5231   3.7057   3.7850
     3.8010   3.8697   4.7384   4.7966   4.8137   4.8611   4.9558   5.0259
     5.0290   5.0890   5.1970   5.2106   5.2525   5.4127   5.8336   5.8435
     5.8768   5.9931   6.0487   6.0564   6.1713   6.2744

     occupation numbers 
     1.0000   1.0000   1.0000   1.0000   1.0000   1.0000   1.0000   1.0000
     1.0000   1.0000   1.0000   1.0000   1.0000   1.0000   1.0000   1.0000
     1.0000   1.0000   1.0000   1.0000   1.0000   1.0000   1.0000   1.0000
     1.0000   1.0000   1.0000   1.0000   1.0000   1.0000   1.0000   1.0000
     1.0000   1.0000   1.0000   1.0000   1.0000   1.0000   1.0000   1.0000
     1.0000   1.0000   1.0000   1.0000   1.0000   1.0000   1.0000   1.0000
     1.0000   1.0000   1.0000   1.0000   1.0000   1.0000   1.0000   1.0000
     1.0000   1.0000   1.0000   1.0000   1.0000   1.0000   1.0000   1.0000
     1.0000   1.0000   1.0000   1.0000   1.0000   1.0000   1.0000   1.0000
     1.0000   1.0000   1.0000   1.0000   1.0000   1.0000

          k = 0.2057-0.1565 0.0000 ( 43425 PWs)   bands (ev):

   -20.7016 -20.6851 -20.6686 -20.6524 -15.6638 -15.6637 -15.6544 -15.6543
   -15.6486 -15.6485 -15.5880 -15.5879 -15.5732 -15.5730  -7.2015  -6.9645
    -6.4723  -6.2274  -6.1450  -6.1289  -6.0760  -5.8820  -5.0378  -4.9617
    -4.8573  -4.8037  -4.7777  -4.7294  -4.7265  -4.7148  -4.6811  -4.6569
    -4.6383  -4.5924  -0.9953  -0.8221   1.5705   1.6150   1.7424   2.0274
     2.0721   2.2292   2.2831   2.6455   2.8528   2.9396   3.1357   3.1643
     3.2915   3.3067   3.3478   3.4298   3.5034   3.5712   3.6146   3.6935
     3.8155   3.8159   4.5931   4.6433   4.8505   4.8643   4.8856   4.9181
     4.9620   5.1342   5.2844   5.3207   5.3241   5.4518   5.5164   5.6590
     5.7422   5.9495   6.0294   6.0793   6.2160   6.2539

     occupation numbers 
     1.0000   1.0000   1.0000   1.0000   1.0000   1.0000   1.0000   1.0000
     1.0000   1.0000   1.0000   1.0000   1.0000   1.0000   1.0000   1.0000
     1.0000   1.0000   1.0000   1.0000   1.0000   1.0000   1.0000   1.0000
     1.0000   1.0000   1.0000   1.0000   1.0000   1.0000   1.0000   1.0000
     1.0000   1.0000   1.0000   1.0000   1.0000   1.0000   1.0000   1.0000
     1.0000   1.0000   1.0000   1.0000   1.0000   1.0000   1.0000   1.0000
     1.0000   1.0000   1.0000   1.0000   1.0000   1.0000   1.0000   1.0000
     1.0000   1.0000   1.0000   1.0000   1.0000   1.0000   1.0000   1.0000
     1.0000   1.0000   1.0000   1.0000   1.0000   1.0000   1.0000   1.0000
     1.0000   1.0000   1.0000   1.0000   1.0000   1.0000

          k = 0.2323 0.0224 0.1111 ( 43473 PWs)   bands (ev):

   -20.7012 -20.6899 -20.6640 -20.6529 -15.6638 -15.6638 -15.6544 -15.6543
   -15.6486 -15.6485 -15.5880 -15.5880 -15.5732 -15.5731  -7.1912  -7.0480
    -6.4022  -6.2248  -6.1790  -6.1135  -6.0255  -5.8683  -5.0234  -4.9777
    -4.8921  -4.8566  -4.7597  -4.7177  -4.7167  -4.7098  -4.6732  -4.6550
    -4.6465  -4.5867  -0.9842  -0.8510   1.5651   1.7590   1.8787   1.9657
     2.0631   2.0884   2.3064   2.7963   2.8435   2.8670   3.1271   3.1841
     3.1989   3.2779   3.3166   3.4395   3.5800   3.5806   3.6661   3.7283
     3.7680   3.7941   4.5669   4.6135   4.8423   4.8458   4.8939   4.9547
     4.9555   5.0724   5.3169   5.3569   5.3870   5.3886   5.5006   5.5708
     5.7001   5.9497   6.0495   6.0760   6.2146   6.2356

     occupation numbers 
     1.0000   1.0000   1.0000   1.0000   1.0000   1.0000   1.0000   1.0000
     1.0000   1.0000   1.0000   1.0000   1.0000   1.0000   1.0000   1.0000
     1.0000   1.0000   1.0000   1.0000   1.0000   1.0000   1.0000   1.0000
     1.0000   1.0000   1.0000   1.0000   1.0000   1.0000   1.0000   1.0000
     1.0000   1.0000   1.0000   1.0000   1.0000   1.0000   1.0000   1.0000
     1.0000   1.0000   1.0000   1.0000   1.0000   1.0000   1.0000   1.0000
     1.0000   1.0000   1.0000   1.0000   1.0000   1.0000   1.0000   1.0000
     1.0000   1.0000   1.0000   1.0000   1.0000   1.0000   1.0000   1.0000
     1.0000   1.0000   1.0000   1.0000   1.0000   1.0000   1.0000   1.0000
     1.0000   1.0000   1.0000   1.0000   1.0000   1.0000

          k = 0.2589 0.2013 0.2222 ( 43453 PWs)   bands (ev):

   -20.6974 -20.6929 -20.6609 -20.6565 -15.6638 -15.6638 -15.6544 -15.6543
   -15.6486 -15.6486 -15.5880 -15.5879 -15.5732 -15.5731  -7.1422  -7.0940
    -6.3052  -6.2628  -6.1916  -6.1355  -6.0339  -5.9015  -4.9910  -4.9541
    -4.8868  -4.8684  -4.7546  -4.7393  -4.7312  -4.7165  -4.6808  -4.6478
    -4.6365  -4.6149  -0.9537  -0.8699   1.5937   1.6876   1.7453   1.8789
     2.1541   2.2138   2.3545   2.6947   2.8920   2.9038   3.0304   3.1556
     3.1885   3.2652   3.3228   3.4547   3.4954   3.6666   3.7000   3.7553
     3.7637   3.8078   4.5896   4.6408   4.8619   4.8688   4.9080   4.9121
     4.9719   5.0484   5.3172   5.3433   5.3489   5.3947   5.5720   5.5880
     5.7226   5.9374   5.9982   6.1076   6.2375   6.2467

     occupation numbers 
     1.0000   1.0000   1.0000   1.0000   1.0000   1.0000   1.0000   1.0000
     1.0000   1.0000   1.0000   1.0000   1.0000   1.0000   1.0000   1.0000
     1.0000   1.0000   1.0000   1.0000   1.0000   1.0000   1.0000   1.0000
     1.0000   1.0000   1.0000   1.0000   1.0000   1.0000   1.0000   1.0000
     1.0000   1.0000   1.0000   1.0000   1.0000   1.0000   1.0000   1.0000
     1.0000   1.0000   1.0000   1.0000   1.0000   1.0000   1.0000   1.0000
     1.0000   1.0000   1.0000   1.0000   1.0000   1.0000   1.0000   1.0000
     1.0000   1.0000   1.0000   1.0000   1.0000   1.0000   1.0000   1.0000
     1.0000   1.0000   1.0000   1.0000   1.0000   1.0000   1.0000   1.0000
     1.0000   1.0000   1.0000   1.0000   1.0000   1.0000

          k = 0.2855 0.3802 0.3333 ( 43443 PWs)   bands (ev):

   -20.6929 -20.6913 -20.6621 -20.6606 -15.6638 -15.6638 -15.6545 -15.6545
   -15.6486 -15.6486 -15.5878 -15.5878 -15.5731 -15.5731  -7.0893  -7.0694
    -6.3617  -6.2193  -6.1749  -6.1422  -6.0947  -5.9601  -4.9646  -4.9401
    -4.8254  -4.8208  -4.8130  -4.7585  -4.7423  -4.7410  -4.6986  -4.6681
    -4.6248  -4.6202  -0.9150  -0.8711   1.5148   1.5866   1.6411   1.8180
     2.2321   2.2996   2.4488   2.5152   2.7901   2.9769   3.0063   3.1920
     3.2228   3.2560   3.3155   3.4118   3.4603   3.6566   3.7296   3.7807
     3.7906   3.8468   4.6542   4.7072   4.8378   4.8677   4.9195   4.9473
     5.0499   5.0581   5.2513   5.2835   5.3042   5.3720   5.6561   5.7412
     5.7918   5.9264   6.0372   6.0705   6.2537   6.3043

     occupation numbers 
     1.0000   1.0000   1.0000   1.0000   1.0000   1.0000   1.0000   1.0000
     1.0000   1.0000   1.0000   1.0000   1.0000   1.0000   1.0000   1.0000
     1.0000   1.0000   1.0000   1.0000   1.0000   1.0000   1.0000   1.0000
     1.0000   1.0000   1.0000   1.0000   1.0000   1.0000   1.0000   1.0000
     1.0000   1.0000   1.0000   1.0000   1.0000   1.0000   1.0000   1.0000
     1.0000   1.0000   1.0000   1.0000   1.0000   1.0000   1.0000   1.0000
     1.0000   1.0000   1.0000   1.0000   1.0000   1.0000   1.0000   1.0000
     1.0000   1.0000   1.0000   1.0000   1.0000   1.0000   1.0000   1.0000
     1.0000   1.0000   1.0000   1.0000   1.0000   1.0000   1.0000   1.0000
     1.0000   1.0000   1.0000   1.0000   1.0000   1.0000

          k = 0.3121 0.5591 0.4444 ( 43417 PWs)   bands (ev):

   -20.6897 -20.6850 -20.6679 -20.6634 -15.6638 -15.6638 -15.6546 -15.6546
   -15.6487 -15.6487 -15.5877 -15.5877 -15.5731 -15.5731  -7.0383  -7.0037
    -6.4356  -6.2192  -6.1935  -6.1560  -6.1051  -6.0059  -4.9565  -4.9105
    -4.8720  -4.7822  -4.7771  -4.7668  -4.7586  -4.7483  -4.7146  -4.7014
    -4.6200  -4.6052  -0.8849  -0.8536   1.3678   1.4753   1.6520   1.7925
     2.2324   2.2924   2.3894   2.5186   2.6759   3.0764   3.0847   3.1653
     3.2178   3.3105   3.3443   3.3886   3.4231   3.6401   3.7083   3.7808
     3.8176   3.8600   4.7353   4.7802   4.7870   4.8812   4.9641   5.0202
     5.0866   5.1017   5.1251   5.2411   5.2756   5.3371   5.7544   5.8654
     5.9021   5.9793   6.0407   6.0781   6.2319   6.2773

     occupation numbers 
     1.0000   1.0000   1.0000   1.0000   1.0000   1.0000   1.0000   1.0000
     1.0000   1.0000   1.0000   1.0000   1.0000   1.0000   1.0000   1.0000
     1.0000   1.0000   1.0000   1.0000   1.0000   1.0000   1.0000   1.0000
     1.0000   1.0000   1.0000   1.0000   1.0000   1.0000   1.0000   1.0000
     1.0000   1.0000   1.0000   1.0000   1.0000   1.0000   1.0000   1.0000
     1.0000   1.0000   1.0000   1.0000   1.0000   1.0000   1.0000   1.0000
     1.0000   1.0000   1.0000   1.0000   1.0000   1.0000   1.0000   1.0000
     1.0000   1.0000   1.0000   1.0000   1.0000   1.0000   1.0000   1.0000
     1.0000   1.0000   1.0000   1.0000   1.0000   1.0000   1.0000   1.0000
     1.0000   1.0000   1.0000   1.0000   1.0000   1.0000

          k = 0.0992-0.8722-0.4444 ( 43428 PWs)   bands (ev):

   -20.6847 -20.6816 -20.6710 -20.6680 -15.6638 -15.6638 -15.6547 -15.6547
   -15.6488 -15.6488 -15.5876 -15.5876 -15.5731 -15.5731  -6.9872  -6.9613
    -6.4475  -6.2648  -6.2212  -6.1933  -6.0939  -6.0332  -4.9283  -4.9117
    -4.8661  -4.8066  -4.7976  -4.7887  -4.7616  -4.7282  -4.7211  -4.6616
    -4.6184  -4.5998  -0.8807  -0.8251   1.2429   1.4007   1.6939   1.8539
     2.1552   2.2709   2.3572   2.3872   2.8314   3.0762   3.0961   3.1578
     3.2360   3.3041   3.3506   3.3775   3.4267   3.6414   3.7062   3.7566
     3.8135   3.8776   4.7624   4.8167   4.8297   4.8996   4.9839   5.0058
     5.0281   5.0728   5.1746   5.2393   5.2570   5.3412   5.8060   5.9373
     5.9536   6.0214   6.0985   6.1628   6.1796   6.1927

     occupation numbers 
     1.0000   1.0000   1.0000   1.0000   1.0000   1.0000   1.0000   1.0000
     1.0000   1.0000   1.0000   1.0000   1.0000   1.0000   1.0000   1.0000
     1.0000   1.0000   1.0000   1.0000   1.0000   1.0000   1.0000   1.0000
     1.0000   1.0000   1.0000   1.0000   1.0000   1.0000   1.0000   1.0000
     1.0000   1.0000   1.0000   1.0000   1.0000   1.0000   1.0000   1.0000
     1.0000   1.0000   1.0000   1.0000   1.0000   1.0000   1.0000   1.0000
     1.0000   1.0000   1.0000   1.0000   1.0000   1.0000   1.0000   1.0000
     1.0000   1.0000   1.0000   1.0000   1.0000   1.0000   1.0000   1.0000
     1.0000   1.0000   1.0000   1.0000   1.0000   1.0000   1.0000   1.0000
     1.0000   1.0000   1.0000   1.0000   1.0000   1.0000

          k = 0.1258-0.6933-0.3333 ( 43411 PWs)   bands (ev):

   -20.6851 -20.6810 -20.6716 -20.6677 -15.6638 -15.6638 -15.6547 -15.6547
   -15.6488 -15.6487 -15.5876 -15.5875 -15.5731 -15.5731  -7.0332  -6.8907
    -6.3914  -6.3054  -6.2564  -6.1986  -6.0947  -6.0692  -4.9315  -4.8925
    -4.8498  -4.8098  -4.7969  -4.7783  -4.7363  -4.7297  -4.7113  -4.7049
    -4.6081  -4.5944  -0.9071  -0.7989   1.1779   1.3804   1.7879   1.9963
     2.0534   2.2199   2.2705   2.4232   2.9550   2.9905   3.1397   3.1675
     3.2323   3.2750   3.3073   3.3664   3.4455   3.6052   3.7279   3.7566
     3.8180   3.8809   4.7799   4.8317   4.8375   4.8710   4.9633   5.0206
     5.0277   5.0475   5.1889   5.2364   5.2702   5.3570   5.8231   5.9407
     5.9826   6.0068   6.0337   6.1285   6.1771   6.2810

     occupation numbers 
     1.0000   1.0000   1.0000   1.0000   1.0000   1.0000   1.0000   1.0000
     1.0000   1.0000   1.0000   1.0000   1.0000   1.0000   1.0000   1.0000
     1.0000   1.0000   1.0000   1.0000   1.0000   1.0000   1.0000   1.0000
     1.0000   1.0000   1.0000   1.0000   1.0000   1.0000   1.0000   1.0000
     1.0000   1.0000   1.0000   1.0000   1.0000   1.0000   1.0000   1.0000
     1.0000   1.0000   1.0000   1.0000   1.0000   1.0000   1.0000   1.0000
     1.0000   1.0000   1.0000   1.0000   1.0000   1.0000   1.0000   1.0000
     1.0000   1.0000   1.0000   1.0000   1.0000   1.0000   1.0000   1.0000
     1.0000   1.0000   1.0000   1.0000   1.0000   1.0000   1.0000   1.0000
     1.0000   1.0000   1.0000   1.0000   1.0000   1.0000

          k = 0.1524-0.5144-0.2222 ( 43433 PWs)   bands (ev):

   -20.6920 -20.6792 -20.6736 -20.6611 -15.6638 -15.6638 -15.6546 -15.6546
   -15.6487 -15.6487 -15.5877 -15.5876 -15.5732 -15.5730  -7.1069  -6.8577
    -6.4021  -6.2994  -6.2303  -6.1713  -6.1447  -6.0246  -4.9805  -4.8743
    -4.8341  -4.7739  -4.7704  -4.7570  -4.7490  -4.7411  -4.7048  -4.6778
    -4.6278  -4.6219  -0.9482  -0.7872   1.2174   1.4336   1.8382   1.9616
     2.0938   2.1423   2.3431   2.5599   2.7934   3.0348   3.1471   3.2094
     3.2491   3.2993   3.3285   3.3643   3.4351   3.5186   3.7023   3.7878
     3.8043   3.8676   4.7392   4.7970   4.8099   4.8651   4.9540   5.0240
     5.0329   5.0813   5.1983   5.2132   5.2562   5.4134   5.8381   5.8507
     5.8754   5.9847   6.0481   6.0534   6.1832   6.2585

     occupation numbers 
     1.0000   1.0000   1.0000   1.0000   1.0000   1.0000   1.0000   1.0000
     1.0000   1.0000   1.0000   1.0000   1.0000   1.0000   1.0000   1.0000
     1.0000   1.0000   1.0000   1.0000   1.0000   1.0000   1.0000   1.0000
     1.0000   1.0000   1.0000   1.0000   1.0000   1.0000   1.0000   1.0000
     1.0000   1.0000   1.0000   1.0000   1.0000   1.0000   1.0000   1.0000
     1.0000   1.0000   1.0000   1.0000   1.0000   1.0000   1.0000   1.0000
     1.0000   1.0000   1.0000   1.0000   1.0000   1.0000   1.0000   1.0000
     1.0000   1.0000   1.0000   1.0000   1.0000   1.0000   1.0000   1.0000
     1.0000   1.0000   1.0000   1.0000   1.0000   1.0000   1.0000   1.0000
     1.0000   1.0000   1.0000   1.0000   1.0000   1.0000

          k = 0.1790-0.3354-0.1111 ( 43443 PWs)   bands (ev):

   -20.6983 -20.6803 -20.6729 -20.6554 -15.6638 -15.6637 -15.6545 -15.6544
   -15.6487 -15.6486 -15.5878 -15.5878 -15.5732 -15.5730  -7.1704  -6.8838
    -6.4784  -6.2013  -6.1984  -6.1712  -6.1316  -5.9434  -5.0228  -4.9080
    -4.8251  -4.8005  -4.7470  -4.7352  -4.7305  -4.7226  -4.7090  -4.6535
    -4.6485  -4.6261  -0.9821  -0.7964   1.3680   1.5611   1.7010   2.0301
     2.0887   2.1569   2.4710   2.5633   2.7286   3.0631   3.0890   3.2011
     3.3209   3.3535   3.3701   3.3934   3.4285   3.4706   3.6396   3.7422
     3.8159   3.8499   4.6594   4.7142   4.8121   4.8862   4.9213   4.9741
     4.9837   5.1508   5.1983   5.2583   5.2720   5.4574   5.6569   5.7992
     5.8086   5.9814   6.0207   6.1028   6.1274   6.2279

     occupation numbers 
     1.0000   1.0000   1.0000   1.0000   1.0000   1.0000   1.0000   1.0000
     1.0000   1.0000   1.0000   1.0000   1.0000   1.0000   1.0000   1.0000
     1.0000   1.0000   1.0000   1.0000   1.0000   1.0000   1.0000   1.0000
     1.0000   1.0000   1.0000   1.0000   1.0000   1.0000   1.0000   1.0000
     1.0000   1.0000   1.0000   1.0000   1.0000   1.0000   1.0000   1.0000
     1.0000   1.0000   1.0000   1.0000   1.0000   1.0000   1.0000   1.0000
     1.0000   1.0000   1.0000   1.0000   1.0000   1.0000   1.0000   1.0000
     1.0000   1.0000   1.0000   1.0000   1.0000   1.0000   1.0000   1.0000
     1.0000   1.0000   1.0000   1.0000   1.0000   1.0000   1.0000   1.0000
     1.0000   1.0000   1.0000   1.0000   1.0000   1.0000

          k = 0.4113 0.1007 0.0000 ( 43438 PWs)   bands (ev):

   -20.6992 -20.6931 -20.6608 -20.6549 -15.6638 -15.6638 -15.6543 -15.6543
   -15.6485 -15.6485 -15.5880 -15.5880 -15.5732 -15.5731  -7.1777  -7.0944
    -6.3496  -6.2207  -6.1773  -6.1305  -5.9722  -5.9030  -4.9989  -4.9748
    -4.9044  -4.8890  -4.7459  -4.7314  -4.7135  -4.7101  -4.6672  -4.6630
    -4.6394  -4.6151  -0.9538  -0.8875   1.6555   1.7680   1.7949   1.9027
     2.0818   2.1031   2.4660   2.7061   2.8746   2.8907   2.9812   3.1134
     3.2329   3.2512   3.4181   3.4234   3.6077   3.6185   3.6933   3.7197
     3.7357   3.8062   4.5782   4.5944   4.8433   4.8464   4.9298   4.9533
     4.9598   5.0219   5.3332   5.3580   5.3796   5.3815   5.4904   5.5483
     5.8088   5.8707   6.0574   6.0593   6.1800   6.2057

     occupation numbers 
     1.0000   1.0000   1.0000   1.0000   1.0000   1.0000   1.0000   1.0000
     1.0000   1.0000   1.0000   1.0000   1.0000   1.0000   1.0000   1.0000
     1.0000   1.0000   1.0000   1.0000   1.0000   1.0000   1.0000   1.0000
     1.0000   1.0000   1.0000   1.0000   1.0000   1.0000   1.0000   1.0000
     1.0000   1.0000   1.0000   1.0000   1.0000   1.0000   1.0000   1.0000
     1.0000   1.0000   1.0000   1.0000   1.0000   1.0000   1.0000   1.0000
     1.0000   1.0000   1.0000   1.0000   1.0000   1.0000   1.0000   1.0000
     1.0000   1.0000   1.0000   1.0000   1.0000   1.0000   1.0000   1.0000
     1.0000   1.0000   1.0000   1.0000   1.0000   1.0000   1.0000   1.0000
     1.0000   1.0000   1.0000   1.0000   1.0000   1.0000

          k = 0.4379 0.2797 0.1111 ( 43444 PWs)   bands (ev):

   -20.6956 -20.6950 -20.6589 -20.6583 -15.6638 -15.6638 -15.6544 -15.6544
   -15.6486 -15.6486 -15.5879 -15.5879 -15.5731 -15.5731  -7.1328  -7.1156
    -6.3047  -6.2686  -6.1589  -6.1492  -5.9744  -5.9456  -4.9723  -4.9677
    -4.8853  -4.8814  -4.7614  -4.7489  -4.7255  -4.7204  -4.6611  -4.6508
    -4.6363  -4.6331  -0.9175  -0.9093   1.6559   1.7040   1.7540   1.7777
     2.1790   2.1939   2.5064   2.5627   2.9055   2.9540   2.9978   3.0391
     3.2060   3.2293   3.4078   3.4437   3.5643   3.6268   3.7374   3.7417
     3.7520   3.8094   4.6042   4.6202   4.8629   4.8692   4.9096   4.9114
     5.0066   5.0101   5.3359   5.3375   5.3583   5.3637   5.5671   5.5862
     5.8094   5.8899   6.0194   6.0577   6.2284   6.2382

     occupation numbers 
     1.0000   1.0000   1.0000   1.0000   1.0000   1.0000   1.0000   1.0000
     1.0000   1.0000   1.0000   1.0000   1.0000   1.0000   1.0000   1.0000
     1.0000   1.0000   1.0000   1.0000   1.0000   1.0000   1.0000   1.0000
     1.0000   1.0000   1.0000   1.0000   1.0000   1.0000   1.0000   1.0000
     1.0000   1.0000   1.0000   1.0000   1.0000   1.0000   1.0000   1.0000
     1.0000   1.0000   1.0000   1.0000   1.0000   1.0000   1.0000   1.0000
     1.0000   1.0000   1.0000   1.0000   1.0000   1.0000   1.0000   1.0000
     1.0000   1.0000   1.0000   1.0000   1.0000   1.0000   1.0000   1.0000
     1.0000   1.0000   1.0000   1.0000   1.0000   1.0000   1.0000   1.0000
     1.0000   1.0000   1.0000   1.0000   1.0000   1.0000

          k = 0.4645 0.4586 0.2222 ( 43428 PWs)   bands (ev):

   -20.6947 -20.6889 -20.6644 -20.6588 -15.6638 -15.6638 -15.6545 -15.6545
   -15.6486 -15.6486 -15.5878 -15.5878 -15.5732 -15.5731  -7.1226  -7.0295
    -6.3902  -6.2226  -6.1688  -6.1442  -6.0229  -6.0091  -4.9749  -4.9343
    -4.8403  -4.8144  -4.7929  -4.7640  -4.7494  -4.7420  -4.6912  -4.6677
    -4.6268  -4.6213  -0.9099  -0.8768   1.5246   1.5503   1.7236   1.7648
     2.2232   2.3339   2.3990   2.5313   2.7643   3.0112   3.0311   3.1026
     3.2441   3.2544   3.3627   3.4408   3.4797   3.6029   3.7278   3.7669
     3.8016   3.8520   4.6710   4.6872   4.8273   4.8761   4.9313   4.9369
     5.0350   5.0741   5.2507   5.2766   5.3335   5.3470   5.6625   5.7441
     5.8545   5.9331   6.0152   6.0251   6.2605   6.2806

     occupation numbers 
     1.0000   1.0000   1.0000   1.0000   1.0000   1.0000   1.0000   1.0000
     1.0000   1.0000   1.0000   1.0000   1.0000   1.0000   1.0000   1.0000
     1.0000   1.0000   1.0000   1.0000   1.0000   1.0000   1.0000   1.0000
     1.0000   1.0000   1.0000   1.0000   1.0000   1.0000   1.0000   1.0000
     1.0000   1.0000   1.0000   1.0000   1.0000   1.0000   1.0000   1.0000
     1.0000   1.0000   1.0000   1.0000   1.0000   1.0000   1.0000   1.0000
     1.0000   1.0000   1.0000   1.0000   1.0000   1.0000   1.0000   1.0000
     1.0000   1.0000   1.0000   1.0000   1.0000   1.0000   1.0000   1.0000
     1.0000   1.0000   1.0000   1.0000   1.0000   1.0000   1.0000   1.0000
     1.0000   1.0000   1.0000   1.0000   1.0000   1.0000

          k = 0.4911 0.6375 0.3333 ( 43421 PWs)   bands (ev):

   -20.6907 -20.6832 -20.6697 -20.6624 -15.6638 -15.6638 -15.6546 -15.6546
   -15.6487 -15.6487 -15.5877 -15.5877 -15.5731 -15.5731  -7.0693  -6.9599
    -6.4405  -6.2433  -6.1789  -6.1441  -6.0886  -6.0470  -4.9603  -4.9085
    -4.8508  -4.7940  -4.7836  -4.7706  -4.7563  -4.7452  -4.7008  -4.6902
    -4.6292  -4.6060  -0.8886  -0.8504   1.3823   1.3998   1.7523   1.7935
     2.1962   2.2867   2.3234   2.5211   2.7381   3.0231   3.1138   3.1690
     3.2657   3.3030   3.3542   3.3677   3.4492   3.5941   3.7302   3.7745
     3.8087   3.8553   4.7523   4.7657   4.7905   4.8772   4.9845   4.9973
     5.0608   5.0946   5.1477   5.2434   5.3003   5.3244   5.7929   5.8584
     5.9161   5.9889   6.0406   6.0505   6.2095   6.2544

     occupation numbers 
     1.0000   1.0000   1.0000   1.0000   1.0000   1.0000   1.0000   1.0000
     1.0000   1.0000   1.0000   1.0000   1.0000   1.0000   1.0000   1.0000
     1.0000   1.0000   1.0000   1.0000   1.0000   1.0000   1.0000   1.0000
     1.0000   1.0000   1.0000   1.0000   1.0000   1.0000   1.0000   1.0000
     1.0000   1.0000   1.0000   1.0000   1.0000   1.0000   1.0000   1.0000
     1.0000   1.0000   1.0000   1.0000   1.0000   1.0000   1.0000   1.0000
     1.0000   1.0000   1.0000   1.0000   1.0000   1.0000   1.0000   1.0000
     1.0000   1.0000   1.0000   1.0000   1.0000   1.0000   1.0000   1.0000
     1.0000   1.0000   1.0000   1.0000   1.0000   1.0000   1.0000   1.0000
     1.0000   1.0000   1.0000   1.0000   1.0000   1.0000

          k = 0.5177 0.8164 0.4444 ( 43429 PWs)   bands (ev):

   -20.6850 -20.6811 -20.6715 -20.6678 -15.6638 -15.6638 -15.6547 -15.6547
   -15.6488 -15.6488 -15.5876 -15.5876 -15.5731 -15.5731  -6.9922  -6.9551
    -6.4244  -6.3139  -6.1767  -6.1449  -6.1271  -6.0804  -4.9276  -4.9084
    -4.8552  -4.8196  -4.7909  -4.7866  -4.7516  -4.7294  -4.7210  -4.6778
    -4.6101  -4.5966  -0.8554  -0.8524   1.2756   1.3141   1.8352   1.8646
     2.1554   2.1803   2.3046   2.3613   2.9151   3.0390   3.1490   3.1699
     3.2331   3.2843   3.2966   3.3537   3.4966   3.5956   3.7503   3.7809
     3.7992   3.8503   4.7872   4.8145   4.8301   4.8840   4.9907   4.9978
     5.0153   5.0515   5.2014   5.2457   5.2845   5.3095   5.8713   5.9017
     5.9579   6.0411   6.0872   6.1185   6.1688   6.2093

     occupation numbers 
     1.0000   1.0000   1.0000   1.0000   1.0000   1.0000   1.0000   1.0000
     1.0000   1.0000   1.0000   1.0000   1.0000   1.0000   1.0000   1.0000
     1.0000   1.0000   1.0000   1.0000   1.0000   1.0000   1.0000   1.0000
     1.0000   1.0000   1.0000   1.0000   1.0000   1.0000   1.0000   1.0000
     1.0000   1.0000   1.0000   1.0000   1.0000   1.0000   1.0000   1.0000
     1.0000   1.0000   1.0000   1.0000   1.0000   1.0000   1.0000   1.0000
     1.0000   1.0000   1.0000   1.0000   1.0000   1.0000   1.0000   1.0000
     1.0000   1.0000   1.0000   1.0000   1.0000   1.0000   1.0000   1.0000
     1.0000   1.0000   1.0000   1.0000   1.0000   1.0000   1.0000   1.0000
     1.0000   1.0000   1.0000   1.0000   1.0000   1.0000

          k = 0.3049-0.6149-0.4444 ( 43449 PWs)   bands (ev):

   -20.6852 -20.6807 -20.6718 -20.6676 -15.6638 -15.6638 -15.6547 -15.6547
   -15.6488 -15.6488 -15.5876 -15.5876 -15.5731 -15.5731  -7.0158  -6.9225
    -6.3894  -6.3510  -6.1720  -6.1559  -6.1267  -6.0940  -4.9335  -4.9009
    -4.8525  -4.8165  -4.7883  -4.7833  -4.7415  -4.7237  -4.7222  -4.6999
    -4.6005  -4.5962  -0.8825  -0.8256   1.2347   1.3162   1.9200   1.9843
     2.0194   2.1597   2.2494   2.3787   2.9633   3.0661   3.1137   3.1724
     3.2289   3.2446   3.3240   3.3259   3.5363   3.5563   3.7530   3.7847
     3.8158   3.8419   4.8002   4.8101   4.8469   4.8634   4.9701   5.0058
     5.0234   5.0378   5.2175   5.2561   5.2662   5.3251   5.8768   5.9299
     5.9618   5.9888   6.0736   6.1402   6.1660   6.2324

     occupation numbers 
     1.0000   1.0000   1.0000   1.0000   1.0000   1.0000   1.0000   1.0000
     1.0000   1.0000   1.0000   1.0000   1.0000   1.0000   1.0000   1.0000
     1.0000   1.0000   1.0000   1.0000   1.0000   1.0000   1.0000   1.0000
     1.0000   1.0000   1.0000   1.0000   1.0000   1.0000   1.0000   1.0000
     1.0000   1.0000   1.0000   1.0000   1.0000   1.0000   1.0000   1.0000
     1.0000   1.0000   1.0000   1.0000   1.0000   1.0000   1.0000   1.0000
     1.0000   1.0000   1.0000   1.0000   1.0000   1.0000   1.0000   1.0000
     1.0000   1.0000   1.0000   1.0000   1.0000   1.0000   1.0000   1.0000
     1.0000   1.0000   1.0000   1.0000   1.0000   1.0000   1.0000   1.0000
     1.0000   1.0000   1.0000   1.0000   1.0000   1.0000

          k = 0.3315-0.4360-0.3333 ( 43451 PWs)   bands (ev):

   -20.6919 -20.6796 -20.6732 -20.6612 -15.6638 -15.6638 -15.6546 -15.6546
   -15.6487 -15.6487 -15.5877 -15.5876 -15.5732 -15.5730  -7.0994  -6.8941
    -6.4552  -6.2553  -6.1721  -6.1522  -6.1343  -6.0365  -4.9776  -4.8880
    -4.8472  -4.7928  -4.7763  -4.7605  -4.7574  -4.7425  -4.7012  -4.6692
    -4.6305  -4.6168  -0.9247  -0.8134   1.2892   1.3983   1.8418   1.9819
     2.0290   2.2187   2.3064   2.5251   2.7780   3.0670   3.1179   3.1694
     3.2576   3.2965   3.3320   3.3715   3.4779   3.5501   3.7143   3.7645
     3.8354   3.8470   4.7496   4.7769   4.7909   4.8837   4.9656   5.0130
     5.0427   5.0663   5.1786   5.2508   5.2705   5.3763   5.8104   5.8732
     5.9311   5.9372   6.0509   6.1114   6.1421   6.2289

     occupation numbers 
     1.0000   1.0000   1.0000   1.0000   1.0000   1.0000   1.0000   1.0000
     1.0000   1.0000   1.0000   1.0000   1.0000   1.0000   1.0000   1.0000
     1.0000   1.0000   1.0000   1.0000   1.0000   1.0000   1.0000   1.0000
     1.0000   1.0000   1.0000   1.0000   1.0000   1.0000   1.0000   1.0000
     1.0000   1.0000   1.0000   1.0000   1.0000   1.0000   1.0000   1.0000
     1.0000   1.0000   1.0000   1.0000   1.0000   1.0000   1.0000   1.0000
     1.0000   1.0000   1.0000   1.0000   1.0000   1.0000   1.0000   1.0000
     1.0000   1.0000   1.0000   1.0000   1.0000   1.0000   1.0000   1.0000
     1.0000   1.0000   1.0000   1.0000   1.0000   1.0000   1.0000   1.0000
     1.0000   1.0000   1.0000   1.0000   1.0000   1.0000

          k = 0.3581-0.2571-0.2222 ( 43458 PWs)   bands (ev):

   -20.6976 -20.6830 -20.6703 -20.6560 -15.6638 -15.6637 -15.6545 -15.6544
   -15.6487 -15.6486 -15.5878 -15.5878 -15.5732 -15.5730  -7.1672  -6.9329
    -6.4743  -6.1866  -6.1733  -6.1461  -6.0844  -5.9681  -5.0111  -4.9120
    -4.8475  -4.8157  -4.7497  -4.7470  -4.7390  -4.7334  -4.7099  -4.6552
    -4.6427  -4.6247  -0.9590  -0.8250   1.4361   1.5432   1.7224   1.9464
     2.0984   2.2557   2.4474   2.5908   2.6851   3.0498   3.0909   3.1077
     3.2615   3.3403   3.3661   3.4072   3.4481   3.5620   3.6820   3.7244
     3.8268   3.8706   4.6688   4.6941   4.8084   4.8900   4.9248   4.9587
     5.0048   5.1218   5.2150   5.2658   5.3021   5.4079   5.6499   5.7882
     5.8811   5.8973   6.0202   6.0659   6.1957   6.2334

     occupation numbers 
     1.0000   1.0000   1.0000   1.0000   1.0000   1.0000   1.0000   1.0000
     1.0000   1.0000   1.0000   1.0000   1.0000   1.0000   1.0000   1.0000
     1.0000   1.0000   1.0000   1.0000   1.0000   1.0000   1.0000   1.0000
     1.0000   1.0000   1.0000   1.0000   1.0000   1.0000   1.0000   1.0000
     1.0000   1.0000   1.0000   1.0000   1.0000   1.0000   1.0000   1.0000
     1.0000   1.0000   1.0000   1.0000   1.0000   1.0000   1.0000   1.0000
     1.0000   1.0000   1.0000   1.0000   1.0000   1.0000   1.0000   1.0000
     1.0000   1.0000   1.0000   1.0000   1.0000   1.0000   1.0000   1.0000
     1.0000   1.0000   1.0000   1.0000   1.0000   1.0000   1.0000   1.0000
     1.0000   1.0000   1.0000   1.0000   1.0000   1.0000

          k = 0.3847-0.0782-0.1111 ( 43444 PWs)   bands (ev):

   -20.7002 -20.6884 -20.6654 -20.6537 -15.6638 -15.6637 -15.6544 -15.6543
   -15.6486 -15.6485 -15.5880 -15.5879 -15.5732 -15.5731  -7.1963  -7.0171
    -6.4295  -6.1903  -6.1657  -6.1272  -6.0211  -5.9125  -5.0173  -4.9583
    -4.8803  -4.8323  -4.7798  -4.7351  -4.7235  -4.7175  -4.6753  -4.6538
    -4.6367  -4.6193  -0.9702  -0.8545   1.6299   1.6669   1.7091   1.9136
     2.1068   2.2593   2.3696   2.6885   2.7869   2.9581   3.0111   3.1574
     3.2318   3.2432   3.4059   3.4478   3.5394   3.5828   3.6705   3.7054
     3.7885   3.8576   4.6034   4.6233   4.8517   4.8690   4.8997   4.9139
     4.9716   5.0894   5.2964   5.3345   5.3435   5.4085   5.5167   5.6402
     5.8404   5.8627   6.0246   6.0630   6.1874   6.2611

     occupation numbers 
     1.0000   1.0000   1.0000   1.0000   1.0000   1.0000   1.0000   1.0000
     1.0000   1.0000   1.0000   1.0000   1.0000   1.0000   1.0000   1.0000
     1.0000   1.0000   1.0000   1.0000   1.0000   1.0000   1.0000   1.0000
     1.0000   1.0000   1.0000   1.0000   1.0000   1.0000   1.0000   1.0000
     1.0000   1.0000   1.0000   1.0000   1.0000   1.0000   1.0000   1.0000
     1.0000   1.0000   1.0000   1.0000   1.0000   1.0000   1.0000   1.0000
     1.0000   1.0000   1.0000   1.0000   1.0000   1.0000   1.0000   1.0000
     1.0000   1.0000   1.0000   1.0000   1.0000   1.0000   1.0000   1.0000
     1.0000   1.0000   1.0000   1.0000   1.0000   1.0000   1.0000   1.0000
     1.0000   1.0000   1.0000   1.0000   1.0000   1.0000

          k = 0.4113 0.3076 0.0000 ( 43434 PWs)   bands (ev):

   -20.6979 -20.6922 -20.6616 -20.6560 -15.6638 -15.6638 -15.6544 -15.6543
   -15.6486 -15.6486 -15.5879 -15.5879 -15.5732 -15.5731  -7.1664  -7.0756
    -6.3595  -6.2205  -6.1639  -6.1417  -5.9777  -5.9434  -4.9899  -4.9595
    -4.8911  -4.8630  -4.7704  -4.7427  -4.7236  -4.7211  -4.6641  -4.6500
    -4.6373  -4.6324  -0.9385  -0.8885   1.6656   1.6952   1.7142   1.8236
     2.1466   2.2273   2.4705   2.6042   2.8561   2.9651   2.9759   3.0935
     3.2112   3.2254   3.4101   3.4470   3.5702   3.6052   3.7193   3.7216
     3.7623   3.8394   4.6101   4.6138   4.8585   4.8703   4.9086   4.9120
     4.9856   5.0411   5.3177   5.3470   5.3511   5.3758   5.5418   5.6109
     5.8315   5.8724   6.0233   6.0532   6.2086   6.2510

     occupation numbers 
     1.0000   1.0000   1.0000   1.0000   1.0000   1.0000   1.0000   1.0000
     1.0000   1.0000   1.0000   1.0000   1.0000   1.0000   1.0000   1.0000
     1.0000   1.0000   1.0000   1.0000   1.0000   1.0000   1.0000   1.0000
     1.0000   1.0000   1.0000   1.0000   1.0000   1.0000   1.0000   1.0000
     1.0000   1.0000   1.0000   1.0000   1.0000   1.0000   1.0000   1.0000
     1.0000   1.0000   1.0000   1.0000   1.0000   1.0000   1.0000   1.0000
     1.0000   1.0000   1.0000   1.0000   1.0000   1.0000   1.0000   1.0000
     1.0000   1.0000   1.0000   1.0000   1.0000   1.0000   1.0000   1.0000
     1.0000   1.0000   1.0000   1.0000   1.0000   1.0000   1.0000   1.0000
     1.0000   1.0000   1.0000   1.0000   1.0000   1.0000

          k = 0.4379 0.4866 0.1111 ( 43432 PWs)   bands (ev):

   -20.6924 -20.6918 -20.6616 -20.6611 -15.6638 -15.6638 -15.6545 -15.6545
   -15.6486 -15.6486 -15.5878 -15.5878 -15.5731 -15.5731  -7.0824  -7.0734
    -6.3087  -6.2991  -6.1625  -6.1618  -6.0200  -6.0123  -4.9534  -4.9494
    -4.8223  -4.8177  -4.7877  -4.7864  -4.7470  -4.7466  -4.6772  -4.6742
    -4.6226  -4.6224  -0.8962  -0.8893   1.5428   1.5487   1.7139   1.7285
     2.2708   2.2864   2.4519   2.4708   2.8921   2.9077   3.0614   3.0658
     3.2449   3.2477   3.4006   3.4029   3.5554   3.5624   3.7567   3.7614
     3.8015   3.8059   4.6787   4.6809   4.8504   4.8539   4.9302   4.9328
     5.0510   5.0559   5.2686   5.2695   5.3349   5.3408   5.7001   5.7037
     5.8945   5.8975   6.0148   6.0179   6.2806   6.2822

     occupation numbers 
     1.0000   1.0000   1.0000   1.0000   1.0000   1.0000   1.0000   1.0000
     1.0000   1.0000   1.0000   1.0000   1.0000   1.0000   1.0000   1.0000
     1.0000   1.0000   1.0000   1.0000   1.0000   1.0000   1.0000   1.0000
     1.0000   1.0000   1.0000   1.0000   1.0000   1.0000   1.0000   1.0000
     1.0000   1.0000   1.0000   1.0000   1.0000   1.0000   1.0000   1.0000
     1.0000   1.0000   1.0000   1.0000   1.0000   1.0000   1.0000   1.0000
     1.0000   1.0000   1.0000   1.0000   1.0000   1.0000   1.0000   1.0000
     1.0000   1.0000   1.0000   1.0000   1.0000   1.0000   1.0000   1.0000
     1.0000   1.0000   1.0000   1.0000   1.0000   1.0000   1.0000   1.0000
     1.0000   1.0000   1.0000   1.0000   1.0000   1.0000

          k = 0.4645 0.6655 0.2222 ( 43410 PWs)   bands (ev):

   -20.6894 -20.6854 -20.6675 -20.6636 -15.6638 -15.6638 -15.6546 -15.6546
   -15.6487 -15.6487 -15.5877 -15.5877 -15.5731 -15.5731  -7.0512  -6.9809
    -6.3789  -6.2892  -6.1788  -6.1687  -6.0825  -6.0577  -4.9437  -4.9160
    -4.8281  -4.8040  -4.7760  -4.7732  -4.7517  -4.7310  -4.7172  -4.7028
    -4.6247  -4.6079  -0.8874  -0.8507   1.3907   1.4225   1.6878   1.7439
     2.2240   2.3187   2.3614   2.5078   2.7929   2.9260   3.1578   3.1747
     3.2725   3.3178   3.3414   3.3619   3.4869   3.5455   3.7454   3.7791
     3.8057   3.8282   4.7569   4.7633   4.8148   4.8516   4.9849   4.9909
     5.0772   5.1323   5.1372   5.2066   5.2909   5.3248   5.8154   5.8313
     5.9437   5.9580   6.0320   6.0374   6.2262   6.2792

     occupation numbers 
     1.0000   1.0000   1.0000   1.0000   1.0000   1.0000   1.0000   1.0000
     1.0000   1.0000   1.0000   1.0000   1.0000   1.0000   1.0000   1.0000
     1.0000   1.0000   1.0000   1.0000   1.0000   1.0000   1.0000   1.0000
     1.0000   1.0000   1.0000   1.0000   1.0000   1.0000   1.0000   1.0000
     1.0000   1.0000   1.0000   1.0000   1.0000   1.0000   1.0000   1.0000
     1.0000   1.0000   1.0000   1.0000   1.0000   1.0000   1.0000   1.0000
     1.0000   1.0000   1.0000   1.0000   1.0000   1.0000   1.0000   1.0000
     1.0000   1.0000   1.0000   1.0000   1.0000   1.0000   1.0000   1.0000
     1.0000   1.0000   1.0000   1.0000   1.0000   1.0000   1.0000   1.0000
     1.0000   1.0000   1.0000   1.0000   1.0000   1.0000

          k = 0.4911 0.8444 0.3333 ( 43420 PWs)   bands (ev):

   -20.6846 -20.6817 -20.6709 -20.6681 -15.6638 -15.6638 -15.6547 -15.6547
   -15.6488 -15.6488 -15.5876 -15.5876 -15.5731 -15.5731  -6.9972  -6.9480
    -6.3903  -6.3373  -6.1816  -6.1675  -6.1110  -6.0919  -4.9206  -4.9020
    -4.8508  -4.8265  -4.7869  -4.7788  -4.7530  -4.7306  -4.7124  -4.6763
    -4.6230  -4.6022  -0.8658  -0.8416   1.3013   1.3236   1.7436   1.7776
     2.2029   2.2594   2.3225   2.4011   2.8972   2.9598   3.1876   3.1951
     3.2676   3.2857   3.3216   3.3353   3.5128   3.5448   3.7620   3.7779
     3.8075   3.8213   4.7982   4.8035   4.8471   4.8683   5.0020   5.0103
     5.0339   5.0461   5.1931   5.2122   5.2850   5.3045   5.8660   5.8838
     5.9964   6.0294   6.0758   6.0895   6.1523   6.2304

     occupation numbers 
     1.0000   1.0000   1.0000   1.0000   1.0000   1.0000   1.0000   1.0000
     1.0000   1.0000   1.0000   1.0000   1.0000   1.0000   1.0000   1.0000
     1.0000   1.0000   1.0000   1.0000   1.0000   1.0000   1.0000   1.0000
     1.0000   1.0000   1.0000   1.0000   1.0000   1.0000   1.0000   1.0000
     1.0000   1.0000   1.0000   1.0000   1.0000   1.0000   1.0000   1.0000
     1.0000   1.0000   1.0000   1.0000   1.0000   1.0000   1.0000   1.0000
     1.0000   1.0000   1.0000   1.0000   1.0000   1.0000   1.0000   1.0000
     1.0000   1.0000   1.0000   1.0000   1.0000   1.0000   1.0000   1.0000
     1.0000   1.0000   1.0000   1.0000   1.0000   1.0000   1.0000   1.0000
     1.0000   1.0000   1.0000   1.0000   1.0000   1.0000

          k = 0.5177 1.0233 0.4444 ( 43423 PWs)   bands (ev):

   -20.6850 -20.6811 -20.6715 -20.6678 -15.6638 -15.6638 -15.6547 -15.6547
   -15.6488 -15.6488 -15.5876 -15.5876 -15.5731 -15.5731  -7.0016  -6.9430
    -6.4076  -6.3307  -6.1635  -6.1594  -6.1226  -6.0927  -4.9280  -4.9050
    -4.8532  -4.8204  -4.7887  -4.7844  -4.7486  -4.7259  -4.7218  -4.6846
    -4.6102  -4.5966  -0.8667  -0.8414   1.2842   1.2980   1.8402   1.8657
     2.1380   2.2034   2.2884   2.3680   2.9284   3.0221   3.1607   3.1778
     3.2413   3.2623   3.3097   3.3412   3.5200   3.5675   3.7634   3.7719
     3.8167   3.8320   4.7969   4.8076   4.8389   4.8744   4.9864   5.0027
     5.0210   5.0455   5.2076   5.2391   5.2839   5.3092   5.8822   5.8946
     5.9700   6.0219   6.0960   6.1032   6.1603   6.2241

     occupation numbers 
     1.0000   1.0000   1.0000   1.0000   1.0000   1.0000   1.0000   1.0000
     1.0000   1.0000   1.0000   1.0000   1.0000   1.0000   1.0000   1.0000
     1.0000   1.0000   1.0000   1.0000   1.0000   1.0000   1.0000   1.0000
     1.0000   1.0000   1.0000   1.0000   1.0000   1.0000   1.0000   1.0000
     1.0000   1.0000   1.0000   1.0000   1.0000   1.0000   1.0000   1.0000
     1.0000   1.0000   1.0000   1.0000   1.0000   1.0000   1.0000   1.0000
     1.0000   1.0000   1.0000   1.0000   1.0000   1.0000   1.0000   1.0000
     1.0000   1.0000   1.0000   1.0000   1.0000   1.0000   1.0000   1.0000
     1.0000   1.0000   1.0000   1.0000   1.0000   1.0000   1.0000   1.0000
     1.0000   1.0000   1.0000   1.0000   1.0000   1.0000

          k = 0.3049-0.4080-0.4444 ( 43452 PWs)   bands (ev):

   -20.6920 -20.6793 -20.6735 -20.6612 -15.6638 -15.6638 -15.6546 -15.6546
   -15.6487 -15.6487 -15.5877 -15.5876 -15.5732 -15.5730  -7.0967  -6.9078
    -6.4789  -6.2349  -6.1689  -6.1328  -6.1171  -6.0414  -4.9777  -4.8953
    -4.8552  -4.8004  -4.7788  -4.7665  -4.7578  -4.7438  -4.7000  -4.6652
    -4.6278  -4.6172  -0.9133  -0.8259   1.3256   1.3794   1.8640   1.9657
     2.0284   2.2461   2.2729   2.5169   2.7703   3.0768   3.1026   3.1625
     3.2463   3.3005   3.3259   3.3850   3.4612   3.5976   3.7170   3.7508
     3.8188   3.8736   4.7532   4.7691   4.7797   4.8957   4.9696   5.0091
     5.0476   5.0544   5.1712   5.2700   5.2793   5.3595   5.7975   5.8875
     5.9049   5.9677   6.0544   6.1278   6.1412   6.2056

     occupation numbers 
     1.0000   1.0000   1.0000   1.0000   1.0000   1.0000   1.0000   1.0000
     1.0000   1.0000   1.0000   1.0000   1.0000   1.0000   1.0000   1.0000
     1.0000   1.0000   1.0000   1.0000   1.0000   1.0000   1.0000   1.0000
     1.0000   1.0000   1.0000   1.0000   1.0000   1.0000   1.0000   1.0000
     1.0000   1.0000   1.0000   1.0000   1.0000   1.0000   1.0000   1.0000
     1.0000   1.0000   1.0000   1.0000   1.0000   1.0000   1.0000   1.0000
     1.0000   1.0000   1.0000   1.0000   1.0000   1.0000   1.0000   1.0000
     1.0000   1.0000   1.0000   1.0000   1.0000   1.0000   1.0000   1.0000
     1.0000   1.0000   1.0000   1.0000   1.0000   1.0000   1.0000   1.0000
     1.0000   1.0000   1.0000   1.0000   1.0000   1.0000

          k = 0.3315-0.2291-0.3333 ( 43454 PWs)   bands (ev):

   -20.6983 -20.6798 -20.6735 -20.6553 -15.6638 -15.6637 -15.6545 -15.6544
   -15.6487 -15.6486 -15.5878 -15.5878 -15.5732 -15.5730  -7.1825  -6.9097
    -6.5272  -6.1806  -6.1469  -6.1064  -6.0783  -5.9769  -5.0220  -4.9102
    -4.8501  -4.8399  -4.7492  -4.7344  -4.7342  -4.7282  -4.7103  -4.6628
    -4.6541  -4.6228  -0.9598  -0.8272   1.4464   1.5238   1.7750   1.9786
     2.0594   2.2870   2.4071   2.5606   2.7021   3.0228   3.0948   3.1184
     3.2710   3.3052   3.3620   3.3941   3.4790   3.5966   3.6418   3.7241
     3.8184   3.9244   4.6703   4.6882   4.7971   4.8959   4.9307   4.9578
     5.0097   5.1394   5.1848   5.2671   5.3143   5.4010   5.6334   5.8128
     5.8477   5.9274   6.0363   6.0763   6.1540   6.2180

     occupation numbers 
     1.0000   1.0000   1.0000   1.0000   1.0000   1.0000   1.0000   1.0000
     1.0000   1.0000   1.0000   1.0000   1.0000   1.0000   1.0000   1.0000
     1.0000   1.0000   1.0000   1.0000   1.0000   1.0000   1.0000   1.0000
     1.0000   1.0000   1.0000   1.0000   1.0000   1.0000   1.0000   1.0000
     1.0000   1.0000   1.0000   1.0000   1.0000   1.0000   1.0000   1.0000
     1.0000   1.0000   1.0000   1.0000   1.0000   1.0000   1.0000   1.0000
     1.0000   1.0000   1.0000   1.0000   1.0000   1.0000   1.0000   1.0000
     1.0000   1.0000   1.0000   1.0000   1.0000   1.0000   1.0000   1.0000
     1.0000   1.0000   1.0000   1.0000   1.0000   1.0000   1.0000   1.0000
     1.0000   1.0000   1.0000   1.0000   1.0000   1.0000

          k = 0.3581-0.0502-0.2222 ( 43451 PWs)   bands (ev):

   -20.7018 -20.6842 -20.6695 -20.6521 -15.6638 -15.6637 -15.6544 -15.6543
   -15.6486 -15.6485 -15.5880 -15.5879 -15.5732 -15.5730  -7.2289  -6.9610
    -6.5119  -6.1809  -6.1101  -6.1050  -6.0260  -5.9150  -5.0391  -4.9632
    -4.8688  -4.8067  -4.8004  -4.7340  -4.7210  -4.7150  -4.6822  -4.6585
    -4.6408  -4.6243  -0.9844  -0.8442   1.6078   1.6777   1.7157   1.9694
     2.0805   2.3060   2.3711   2.6044   2.8033   2.9481   3.0142   3.1622
     3.2440   3.2956   3.3900   3.4207   3.5015   3.5611   3.6330   3.7140
     3.7963   3.9462   4.6067   4.6169   4.8416   4.8706   4.8863   4.9155
     4.9853   5.1332   5.2794   5.3121   5.3355   5.4197   5.4897   5.6640
     5.7990   5.9007   6.0152   6.0911   6.1550   6.2576

     occupation numbers 
     1.0000   1.0000   1.0000   1.0000   1.0000   1.0000   1.0000   1.0000
     1.0000   1.0000   1.0000   1.0000   1.0000   1.0000   1.0000   1.0000
     1.0000   1.0000   1.0000   1.0000   1.0000   1.0000   1.0000   1.0000
     1.0000   1.0000   1.0000   1.0000   1.0000   1.0000   1.0000   1.0000
     1.0000   1.0000   1.0000   1.0000   1.0000   1.0000   1.0000   1.0000
     1.0000   1.0000   1.0000   1.0000   1.0000   1.0000   1.0000   1.0000
     1.0000   1.0000   1.0000   1.0000   1.0000   1.0000   1.0000   1.0000
     1.0000   1.0000   1.0000   1.0000   1.0000   1.0000   1.0000   1.0000
     1.0000   1.0000   1.0000   1.0000   1.0000   1.0000   1.0000   1.0000
     1.0000   1.0000   1.0000   1.0000   1.0000   1.0000

          k = 0.3847 0.1287-0.1111 ( 43432 PWs)   bands (ev):

   -20.7016 -20.6891 -20.6648 -20.6524 -15.6638 -15.6637 -15.6544 -15.6543
   -15.6486 -15.6485 -15.5880 -15.5880 -15.5732 -15.5731  -7.2233  -7.0295
    -6.4429  -6.1746  -6.1440  -6.1175  -5.9829  -5.8978  -5.0248  -4.9835
    -4.8873  -4.8613  -4.7621  -4.7420  -4.7102  -4.7096  -4.6610  -4.6591
    -4.6443  -4.6221  -0.9759  -0.8682   1.6887   1.7320   1.7429   1.9858
     2.0683   2.1329   2.4456   2.7589   2.7668   2.9207   2.9411   3.2009
     3.2183   3.2592   3.4046   3.4566   3.5284   3.6114   3.6170   3.7118
     3.7585   3.9139   4.5845   4.5868   4.8402   4.8496   4.8971   4.9429
     4.9777   5.0696   5.3072   5.3469   5.3926   5.4006   5.4459   5.5786
     5.7899   5.8848   6.0187   6.0808   6.1773   6.2274

     occupation numbers 
     1.0000   1.0000   1.0000   1.0000   1.0000   1.0000   1.0000   1.0000
     1.0000   1.0000   1.0000   1.0000   1.0000   1.0000   1.0000   1.0000
     1.0000   1.0000   1.0000   1.0000   1.0000   1.0000   1.0000   1.0000
     1.0000   1.0000   1.0000   1.0000   1.0000   1.0000   1.0000   1.0000
     1.0000   1.0000   1.0000   1.0000   1.0000   1.0000   1.0000   1.0000
     1.0000   1.0000   1.0000   1.0000   1.0000   1.0000   1.0000   1.0000
     1.0000   1.0000   1.0000   1.0000   1.0000   1.0000   1.0000   1.0000
     1.0000   1.0000   1.0000   1.0000   1.0000   1.0000   1.0000   1.0000
     1.0000   1.0000   1.0000   1.0000   1.0000   1.0000   1.0000   1.0000
     1.0000   1.0000   1.0000   1.0000   1.0000   1.0000

          k = 0.4113 0.5145 0.0000 ( 43420 PWs)   bands (ev):

   -20.6943 -20.6895 -20.6638 -20.6592 -15.6638 -15.6638 -15.6545 -15.6545
   -15.6486 -15.6486 -15.5878 -15.5878 -15.5732 -15.5731  -7.1152  -7.0395
    -6.3796  -6.2299  -6.1686  -6.1451  -6.0294  -6.0031  -4.9707  -4.9371
    -4.8371  -4.8135  -4.7983  -4.7648  -4.7497  -4.7425  -4.6889  -4.6695
    -4.6259  -4.6210  -0.9033  -0.8833   1.5287   1.5536   1.7208   1.7542
     2.2377   2.3187   2.4163   2.5153   2.7801   3.0061   3.0227   3.1066
     3.2400   3.2532   3.3616   3.4406   3.4813   3.6073   3.7306   3.7722
     3.7991   3.8458   4.6694   4.6890   4.8305   4.8732   4.9320   4.9350
     5.0394   5.0692   5.2531   5.2774   5.3344   5.3441   5.6648   5.7400
     5.8507   5.9330   6.0151   6.0277   6.2629   6.2851

     occupation numbers 
     1.0000   1.0000   1.0000   1.0000   1.0000   1.0000   1.0000   1.0000
     1.0000   1.0000   1.0000   1.0000   1.0000   1.0000   1.0000   1.0000
     1.0000   1.0000   1.0000   1.0000   1.0000   1.0000   1.0000   1.0000
     1.0000   1.0000   1.0000   1.0000   1.0000   1.0000   1.0000   1.0000
     1.0000   1.0000   1.0000   1.0000   1.0000   1.0000   1.0000   1.0000
     1.0000   1.0000   1.0000   1.0000   1.0000   1.0000   1.0000   1.0000
     1.0000   1.0000   1.0000   1.0000   1.0000   1.0000   1.0000   1.0000
     1.0000   1.0000   1.0000   1.0000   1.0000   1.0000   1.0000   1.0000
     1.0000   1.0000   1.0000   1.0000   1.0000   1.0000   1.0000   1.0000
     1.0000   1.0000   1.0000   1.0000   1.0000   1.0000

          k = 0.4379 0.6935 0.1111 ( 43411 PWs)   bands (ev):

   -20.6878 -20.6874 -20.6656 -20.6652 -15.6638 -15.6638 -15.6546 -15.6546
   -15.6487 -15.6487 -15.5877 -15.5877 -15.5731 -15.5731  -7.0301  -7.0058
    -6.3459  -6.3129  -6.1971  -6.1535  -6.0995  -6.0436  -4.9325  -4.9244
    -4.8312  -4.8017  -4.7723  -4.7711  -4.7430  -4.7373  -4.7198  -4.7132
    -4.6175  -4.6119  -0.8845  -0.8533   1.3947   1.4445   1.6483   1.7304
     2.2362   2.3123   2.4422   2.4555   2.8178   2.8923   3.1539   3.1849
     3.2763   3.2988   3.3403   3.3743   3.4816   3.5554   3.7497   3.7711
     3.8036   3.8289   4.7507   4.7694   4.8258   4.8407   4.9764   4.9970
     5.0992   5.1135   5.1661   5.1784   5.2856   5.3254   5.7992   5.8438
     5.9260   5.9700   6.0210   6.0450   6.2424   6.2832

     occupation numbers 
     1.0000   1.0000   1.0000   1.0000   1.0000   1.0000   1.0000   1.0000
     1.0000   1.0000   1.0000   1.0000   1.0000   1.0000   1.0000   1.0000
     1.0000   1.0000   1.0000   1.0000   1.0000   1.0000   1.0000   1.0000
     1.0000   1.0000   1.0000   1.0000   1.0000   1.0000   1.0000   1.0000
     1.0000   1.0000   1.0000   1.0000   1.0000   1.0000   1.0000   1.0000
     1.0000   1.0000   1.0000   1.0000   1.0000   1.0000   1.0000   1.0000
     1.0000   1.0000   1.0000   1.0000   1.0000   1.0000   1.0000   1.0000
     1.0000   1.0000   1.0000   1.0000   1.0000   1.0000   1.0000   1.0000
     1.0000   1.0000   1.0000   1.0000   1.0000   1.0000   1.0000   1.0000
     1.0000   1.0000   1.0000   1.0000   1.0000   1.0000

          k = 0.4645 0.8724 0.2222 ( 43420 PWs)   bands (ev):

   -20.6841 -20.6825 -20.6702 -20.6686 -15.6638 -15.6638 -15.6547 -15.6547
   -15.6488 -15.6488 -15.5876 -15.5876 -15.5731 -15.5731  -7.0000  -6.9437
    -6.3671  -6.3449  -6.2224  -6.1510  -6.1264  -6.0739  -4.9084  -4.9046
    -4.8544  -4.8262  -4.7859  -4.7678  -4.7546  -4.7441  -4.6957  -4.6716
    -4.6340  -4.6109  -0.8746  -0.8320   1.3009   1.3713   1.6435   1.7399
     2.2023   2.3014   2.3886   2.4383   2.8713   2.9079   3.1742   3.2220
     3.2856   3.3110   3.3391   3.3430   3.4842   3.5361   3.7593   3.7759
     3.7861   3.8310   4.7892   4.8102   4.8537   4.8640   5.0084   5.0285
     5.0407   5.0547   5.1739   5.1919   5.2672   5.3149   5.8308   5.9011
     6.0034   6.0317   6.0635   6.0860   6.1496   6.2354

     occupation numbers 
     1.0000   1.0000   1.0000   1.0000   1.0000   1.0000   1.0000   1.0000
     1.0000   1.0000   1.0000   1.0000   1.0000   1.0000   1.0000   1.0000
     1.0000   1.0000   1.0000   1.0000   1.0000   1.0000   1.0000   1.0000
     1.0000   1.0000   1.0000   1.0000   1.0000   1.0000   1.0000   1.0000
     1.0000   1.0000   1.0000   1.0000   1.0000   1.0000   1.0000   1.0000
     1.0000   1.0000   1.0000   1.0000   1.0000   1.0000   1.0000   1.0000
     1.0000   1.0000   1.0000   1.0000   1.0000   1.0000   1.0000   1.0000
     1.0000   1.0000   1.0000   1.0000   1.0000   1.0000   1.0000   1.0000
     1.0000   1.0000   1.0000   1.0000   1.0000   1.0000   1.0000   1.0000
     1.0000   1.0000   1.0000   1.0000   1.0000   1.0000

          k = 0.4911 1.0513 0.3333 ( 43410 PWs)   bands (ev):

   -20.6846 -20.6817 -20.6709 -20.6681 -15.6638 -15.6638 -15.6547 -15.6547
   -15.6488 -15.6488 -15.5876 -15.5876 -15.5731 -15.5731  -6.9824  -6.9657
    -6.4134  -6.3144  -6.1959  -6.1464  -6.1287  -6.0705  -4.9226  -4.9030
    -4.8586  -4.8212  -4.7870  -4.7830  -4.7574  -4.7274  -4.7172  -4.6702
    -4.6221  -4.6025  -0.8583  -0.8489   1.2916   1.3429   1.7325   1.7828
     2.2159   2.2422   2.3309   2.4004   2.8663   2.9977   3.1558   3.1954
     3.2678   3.2990   3.3112   3.3511   3.4828   3.5810   3.7413   3.7914
     3.7952   3.8371   4.7840   4.8146   4.8360   4.8797   4.9992   5.0114
     5.0263   5.0560   5.1862   5.2204   5.2790   5.3108   5.8500   5.8976
     5.9776   6.0442   6.0630   6.1186   6.1667   6.2096

     occupation numbers 
     1.0000   1.0000   1.0000   1.0000   1.0000   1.0000   1.0000   1.0000
     1.0000   1.0000   1.0000   1.0000   1.0000   1.0000   1.0000   1.0000
     1.0000   1.0000   1.0000   1.0000   1.0000   1.0000   1.0000   1.0000
     1.0000   1.0000   1.0000   1.0000   1.0000   1.0000   1.0000   1.0000
     1.0000   1.0000   1.0000   1.0000   1.0000   1.0000   1.0000   1.0000
     1.0000   1.0000   1.0000   1.0000   1.0000   1.0000   1.0000   1.0000
     1.0000   1.0000   1.0000   1.0000   1.0000   1.0000   1.0000   1.0000
     1.0000   1.0000   1.0000   1.0000   1.0000   1.0000   1.0000   1.0000
     1.0000   1.0000   1.0000   1.0000   1.0000   1.0000   1.0000   1.0000
     1.0000   1.0000   1.0000   1.0000   1.0000   1.0000

          k = 0.5177 1.2302 0.4444 ( 43442 PWs)   bands (ev):

   -20.6916 -20.6810 -20.6718 -20.6616 -15.6638 -15.6638 -15.6546 -15.6546
   -15.6487 -15.6487 -15.5877 -15.5877 -15.5732 -15.5730  -7.0851  -6.9364
    -6.4786  -6.2228  -6.1763  -6.1255  -6.0936  -6.0429  -4.9713  -4.9064
    -4.8588  -4.8008  -4.7842  -4.7683  -4.7611  -4.7470  -4.6972  -4.6728
    -4.6309  -4.6088  -0.8964  -0.8433   1.3671   1.3803   1.8191   1.8730
     2.1199   2.2528   2.3083   2.5128   2.7464   3.0578   3.1022   3.1599
     3.2487   3.2906   3.3515   3.3814   3.4445   3.6204   3.7298   3.7490
     3.8043   3.8855   4.7505   4.7665   4.7767   4.8952   4.9860   4.9950
     5.0516   5.0664   5.1583   5.2674   5.2987   5.3348   5.7867   5.8679
     5.9086   6.0002   6.0560   6.0731   6.1841   6.2238

     occupation numbers 
     1.0000   1.0000   1.0000   1.0000   1.0000   1.0000   1.0000   1.0000
     1.0000   1.0000   1.0000   1.0000   1.0000   1.0000   1.0000   1.0000
     1.0000   1.0000   1.0000   1.0000   1.0000   1.0000   1.0000   1.0000
     1.0000   1.0000   1.0000   1.0000   1.0000   1.0000   1.0000   1.0000
     1.0000   1.0000   1.0000   1.0000   1.0000   1.0000   1.0000   1.0000
     1.0000   1.0000   1.0000   1.0000   1.0000   1.0000   1.0000   1.0000
     1.0000   1.0000   1.0000   1.0000   1.0000   1.0000   1.0000   1.0000
     1.0000   1.0000   1.0000   1.0000   1.0000   1.0000   1.0000   1.0000
     1.0000   1.0000   1.0000   1.0000   1.0000   1.0000   1.0000   1.0000
     1.0000   1.0000   1.0000   1.0000   1.0000   1.0000

          k = 0.3049-0.2011-0.4444 ( 43453 PWs)   bands (ev):

   -20.6984 -20.6793 -20.6740 -20.6552 -15.6638 -15.6637 -15.6545 -15.6544
   -15.6487 -15.6486 -15.5878 -15.5878 -15.5732 -15.5730  -7.1872  -6.9163
    -6.5428  -6.1727  -6.1276  -6.0830  -6.0620  -5.9907  -5.0221  -4.9137
    -4.8573  -4.8522  -4.7508  -4.7392  -4.7334  -4.7297  -4.7070  -4.6668
    -4.6557  -4.6227  -0.9530  -0.8370   1.4745   1.5109   1.8075   1.9634
     2.0615   2.3222   2.3763   2.5598   2.6993   2.9870   3.0837   3.1232
     3.2638   3.2816   3.3562   3.4063   3.4914   3.6101   3.6532   3.7206
     3.8082   3.9646   4.6662   4.6877   4.7916   4.9003   4.9337   4.9551
     5.0163   5.1354   5.1794   5.2688   5.3289   5.3838   5.6239   5.8062
     5.8207   5.9688   6.0428   6.0693   6.1452   6.2252

     occupation numbers 
     1.0000   1.0000   1.0000   1.0000   1.0000   1.0000   1.0000   1.0000
     1.0000   1.0000   1.0000   1.0000   1.0000   1.0000   1.0000   1.0000
     1.0000   1.0000   1.0000   1.0000   1.0000   1.0000   1.0000   1.0000
     1.0000   1.0000   1.0000   1.0000   1.0000   1.0000   1.0000   1.0000
     1.0000   1.0000   1.0000   1.0000   1.0000   1.0000   1.0000   1.0000
     1.0000   1.0000   1.0000   1.0000   1.0000   1.0000   1.0000   1.0000
     1.0000   1.0000   1.0000   1.0000   1.0000   1.0000   1.0000   1.0000
     1.0000   1.0000   1.0000   1.0000   1.0000   1.0000   1.0000   1.0000
     1.0000   1.0000   1.0000   1.0000   1.0000   1.0000   1.0000   1.0000
     1.0000   1.0000   1.0000   1.0000   1.0000   1.0000

          k = 0.3315-0.0222-0.3333 ( 43449 PWs)   bands (ev):

   -20.7027 -20.6802 -20.6735 -20.6513 -15.6638 -15.6637 -15.6544 -15.6543
   -15.6486 -15.6485 -15.5880 -15.5879 -15.5733 -15.5730  -7.2508  -6.9251
    -6.5672  -6.1656  -6.0787  -6.0671  -6.0347  -5.9214  -5.0516  -4.9666
    -4.8583  -4.8317  -4.7737  -4.7458  -4.7191  -4.7117  -4.6929  -4.6591
    -4.6488  -4.6299  -0.9920  -0.8421   1.6030   1.6527   1.7685   2.0087
     2.0659   2.3435   2.3947   2.5268   2.8220   2.9172   3.0467   3.1020
     3.2600   3.2850   3.3870   3.4181   3.4997   3.5630   3.6043   3.7222
     3.7941   4.0243   4.6020   4.6172   4.8347   4.8724   4.8766   4.9154
     5.0009   5.1772   5.2581   5.2794   5.3379   5.4192   5.4790   5.6755
     5.7372   5.9577   6.0067   6.1005   6.1482   6.2485

     occupation numbers 
     1.0000   1.0000   1.0000   1.0000   1.0000   1.0000   1.0000   1.0000
     1.0000   1.0000   1.0000   1.0000   1.0000   1.0000   1.0000   1.0000
     1.0000   1.0000   1.0000   1.0000   1.0000   1.0000   1.0000   1.0000
     1.0000   1.0000   1.0000   1.0000   1.0000   1.0000   1.0000   1.0000
     1.0000   1.0000   1.0000   1.0000   1.0000   1.0000   1.0000   1.0000
     1.0000   1.0000   1.0000   1.0000   1.0000   1.0000   1.0000   1.0000
     1.0000   1.0000   1.0000   1.0000   1.0000   1.0000   1.0000   1.0000
     1.0000   1.0000   1.0000   1.0000   1.0000   1.0000   1.0000   1.0000
     1.0000   1.0000   1.0000   1.0000   1.0000   1.0000   1.0000   1.0000
     1.0000   1.0000   1.0000   1.0000   1.0000   1.0000

          k = 0.3581 0.1567-0.2222 ( 43447 PWs)   bands (ev):

   -20.7033 -20.6847 -20.6692 -20.6508 -15.6638 -15.6637 -15.6544 -15.6543
   -15.6486 -15.6485 -15.5880 -15.5880 -15.5732 -15.5730  -7.2591  -6.9704
    -6.5251  -6.1597  -6.0920  -6.0881  -5.9964  -5.8949  -5.0478  -4.9921
    -4.8643  -4.8360  -4.7836  -4.7608  -4.7077  -4.7060  -4.6618  -4.6571
    -4.6476  -4.6351  -0.9943  -0.8557   1.6842   1.7027   1.7599   2.0473
     2.0789   2.1658   2.4462   2.6688   2.8044   2.8681   2.9897   3.1656
     3.2528   3.2821   3.3935   3.4279   3.4813   3.5752   3.6046   3.7240
     3.7678   4.0203   4.5791   4.5891   4.8379   4.8516   4.8731   4.9354
     4.9970   5.1183   5.2873   5.3422   5.3572   5.4209   5.4351   5.5966
     5.7105   5.9482   5.9932   6.0805   6.1929   6.2403

     occupation numbers 
     1.0000   1.0000   1.0000   1.0000   1.0000   1.0000   1.0000   1.0000
     1.0000   1.0000   1.0000   1.0000   1.0000   1.0000   1.0000   1.0000
     1.0000   1.0000   1.0000   1.0000   1.0000   1.0000   1.0000   1.0000
     1.0000   1.0000   1.0000   1.0000   1.0000   1.0000   1.0000   1.0000
     1.0000   1.0000   1.0000   1.0000   1.0000   1.0000   1.0000   1.0000
     1.0000   1.0000   1.0000   1.0000   1.0000   1.0000   1.0000   1.0000
     1.0000   1.0000   1.0000   1.0000   1.0000   1.0000   1.0000   1.0000
     1.0000   1.0000   1.0000   1.0000   1.0000   1.0000   1.0000   1.0000
     1.0000   1.0000   1.0000   1.0000   1.0000   1.0000   1.0000   1.0000
     1.0000   1.0000   1.0000   1.0000   1.0000   1.0000

          k = 0.3847 0.3356-0.1111 ( 43437 PWs)   bands (ev):

   -20.7002 -20.6884 -20.6654 -20.6537 -15.6638 -15.6637 -15.6544 -15.6543
   -15.6486 -15.6485 -15.5879 -15.5879 -15.5732 -15.5731  -7.2101  -7.0178
    -6.4485  -6.1620  -6.1429  -6.1217  -5.9829  -5.9425  -5.0153  -4.9604
    -4.8879  -4.8332  -4.7950  -4.7326  -4.7235  -4.7173  -4.6750  -4.6537
    -4.6382  -4.6375  -0.9590  -0.8718   1.6369   1.6698   1.7509   1.8885
     2.1127   2.2818   2.4471   2.6226   2.7733   2.9168   3.0147   3.1650
     3.2171   3.2384   3.3771   3.4625   3.4896   3.5980   3.6783   3.7177
     3.7743   3.9494   4.6026   4.6191   4.8466   4.8734   4.9018   4.9125
     4.9858   5.0806   5.2973   5.3396   5.3450   5.3891   5.5025   5.6433
     5.7652   5.9270   6.0096   6.0900   6.1735   6.2589

     occupation numbers 
     1.0000   1.0000   1.0000   1.0000   1.0000   1.0000   1.0000   1.0000
     1.0000   1.0000   1.0000   1.0000   1.0000   1.0000   1.0000   1.0000
     1.0000   1.0000   1.0000   1.0000   1.0000   1.0000   1.0000   1.0000
     1.0000   1.0000   1.0000   1.0000   1.0000   1.0000   1.0000   1.0000
     1.0000   1.0000   1.0000   1.0000   1.0000   1.0000   1.0000   1.0000
     1.0000   1.0000   1.0000   1.0000   1.0000   1.0000   1.0000   1.0000
     1.0000   1.0000   1.0000   1.0000   1.0000   1.0000   1.0000   1.0000
     1.0000   1.0000   1.0000   1.0000   1.0000   1.0000   1.0000   1.0000
     1.0000   1.0000   1.0000   1.0000   1.0000   1.0000   1.0000   1.0000
     1.0000   1.0000   1.0000   1.0000   1.0000   1.0000

          k = 0.4113 0.7214 0.0000 ( 43411 PWs)   bands (ev):

   -20.6891 -20.6858 -20.6671 -20.6639 -15.6638 -15.6638 -15.6546 -15.6546
   -15.6487 -15.6487 -15.5877 -15.5877 -15.5731 -15.5731  -7.0319  -7.0074
    -6.4044  -6.2538  -6.2018  -6.1305  -6.1181  -6.0249  -4.9480  -4.9132
    -4.8557  -4.7872  -4.7745  -4.7697  -4.7546  -4.7370  -4.7235  -4.7037
    -4.6193  -4.6080  -0.8800  -0.8583   1.3851   1.4560   1.6539   1.7551
     2.2467   2.2974   2.3917   2.5044   2.7247   3.0006   3.1148   3.1787
     3.2643   3.2989   3.3341   3.3946   3.4371   3.6050   3.7237   3.7889
     3.8144   3.8339   4.7433   4.7745   4.8011   4.8658   4.9700   5.0089
     5.0912   5.1184   5.1260   5.2191   5.2859   5.3269   5.7750   5.8657
     5.9032   5.9805   6.0267   6.0597   6.2454   6.2719

     occupation numbers 
     1.0000   1.0000   1.0000   1.0000   1.0000   1.0000   1.0000   1.0000
     1.0000   1.0000   1.0000   1.0000   1.0000   1.0000   1.0000   1.0000
     1.0000   1.0000   1.0000   1.0000   1.0000   1.0000   1.0000   1.0000
     1.0000   1.0000   1.0000   1.0000   1.0000   1.0000   1.0000   1.0000
     1.0000   1.0000   1.0000   1.0000   1.0000   1.0000   1.0000   1.0000
     1.0000   1.0000   1.0000   1.0000   1.0000   1.0000   1.0000   1.0000
     1.0000   1.0000   1.0000   1.0000   1.0000   1.0000   1.0000   1.0000
     1.0000   1.0000   1.0000   1.0000   1.0000   1.0000   1.0000   1.0000
     1.0000   1.0000   1.0000   1.0000   1.0000   1.0000   1.0000   1.0000
     1.0000   1.0000   1.0000   1.0000   1.0000   1.0000

          k = 0.4379 0.9004 0.1111 ( 43416 PWs)   bands (ev):

   -20.6834 -20.6832 -20.6694 -20.6693 -15.6638 -15.6638 -15.6547 -15.6547
   -15.6488 -15.6488 -15.5876 -15.5876 -15.5731 -15.5731  -7.0004  -6.9433
    -6.3869  -6.3111  -6.2507  -6.1558  -6.1270  -6.0505  -4.9131  -4.8952
    -4.8743  -4.8126  -4.7838  -4.7677  -4.7603  -4.7448  -4.6828  -4.6779
    -4.6323  -4.6179  -0.8808  -0.8250   1.3008   1.4052   1.5833   1.7384
     2.1943   2.3203   2.4401   2.4417   2.8031   2.9495   3.1363   3.2370
     3.2801   3.3197   3.3535   3.3669   3.4504   3.5563   3.7302   3.7665
     3.8086   3.8345   4.7763   4.8200   4.8446   4.8746   5.0040   5.0343
     5.0480   5.0694   5.1604   5.1886   5.2497   5.3266   5.8050   5.9184
     5.9832   6.0273   6.0664   6.1074   6.1615   6.2264

     occupation numbers 
     1.0000   1.0000   1.0000   1.0000   1.0000   1.0000   1.0000   1.0000
     1.0000   1.0000   1.0000   1.0000   1.0000   1.0000   1.0000   1.0000
     1.0000   1.0000   1.0000   1.0000   1.0000   1.0000   1.0000   1.0000
     1.0000   1.0000   1.0000   1.0000   1.0000   1.0000   1.0000   1.0000
     1.0000   1.0000   1.0000   1.0000   1.0000   1.0000   1.0000   1.0000
     1.0000   1.0000   1.0000   1.0000   1.0000   1.0000   1.0000   1.0000
     1.0000   1.0000   1.0000   1.0000   1.0000   1.0000   1.0000   1.0000
     1.0000   1.0000   1.0000   1.0000   1.0000   1.0000   1.0000   1.0000
     1.0000   1.0000   1.0000   1.0000   1.0000   1.0000   1.0000   1.0000
     1.0000   1.0000   1.0000   1.0000   1.0000   1.0000

          k = 0.4645 1.0793 0.2222 ( 43424 PWs)   bands (ev):

   -20.6841 -20.6825 -20.6702 -20.6686 -15.6638 -15.6638 -15.6547 -15.6547
   -15.6488 -15.6488 -15.5876 -15.5876 -15.5731 -15.5731  -6.9876  -6.9596
    -6.4086  -6.3006  -6.2343  -6.1543  -6.1249  -6.0482  -4.9200  -4.8964
    -4.8730  -4.8127  -4.7831  -4.7774  -4.7658  -4.7331  -4.7027  -4.6671
    -4.6283  -4.6123  -0.8744  -0.8317   1.2938   1.3945   1.6222   1.7540
     2.2014   2.3044   2.3891   2.4416   2.8056   2.9876   3.1291   3.2202
     3.2683   3.3298   3.3452   3.3538   3.4519   3.5806   3.7225   3.7730
     3.8162   3.8338   4.7739   4.8211   4.8369   4.8812   4.9982   5.0263
     5.0432   5.0674   5.1666   5.2031   5.2558   5.3251   5.8128   5.9163
     5.9839   6.0123   6.0743   6.1269   6.1862   6.1942

     occupation numbers 
     1.0000   1.0000   1.0000   1.0000   1.0000   1.0000   1.0000   1.0000
     1.0000   1.0000   1.0000   1.0000   1.0000   1.0000   1.0000   1.0000
     1.0000   1.0000   1.0000   1.0000   1.0000   1.0000   1.0000   1.0000
     1.0000   1.0000   1.0000   1.0000   1.0000   1.0000   1.0000   1.0000
     1.0000   1.0000   1.0000   1.0000   1.0000   1.0000   1.0000   1.0000
     1.0000   1.0000   1.0000   1.0000   1.0000   1.0000   1.0000   1.0000
     1.0000   1.0000   1.0000   1.0000   1.0000   1.0000   1.0000   1.0000
     1.0000   1.0000   1.0000   1.0000   1.0000   1.0000   1.0000   1.0000
     1.0000   1.0000   1.0000   1.0000   1.0000   1.0000   1.0000   1.0000
     1.0000   1.0000   1.0000   1.0000   1.0000   1.0000

          k = 0.4911 1.2582 0.3333 ( 43430 PWs)   bands (ev):

   -20.6907 -20.6832 -20.6697 -20.6624 -15.6638 -15.6638 -15.6546 -15.6546
   -15.6487 -15.6487 -15.5877 -15.5877 -15.5732 -15.5731  -7.0640  -6.9720
    -6.4580  -6.2222  -6.1881  -6.1172  -6.1073  -6.0267  -4.9625  -4.9113
    -4.8642  -4.7925  -4.7848  -4.7668  -4.7620  -4.7487  -4.7002  -4.6916
    -4.6258  -4.6051  -0.8757  -0.8637   1.3699   1.4317   1.7426   1.7967
     2.2163   2.2622   2.3397   2.5214   2.7084   3.0588   3.0927   3.1614
     3.2453   3.2948   3.3591   3.3800   3.4330   3.6266   3.7175   3.7854
     3.7945   3.8762   4.7430   4.7721   4.7811   4.8870   4.9768   5.0074
     5.0659   5.0852   5.1420   5.2535   5.3057   5.3178   5.7738   5.8626
     5.9064   6.0067   6.0329   6.0635   6.2322   6.2385

     occupation numbers 
     1.0000   1.0000   1.0000   1.0000   1.0000   1.0000   1.0000   1.0000
     1.0000   1.0000   1.0000   1.0000   1.0000   1.0000   1.0000   1.0000
     1.0000   1.0000   1.0000   1.0000   1.0000   1.0000   1.0000   1.0000
     1.0000   1.0000   1.0000   1.0000   1.0000   1.0000   1.0000   1.0000
     1.0000   1.0000   1.0000   1.0000   1.0000   1.0000   1.0000   1.0000
     1.0000   1.0000   1.0000   1.0000   1.0000   1.0000   1.0000   1.0000
     1.0000   1.0000   1.0000   1.0000   1.0000   1.0000   1.0000   1.0000
     1.0000   1.0000   1.0000   1.0000   1.0000   1.0000   1.0000   1.0000
     1.0000   1.0000   1.0000   1.0000   1.0000   1.0000   1.0000   1.0000
     1.0000   1.0000   1.0000   1.0000   1.0000   1.0000

          k = 0.5177 1.4371 0.4444 ( 43449 PWs)   bands (ev):

   -20.6978 -20.6823 -20.6710 -20.6558 -15.6638 -15.6637 -15.6545 -15.6544
   -15.6487 -15.6486 -15.5878 -15.5878 -15.5732 -15.5730  -7.1795  -6.9486
    -6.5217  -6.1666  -6.1206  -6.0915  -6.0318  -6.0069  -5.0128  -4.9221
    -4.8609  -4.8535  -4.7578  -4.7431  -4.7392  -4.7297  -4.7141  -4.6698
    -4.6451  -4.6226  -0.9381  -0.8536   1.5002   1.5177   1.8123   1.8914
     2.1117   2.3473   2.3872   2.5556   2.6778   2.9544   3.0819   3.1395
     3.2516   3.2691   3.3628   3.3831   3.4908   3.6116   3.7042   3.7163
     3.7999   3.9784   4.6598   4.6921   4.7936   4.9006   4.9394   4.9482
     5.0212   5.1112   5.1997   5.2725   5.3412   5.3614   5.6202   5.7794
     5.8145   5.9970   6.0346   6.0438   6.1794   6.2483

     occupation numbers 
     1.0000   1.0000   1.0000   1.0000   1.0000   1.0000   1.0000   1.0000
     1.0000   1.0000   1.0000   1.0000   1.0000   1.0000   1.0000   1.0000
     1.0000   1.0000   1.0000   1.0000   1.0000   1.0000   1.0000   1.0000
     1.0000   1.0000   1.0000   1.0000   1.0000   1.0000   1.0000   1.0000
     1.0000   1.0000   1.0000   1.0000   1.0000   1.0000   1.0000   1.0000
     1.0000   1.0000   1.0000   1.0000   1.0000   1.0000   1.0000   1.0000
     1.0000   1.0000   1.0000   1.0000   1.0000   1.0000   1.0000   1.0000
     1.0000   1.0000   1.0000   1.0000   1.0000   1.0000   1.0000   1.0000
     1.0000   1.0000   1.0000   1.0000   1.0000   1.0000   1.0000   1.0000
     1.0000   1.0000   1.0000   1.0000   1.0000   1.0000

          k = 0.3049 0.0058-0.4444 ( 43454 PWs)   bands (ev):

   -20.7028 -20.6796 -20.6742 -20.6512 -15.6639 -15.6637 -15.6544 -15.6543
   -15.6486 -15.6485 -15.5879 -15.5879 -15.5733 -15.5730  -7.2590  -6.9254
    -6.5767  -6.1494  -6.0654  -6.0514  -6.0270  -5.9335  -5.0518  -4.9675
    -4.8619  -4.8411  -4.7696  -4.7497  -4.7180  -4.7109  -4.6995  -4.6628
    -4.6504  -4.6347  -0.9902  -0.8484   1.6125   1.6324   1.8173   2.0066
     2.0699   2.3568   2.4258   2.5087   2.8097   2.8977   3.0096   3.0946
     3.2487   3.2799   3.3926   3.4311   3.4846   3.5770   3.6087   3.7256
     3.7847   4.0749   4.5950   4.6203   4.8321   4.8739   4.8764   4.9140
     5.0096   5.1823   5.2500   5.2746   5.3428   5.4080   5.4771   5.6759
     5.6930   5.9915   6.0084   6.1010   6.1531   6.2453

     occupation numbers 
     1.0000   1.0000   1.0000   1.0000   1.0000   1.0000   1.0000   1.0000
     1.0000   1.0000   1.0000   1.0000   1.0000   1.0000   1.0000   1.0000
     1.0000   1.0000   1.0000   1.0000   1.0000   1.0000   1.0000   1.0000
     1.0000   1.0000   1.0000   1.0000   1.0000   1.0000   1.0000   1.0000
     1.0000   1.0000   1.0000   1.0000   1.0000   1.0000   1.0000   1.0000
     1.0000   1.0000   1.0000   1.0000   1.0000   1.0000   1.0000   1.0000
     1.0000   1.0000   1.0000   1.0000   1.0000   1.0000   1.0000   1.0000
     1.0000   1.0000   1.0000   1.0000   1.0000   1.0000   1.0000   1.0000
     1.0000   1.0000   1.0000   1.0000   1.0000   1.0000   1.0000   1.0000
     1.0000   1.0000   1.0000   1.0000   1.0000   1.0000

          k = 0.3315 0.1847-0.3333 ( 43481 PWs)   bands (ev):

   -20.7042 -20.6804 -20.6735 -20.6499 -15.6639 -15.6637 -15.6544 -15.6543
   -15.6486 -15.6485 -15.5880 -15.5880 -15.5733 -15.5730  -7.2819  -6.9311
    -6.5797  -6.1422  -6.0562  -6.0547  -6.0163  -5.8954  -5.0611  -4.9974
    -4.8389  -4.8158  -4.8077  -4.7844  -4.7035  -4.7023  -4.6710  -4.6649
    -4.6454  -4.6423  -1.0056  -0.8509   1.6682   1.6782   1.8124   2.0625
     2.1179   2.1929   2.4643   2.6016   2.8288   2.8466   2.9925   3.1033
     3.2464   3.2987   3.3602   3.4538   3.4940   3.5398   3.6041   3.7317
     3.7652   4.1002   4.5723   4.5916   4.8365   4.8497   4.8628   4.9301
     5.0131   5.1588   5.2760   5.3065   5.3448   5.4357   5.4369   5.6051
     5.6469   5.9627   6.0143   6.0763   6.2065   6.2435

     occupation numbers 
     1.0000   1.0000   1.0000   1.0000   1.0000   1.0000   1.0000   1.0000
     1.0000   1.0000   1.0000   1.0000   1.0000   1.0000   1.0000   1.0000
     1.0000   1.0000   1.0000   1.0000   1.0000   1.0000   1.0000   1.0000
     1.0000   1.0000   1.0000   1.0000   1.0000   1.0000   1.0000   1.0000
     1.0000   1.0000   1.0000   1.0000   1.0000   1.0000   1.0000   1.0000
     1.0000   1.0000   1.0000   1.0000   1.0000   1.0000   1.0000   1.0000
     1.0000   1.0000   1.0000   1.0000   1.0000   1.0000   1.0000   1.0000
     1.0000   1.0000   1.0000   1.0000   1.0000   1.0000   1.0000   1.0000
     1.0000   1.0000   1.0000   1.0000   1.0000   1.0000   1.0000   1.0000
     1.0000   1.0000   1.0000   1.0000   1.0000   1.0000

          k = 0.3581 0.3636-0.2222 ( 43469 PWs)   bands (ev):

   -20.7018 -20.6843 -20.6695 -20.6521 -15.6638 -15.6637 -15.6544 -15.6543
   -15.6486 -15.6485 -15.5879 -15.5879 -15.5732 -15.5730  -7.2432  -6.9663
    -6.5252  -6.1489  -6.0914  -6.0874  -5.9934  -5.9427  -5.0372  -4.9646
    -4.8794  -4.8204  -4.8026  -4.7327  -4.7228  -4.7140  -4.6881  -4.6612
    -4.6463  -4.6367  -0.9764  -0.8602   1.6222   1.6396   1.8077   1.9512
     2.0900   2.3308   2.4418   2.5689   2.7718   2.8737   3.0371   3.1301
     3.2411   3.2804   3.3540   3.4134   3.5064   3.5830   3.6429   3.7237
     3.7779   4.0451   4.5950   4.6225   4.8368   4.8743   4.8888   4.9128
     5.0006   5.1258   5.2799   5.3070   5.3441   5.3973   5.4815   5.6634
     5.7059   5.9651   6.0183   6.1159   6.1462   6.2541

     occupation numbers 
     1.0000   1.0000   1.0000   1.0000   1.0000   1.0000   1.0000   1.0000
     1.0000   1.0000   1.0000   1.0000   1.0000   1.0000   1.0000   1.0000
     1.0000   1.0000   1.0000   1.0000   1.0000   1.0000   1.0000   1.0000
     1.0000   1.0000   1.0000   1.0000   1.0000   1.0000   1.0000   1.0000
     1.0000   1.0000   1.0000   1.0000   1.0000   1.0000   1.0000   1.0000
     1.0000   1.0000   1.0000   1.0000   1.0000   1.0000   1.0000   1.0000
     1.0000   1.0000   1.0000   1.0000   1.0000   1.0000   1.0000   1.0000
     1.0000   1.0000   1.0000   1.0000   1.0000   1.0000   1.0000   1.0000
     1.0000   1.0000   1.0000   1.0000   1.0000   1.0000   1.0000   1.0000
     1.0000   1.0000   1.0000   1.0000   1.0000   1.0000

          k = 0.3847 0.5425-0.1111 ( 43449 PWs)   bands (ev):

   -20.6962 -20.6864 -20.6670 -20.6573 -15.6638 -15.6638 -15.6545 -15.6545
   -15.6486 -15.6486 -15.5878 -15.5878 -15.5732 -15.5731  -7.1512  -6.9974
    -6.4561  -6.1713  -6.1559  -6.1185  -6.0374  -5.9969  -4.9927  -4.9288
    -4.8512  -4.8391  -4.7711  -4.7603  -4.7407  -4.7362  -4.7066  -4.6699
    -4.6325  -4.6212  -0.9177  -0.8719   1.5115   1.5446   1.7650   1.8066
     2.1845   2.3571   2.3902   2.5583   2.6804   2.9649   3.0949   3.1396
     3.2424   3.2529   3.3387   3.4065   3.4738   3.6206   3.7179   3.7494
     3.7987   3.9258   4.6606   4.6945   4.8093   4.8907   4.9373   4.9413
     5.0279   5.0868   5.2295   5.2777   5.3380   5.3498   5.6340   5.7715
     5.8107   5.9639   6.0283   6.0384   6.2279   6.2744

     occupation numbers 
     1.0000   1.0000   1.0000   1.0000   1.0000   1.0000   1.0000   1.0000
     1.0000   1.0000   1.0000   1.0000   1.0000   1.0000   1.0000   1.0000
     1.0000   1.0000   1.0000   1.0000   1.0000   1.0000   1.0000   1.0000
     1.0000   1.0000   1.0000   1.0000   1.0000   1.0000   1.0000   1.0000
     1.0000   1.0000   1.0000   1.0000   1.0000   1.0000   1.0000   1.0000
     1.0000   1.0000   1.0000   1.0000   1.0000   1.0000   1.0000   1.0000
     1.0000   1.0000   1.0000   1.0000   1.0000   1.0000   1.0000   1.0000
     1.0000   1.0000   1.0000   1.0000   1.0000   1.0000   1.0000   1.0000
     1.0000   1.0000   1.0000   1.0000   1.0000   1.0000   1.0000   1.0000
     1.0000   1.0000   1.0000   1.0000   1.0000   1.0000

          k = 0.4113 0.9283 0.0000 ( 43427 PWs)   bands (ev):

   -20.6839 -20.6826 -20.6700 -20.6688 -15.6638 -15.6638 -15.6547 -15.6547
   -15.6488 -15.6488 -15.5876 -15.5876 -15.5731 -15.5731  -6.9977  -6.9475
    -6.4141  -6.2816  -6.2514  -6.1832  -6.1058  -6.0346  -4.9222  -4.8963
    -4.8802  -4.8036  -4.7853  -4.7750  -4.7692  -4.7327  -4.7003  -4.6681
    -4.6282  -4.6132  -0.8839  -0.8215   1.2824   1.4173   1.5881   1.7730
     2.1831   2.3308   2.4007   2.4466   2.7803   3.0100   3.1052   3.2203
     3.2543   3.3375   3.3601   3.3645   3.4323   3.5937   3.7088   3.7602
     3.8271   3.8417   4.7665   4.8269   4.8332   4.8854   4.9937   5.0242
     5.0523   5.0751   5.1607   5.2069   5.2399   5.3367   5.7927   5.9343
     5.9753   6.0008   6.0860   6.1353   6.1737   6.2111

     occupation numbers 
     1.0000   1.0000   1.0000   1.0000   1.0000   1.0000   1.0000   1.0000
     1.0000   1.0000   1.0000   1.0000   1.0000   1.0000   1.0000   1.0000
     1.0000   1.0000   1.0000   1.0000   1.0000   1.0000   1.0000   1.0000
     1.0000   1.0000   1.0000   1.0000   1.0000   1.0000   1.0000   1.0000
     1.0000   1.0000   1.0000   1.0000   1.0000   1.0000   1.0000   1.0000
     1.0000   1.0000   1.0000   1.0000   1.0000   1.0000   1.0000   1.0000
     1.0000   1.0000   1.0000   1.0000   1.0000   1.0000   1.0000   1.0000
     1.0000   1.0000   1.0000   1.0000   1.0000   1.0000   1.0000   1.0000
     1.0000   1.0000   1.0000   1.0000   1.0000   1.0000   1.0000   1.0000
     1.0000   1.0000   1.0000   1.0000   1.0000   1.0000

          k = 0.4379 1.1073 0.1111 ( 43401 PWs)   bands (ev):

   -20.6834 -20.6832 -20.6694 -20.6693 -15.6638 -15.6638 -15.6547 -15.6547
   -15.6488 -15.6488 -15.5876 -15.5875 -15.5731 -15.5731  -7.0059  -6.9360
    -6.3985  -6.2852  -6.2671  -6.1854  -6.1075  -6.0367  -4.9176  -4.8905
    -4.8861  -4.8028  -4.7855  -4.7674  -4.7656  -4.7403  -4.6857  -4.6765
    -4.6322  -4.6161  -0.8881  -0.8171   1.2869   1.4227   1.5619   1.7645
     2.1790   2.3406   2.4348   2.4471   2.7769   2.9840   3.1100   3.2367
     3.2617   3.3269   3.3647   3.3758   3.4317   3.5755   3.7138   3.7565
     3.8225   3.8417   4.7682   4.8265   4.8387   4.8807   4.9975   5.0294
     5.0565   5.0764   5.1565   5.1966   5.2355   5.3379   5.7874   5.9357
     5.9719   6.0145   6.0791   6.1222   6.1580   6.2326

     occupation numbers 
     1.0000   1.0000   1.0000   1.0000   1.0000   1.0000   1.0000   1.0000
     1.0000   1.0000   1.0000   1.0000   1.0000   1.0000   1.0000   1.0000
     1.0000   1.0000   1.0000   1.0000   1.0000   1.0000   1.0000   1.0000
     1.0000   1.0000   1.0000   1.0000   1.0000   1.0000   1.0000   1.0000
     1.0000   1.0000   1.0000   1.0000   1.0000   1.0000   1.0000   1.0000
     1.0000   1.0000   1.0000   1.0000   1.0000   1.0000   1.0000   1.0000
     1.0000   1.0000   1.0000   1.0000   1.0000   1.0000   1.0000   1.0000
     1.0000   1.0000   1.0000   1.0000   1.0000   1.0000   1.0000   1.0000
     1.0000   1.0000   1.0000   1.0000   1.0000   1.0000   1.0000   1.0000
     1.0000   1.0000   1.0000   1.0000   1.0000   1.0000

          k = 0.4645 1.2862 0.2222 ( 43401 PWs)   bands (ev):

   -20.6894 -20.6854 -20.6675 -20.6636 -15.6638 -15.6638 -15.6546 -15.6546
   -15.6487 -15.6487 -15.5877 -15.5877 -15.5731 -15.5731  -7.0338  -7.0073
    -6.4230  -6.2282  -6.2043  -6.1436  -6.1127  -6.0110  -4.9531  -4.9108
    -4.8672  -4.7824  -4.7757  -4.7667  -4.7583  -4.7437  -4.7194  -4.7024
    -4.6195  -4.6063  -0.8849  -0.8535   1.3733   1.4711   1.6455   1.7806
     2.2346   2.3012   2.3919   2.5130   2.6907   3.0487   3.0942   3.1719
     3.2354   3.3075   3.3391   3.3959   3.4223   3.6293   3.7132   3.7833
     3.8187   3.8484   4.7376   4.7789   4.7924   4.8753   4.9652   5.0170
     5.0896   5.1105   5.1227   5.2320   5.2772   5.3352   5.7599   5.8693
     5.8985   5.9782   6.0369   6.0723   6.2359   6.2784

     occupation numbers 
     1.0000   1.0000   1.0000   1.0000   1.0000   1.0000   1.0000   1.0000
     1.0000   1.0000   1.0000   1.0000   1.0000   1.0000   1.0000   1.0000
     1.0000   1.0000   1.0000   1.0000   1.0000   1.0000   1.0000   1.0000
     1.0000   1.0000   1.0000   1.0000   1.0000   1.0000   1.0000   1.0000
     1.0000   1.0000   1.0000   1.0000   1.0000   1.0000   1.0000   1.0000
     1.0000   1.0000   1.0000   1.0000   1.0000   1.0000   1.0000   1.0000
     1.0000   1.0000   1.0000   1.0000   1.0000   1.0000   1.0000   1.0000
     1.0000   1.0000   1.0000   1.0000   1.0000   1.0000   1.0000   1.0000
     1.0000   1.0000   1.0000   1.0000   1.0000   1.0000   1.0000   1.0000
     1.0000   1.0000   1.0000   1.0000   1.0000   1.0000

          k = 0.4911 1.4651 0.3333 ( 43445 PWs)   bands (ev):

   -20.6965 -20.6857 -20.6676 -20.6570 -15.6638 -15.6637 -15.6545 -15.6545
   -15.6486 -15.6486 -15.5878 -15.5878 -15.5732 -15.5731  -7.1584  -6.9922
    -6.4758  -6.1658  -6.1307  -6.1054  -6.0552  -5.9863  -4.9969  -4.9301
    -4.8540  -4.8492  -4.7657  -4.7622  -4.7393  -4.7290  -4.7132  -4.6734
    -4.6343  -4.6211  -0.9163  -0.8750   1.5049   1.5522   1.7803   1.8211
     2.1785   2.3465   2.4120   2.5495   2.6645   2.9385   3.1194   3.1558
     3.2172   3.2559   3.3370   3.3817   3.4854   3.6276   3.7159   3.7472
     3.7939   3.9581   4.6545   4.6991   4.8037   4.8951   4.9375   4.9451
     5.0290   5.0878   5.2220   5.2785   5.3351   5.3537   5.6227   5.7692
     5.7969   5.9701   6.0448   6.0468   6.2142   6.2759

     occupation numbers 
     1.0000   1.0000   1.0000   1.0000   1.0000   1.0000   1.0000   1.0000
     1.0000   1.0000   1.0000   1.0000   1.0000   1.0000   1.0000   1.0000
     1.0000   1.0000   1.0000   1.0000   1.0000   1.0000   1.0000   1.0000
     1.0000   1.0000   1.0000   1.0000   1.0000   1.0000   1.0000   1.0000
     1.0000   1.0000   1.0000   1.0000   1.0000   1.0000   1.0000   1.0000
     1.0000   1.0000   1.0000   1.0000   1.0000   1.0000   1.0000   1.0000
     1.0000   1.0000   1.0000   1.0000   1.0000   1.0000   1.0000   1.0000
     1.0000   1.0000   1.0000   1.0000   1.0000   1.0000   1.0000   1.0000
     1.0000   1.0000   1.0000   1.0000   1.0000   1.0000   1.0000   1.0000
     1.0000   1.0000   1.0000   1.0000   1.0000   1.0000

          k = 0.5177 1.6440 0.4444 ( 43499 PWs)   bands (ev):

   -20.7021 -20.6834 -20.6703 -20.6519 -15.6639 -15.6637 -15.6544 -15.6543
   -15.6486 -15.6485 -15.5879 -15.5879 -15.5732 -15.5730  -7.2519  -6.9593
    -6.5409  -6.1377  -6.0805  -6.0710  -5.9882  -5.9520  -5.0401  -4.9660
    -4.8803  -4.8288  -4.7971  -4.7333  -4.7239  -4.7129  -4.6939  -4.6638
    -4.6495  -4.6378  -0.9773  -0.8627   1.6149   1.6344   1.8491   1.9579
     2.0902   2.3444   2.4630   2.5407   2.7681   2.8465   3.0358   3.1204
     3.2264   3.2855   3.3556   3.4119   3.5042   3.5899   3.6381   3.7265
     3.7718   4.0874   4.5896   4.6257   4.8339   4.8753   4.8870   4.9119
     5.0083   5.1332   5.2780   5.2953   5.3473   5.3919   5.4777   5.6636
     5.6755   5.9680   6.0440   6.1197   6.1451   6.2514

     occupation numbers 
     1.0000   1.0000   1.0000   1.0000   1.0000   1.0000   1.0000   1.0000
     1.0000   1.0000   1.0000   1.0000   1.0000   1.0000   1.0000   1.0000
     1.0000   1.0000   1.0000   1.0000   1.0000   1.0000   1.0000   1.0000
     1.0000   1.0000   1.0000   1.0000   1.0000   1.0000   1.0000   1.0000
     1.0000   1.0000   1.0000   1.0000   1.0000   1.0000   1.0000   1.0000
     1.0000   1.0000   1.0000   1.0000   1.0000   1.0000   1.0000   1.0000
     1.0000   1.0000   1.0000   1.0000   1.0000   1.0000   1.0000   1.0000
     1.0000   1.0000   1.0000   1.0000   1.0000   1.0000   1.0000   1.0000
     1.0000   1.0000   1.0000   1.0000   1.0000   1.0000   1.0000   1.0000
     1.0000   1.0000   1.0000   1.0000   1.0000   1.0000

          k = 0.3049 0.2127-0.4444 ( 43521 PWs)   bands (ev):

   -20.7043 -20.6797 -20.6742 -20.6498 -15.6639 -15.6637 -15.6544 -15.6543
   -15.6486 -15.6485 -15.5880 -15.5880 -15.5733 -15.5730  -7.2891  -6.9288
    -6.5867  -6.1279  -6.0467  -6.0443  -6.0158  -5.9014  -5.0616  -4.9986
    -4.8336  -4.8161  -4.8125  -4.7925  -4.7021  -4.7009  -4.6774  -4.6729
    -4.6452  -4.6428  -1.0059  -0.8545   1.6573   1.6672   1.8587   2.0694
     2.1227   2.2056   2.4882   2.5972   2.8059   2.8439   2.9418   3.1099
     3.2211   3.3075   3.3640   3.4540   3.4949   3.5451   3.6126   3.7339
     3.7533   4.1420   4.5671   4.5939   4.8361   4.8495   4.8634   4.9270
     5.0214   5.1603   5.2748   5.2972   5.3463   5.4337   5.4405   5.6045
     5.6101   5.9540   6.0493   6.0793   6.2105   6.2396

     occupation numbers 
     1.0000   1.0000   1.0000   1.0000   1.0000   1.0000   1.0000   1.0000
     1.0000   1.0000   1.0000   1.0000   1.0000   1.0000   1.0000   1.0000
     1.0000   1.0000   1.0000   1.0000   1.0000   1.0000   1.0000   1.0000
     1.0000   1.0000   1.0000   1.0000   1.0000   1.0000   1.0000   1.0000
     1.0000   1.0000   1.0000   1.0000   1.0000   1.0000   1.0000   1.0000
     1.0000   1.0000   1.0000   1.0000   1.0000   1.0000   1.0000   1.0000
     1.0000   1.0000   1.0000   1.0000   1.0000   1.0000   1.0000   1.0000
     1.0000   1.0000   1.0000   1.0000   1.0000   1.0000   1.0000   1.0000
     1.0000   1.0000   1.0000   1.0000   1.0000   1.0000   1.0000   1.0000
     1.0000   1.0000   1.0000   1.0000   1.0000   1.0000

          k = 0.3315 0.3916-0.3333 ( 43482 PWs)   bands (ev):

   -20.7027 -20.6802 -20.6735 -20.6513 -15.6639 -15.6637 -15.6544 -15.6543
   -15.6486 -15.6485 -15.5879 -15.5879 -15.5733 -15.5730  -7.2626  -6.9323
    -6.5751  -6.1374  -6.0594  -6.0488  -6.0117  -5.9453  -5.0497  -4.9678
    -4.8692  -4.8429  -4.7750  -4.7460  -4.7189  -4.7114  -4.7023  -4.6663
    -4.6506  -4.6373  -0.9869  -0.8548   1.6165   1.6230   1.8568   1.9952
     2.0772   2.3621   2.4500   2.5046   2.7948   2.8711   2.9815   3.1096
     3.2292   3.2861   3.3994   3.4190   3.4854   3.5862   3.6182   3.7269
     3.7760   4.1079   4.5897   4.6235   4.8308   4.8749   4.8785   4.9127
     5.0148   5.1721   5.2559   5.2737   5.3467   5.3983   5.4760   5.6632
     5.6756   5.9830   6.0419   6.1033   6.1548   6.2448

     occupation numbers 
     1.0000   1.0000   1.0000   1.0000   1.0000   1.0000   1.0000   1.0000
     1.0000   1.0000   1.0000   1.0000   1.0000   1.0000   1.0000   1.0000
     1.0000   1.0000   1.0000   1.0000   1.0000   1.0000   1.0000   1.0000
     1.0000   1.0000   1.0000   1.0000   1.0000   1.0000   1.0000   1.0000
     1.0000   1.0000   1.0000   1.0000   1.0000   1.0000   1.0000   1.0000
     1.0000   1.0000   1.0000   1.0000   1.0000   1.0000   1.0000   1.0000
     1.0000   1.0000   1.0000   1.0000   1.0000   1.0000   1.0000   1.0000
     1.0000   1.0000   1.0000   1.0000   1.0000   1.0000   1.0000   1.0000
     1.0000   1.0000   1.0000   1.0000   1.0000   1.0000   1.0000   1.0000
     1.0000   1.0000   1.0000   1.0000   1.0000   1.0000

          k = 0.3581 0.5705-0.2222 ( 43437 PWs)   bands (ev):

   -20.6976 -20.6830 -20.6703 -20.6560 -15.6638 -15.6637 -15.6545 -15.6544
   -15.6486 -15.6486 -15.5878 -15.5878 -15.5732 -15.5730  -7.1778  -6.9604
    -6.5195  -6.1626  -6.1059  -6.0857  -6.0448  -5.9983  -5.0099  -4.9272
    -4.8617  -4.8581  -4.7611  -4.7467  -4.7393  -4.7289  -4.7146  -4.6734
    -4.6427  -4.6223  -0.9304  -0.8627   1.4977   1.5359   1.8283   1.8633
     2.1293   2.3528   2.3944   2.5470   2.6708   2.9302   3.0901   3.1496
     3.2352   3.2636   3.3600   3.3750   3.4953   3.6188   3.7146   3.7191
     3.7940   3.9957   4.6541   4.6966   4.7928   4.9019   4.9435   4.9448
     5.0250   5.1033   5.2025   5.2746   5.3453   5.3530   5.6145   5.7630
     5.8103   5.9998   6.0441   6.0487   6.1817   6.2588

     occupation numbers 
     1.0000   1.0000   1.0000   1.0000   1.0000   1.0000   1.0000   1.0000
     1.0000   1.0000   1.0000   1.0000   1.0000   1.0000   1.0000   1.0000
     1.0000   1.0000   1.0000   1.0000   1.0000   1.0000   1.0000   1.0000
     1.0000   1.0000   1.0000   1.0000   1.0000   1.0000   1.0000   1.0000
     1.0000   1.0000   1.0000   1.0000   1.0000   1.0000   1.0000   1.0000
     1.0000   1.0000   1.0000   1.0000   1.0000   1.0000   1.0000   1.0000
     1.0000   1.0000   1.0000   1.0000   1.0000   1.0000   1.0000   1.0000
     1.0000   1.0000   1.0000   1.0000   1.0000   1.0000   1.0000   1.0000
     1.0000   1.0000   1.0000   1.0000   1.0000   1.0000   1.0000   1.0000
     1.0000   1.0000   1.0000   1.0000   1.0000   1.0000

          k = 0.3847 0.7494-0.1111 ( 43434 PWs)   bands (ev):

   -20.6905 -20.6836 -20.6692 -20.6626 -15.6638 -15.6638 -15.6546 -15.6546
   -15.6487 -15.6487 -15.5877 -15.5877 -15.5731 -15.5731  -7.0560  -6.9843
    -6.4592  -6.2124  -6.1901  -6.1311  -6.1037  -6.0121  -4.9622  -4.9127
    -4.8711  -4.7882  -4.7844  -4.7658  -4.7626  -4.7510  -4.7015  -4.6964
    -4.6232  -4.6043  -0.8741  -0.8652   1.3634   1.4576   1.7079   1.8035
     2.2398   2.2478   2.3626   2.5225   2.6851   3.0674   3.0986   3.1587
     3.2188   3.3008   3.3577   3.3836   3.4270   3.6420   3.7094   3.7834
     3.8005   3.8812   4.7372   4.7767   4.7789   4.8897   4.9699   5.0159
     5.0730   5.0850   5.1359   5.2552   5.2904   5.3291   5.7607   5.8595
     5.9077   5.9976   6.0382   6.0747   6.2298   6.2545

     occupation numbers 
     1.0000   1.0000   1.0000   1.0000   1.0000   1.0000   1.0000   1.0000
     1.0000   1.0000   1.0000   1.0000   1.0000   1.0000   1.0000   1.0000
     1.0000   1.0000   1.0000   1.0000   1.0000   1.0000   1.0000   1.0000
     1.0000   1.0000   1.0000   1.0000   1.0000   1.0000   1.0000   1.0000
     1.0000   1.0000   1.0000   1.0000   1.0000   1.0000   1.0000   1.0000
     1.0000   1.0000   1.0000   1.0000   1.0000   1.0000   1.0000   1.0000
     1.0000   1.0000   1.0000   1.0000   1.0000   1.0000   1.0000   1.0000
     1.0000   1.0000   1.0000   1.0000   1.0000   1.0000   1.0000   1.0000
     1.0000   1.0000   1.0000   1.0000   1.0000   1.0000   1.0000   1.0000
     1.0000   1.0000   1.0000   1.0000   1.0000   1.0000

          k = 0.4113-0.7269 0.0000 ( 43392 PWs)   bands (ev):

   -20.6840 -20.6826 -20.6700 -20.6687 -15.6638 -15.6638 -15.6547 -15.6547
   -15.6488 -15.6488 -15.5876 -15.5875 -15.5731 -15.5731  -7.0191  -6.9157
    -6.3904  -6.2839  -6.2725  -6.2107  -6.0988  -6.0381  -4.9118  -4.9031
    -4.8773  -4.8001  -4.7925  -4.7588  -4.7564  -4.7461  -4.6907  -4.6741
    -4.6380  -4.6087  -0.8979  -0.8070   1.2554   1.4230   1.5754   1.8087
     2.1534   2.3666   2.4025   2.4405   2.7970   2.9811   3.1090   3.2367
     3.2606   3.3105   3.3692   3.3736   3.4250   3.5781   3.7179   3.7449
     3.8179   3.8587   4.7676   4.8299   4.8399   4.8788   4.9927   5.0283
     5.0515   5.0762   5.1588   5.2096   5.2258   5.3486   5.7790   5.9528
     5.9681   6.0192   6.0743   6.1237   6.1328   6.2642

     occupation numbers 
     1.0000   1.0000   1.0000   1.0000   1.0000   1.0000   1.0000   1.0000
     1.0000   1.0000   1.0000   1.0000   1.0000   1.0000   1.0000   1.0000
     1.0000   1.0000   1.0000   1.0000   1.0000   1.0000   1.0000   1.0000
     1.0000   1.0000   1.0000   1.0000   1.0000   1.0000   1.0000   1.0000
     1.0000   1.0000   1.0000   1.0000   1.0000   1.0000   1.0000   1.0000
     1.0000   1.0000   1.0000   1.0000   1.0000   1.0000   1.0000   1.0000
     1.0000   1.0000   1.0000   1.0000   1.0000   1.0000   1.0000   1.0000
     1.0000   1.0000   1.0000   1.0000   1.0000   1.0000   1.0000   1.0000
     1.0000   1.0000   1.0000   1.0000   1.0000   1.0000   1.0000   1.0000
     1.0000   1.0000   1.0000   1.0000   1.0000   1.0000

          k = 0.4379-0.5479 0.1111 ( 43416 PWs)   bands (ev):

   -20.6877 -20.6874 -20.6656 -20.6652 -15.6638 -15.6638 -15.6546 -15.6546
   -15.6487 -15.6487 -15.5877 -15.5876 -15.5731 -15.5731  -7.0382  -6.9971
    -6.3803  -6.2384  -6.2305  -6.1758  -6.1163  -6.0063  -4.9418  -4.9143
    -4.8596  -4.7728  -4.7709  -4.7699  -4.7466  -4.7381  -4.7332  -4.7077
    -4.6195  -4.6079  -0.9040  -0.8331   1.3605   1.4849   1.5933   1.7995
     2.1910   2.3620   2.4514   2.4603   2.7270   2.9935   3.1128   3.1879
     3.2489   3.3010   3.3380   3.4000   3.4128   3.6208   3.7184   3.7751
     3.8070   3.8472   4.7356   4.7840   4.8083   4.8610   4.9605   5.0173
     5.0974   5.1172   5.1435   5.2032   5.2550   5.3530   5.7542   5.8780
     5.8856   5.9677   6.0460   6.0776   6.2183   6.3108

     occupation numbers 
     1.0000   1.0000   1.0000   1.0000   1.0000   1.0000   1.0000   1.0000
     1.0000   1.0000   1.0000   1.0000   1.0000   1.0000   1.0000   1.0000
     1.0000   1.0000   1.0000   1.0000   1.0000   1.0000   1.0000   1.0000
     1.0000   1.0000   1.0000   1.0000   1.0000   1.0000   1.0000   1.0000
     1.0000   1.0000   1.0000   1.0000   1.0000   1.0000   1.0000   1.0000
     1.0000   1.0000   1.0000   1.0000   1.0000   1.0000   1.0000   1.0000
     1.0000   1.0000   1.0000   1.0000   1.0000   1.0000   1.0000   1.0000
     1.0000   1.0000   1.0000   1.0000   1.0000   1.0000   1.0000   1.0000
     1.0000   1.0000   1.0000   1.0000   1.0000   1.0000   1.0000   1.0000
     1.0000   1.0000   1.0000   1.0000   1.0000   1.0000

          k = 0.4645-0.3690 0.2222 ( 43455 PWs)   bands (ev):

   -20.6947 -20.6889 -20.6644 -20.6588 -15.6638 -15.6638 -15.6545 -15.6545
   -15.6486 -15.6486 -15.5878 -15.5878 -15.5732 -15.5731  -7.1244  -7.0366
    -6.4158  -6.1706  -6.1655  -6.1238  -6.0863  -5.9664  -4.9780  -4.9361
    -4.8397  -4.8370  -4.7935  -4.7615  -4.7407  -4.7317  -4.7061  -4.6735
    -4.6273  -4.6197  -0.8982  -0.8906   1.5121   1.5790   1.6924   1.8131
     2.2478   2.2844   2.4722   2.5057   2.7118   2.9505   3.1003   3.1791
     3.2009   3.2508   3.3156   3.3903   3.4748   3.6473   3.7209   3.7787
     3.7879   3.9040   4.6524   4.7054   4.8207   4.8827   4.9265   4.9467
     5.0437   5.0665   5.2404   5.2840   5.3149   5.3631   5.6349   5.7659
     5.7778   5.9396   6.0449   6.0635   6.2409   6.2974

     occupation numbers 
     1.0000   1.0000   1.0000   1.0000   1.0000   1.0000   1.0000   1.0000
     1.0000   1.0000   1.0000   1.0000   1.0000   1.0000   1.0000   1.0000
     1.0000   1.0000   1.0000   1.0000   1.0000   1.0000   1.0000   1.0000
     1.0000   1.0000   1.0000   1.0000   1.0000   1.0000   1.0000   1.0000
     1.0000   1.0000   1.0000   1.0000   1.0000   1.0000   1.0000   1.0000
     1.0000   1.0000   1.0000   1.0000   1.0000   1.0000   1.0000   1.0000
     1.0000   1.0000   1.0000   1.0000   1.0000   1.0000   1.0000   1.0000
     1.0000   1.0000   1.0000   1.0000   1.0000   1.0000   1.0000   1.0000
     1.0000   1.0000   1.0000   1.0000   1.0000   1.0000   1.0000   1.0000
     1.0000   1.0000   1.0000   1.0000   1.0000   1.0000

          k = 0.4911-0.1901 0.3333 ( 43480 PWs)   bands (ev):

   -20.7006 -20.6876 -20.6662 -20.6533 -15.6638 -15.6637 -15.6544 -15.6543
   -15.6486 -15.6486 -15.5879 -15.5879 -15.5732 -15.5730  -7.2287  -7.0081
    -6.4779  -6.1332  -6.1118  -6.1057  -5.9737  -5.9553  -5.0188  -4.9636
    -4.8929  -4.8275  -4.8111  -4.7310  -4.7220  -4.7139  -4.6883  -4.6559
    -4.6491  -4.6384  -0.9546  -0.8831   1.6055   1.6612   1.8567   1.8858
     2.1186   2.3081   2.5156   2.5445   2.7471   2.8416   3.1039   3.1466
     3.2017   3.2475   3.3031   3.4289   3.5002   3.6148   3.6684   3.7293
     3.7577   4.0563   4.5867   4.6322   4.8400   4.8774   4.9029   4.9097
     5.0008   5.0817   5.2967   5.3307   5.3522   5.3745   5.4852   5.6531
     5.6700   5.9447   6.0552   6.1295   6.1549   6.2583

     occupation numbers 
     1.0000   1.0000   1.0000   1.0000   1.0000   1.0000   1.0000   1.0000
     1.0000   1.0000   1.0000   1.0000   1.0000   1.0000   1.0000   1.0000
     1.0000   1.0000   1.0000   1.0000   1.0000   1.0000   1.0000   1.0000
     1.0000   1.0000   1.0000   1.0000   1.0000   1.0000   1.0000   1.0000
     1.0000   1.0000   1.0000   1.0000   1.0000   1.0000   1.0000   1.0000
     1.0000   1.0000   1.0000   1.0000   1.0000   1.0000   1.0000   1.0000
     1.0000   1.0000   1.0000   1.0000   1.0000   1.0000   1.0000   1.0000
     1.0000   1.0000   1.0000   1.0000   1.0000   1.0000   1.0000   1.0000
     1.0000   1.0000   1.0000   1.0000   1.0000   1.0000   1.0000   1.0000
     1.0000   1.0000   1.0000   1.0000   1.0000   1.0000

          k = 0.5177-0.0112 0.4444 ( 43517 PWs)   bands (ev):

   -20.7036 -20.6838 -20.6701 -20.6505 -15.6639 -15.6637 -15.6544 -15.6543
   -15.6486 -15.6485 -15.5880 -15.5880 -15.5733 -15.5730  -7.2795  -6.9628
    -6.5457  -6.1208  -6.0791  -6.0644  -5.9776  -5.9138  -5.0493  -4.9957
    -4.8587  -4.8417  -4.7874  -4.7754  -4.7076  -4.7024  -4.6832  -4.6614
    -4.6483  -4.6427  -0.9936  -0.8664   1.6402   1.6805   1.8845   2.0717
     2.0822   2.1998   2.5212   2.6538   2.7283   2.8006   3.0096   3.1299
     3.2001   3.3087   3.3266   3.4593   3.4894   3.5730   3.6238   3.7350
     3.7358   4.1397   4.5641   4.5981   4.8367   4.8532   4.8738   4.9268
     5.0189   5.1172   5.2841   5.3362   5.3456   5.4248   5.4336   5.5974
     5.6014   5.9490   6.0651   6.0915   6.2047   6.2330

     occupation numbers 
     1.0000   1.0000   1.0000   1.0000   1.0000   1.0000   1.0000   1.0000
     1.0000   1.0000   1.0000   1.0000   1.0000   1.0000   1.0000   1.0000
     1.0000   1.0000   1.0000   1.0000   1.0000   1.0000   1.0000   1.0000
     1.0000   1.0000   1.0000   1.0000   1.0000   1.0000   1.0000   1.0000
     1.0000   1.0000   1.0000   1.0000   1.0000   1.0000   1.0000   1.0000
     1.0000   1.0000   1.0000   1.0000   1.0000   1.0000   1.0000   1.0000
     1.0000   1.0000   1.0000   1.0000   1.0000   1.0000   1.0000   1.0000
     1.0000   1.0000   1.0000   1.0000   1.0000   1.0000   1.0000   1.0000
     1.0000   1.0000   1.0000   1.0000   1.0000   1.0000   1.0000   1.0000
     1.0000   1.0000   1.0000   1.0000   1.0000   1.0000

          k = 0.3049-1.4425-0.4444 ( 43495 PWs)   bands (ev):

   -20.7028 -20.6796 -20.6742 -20.6512 -15.6639 -15.6637 -15.6544 -15.6543
   -15.6486 -15.6485 -15.5879 -15.5879 -15.5733 -15.5730  -7.2665  -6.9301
    -6.5814  -6.1313  -6.0515  -6.0393  -6.0126  -5.9508  -5.0506  -4.9684
    -4.8690  -4.8481  -4.7703  -4.7496  -4.7181  -4.7112  -4.7064  -4.6684
    -4.6509  -4.6382  -0.9871  -0.8564   1.6099   1.6248   1.8808   1.9967
     2.0785   2.3682   2.4608   2.4925   2.7907   2.8711   2.9488   3.1180
     3.2178   3.2893   3.4058   3.4280   3.4737   3.5925   3.6176   3.7274
     3.7721   4.1285   4.5869   4.6247   4.8295   4.8755   4.8776   4.9121
     5.0189   5.1790   5.2479   5.2710   5.3488   5.3946   5.4753   5.6486
     5.6756   5.9815   6.0613   6.0983   6.1581   6.2429

     occupation numbers 
     1.0000   1.0000   1.0000   1.0000   1.0000   1.0000   1.0000   1.0000
     1.0000   1.0000   1.0000   1.0000   1.0000   1.0000   1.0000   1.0000
     1.0000   1.0000   1.0000   1.0000   1.0000   1.0000   1.0000   1.0000
     1.0000   1.0000   1.0000   1.0000   1.0000   1.0000   1.0000   1.0000
     1.0000   1.0000   1.0000   1.0000   1.0000   1.0000   1.0000   1.0000
     1.0000   1.0000   1.0000   1.0000   1.0000   1.0000   1.0000   1.0000
     1.0000   1.0000   1.0000   1.0000   1.0000   1.0000   1.0000   1.0000
     1.0000   1.0000   1.0000   1.0000   1.0000   1.0000   1.0000   1.0000
     1.0000   1.0000   1.0000   1.0000   1.0000   1.0000   1.0000   1.0000
     1.0000   1.0000   1.0000   1.0000   1.0000   1.0000

          k = 0.3315-1.2636-0.3333 ( 43419 PWs)   bands (ev):

   -20.6983 -20.6798 -20.6735 -20.6553 -15.6639 -15.6637 -15.6545 -15.6544
   -15.6487 -15.6486 -15.5878 -15.5878 -15.5732 -15.5730  -7.1925  -6.9359
    -6.5585  -6.1578  -6.0751  -6.0575  -6.0494  -6.0089  -5.0194  -4.9285
    -4.8700  -4.8654  -4.7578  -4.7475  -4.7332  -4.7318  -4.7031  -4.6752
    -4.6540  -4.6233  -0.9384  -0.8570   1.4890   1.5327   1.8794   1.9072
     2.0870   2.3233   2.3901   2.5496   2.6908   2.9211   3.0390   3.1477
     3.2369   3.2696   3.3518   3.4170   3.5049   3.6148   3.6938   3.7136
     3.7899   4.0354   4.6508   4.6965   4.7834   4.9093   4.9406   4.9485
     5.0278   5.1181   5.1797   5.2719   5.3496   5.3557   5.6060   5.7465
     5.8219   6.0398   6.0527   6.0560   6.1356   6.2470

     occupation numbers 
     1.0000   1.0000   1.0000   1.0000   1.0000   1.0000   1.0000   1.0000
     1.0000   1.0000   1.0000   1.0000   1.0000   1.0000   1.0000   1.0000
     1.0000   1.0000   1.0000   1.0000   1.0000   1.0000   1.0000   1.0000
     1.0000   1.0000   1.0000   1.0000   1.0000   1.0000   1.0000   1.0000
     1.0000   1.0000   1.0000   1.0000   1.0000   1.0000   1.0000   1.0000
     1.0000   1.0000   1.0000   1.0000   1.0000   1.0000   1.0000   1.0000
     1.0000   1.0000   1.0000   1.0000   1.0000   1.0000   1.0000   1.0000
     1.0000   1.0000   1.0000   1.0000   1.0000   1.0000   1.0000   1.0000
     1.0000   1.0000   1.0000   1.0000   1.0000   1.0000   1.0000   1.0000
     1.0000   1.0000   1.0000   1.0000   1.0000   1.0000

          k = 0.3581-1.0847-0.2222 ( 43422 PWs)   bands (ev):

   -20.6914 -20.6814 -20.6714 -20.6617 -15.6638 -15.6638 -15.6546 -15.6546
   -15.6487 -15.6487 -15.5877 -15.5877 -15.5732 -15.5730  -7.0748  -6.9630
    -6.5016  -6.1966  -6.1722  -6.1278  -6.0816  -6.0095  -4.9710  -4.9226
    -4.8731  -4.7990  -4.7906  -4.7781  -4.7579  -4.7543  -4.6948  -4.6770
    -4.6260  -4.6049  -0.8729  -0.8674   1.3435   1.4517   1.7890   1.8605
     2.1648   2.2149   2.3556   2.5113   2.7034   3.0306   3.1415   3.1593
     3.1840   3.2835   3.3671   3.3903   3.4305   3.6708   3.7055   3.7738
     3.7753   3.9245   4.7340   4.7610   4.7773   4.9113   4.9771   5.0069
     5.0494   5.0684   5.1454   5.2838   5.2966   5.3304   5.7581   5.8402
     5.9234   6.0338   6.0486   6.0806   6.1987   6.2373

     occupation numbers 
     1.0000   1.0000   1.0000   1.0000   1.0000   1.0000   1.0000   1.0000
     1.0000   1.0000   1.0000   1.0000   1.0000   1.0000   1.0000   1.0000
     1.0000   1.0000   1.0000   1.0000   1.0000   1.0000   1.0000   1.0000
     1.0000   1.0000   1.0000   1.0000   1.0000   1.0000   1.0000   1.0000
     1.0000   1.0000   1.0000   1.0000   1.0000   1.0000   1.0000   1.0000
     1.0000   1.0000   1.0000   1.0000   1.0000   1.0000   1.0000   1.0000
     1.0000   1.0000   1.0000   1.0000   1.0000   1.0000   1.0000   1.0000
     1.0000   1.0000   1.0000   1.0000   1.0000   1.0000   1.0000   1.0000
     1.0000   1.0000   1.0000   1.0000   1.0000   1.0000   1.0000   1.0000
     1.0000   1.0000   1.0000   1.0000   1.0000   1.0000

          k = 0.3847-0.9058-0.1111 ( 43437 PWs)   bands (ev):

   -20.6845 -20.6819 -20.6708 -20.6682 -15.6638 -15.6638 -15.6547 -15.6547
   -15.6488 -15.6488 -15.5876 -15.5876 -15.5731 -15.5731  -6.9918  -6.9557
    -6.4408  -6.2657  -6.2242  -6.2043  -6.0929  -6.0295  -4.9279  -4.9087
    -4.8705  -4.8027  -4.7952  -4.7855  -4.7648  -4.7236  -4.7212  -4.6618
    -4.6222  -4.6029  -0.8834  -0.8221   1.2512   1.4112   1.6531   1.8308
     2.1629   2.3049   2.3627   2.4077   2.8075   3.0661   3.0918   3.1735
     3.2379   3.3222   3.3532   3.3767   3.4223   3.6329   3.7019   3.7552
     3.8197   3.8700   4.7614   4.8203   4.8303   4.8967   4.9849   5.0105
     5.0374   5.0758   5.1694   5.2353   5.2441   5.3430   5.7966   5.9479
     5.9529   6.0071   6.1003   6.1589   6.1779   6.1978

     occupation numbers 
     1.0000   1.0000   1.0000   1.0000   1.0000   1.0000   1.0000   1.0000
     1.0000   1.0000   1.0000   1.0000   1.0000   1.0000   1.0000   1.0000
     1.0000   1.0000   1.0000   1.0000   1.0000   1.0000   1.0000   1.0000
     1.0000   1.0000   1.0000   1.0000   1.0000   1.0000   1.0000   1.0000
     1.0000   1.0000   1.0000   1.0000   1.0000   1.0000   1.0000   1.0000
     1.0000   1.0000   1.0000   1.0000   1.0000   1.0000   1.0000   1.0000
     1.0000   1.0000   1.0000   1.0000   1.0000   1.0000   1.0000   1.0000
     1.0000   1.0000   1.0000   1.0000   1.0000   1.0000   1.0000   1.0000
     1.0000   1.0000   1.0000   1.0000   1.0000   1.0000   1.0000   1.0000
     1.0000   1.0000   1.0000   1.0000   1.0000   1.0000

          k = 0.4113-0.5200 0.0000 ( 43417 PWs)   bands (ev):

   -20.6891 -20.6858 -20.6671 -20.6639 -15.6638 -15.6638 -15.6546 -15.6546
   -15.6487 -15.6487 -15.5877 -15.5876 -15.5731 -15.5731  -7.0632  -6.9581
    -6.3378  -6.2836  -6.2448  -6.1776  -6.1267  -6.0115  -4.9373  -4.9171
    -4.8412  -4.7780  -4.7740  -4.7639  -4.7581  -4.7266  -4.7192  -4.7061
    -4.6291  -4.6059  -0.9187  -0.8175   1.3240   1.4749   1.6084   1.8434
     2.1458   2.3763   2.4032   2.4994   2.8058   2.9078   3.1380   3.2097
     3.2669   3.2898   3.3379   3.4001   3.4095   3.5879   3.7318   3.7671
     3.7866   3.8593   4.7368   4.7865   4.8257   4.8447   4.9624   5.0143
     5.0715   5.1435   5.1683   5.1768   5.2435   5.3692   5.7641   5.8690
     5.8859   5.9756   6.0465   6.0875   6.1852   6.3245

     occupation numbers 
     1.0000   1.0000   1.0000   1.0000   1.0000   1.0000   1.0000   1.0000
     1.0000   1.0000   1.0000   1.0000   1.0000   1.0000   1.0000   1.0000
     1.0000   1.0000   1.0000   1.0000   1.0000   1.0000   1.0000   1.0000
     1.0000   1.0000   1.0000   1.0000   1.0000   1.0000   1.0000   1.0000
     1.0000   1.0000   1.0000   1.0000   1.0000   1.0000   1.0000   1.0000
     1.0000   1.0000   1.0000   1.0000   1.0000   1.0000   1.0000   1.0000
     1.0000   1.0000   1.0000   1.0000   1.0000   1.0000   1.0000   1.0000
     1.0000   1.0000   1.0000   1.0000   1.0000   1.0000   1.0000   1.0000
     1.0000   1.0000   1.0000   1.0000   1.0000   1.0000   1.0000   1.0000
     1.0000   1.0000   1.0000   1.0000   1.0000   1.0000

          k = 0.4379-0.3410 0.1111 ( 43431 PWs)   bands (ev):

   -20.6923 -20.6919 -20.6616 -20.6611 -15.6638 -15.6638 -15.6545 -15.6545
   -15.6486 -15.6486 -15.5878 -15.5878 -15.5731 -15.5731  -7.0796  -7.0774
    -6.3491  -6.2306  -6.1765  -6.1462  -6.1000  -5.9574  -4.9633  -4.9399
    -4.8234  -4.8175  -4.8146  -4.7577  -4.7431  -4.7416  -4.6988  -4.6660
    -4.6247  -4.6205  -0.9201  -0.8654   1.5118   1.5886   1.6301   1.8258
     2.2170   2.3127   2.4329   2.5291   2.8086   2.9815   2.9838   3.1988
     3.2294   3.2562   3.3132   3.4125   3.4576   3.6602   3.7313   3.7787
     3.7879   3.8381   4.6540   4.7083   4.8420   4.8639   4.9176   4.9485
     5.0453   5.0622   5.2528   5.2828   5.3007   5.3761   5.6612   5.7359
     5.7919   5.9238   6.0365   6.0747   6.2541   6.3052

     occupation numbers 
     1.0000   1.0000   1.0000   1.0000   1.0000   1.0000   1.0000   1.0000
     1.0000   1.0000   1.0000   1.0000   1.0000   1.0000   1.0000   1.0000
     1.0000   1.0000   1.0000   1.0000   1.0000   1.0000   1.0000   1.0000
     1.0000   1.0000   1.0000   1.0000   1.0000   1.0000   1.0000   1.0000
     1.0000   1.0000   1.0000   1.0000   1.0000   1.0000   1.0000   1.0000
     1.0000   1.0000   1.0000   1.0000   1.0000   1.0000   1.0000   1.0000
     1.0000   1.0000   1.0000   1.0000   1.0000   1.0000   1.0000   1.0000
     1.0000   1.0000   1.0000   1.0000   1.0000   1.0000   1.0000   1.0000
     1.0000   1.0000   1.0000   1.0000   1.0000   1.0000   1.0000   1.0000
     1.0000   1.0000   1.0000   1.0000   1.0000   1.0000

          k = 0.4645-0.1621 0.2222 ( 43482 PWs)   bands (ev):

   -20.6984 -20.6915 -20.6623 -20.6555 -15.6638 -15.6637 -15.6544 -15.6543
   -15.6486 -15.6486 -15.5879 -15.5879 -15.5732 -15.5731  -7.1904  -7.0598
    -6.4014  -6.1666  -6.1424  -6.1348  -5.9932  -5.9323  -4.9927  -4.9636
    -4.8957  -4.8574  -4.7899  -4.7333  -4.7217  -4.7153  -4.6836  -4.6464
    -4.6421  -4.6386  -0.9261  -0.9065   1.6021   1.6960   1.8088   1.8450
     2.1501   2.2556   2.4904   2.5696   2.8120   2.8723   3.1207   3.1315
     3.1862   3.2205   3.3040   3.4524   3.4856   3.6362   3.7021   3.7343
     3.7431   3.9819   4.5873   4.6362   4.8490   4.8780   4.9082   4.9132
     5.0008   5.0358   5.3191   5.3462   5.3584   5.3608   5.5112   5.6298
     5.6891   5.9307   6.0392   6.1192   6.1915   6.2580

     occupation numbers 
     1.0000   1.0000   1.0000   1.0000   1.0000   1.0000   1.0000   1.0000
     1.0000   1.0000   1.0000   1.0000   1.0000   1.0000   1.0000   1.0000
     1.0000   1.0000   1.0000   1.0000   1.0000   1.0000   1.0000   1.0000
     1.0000   1.0000   1.0000   1.0000   1.0000   1.0000   1.0000   1.0000
     1.0000   1.0000   1.0000   1.0000   1.0000   1.0000   1.0000   1.0000
     1.0000   1.0000   1.0000   1.0000   1.0000   1.0000   1.0000   1.0000
     1.0000   1.0000   1.0000   1.0000   1.0000   1.0000   1.0000   1.0000
     1.0000   1.0000   1.0000   1.0000   1.0000   1.0000   1.0000   1.0000
     1.0000   1.0000   1.0000   1.0000   1.0000   1.0000   1.0000   1.0000
     1.0000   1.0000   1.0000   1.0000   1.0000   1.0000

          k = 0.4911 0.0168 0.3333 ( 43541 PWs)   bands (ev):

   -20.7020 -20.6882 -20.6657 -20.6520 -15.6638 -15.6637 -15.6544 -15.6543
   -15.6486 -15.6485 -15.5880 -15.5880 -15.5732 -15.5730  -7.2531  -7.0140
    -6.4761  -6.1218  -6.1158  -6.1069  -5.9466  -5.9303  -5.0265  -4.9894
    -4.8822  -4.8677  -4.7641  -4.7576  -4.7142  -4.7040  -4.6814  -4.6540
    -4.6450  -4.6426  -0.9706  -0.8847   1.6281   1.7088   1.8819   2.0162
     2.0717   2.1770   2.5607   2.6263   2.7424   2.8181   3.0715   3.1586
     3.1854   3.2652   3.3030   3.4770   3.4804   3.6085   3.6324   3.7172
     3.7364   4.0903   4.5638   4.6025   4.8381   4.8529   4.8998   4.9297
     5.0058   5.0647   5.3028   5.3451   5.3896   5.4112   5.4175   5.5865
     5.6178   5.9504   6.0571   6.1109   6.1889   6.2252

     occupation numbers 
     1.0000   1.0000   1.0000   1.0000   1.0000   1.0000   1.0000   1.0000
     1.0000   1.0000   1.0000   1.0000   1.0000   1.0000   1.0000   1.0000
     1.0000   1.0000   1.0000   1.0000   1.0000   1.0000   1.0000   1.0000
     1.0000   1.0000   1.0000   1.0000   1.0000   1.0000   1.0000   1.0000
     1.0000   1.0000   1.0000   1.0000   1.0000   1.0000   1.0000   1.0000
     1.0000   1.0000   1.0000   1.0000   1.0000   1.0000   1.0000   1.0000
     1.0000   1.0000   1.0000   1.0000   1.0000   1.0000   1.0000   1.0000
     1.0000   1.0000   1.0000   1.0000   1.0000   1.0000   1.0000   1.0000
     1.0000   1.0000   1.0000   1.0000   1.0000   1.0000   1.0000   1.0000
     1.0000   1.0000   1.0000   1.0000   1.0000   1.0000

          k = 0.5177 0.1957 0.4444 ( 43500 PWs)   bands (ev):

   -20.7021 -20.6834 -20.6703 -20.6519 -15.6639 -15.6637 -15.6544 -15.6543
   -15.6486 -15.6485 -15.5879 -15.5879 -15.5732 -15.5730  -7.2540  -6.9602
    -6.5427  -6.1326  -6.0781  -6.0662  -5.9834  -5.9578  -5.0397  -4.9664
    -4.8820  -4.8309  -4.7973  -4.7323  -4.7252  -4.7126  -4.6959  -4.6648
    -4.6504  -4.6382  -0.9762  -0.8651   1.6092   1.6364   1.8687   1.9547
     2.0926   2.3473   2.4766   2.5306   2.7619   2.8335   3.0352   3.1240
     3.2154   3.2874   3.3526   3.4132   3.5026   3.5952   3.6387   3.7275
     3.7680   4.1031   4.5871   4.6274   4.8332   4.8759   4.8874   4.9113
     5.0109   5.1319   5.2793   5.2929   5.3490   5.3883   5.4766   5.6569
     5.6692   5.9654   6.0587   6.1205   6.1454   6.2509

     occupation numbers 
     1.0000   1.0000   1.0000   1.0000   1.0000   1.0000   1.0000   1.0000
     1.0000   1.0000   1.0000   1.0000   1.0000   1.0000   1.0000   1.0000
     1.0000   1.0000   1.0000   1.0000   1.0000   1.0000   1.0000   1.0000
     1.0000   1.0000   1.0000   1.0000   1.0000   1.0000   1.0000   1.0000
     1.0000   1.0000   1.0000   1.0000   1.0000   1.0000   1.0000   1.0000
     1.0000   1.0000   1.0000   1.0000   1.0000   1.0000   1.0000   1.0000
     1.0000   1.0000   1.0000   1.0000   1.0000   1.0000   1.0000   1.0000
     1.0000   1.0000   1.0000   1.0000   1.0000   1.0000   1.0000   1.0000
     1.0000   1.0000   1.0000   1.0000   1.0000   1.0000   1.0000   1.0000
     1.0000   1.0000   1.0000   1.0000   1.0000   1.0000

          k = 0.3049-1.2356-0.4444 ( 43413 PWs)   bands (ev):

   -20.6984 -20.6793 -20.6740 -20.6552 -15.6639 -15.6637 -15.6545 -15.6544
   -15.6487 -15.6486 -15.5878 -15.5878 -15.5732 -15.5730  -7.1936  -6.9328
    -6.5617  -6.1579  -6.0768  -6.0545  -6.0462  -6.0118  -5.0203  -4.9280
    -4.8702  -4.8658  -4.7563  -4.7493  -4.7324  -4.7316  -4.7016  -4.6750
    -4.6556  -4.6234  -0.9396  -0.8558   1.4889   1.5305   1.8802   1.9157
     2.0814   2.3206   2.3874   2.5517   2.6933   2.9239   3.0338   3.1464
     3.2384   3.2701   3.3512   3.4220   3.5052   3.6141   3.6898   3.7138
     3.7901   4.0364   4.6511   4.6960   4.7828   4.9097   4.9397   4.9491
     5.0278   5.1207   5.1769   5.2715   5.3511   5.3552   5.6060   5.7470
     5.8229   6.0458   6.0528   6.0547   6.1298   6.2450

     occupation numbers 
     1.0000   1.0000   1.0000   1.0000   1.0000   1.0000   1.0000   1.0000
     1.0000   1.0000   1.0000   1.0000   1.0000   1.0000   1.0000   1.0000
     1.0000   1.0000   1.0000   1.0000   1.0000   1.0000   1.0000   1.0000
     1.0000   1.0000   1.0000   1.0000   1.0000   1.0000   1.0000   1.0000
     1.0000   1.0000   1.0000   1.0000   1.0000   1.0000   1.0000   1.0000
     1.0000   1.0000   1.0000   1.0000   1.0000   1.0000   1.0000   1.0000
     1.0000   1.0000   1.0000   1.0000   1.0000   1.0000   1.0000   1.0000
     1.0000   1.0000   1.0000   1.0000   1.0000   1.0000   1.0000   1.0000
     1.0000   1.0000   1.0000   1.0000   1.0000   1.0000   1.0000   1.0000
     1.0000   1.0000   1.0000   1.0000   1.0000   1.0000

          k = 0.3315-1.0567-0.3333 ( 43420 PWs)   bands (ev):

   -20.6919 -20.6796 -20.6732 -20.6612 -15.6638 -15.6638 -15.6546 -15.6546
   -15.6487 -15.6487 -15.5877 -15.5877 -15.5732 -15.5730  -7.0860  -6.9470
    -6.5239  -6.1874  -6.1738  -6.1147  -6.0687  -6.0168  -4.9750  -4.9282
    -4.8709  -4.8071  -4.7913  -4.7863  -4.7577  -4.7522  -4.6928  -4.6620
    -4.6274  -4.6086  -0.8799  -0.8610   1.3344   1.4393   1.8626   1.9136
     2.0915   2.1791   2.3470   2.5038   2.7349   3.0039   3.1372   3.1496
     3.2158   3.2600   3.3605   3.4093   3.4309   3.6959   3.7094   3.7409
     3.7710   3.9447   4.7345   4.7525   4.7758   4.9265   4.9893   4.9909
     5.0253   5.0676   5.1510   5.2980   5.3065   5.3271   5.7630   5.8300
     5.9313   6.0572   6.0712   6.0816   6.1612   6.2226

     occupation numbers 
     1.0000   1.0000   1.0000   1.0000   1.0000   1.0000   1.0000   1.0000
     1.0000   1.0000   1.0000   1.0000   1.0000   1.0000   1.0000   1.0000
     1.0000   1.0000   1.0000   1.0000   1.0000   1.0000   1.0000   1.0000
     1.0000   1.0000   1.0000   1.0000   1.0000   1.0000   1.0000   1.0000
     1.0000   1.0000   1.0000   1.0000   1.0000   1.0000   1.0000   1.0000
     1.0000   1.0000   1.0000   1.0000   1.0000   1.0000   1.0000   1.0000
     1.0000   1.0000   1.0000   1.0000   1.0000   1.0000   1.0000   1.0000
     1.0000   1.0000   1.0000   1.0000   1.0000   1.0000   1.0000   1.0000
     1.0000   1.0000   1.0000   1.0000   1.0000   1.0000   1.0000   1.0000
     1.0000   1.0000   1.0000   1.0000   1.0000   1.0000

          k = 0.3581-0.8778-0.2222 ( 43443 PWs)   bands (ev):

   -20.6849 -20.6812 -20.6714 -20.6678 -15.6638 -15.6638 -15.6547 -15.6547
   -15.6488 -15.6488 -15.5876 -15.5876 -15.5731 -15.5731  -6.9834  -6.9660
    -6.4588  -6.2587  -6.2108  -6.1942  -6.0904  -6.0355  -4.9291  -4.9167
    -4.8602  -4.8101  -4.8018  -4.7942  -4.7578  -4.7377  -4.7179  -4.6616
    -4.6119  -4.5961  -0.8795  -0.8266   1.2277   1.3925   1.7524   1.9013
     2.1302   2.2162   2.3548   2.3604   2.8661   3.0918   3.1010   3.1290
     3.2299   3.2774   3.3527   3.3822   3.4252   3.6583   3.7096   3.7536
     3.8069   3.8911   4.7620   4.8097   4.8303   4.9063   4.9817   4.9981
     5.0161   5.0703   5.1802   5.2443   5.2757   5.3404   5.8173   5.9171
     5.9613   6.0417   6.0960   6.1705   6.1758   6.1934

     occupation numbers 
     1.0000   1.0000   1.0000   1.0000   1.0000   1.0000   1.0000   1.0000
     1.0000   1.0000   1.0000   1.0000   1.0000   1.0000   1.0000   1.0000
     1.0000   1.0000   1.0000   1.0000   1.0000   1.0000   1.0000   1.0000
     1.0000   1.0000   1.0000   1.0000   1.0000   1.0000   1.0000   1.0000
     1.0000   1.0000   1.0000   1.0000   1.0000   1.0000   1.0000   1.0000
     1.0000   1.0000   1.0000   1.0000   1.0000   1.0000   1.0000   1.0000
     1.0000   1.0000   1.0000   1.0000   1.0000   1.0000   1.0000   1.0000
     1.0000   1.0000   1.0000   1.0000   1.0000   1.0000   1.0000   1.0000
     1.0000   1.0000   1.0000   1.0000   1.0000   1.0000   1.0000   1.0000
     1.0000   1.0000   1.0000   1.0000   1.0000   1.0000

          k = 0.3847-0.6989-0.1111 ( 43414 PWs)   bands (ev):

   -20.6845 -20.6818 -20.6708 -20.6682 -15.6638 -15.6638 -15.6547 -15.6547
   -15.6488 -15.6487 -15.5876 -15.5875 -15.5731 -15.5731  -7.0266  -6.9029
    -6.3878  -6.2909  -6.2721  -6.2056  -6.0991  -6.0502  -4.9163  -4.9032
    -4.8639  -4.8052  -4.7966  -4.7651  -4.7454  -4.7409  -4.6999  -4.6854
    -4.6272  -4.6009  -0.9026  -0.8027   1.2184   1.4042   1.6474   1.8721
     2.1262   2.3242   2.3713   2.4123   2.8570   2.9779   3.1267   3.2156
     3.2661   3.2861   3.3386   3.3702   3.4332   3.5882   3.7292   3.7432
     3.8151   3.8699   4.7723   4.8305   4.8402   4.8751   4.9816   5.0281
     5.0368   5.0641   5.1707   5.2275   5.2365   5.3537   5.7905   5.9636
     5.9757   6.0085   6.0577   6.1235   6.1377   6.2806

     occupation numbers 
     1.0000   1.0000   1.0000   1.0000   1.0000   1.0000   1.0000   1.0000
     1.0000   1.0000   1.0000   1.0000   1.0000   1.0000   1.0000   1.0000
     1.0000   1.0000   1.0000   1.0000   1.0000   1.0000   1.0000   1.0000
     1.0000   1.0000   1.0000   1.0000   1.0000   1.0000   1.0000   1.0000
     1.0000   1.0000   1.0000   1.0000   1.0000   1.0000   1.0000   1.0000
     1.0000   1.0000   1.0000   1.0000   1.0000   1.0000   1.0000   1.0000
     1.0000   1.0000   1.0000   1.0000   1.0000   1.0000   1.0000   1.0000
     1.0000   1.0000   1.0000   1.0000   1.0000   1.0000   1.0000   1.0000
     1.0000   1.0000   1.0000   1.0000   1.0000   1.0000   1.0000   1.0000
     1.0000   1.0000   1.0000   1.0000   1.0000   1.0000

          k = 0.4113-0.3131 0.0000 ( 43436 PWs)   bands (ev):

   -20.6943 -20.6895 -20.6638 -20.6592 -15.6638 -15.6638 -15.6545 -15.6545
   -15.6486 -15.6486 -15.5878 -15.5878 -15.5731 -15.5731  -7.1132  -7.0281
    -6.3125  -6.2819  -6.1793  -6.1659  -6.1007  -5.9570  -4.9714  -4.9304
    -4.8365  -4.7965  -4.7912  -4.7638  -4.7503  -4.7416  -4.6960  -4.6553
    -4.6255  -4.6248  -0.9384  -0.8447   1.4822   1.5811   1.6297   1.8581
     2.1649   2.3434   2.3786   2.5827   2.8482   2.9191   3.0223   3.1833
     3.2354   3.2760   3.3434   3.4337   3.4506   3.6362   3.7376   3.7436
     3.7777   3.8305   4.6584   4.7067   4.8431   4.8638   4.9131   4.9526
     5.0249   5.0817   5.2592   5.2704   5.2946   5.3912   5.7003   5.7042
     5.8176   5.9205   6.0219   6.0777   6.2495   6.2944

     occupation numbers 
     1.0000   1.0000   1.0000   1.0000   1.0000   1.0000   1.0000   1.0000
     1.0000   1.0000   1.0000   1.0000   1.0000   1.0000   1.0000   1.0000
     1.0000   1.0000   1.0000   1.0000   1.0000   1.0000   1.0000   1.0000
     1.0000   1.0000   1.0000   1.0000   1.0000   1.0000   1.0000   1.0000
     1.0000   1.0000   1.0000   1.0000   1.0000   1.0000   1.0000   1.0000
     1.0000   1.0000   1.0000   1.0000   1.0000   1.0000   1.0000   1.0000
     1.0000   1.0000   1.0000   1.0000   1.0000   1.0000   1.0000   1.0000
     1.0000   1.0000   1.0000   1.0000   1.0000   1.0000   1.0000   1.0000
     1.0000   1.0000   1.0000   1.0000   1.0000   1.0000   1.0000   1.0000
     1.0000   1.0000   1.0000   1.0000   1.0000   1.0000

          k = 0.4379-0.1341 0.1111 ( 43440 PWs)   bands (ev):

   -20.6956 -20.6950 -20.6589 -20.6583 -15.6638 -15.6638 -15.6544 -15.6544
   -15.6486 -15.6486 -15.5879 -15.5879 -15.5731 -15.5731  -7.1393  -7.1096
    -6.3198  -6.2457  -6.1692  -6.1382  -6.0073  -5.9192  -4.9776  -4.9629
    -4.8859  -4.8808  -4.7678  -4.7365  -4.7295  -4.7167  -4.6766  -4.6460
    -4.6380  -4.6280  -0.9300  -0.8972   1.6085   1.7256   1.7420   1.8330
     2.1810   2.1993   2.4334   2.6225   2.8736   2.9542   3.0012   3.1110
     3.1884   3.2475   3.3444   3.4634   3.4933   3.6512   3.7253   3.7373
     3.7457   3.8727   4.5911   4.6356   4.8585   4.8739   4.9084   4.9126
     4.9980   5.0194   5.3336   5.3393   5.3527   5.3728   5.5550   5.5962
     5.7287   5.9268   6.0127   6.1021   6.2255   6.2463

     occupation numbers 
     1.0000   1.0000   1.0000   1.0000   1.0000   1.0000   1.0000   1.0000
     1.0000   1.0000   1.0000   1.0000   1.0000   1.0000   1.0000   1.0000
     1.0000   1.0000   1.0000   1.0000   1.0000   1.0000   1.0000   1.0000
     1.0000   1.0000   1.0000   1.0000   1.0000   1.0000   1.0000   1.0000
     1.0000   1.0000   1.0000   1.0000   1.0000   1.0000   1.0000   1.0000
     1.0000   1.0000   1.0000   1.0000   1.0000   1.0000   1.0000   1.0000
     1.0000   1.0000   1.0000   1.0000   1.0000   1.0000   1.0000   1.0000
     1.0000   1.0000   1.0000   1.0000   1.0000   1.0000   1.0000   1.0000
     1.0000   1.0000   1.0000   1.0000   1.0000   1.0000   1.0000   1.0000
     1.0000   1.0000   1.0000   1.0000   1.0000   1.0000

          k = 0.4645 0.0448 0.2222 ( 43472 PWs)   bands (ev):

   -20.6997 -20.6924 -20.6616 -20.6543 -15.6638 -15.6637 -15.6543 -15.6543
   -15.6485 -15.6485 -15.5880 -15.5880 -15.5732 -15.5731  -7.2112  -7.0700
    -6.3929  -6.1730  -6.1481  -6.1272  -5.9469  -5.9249  -4.9982  -4.9823
    -4.9011  -4.8919  -4.7444  -4.7438  -4.7172  -4.7063  -4.6767  -4.6605
    -4.6412  -4.6290  -0.9418  -0.9069   1.6241   1.7550   1.8537   1.9417
     2.0735   2.1437   2.5537   2.6031   2.8071   2.8928   3.0535   3.1249
     3.1868   3.2916   3.3033   3.4657   3.5059   3.6365   3.6530   3.7027
     3.7370   3.9955   4.5665   4.6037   4.8403   4.8503   4.9358   4.9359
     4.9862   5.0148   5.3280   5.3497   5.3878   5.3968   5.4501   5.5648
     5.6639   5.9571   6.0307   6.1275   6.1690   6.2139

     occupation numbers 
     1.0000   1.0000   1.0000   1.0000   1.0000   1.0000   1.0000   1.0000
     1.0000   1.0000   1.0000   1.0000   1.0000   1.0000   1.0000   1.0000
     1.0000   1.0000   1.0000   1.0000   1.0000   1.0000   1.0000   1.0000
     1.0000   1.0000   1.0000   1.0000   1.0000   1.0000   1.0000   1.0000
     1.0000   1.0000   1.0000   1.0000   1.0000   1.0000   1.0000   1.0000
     1.0000   1.0000   1.0000   1.0000   1.0000   1.0000   1.0000   1.0000
     1.0000   1.0000   1.0000   1.0000   1.0000   1.0000   1.0000   1.0000
     1.0000   1.0000   1.0000   1.0000   1.0000   1.0000   1.0000   1.0000
     1.0000   1.0000   1.0000   1.0000   1.0000   1.0000   1.0000   1.0000
     1.0000   1.0000   1.0000   1.0000   1.0000   1.0000

          k = 0.4911 0.2237 0.3333 ( 43480 PWs)   bands (ev):

   -20.7006 -20.6876 -20.6662 -20.6533 -15.6638 -15.6637 -15.6544 -15.6543
   -15.6486 -15.6486 -15.5879 -15.5879 -15.5732 -15.5730  -7.2259  -7.0078
    -6.4748  -6.1401  -6.1149  -6.1111  -5.9652  -5.9621  -5.0192  -4.9629
    -4.8913  -4.8274  -4.8083  -4.7307  -4.7234  -4.7145  -4.6841  -4.6557
    -4.6473  -4.6382  -0.9567  -0.8795   1.6148   1.6595   1.8282   1.8915
     2.1148   2.3047   2.4939   2.5681   2.7531   2.8580   3.0734   3.1512
     3.2152   3.2493   3.3210   3.4318   3.4990   3.6089   3.6698   3.7264
     3.7631   4.0338   4.5904   4.6288   4.8412   4.8764   4.9017   4.9108
     4.9974   5.0837   5.2955   5.3325   5.3496   5.3792   5.4883   5.6502
     5.6927   5.9475   6.0381   6.1202   6.1589   6.2581

     occupation numbers 
     1.0000   1.0000   1.0000   1.0000   1.0000   1.0000   1.0000   1.0000
     1.0000   1.0000   1.0000   1.0000   1.0000   1.0000   1.0000   1.0000
     1.0000   1.0000   1.0000   1.0000   1.0000   1.0000   1.0000   1.0000
     1.0000   1.0000   1.0000   1.0000   1.0000   1.0000   1.0000   1.0000
     1.0000   1.0000   1.0000   1.0000   1.0000   1.0000   1.0000   1.0000
     1.0000   1.0000   1.0000   1.0000   1.0000   1.0000   1.0000   1.0000
     1.0000   1.0000   1.0000   1.0000   1.0000   1.0000   1.0000   1.0000
     1.0000   1.0000   1.0000   1.0000   1.0000   1.0000   1.0000   1.0000
     1.0000   1.0000   1.0000   1.0000   1.0000   1.0000   1.0000   1.0000
     1.0000   1.0000   1.0000   1.0000   1.0000   1.0000

          k = 0.5177 0.4026 0.4444 ( 43452 PWs)   bands (ev):

   -20.6978 -20.6823 -20.6710 -20.6558 -15.6638 -15.6637 -15.6545 -15.6544
   -15.6487 -15.6486 -15.5878 -15.5878 -15.5732 -15.5730  -7.1812  -6.9527
    -6.5276  -6.1628  -6.1056  -6.0822  -6.0396  -6.0029  -5.0125  -4.9258
    -4.8627  -4.8589  -4.7600  -4.7430  -4.7399  -4.7298  -4.7132  -4.6728
    -4.6451  -4.6225  -0.9340  -0.8592   1.4973   1.5296   1.8321   1.8791
     2.1171   2.3508   2.3889   2.5485   2.6759   2.9337   3.0813   3.1463
     3.2404   3.2655   3.3600   3.3825   3.4963   3.6163   3.7107   3.7149
     3.7948   3.9988   4.6549   4.6954   4.7912   4.9028   4.9424   4.9462
     5.0242   5.1078   5.1979   5.2735   5.3471   5.3537   5.6143   5.7645
     5.8133   6.0071   6.0413   6.0483   6.1742   6.2538

     occupation numbers 
     1.0000   1.0000   1.0000   1.0000   1.0000   1.0000   1.0000   1.0000
     1.0000   1.0000   1.0000   1.0000   1.0000   1.0000   1.0000   1.0000
     1.0000   1.0000   1.0000   1.0000   1.0000   1.0000   1.0000   1.0000
     1.0000   1.0000   1.0000   1.0000   1.0000   1.0000   1.0000   1.0000
     1.0000   1.0000   1.0000   1.0000   1.0000   1.0000   1.0000   1.0000
     1.0000   1.0000   1.0000   1.0000   1.0000   1.0000   1.0000   1.0000
     1.0000   1.0000   1.0000   1.0000   1.0000   1.0000   1.0000   1.0000
     1.0000   1.0000   1.0000   1.0000   1.0000   1.0000   1.0000   1.0000
     1.0000   1.0000   1.0000   1.0000   1.0000   1.0000   1.0000   1.0000
     1.0000   1.0000   1.0000   1.0000   1.0000   1.0000

          k = 0.3049-1.0287-0.4444 ( 43417 PWs)   bands (ev):

   -20.6920 -20.6793 -20.6735 -20.6612 -15.6638 -15.6638 -15.6546 -15.6546
   -15.6487 -15.6487 -15.5877 -15.5877 -15.5732 -15.5730  -7.0884  -6.9406
    -6.5203  -6.1867  -6.1820  -6.1073  -6.0753  -6.0256  -4.9757  -4.9232
    -4.8690  -4.8082  -4.7884  -4.7847  -4.7580  -4.7503  -4.6939  -4.6608
    -4.6274  -4.6105  -0.8851  -0.8558   1.3395   1.4219   1.8761   1.9204
     2.0738   2.1864   2.3333   2.5044   2.7442   3.0119   3.1410   3.1428
     3.2252   3.2604   3.3578   3.4081   3.4320   3.6885   3.7163   3.7315
     3.7775   3.9363   4.7383   4.7555   4.7736   4.9235   4.9840   4.9959
     5.0266   5.0648   5.1540   5.2943   5.3165   5.3196   5.7682   5.8382
     5.9265   6.0492   6.0630   6.0951   6.1601   6.2112

     occupation numbers 
     1.0000   1.0000   1.0000   1.0000   1.0000   1.0000   1.0000   1.0000
     1.0000   1.0000   1.0000   1.0000   1.0000   1.0000   1.0000   1.0000
     1.0000   1.0000   1.0000   1.0000   1.0000   1.0000   1.0000   1.0000
     1.0000   1.0000   1.0000   1.0000   1.0000   1.0000   1.0000   1.0000
     1.0000   1.0000   1.0000   1.0000   1.0000   1.0000   1.0000   1.0000
     1.0000   1.0000   1.0000   1.0000   1.0000   1.0000   1.0000   1.0000
     1.0000   1.0000   1.0000   1.0000   1.0000   1.0000   1.0000   1.0000
     1.0000   1.0000   1.0000   1.0000   1.0000   1.0000   1.0000   1.0000
     1.0000   1.0000   1.0000   1.0000   1.0000   1.0000   1.0000   1.0000
     1.0000   1.0000   1.0000   1.0000   1.0000   1.0000

          k = 0.3315-0.8498-0.3333 ( 43455 PWs)   bands (ev):

   -20.6852 -20.6808 -20.6718 -20.6676 -15.6638 -15.6638 -15.6547 -15.6547
   -15.6488 -15.6488 -15.5876 -15.5876 -15.5731 -15.5731  -6.9763  -6.9736
    -6.4626  -6.2697  -6.1968  -6.1735  -6.0945  -6.0504  -4.9276  -4.9215
    -4.8531  -4.8174  -4.8016  -4.7974  -4.7538  -4.7440  -4.7157  -4.6660
    -4.6029  -4.5945  -0.8725  -0.8344   1.2231   1.3659   1.8547   1.9801
     2.0882   2.1081   2.3267   2.3487   2.9297   3.0589   3.1141   3.1483
     3.2079   3.2546   3.3360   3.3803   3.4443   3.6617   3.7253   3.7595
     3.7939   3.8958   4.7680   4.8065   4.8275   4.9095   4.9842   4.9891
     5.0009   5.0630   5.1907   5.2547   5.2977   5.3265   5.8517   5.8883
     5.9652   6.0736   6.0810   6.1625   6.1770   6.1920

     occupation numbers 
     1.0000   1.0000   1.0000   1.0000   1.0000   1.0000   1.0000   1.0000
     1.0000   1.0000   1.0000   1.0000   1.0000   1.0000   1.0000   1.0000
     1.0000   1.0000   1.0000   1.0000   1.0000   1.0000   1.0000   1.0000
     1.0000   1.0000   1.0000   1.0000   1.0000   1.0000   1.0000   1.0000
     1.0000   1.0000   1.0000   1.0000   1.0000   1.0000   1.0000   1.0000
     1.0000   1.0000   1.0000   1.0000   1.0000   1.0000   1.0000   1.0000
     1.0000   1.0000   1.0000   1.0000   1.0000   1.0000   1.0000   1.0000
     1.0000   1.0000   1.0000   1.0000   1.0000   1.0000   1.0000   1.0000
     1.0000   1.0000   1.0000   1.0000   1.0000   1.0000   1.0000   1.0000
     1.0000   1.0000   1.0000   1.0000   1.0000   1.0000

          k = 0.3581-0.6709-0.2222 ( 43406 PWs)   bands (ev):

   -20.6850 -20.6812 -20.6714 -20.6678 -15.6638 -15.6638 -15.6547 -15.6547
   -15.6488 -15.6487 -15.5876 -15.5875 -15.5731 -15.5731  -7.0284  -6.9000
    -6.3835  -6.3252  -6.2415  -6.1863  -6.1038  -6.0684  -4.9277  -4.8963
    -4.8518  -4.8124  -4.7955  -4.7752  -4.7394  -4.7314  -4.7081  -4.7006
    -4.6129  -4.5958  -0.9015  -0.8048   1.1985   1.3755   1.7537   1.9439
     2.0904   2.2462   2.3005   2.4086   2.9358   2.9801   3.1495   3.1853
     3.2345   3.2888   3.3028   3.3604   3.4589   3.5919   3.7345   3.7615
     3.8114   3.8716   4.7815   4.8274   4.8424   4.8686   4.9706   5.0215
     5.0298   5.0476   5.1888   5.2373   5.2596   5.3500   5.8203   5.9554
     5.9741   6.0101   6.0373   6.1292   6.1572   6.2763

     occupation numbers 
     1.0000   1.0000   1.0000   1.0000   1.0000   1.0000   1.0000   1.0000
     1.0000   1.0000   1.0000   1.0000   1.0000   1.0000   1.0000   1.0000
     1.0000   1.0000   1.0000   1.0000   1.0000   1.0000   1.0000   1.0000
     1.0000   1.0000   1.0000   1.0000   1.0000   1.0000   1.0000   1.0000
     1.0000   1.0000   1.0000   1.0000   1.0000   1.0000   1.0000   1.0000
     1.0000   1.0000   1.0000   1.0000   1.0000   1.0000   1.0000   1.0000
     1.0000   1.0000   1.0000   1.0000   1.0000   1.0000   1.0000   1.0000
     1.0000   1.0000   1.0000   1.0000   1.0000   1.0000   1.0000   1.0000
     1.0000   1.0000   1.0000   1.0000   1.0000   1.0000   1.0000   1.0000
     1.0000   1.0000   1.0000   1.0000   1.0000   1.0000

          k = 0.3847-0.4920-0.1111 ( 43415 PWs)   bands (ev):

   -20.6905 -20.6836 -20.6692 -20.6626 -15.6638 -15.6638 -15.6546 -15.6546
   -15.6487 -15.6487 -15.5877 -15.5876 -15.5731 -15.5731  -7.0818  -6.9233
    -6.3507  -6.2992  -6.2371  -6.1627  -6.1393  -6.0215  -4.9526  -4.9045
    -4.8247  -4.7872  -4.7744  -4.7724  -4.7519  -4.7327  -4.7009  -4.6942
    -4.6396  -4.6057  -0.9275  -0.8086   1.2892   1.4519   1.6699   1.8992
     2.1119   2.2812   2.4205   2.5201   2.8296   2.9020   3.1603   3.2185
     3.2453   3.3196   3.3279   3.3807   3.4321   3.5464   3.7369   3.7672
     3.7881   3.8612   4.7403   4.7861   4.8259   4.8450   4.9668   5.0126
     5.0494   5.1312   5.1649   5.2060   5.2449   5.3802   5.7907   5.8512
     5.8965   5.9871   6.0375   6.1017   6.1456   6.3140

     occupation numbers 
     1.0000   1.0000   1.0000   1.0000   1.0000   1.0000   1.0000   1.0000
     1.0000   1.0000   1.0000   1.0000   1.0000   1.0000   1.0000   1.0000
     1.0000   1.0000   1.0000   1.0000   1.0000   1.0000   1.0000   1.0000
     1.0000   1.0000   1.0000   1.0000   1.0000   1.0000   1.0000   1.0000
     1.0000   1.0000   1.0000   1.0000   1.0000   1.0000   1.0000   1.0000
     1.0000   1.0000   1.0000   1.0000   1.0000   1.0000   1.0000   1.0000
     1.0000   1.0000   1.0000   1.0000   1.0000   1.0000   1.0000   1.0000
     1.0000   1.0000   1.0000   1.0000   1.0000   1.0000   1.0000   1.0000
     1.0000   1.0000   1.0000   1.0000   1.0000   1.0000   1.0000   1.0000
     1.0000   1.0000   1.0000   1.0000   1.0000   1.0000

          k = 0.4113-0.1062 0.0000 ( 43460 PWs)   bands (ev):

   -20.6979 -20.6922 -20.6616 -20.6560 -15.6638 -15.6638 -15.6544 -15.6543
   -15.6486 -15.6486 -15.5879 -15.5879 -15.5732 -15.5731  -7.1556  -7.0795
    -6.3368  -6.2400  -6.1847  -6.1374  -6.0160  -5.9134  -4.9932  -4.9556
    -4.8879  -4.8629  -4.7564  -4.7470  -4.7272  -4.7178  -4.6727  -4.6491
    -4.6364  -4.6197  -0.9516  -0.8725   1.6276   1.6772   1.7339   1.8581
     2.1465   2.2172   2.3915   2.6740   2.8720   2.9189   3.0418   3.0929
     3.2023   3.2458   3.3959   3.4391   3.5385   3.6487   3.7091   3.7360
     3.7715   3.7884   4.5971   4.6307   4.8631   4.8661   4.9083   4.9118
     4.9738   5.0507   5.3151   5.3431   5.3495   5.3907   5.5559   5.6024
     5.7816   5.9101   6.0083   6.0759   6.2210   6.2510

     occupation numbers 
     1.0000   1.0000   1.0000   1.0000   1.0000   1.0000   1.0000   1.0000
     1.0000   1.0000   1.0000   1.0000   1.0000   1.0000   1.0000   1.0000
     1.0000   1.0000   1.0000   1.0000   1.0000   1.0000   1.0000   1.0000
     1.0000   1.0000   1.0000   1.0000   1.0000   1.0000   1.0000   1.0000
     1.0000   1.0000   1.0000   1.0000   1.0000   1.0000   1.0000   1.0000
     1.0000   1.0000   1.0000   1.0000   1.0000   1.0000   1.0000   1.0000
     1.0000   1.0000   1.0000   1.0000   1.0000   1.0000   1.0000   1.0000
     1.0000   1.0000   1.0000   1.0000   1.0000   1.0000   1.0000   1.0000
     1.0000   1.0000   1.0000   1.0000   1.0000   1.0000   1.0000   1.0000
     1.0000   1.0000   1.0000   1.0000   1.0000   1.0000

          k = 0.4379 0.0728 0.1111 ( 43442 PWs)   bands (ev):

   -20.6967 -20.6961 -20.6579 -20.6573 -15.6638 -15.6638 -15.6543 -15.6543
   -15.6485 -15.6485 -15.5880 -15.5880 -15.5731 -15.5731  -7.1569  -7.1256
    -6.3051  -6.2564  -6.1698  -6.1322  -5.9609  -5.9112  -4.9822  -4.9764
    -4.9075  -4.9067  -4.7390  -4.7321  -4.7166  -4.7087  -4.6725  -4.6642
    -4.6390  -4.6178  -0.9304  -0.9128   1.6323   1.8062   1.8264   1.8657
     2.0829   2.1090   2.5026   2.6517   2.8467   2.9795   3.0059   3.0458
     3.2078   3.2746   3.3770   3.4431   3.5632   3.6346   3.6958   3.6979
     3.7476   3.8643   4.5716   4.6006   4.8432   4.8468   4.9458   4.9653
     4.9718   4.9771   5.3557   5.3599   5.3634   5.3760   5.5044   5.5330
     5.7313   5.9363   6.0257   6.1038   6.1801   6.1973

     occupation numbers 
     1.0000   1.0000   1.0000   1.0000   1.0000   1.0000   1.0000   1.0000
     1.0000   1.0000   1.0000   1.0000   1.0000   1.0000   1.0000   1.0000
     1.0000   1.0000   1.0000   1.0000   1.0000   1.0000   1.0000   1.0000
     1.0000   1.0000   1.0000   1.0000   1.0000   1.0000   1.0000   1.0000
     1.0000   1.0000   1.0000   1.0000   1.0000   1.0000   1.0000   1.0000
     1.0000   1.0000   1.0000   1.0000   1.0000   1.0000   1.0000   1.0000
     1.0000   1.0000   1.0000   1.0000   1.0000   1.0000   1.0000   1.0000
     1.0000   1.0000   1.0000   1.0000   1.0000   1.0000   1.0000   1.0000
     1.0000   1.0000   1.0000   1.0000   1.0000   1.0000   1.0000   1.0000
     1.0000   1.0000   1.0000   1.0000   1.0000   1.0000

          k = 0.4645 0.2517 0.2222 ( 43453 PWs)   bands (ev):

   -20.6984 -20.6915 -20.6623 -20.6555 -15.6638 -15.6637 -15.6544 -15.6543
   -15.6486 -15.6486 -15.5879 -15.5879 -15.5732 -15.5731  -7.1844  -7.0615
    -6.3922  -6.1848  -6.1466  -6.1406  -5.9703  -5.9509  -4.9933  -4.9618
    -4.8940  -4.8574  -4.7843  -4.7344  -4.7263  -4.7173  -4.6713  -4.6481
    -4.6421  -4.6368  -0.9329  -0.8975   1.6291   1.6945   1.7764   1.8268
     2.1424   2.2498   2.5180   2.5523   2.8229   2.9074   3.0431   3.1224
     3.1883   3.2387   3.3653   3.4749   3.4860   3.6250   3.7061   3.7265
     3.7548   3.9293   4.5965   4.6264   4.8521   4.8750   4.9080   4.9128
     4.9936   5.0411   5.3159   5.3481   5.3537   5.3680   5.5209   5.6236
     5.7458   5.9281   6.0161   6.0915   6.1958   6.2552

     occupation numbers 
     1.0000   1.0000   1.0000   1.0000   1.0000   1.0000   1.0000   1.0000
     1.0000   1.0000   1.0000   1.0000   1.0000   1.0000   1.0000   1.0000
     1.0000   1.0000   1.0000   1.0000   1.0000   1.0000   1.0000   1.0000
     1.0000   1.0000   1.0000   1.0000   1.0000   1.0000   1.0000   1.0000
     1.0000   1.0000   1.0000   1.0000   1.0000   1.0000   1.0000   1.0000
     1.0000   1.0000   1.0000   1.0000   1.0000   1.0000   1.0000   1.0000
     1.0000   1.0000   1.0000   1.0000   1.0000   1.0000   1.0000   1.0000
     1.0000   1.0000   1.0000   1.0000   1.0000   1.0000   1.0000   1.0000
     1.0000   1.0000   1.0000   1.0000   1.0000   1.0000   1.0000   1.0000
     1.0000   1.0000   1.0000   1.0000   1.0000   1.0000

          k = 0.4911 0.4306 0.3333 ( 43452 PWs)   bands (ev):

   -20.6966 -20.6857 -20.6676 -20.6570 -15.6638 -15.6637 -15.6545 -15.6545
   -15.6486 -15.6486 -15.5878 -15.5878 -15.5732 -15.5731  -7.1567  -6.9876
    -6.4664  -6.1708  -6.1522  -6.1168  -6.0313  -6.0023  -4.9965  -4.9268
    -4.8532  -4.8400  -4.7657  -4.7596  -4.7404  -4.7354  -4.7084  -4.6688
    -4.6343  -4.6216  -0.9232  -0.8666   1.5094   1.5375   1.7708   1.8211
     2.1702   2.3662   2.3794   2.5651   2.6742   2.9680   3.0913   3.1380
     3.2528   3.2533   3.3424   3.4039   3.4747   3.6164   3.7174   3.7412
     3.8005   3.9311   4.6619   4.6929   4.8068   4.8924   4.9377   4.9424
     5.0251   5.0916   5.2255   5.2764   5.3385   5.3523   5.6329   5.7748
     5.8143   5.9683   6.0255   6.0373   6.2223   6.2685

     occupation numbers 
     1.0000   1.0000   1.0000   1.0000   1.0000   1.0000   1.0000   1.0000
     1.0000   1.0000   1.0000   1.0000   1.0000   1.0000   1.0000   1.0000
     1.0000   1.0000   1.0000   1.0000   1.0000   1.0000   1.0000   1.0000
     1.0000   1.0000   1.0000   1.0000   1.0000   1.0000   1.0000   1.0000
     1.0000   1.0000   1.0000   1.0000   1.0000   1.0000   1.0000   1.0000
     1.0000   1.0000   1.0000   1.0000   1.0000   1.0000   1.0000   1.0000
     1.0000   1.0000   1.0000   1.0000   1.0000   1.0000   1.0000   1.0000
     1.0000   1.0000   1.0000   1.0000   1.0000   1.0000   1.0000   1.0000
     1.0000   1.0000   1.0000   1.0000   1.0000   1.0000   1.0000   1.0000
     1.0000   1.0000   1.0000   1.0000   1.0000   1.0000

          k = 0.5177 0.6095 0.4444 ( 43435 PWs)   bands (ev):

   -20.6916 -20.6810 -20.6718 -20.6616 -15.6638 -15.6638 -15.6546 -15.6546
   -15.6487 -15.6487 -15.5877 -15.5877 -15.5732 -15.5730  -7.0823  -6.9455
    -6.4905  -6.2091  -6.1809  -6.1096  -6.0959  -6.0333  -4.9715  -4.9124
    -4.8649  -4.8020  -4.7865  -4.7720  -4.7608  -4.7489  -4.6963  -4.6727
    -4.6290  -4.6077  -0.8879  -0.8522   1.3581   1.4051   1.8238   1.8616
     2.1310   2.2393   2.3203   2.5114   2.7339   3.0491   3.1119   3.1532
     3.2370   3.2823   3.3599   3.3868   3.4363   3.6433   3.7214   3.7550
     3.7927   3.9027   4.7445   4.7679   4.7718   4.9025   4.9875   4.9941
     5.0516   5.0639   5.1537   5.2743   5.3103   5.3225   5.7765   5.8586
     5.9117   6.0211   6.0612   6.0628   6.2002   6.2145

     occupation numbers 
     1.0000   1.0000   1.0000   1.0000   1.0000   1.0000   1.0000   1.0000
     1.0000   1.0000   1.0000   1.0000   1.0000   1.0000   1.0000   1.0000
     1.0000   1.0000   1.0000   1.0000   1.0000   1.0000   1.0000   1.0000
     1.0000   1.0000   1.0000   1.0000   1.0000   1.0000   1.0000   1.0000
     1.0000   1.0000   1.0000   1.0000   1.0000   1.0000   1.0000   1.0000
     1.0000   1.0000   1.0000   1.0000   1.0000   1.0000   1.0000   1.0000
     1.0000   1.0000   1.0000   1.0000   1.0000   1.0000   1.0000   1.0000
     1.0000   1.0000   1.0000   1.0000   1.0000   1.0000   1.0000   1.0000
     1.0000   1.0000   1.0000   1.0000   1.0000   1.0000   1.0000   1.0000
     1.0000   1.0000   1.0000   1.0000   1.0000   1.0000

          k = 0.3049-0.8218-0.4444 ( 43429 PWs)   bands (ev):

   -20.6852 -20.6807 -20.6718 -20.6676 -15.6638 -15.6638 -15.6547 -15.6547
   -15.6488 -15.6488 -15.5876 -15.5876 -15.5731 -15.5731  -6.9853  -6.9638
    -6.4503  -6.2900  -6.1826  -6.1576  -6.1067  -6.0675  -4.9287  -4.9177
    -4.8538  -4.8182  -4.7965  -4.7940  -4.7523  -4.7400  -4.7169  -4.6727
    -4.6013  -4.5954  -0.8632  -0.8444   1.2400   1.3374   1.8887   1.9850
     2.0711   2.0970   2.3259   2.3333   2.9438   3.0595   3.1265   3.1623
     3.1892   3.2691   3.3121   3.3701   3.4710   3.6392   3.7390   3.7767
     3.7855   3.8811   4.7769   4.8143   4.8224   4.9009   4.9837   4.9912
     5.0020   5.0568   5.1991   5.2634   5.2905   5.3163   5.8717   5.8926
     5.9541   6.0525   6.0973   6.1486   6.1816   6.1854

     occupation numbers 
     1.0000   1.0000   1.0000   1.0000   1.0000   1.0000   1.0000   1.0000
     1.0000   1.0000   1.0000   1.0000   1.0000   1.0000   1.0000   1.0000
     1.0000   1.0000   1.0000   1.0000   1.0000   1.0000   1.0000   1.0000
     1.0000   1.0000   1.0000   1.0000   1.0000   1.0000   1.0000   1.0000
     1.0000   1.0000   1.0000   1.0000   1.0000   1.0000   1.0000   1.0000
     1.0000   1.0000   1.0000   1.0000   1.0000   1.0000   1.0000   1.0000
     1.0000   1.0000   1.0000   1.0000   1.0000   1.0000   1.0000   1.0000
     1.0000   1.0000   1.0000   1.0000   1.0000   1.0000   1.0000   1.0000
     1.0000   1.0000   1.0000   1.0000   1.0000   1.0000   1.0000   1.0000
     1.0000   1.0000   1.0000   1.0000   1.0000   1.0000

          k = 0.3315-0.6429-0.3333 ( 43440 PWs)   bands (ev):

   -20.6852 -20.6808 -20.6718 -20.6676 -15.6638 -15.6638 -15.6547 -15.6547
   -15.6488 -15.6488 -15.5876 -15.5875 -15.5731 -15.5731  -7.0248  -6.9072
    -6.3711  -6.3600  -6.2014  -6.1727  -6.1105  -6.0862  -4.9340  -4.8957
    -4.8503  -4.8147  -4.7902  -4.7817  -4.7382  -4.7252  -4.7157  -4.7077
    -4.6022  -4.5952  -0.8946  -0.8128   1.2041   1.3440   1.8770   2.0044
     2.0254   2.1888   2.2308   2.4000   2.9687   3.0359   3.1205   3.1887
     3.2029   3.2699   3.3055   3.3444   3.4971   3.5811   3.7414   3.7853
     3.8054   3.8617   4.7918   4.8203   4.8503   4.8585   4.9656   5.0111
     5.0324   5.0333   5.2082   5.2491   5.2677   5.3391   5.8582   5.9339
     5.9728   5.9939   6.0487   6.1385   6.1729   6.2531

     occupation numbers 
     1.0000   1.0000   1.0000   1.0000   1.0000   1.0000   1.0000   1.0000
     1.0000   1.0000   1.0000   1.0000   1.0000   1.0000   1.0000   1.0000
     1.0000   1.0000   1.0000   1.0000   1.0000   1.0000   1.0000   1.0000
     1.0000   1.0000   1.0000   1.0000   1.0000   1.0000   1.0000   1.0000
     1.0000   1.0000   1.0000   1.0000   1.0000   1.0000   1.0000   1.0000
     1.0000   1.0000   1.0000   1.0000   1.0000   1.0000   1.0000   1.0000
     1.0000   1.0000   1.0000   1.0000   1.0000   1.0000   1.0000   1.0000
     1.0000   1.0000   1.0000   1.0000   1.0000   1.0000   1.0000   1.0000
     1.0000   1.0000   1.0000   1.0000   1.0000   1.0000   1.0000   1.0000
     1.0000   1.0000   1.0000   1.0000   1.0000   1.0000

          k = 0.3581-0.4640-0.2222 ( 43434 PWs)   bands (ev):

   -20.6914 -20.6814 -20.6714 -20.6617 -15.6638 -15.6638 -15.6546 -15.6546
   -15.6487 -15.6487 -15.5877 -15.5876 -15.5732 -15.5731  -7.0941  -6.8999
    -6.4096  -6.2767  -6.2074  -6.1503  -6.1451  -6.0308  -4.9686  -4.8926
    -4.8314  -4.7833  -4.7785  -4.7705  -4.7493  -4.7417  -4.6968  -4.6797
    -4.6406  -4.6093  -0.9296  -0.8073   1.2760   1.4243   1.7555   1.9511
     2.0825   2.2118   2.3850   2.5237   2.7893   2.9947   3.1628   3.1809
     3.2568   3.3074   3.3482   3.3562   3.4684   3.5229   3.7255   3.7700
     3.8125   3.8528   4.7449   4.7827   4.8076   4.8646   4.9681   5.0125
     5.0392   5.0959   5.1771   5.2289   5.2577   5.3831   5.8195   5.8424
     5.9122   5.9728   6.0396   6.1093   6.1263   6.2790

     occupation numbers 
     1.0000   1.0000   1.0000   1.0000   1.0000   1.0000   1.0000   1.0000
     1.0000   1.0000   1.0000   1.0000   1.0000   1.0000   1.0000   1.0000
     1.0000   1.0000   1.0000   1.0000   1.0000   1.0000   1.0000   1.0000
     1.0000   1.0000   1.0000   1.0000   1.0000   1.0000   1.0000   1.0000
     1.0000   1.0000   1.0000   1.0000   1.0000   1.0000   1.0000   1.0000
     1.0000   1.0000   1.0000   1.0000   1.0000   1.0000   1.0000   1.0000
     1.0000   1.0000   1.0000   1.0000   1.0000   1.0000   1.0000   1.0000
     1.0000   1.0000   1.0000   1.0000   1.0000   1.0000   1.0000   1.0000
     1.0000   1.0000   1.0000   1.0000   1.0000   1.0000   1.0000   1.0000
     1.0000   1.0000   1.0000   1.0000   1.0000   1.0000

          k = 0.3847-0.2851-0.1111 ( 43429 PWs)   bands (ev):

   -20.6963 -20.6863 -20.6670 -20.6573 -15.6638 -15.6638 -15.6545 -15.6544
   -15.6487 -15.6486 -15.5878 -15.5878 -15.5732 -15.5731  -7.1435  -6.9763
    -6.3977  -6.2218  -6.1802  -6.1700  -6.0938  -5.9614  -4.9919  -4.9187
    -4.8443  -4.7908  -4.7699  -4.7621  -4.7480  -4.7389  -4.7004  -4.6498
    -4.6324  -4.6270  -0.9516  -0.8309   1.4490   1.5647   1.6681   1.9025
     2.1320   2.2774   2.4239   2.6280   2.7179   3.0094   3.0651   3.1369
     3.2525   3.2996   3.3783   3.4145   3.4709   3.5670   3.7191   3.7254
     3.8121   3.8351   4.6640   4.7014   4.8241   4.8809   4.9158   4.9572
     5.0094   5.1017   5.2454   5.2641   5.2952   5.4036   5.6735   5.7479
     5.8493   5.9173   6.0118   6.0711   6.2285   6.2662

     occupation numbers 
     1.0000   1.0000   1.0000   1.0000   1.0000   1.0000   1.0000   1.0000
     1.0000   1.0000   1.0000   1.0000   1.0000   1.0000   1.0000   1.0000
     1.0000   1.0000   1.0000   1.0000   1.0000   1.0000   1.0000   1.0000
     1.0000   1.0000   1.0000   1.0000   1.0000   1.0000   1.0000   1.0000
     1.0000   1.0000   1.0000   1.0000   1.0000   1.0000   1.0000   1.0000
     1.0000   1.0000   1.0000   1.0000   1.0000   1.0000   1.0000   1.0000
     1.0000   1.0000   1.0000   1.0000   1.0000   1.0000   1.0000   1.0000
     1.0000   1.0000   1.0000   1.0000   1.0000   1.0000   1.0000   1.0000
     1.0000   1.0000   1.0000   1.0000   1.0000   1.0000   1.0000   1.0000
     1.0000   1.0000   1.0000   1.0000   1.0000   1.0000

     highest occupied level (ev):     6.3257

!    total energy              =   -1568.23797383 Ry
     estimated scf accuracy    <          3.1E-10 Ry

     The total energy is the sum of the following terms:
     one-electron contribution =    -580.32680956 Ry
     hartree contribution      =     398.95390627 Ry
     xc contribution           =    -371.73957881 Ry
     ewald contribution        =    -655.86398196 Ry
     one-center paw contrib.   =    -359.26150978 Ry
      -> PAW hartree energy AE =       0.00000000 Ry
      -> PAW hartree energy PS =       0.00000000 Ry
      -> PAW xc energy AE      =       0.00000000 Ry
      -> PAW xc energy PS      =       0.00000000 Ry
      -> total E_H with PAW    =     398.95390627 Ry
      -> total E_XC with PAW   =    -371.73957881 Ry

     convergence has been achieved in  18 iterations


     Computing stress (Cartesian axis) and pressure

          total   stress  (Ry/bohr**3)                   (kbar)     P=        2.73
   0.00002019   0.00000027   0.00000221            2.97        0.04        0.33
   0.00000027   0.00001646  -0.00000034            0.04        2.42       -0.05
   0.00000221  -0.00000034   0.00001913            0.33       -0.05        2.81

     kinetic stress (kbar)   7812.91     -4.42    -22.22
                               -4.42   7856.31      5.61
                              -22.22      5.61   7823.55

     local   stress (kbar)  -2097.73   3604.06  -6683.42
                             3604.06  -6037.73  -4568.98
                            -6683.42  -4568.98   1103.11

     nonloc. stress (kbar)   2094.53      0.40     -2.11
                                0.40   2095.80     -0.51
                               -2.11     -0.51   2095.53

     hartree stress (kbar)   6344.26  -1720.60   3135.92
                            -1720.60   8294.71   2181.26
                             3135.92   2181.26   4842.40

     exc-cor stress (kbar)   5916.64     -0.23      0.11
                               -0.23   5917.30      0.29
                                0.11      0.29   5916.59

     corecor stress (kbar)  -9314.33      0.29     -0.35
                                0.29  -9314.89     -0.37
                               -0.35     -0.37  -9314.16

     ewald   stress (kbar) -10753.31  -1879.46   3572.39
                            -1879.46  -8809.08   2382.65
                             3572.39   2382.65 -12464.21

     hubbard stress (kbar)      0.00      0.00      0.00
                                0.00      0.00      0.00
                                0.00      0.00      0.00

     DFT-D   stress (kbar)      0.00      0.00      0.00
                                0.00      0.00      0.00
                                0.00      0.00      0.00

     XDM     stress (kbar)      0.00      0.00      0.00
                                0.00      0.00      0.00
                                0.00      0.00      0.00

     dft-nl  stress (kbar)      0.00      0.00      0.00
                                0.00      0.00      0.00
                                0.00      0.00      0.00

     TS-vdW  stress (kbar)      0.00      0.00      0.00
                                0.00      0.00      0.00
                                0.00      0.00      0.00

     MDB     stress (kbar)      0.00      0.00      0.00
                                0.00      0.00      0.00
                                0.00      0.00      0.00

     3D-RISM stress (kbar)      0.00      0.00      0.00
                                0.00      0.00      0.00
                                0.00      0.00      0.00


     Writing all to output data dir ./tmp/k_5x9x9/Rb2Cu2SnS4_k_5x9x9.save/ :
     XML data file, charge density, pseudopotentials, collected wavefunctions

     init_run     :     89.17s CPU     90.30s WALL (       1 calls)
     electrons    :   4534.77s CPU   4642.54s WALL (       1 calls)
     stress       :     77.63s CPU     79.24s WALL (       1 calls)

     Called by init_run:
     wfcinit      :     87.92s CPU     89.02s WALL (       1 calls)
     wfcinit:atom :      0.18s CPU      0.18s WALL (     102 calls)
     wfcinit:wfcr :     85.36s CPU     86.42s WALL (     102 calls)
     potinit      :      0.47s CPU      0.48s WALL (       1 calls)
     hinit0       :      0.17s CPU      0.17s WALL (       1 calls)

     Called by electrons:
     c_bands      :   3949.56s CPU   4015.07s WALL (      18 calls)
     sum_band     :    568.64s CPU    597.11s WALL (      18 calls)
     v_of_rho     :      5.54s CPU     14.27s WALL (      19 calls)
     v_h          :      0.33s CPU      0.38s WALL (      19 calls)
     v_xc         :      5.40s CPU     14.08s WALL (      20 calls)
     newd         :      6.47s CPU      9.23s WALL (      19 calls)
     PAW_pot      :      3.96s CPU      4.09s WALL (      19 calls)
     mix_rho      :      0.63s CPU      1.79s WALL (      18 calls)

     Called by c_bands:
     init_us_2    :     18.57s CPU     19.59s WALL (    3876 calls)
     cegterg      :   3804.73s CPU   3854.58s WALL (    1836 calls)

     Called by sum_band:
     sum_band:wei :      0.00s CPU      0.00s WALL (      18 calls)
     sum_band:loo :    560.68s CPU    570.40s WALL (      18 calls)
     sum_band:buf :      1.46s CPU      3.15s WALL (    1836 calls)
     sum_band:ini :      8.44s CPU      8.56s WALL (    1836 calls)
     sum_band:cal :     97.32s CPU     98.57s WALL (    1836 calls)
     sum_band:bec :      0.21s CPU      0.22s WALL (    1836 calls)
     addusdens    :      6.95s CPU     24.89s WALL (      18 calls)
                                        0.00s GPU  (      18 calls)
     addusd:skk   :      0.03s CPU      0.15s WALL (      54 calls)
                                        0.00s GPU  (      54 calls)

     Called by *egterg:
     cdiaghg      :     50.66s CPU     51.27s WALL (    9802 calls)
     cegterg:over :    177.56s CPU    179.67s WALL (    7966 calls)
     cegterg:upda :    103.28s CPU    104.51s WALL (    7966 calls)
     cegterg:last :    233.85s CPU    236.50s WALL (    4499 calls)
     h_psi        :   2951.58s CPU   2991.31s WALL (    9904 calls)
     s_psi        :    304.29s CPU    307.81s WALL (    9904 calls)
     g_psi        :      2.51s CPU      2.55s WALL (    7966 calls)

     Called by h_psi:
     h_psi:calbec :    298.64s CPU    302.29s WALL (    9904 calls)
     vloc_psi     :   2340.78s CPU   2372.99s WALL (    9904 calls)
                                        0.00s GPU  (    9904 calls)
     add_vuspsi   :    308.69s CPU    312.18s WALL (    9904 calls)

     General routines
     calbec       :    463.34s CPU    468.66s WALL (   13066 calls)
     fft          :      5.02s CPU      5.73s WALL (     259 calls)
     ffts         :      0.18s CPU      0.20s WALL (      37 calls)
     fftw         :   2537.30s CPU   2572.54s WALL (  992546 calls)
     interpolate  :      0.40s CPU      0.50s WALL (      19 calls)

     Parallel routines

     PAW routines
     PAW_pot      :      3.96s CPU      4.09s WALL (      19 calls)
     PAW_symme    :      0.01s CPU      0.01s WALL (      37 calls)

     PWSCF        :      1h18m CPU      1h20m WALL


   This run was terminated on:  22:34:59   2Jul2026            

=------------------------------------------------------------------------------=
   JOB DONE.
=------------------------------------------------------------------------------=
