
     Program PWSCF v.7.3.1 starts on 21Aug2026 at  1:43:26 

     This program is part of the open-source Quantum ESPRESSO suite
     for quantum simulation of materials; please cite
         "P. Giannozzi et al., J. Phys.:Condens. Matter 21 395502 (2009);
         "P. Giannozzi et al., J. Phys.:Condens. Matter 29 465901 (2017);
         "P. Giannozzi et al., J. Chem. Phys. 152 154105 (2020);
          URL http://www.quantum-espresso.org", 
     in publications or presentations arising from this work. More details at
     http://www.quantum-espresso.org/quote

     Parallel version (MPI & OpenMP), running on      32 processor cores
     Number of MPI processes:                32
     Threads/MPI process:                     1

     MPI processes distributed on     1 nodes
     501669 MiB available memory on the printing compute node when the environment starts

     Reading input from scf.in

     Current dimensions of program PWSCF are:
     Max number of different atomic species (ntypx) = 10
     Max number of k-points (npk) =  40000
     Max angular momentum in pseudopotentials (lmaxx) =  4
     file Cu.paw.z_11.ld1.psl.v1.0.0-low.upf: wavefunction(s)  4S 3D renormalized

     K-points division:     npool     =       2
     R & G space division:  proc/nbgrp/npool/nimage =      16
     Subspace diagonalization in iterative solution of the eigenvalue problem:
     one sub-group per band group will be used
     scalapack distributed-memory algorithm (size of sub-group:  4*  4 procs)


     Parallelization info
     --------------------
     sticks:   dense  smooth     PW     G-vecs:    dense   smooth      PW
     Min        1193     597    157               163743    57882    7779
     Max        1194     599    158               163747    57885    7784
     Sum       19099    9565   2515              2619931   926125  124485

     Using Slab Decomposition



     bravais-lattice index     =            0
     lattice parameter (alat)  =      24.0273  a.u.
     unit-cell volume          =   14752.0463 (a.u.)^3
     number of atoms/cell      =           96
     number of atomic types    =            4
     number of electrons       =       840.00
     number of Kohn-Sham states=          420
     kinetic-energy cutoff     =      60.0000  Ry
     charge density cutoff     =     480.0000  Ry
     scf convergence threshold =      1.0E-09
     mixing beta               =       0.3000
     number of iterations used =            8  plain     mixing
     Exchange-correlation=  SLA  PW   PBX  PBC
                           (   1   4   3   4   0   0   0)

     celldm(1)=  24.027274  celldm(2)=   0.000000  celldm(3)=   0.000000
     celldm(4)=   0.000000  celldm(5)=   0.000000  celldm(6)=   0.000000

     crystal axes: (cart. coord. in units of alat)
               a(1) = (   1.000000   0.000000   0.000000 )  
               a(2) = (  -0.500000   0.866025   0.000000 )  
               a(3) = (   0.000000   0.000000   1.228028 )  

     reciprocal axes: (cart. coord. in units 2 pi/alat)
               b(1) = (  1.000000  0.577351 -0.000000 )  
               b(2) = (  0.000000  1.154701  0.000000 )  
               b(3) = (  0.000000 -0.000000  0.814314 )  


     PseudoPot. # 1 for Sr read from file:
     /home/yuhansun/pseudos/SSSP-1.3.0-PBE-precision/Sr_pbe_v1.uspp.F.UPF
     MD5 check sum: 6b418c05fbe9db5448babca5e47b7a5b
     Pseudo is Ultrasoft + core correction, Zval = 10.0
     Generated by new atomic code, or converted to UPF format
     Using radial grid of  883 points,  6 beta functions with: 
                l(1) =   0
                l(2) =   0
                l(3) =   1
                l(4) =   1
                l(5) =   2
                l(6) =   2
     Q(r) pseudized with  6 coefficients,  rinner =    1.400   1.400   1.400
                                                       1.400   1.400

     PseudoPot. # 2 for Cu read from file:
     /home/yuhansun/pseudos/SSSP-1.3.0-PBE-precision/Cu.paw.z_11.ld1.psl.v1.0.0-low.upf
     MD5 check sum: 619f40885d92a09a85a8b37550532d0c
     Pseudo is Projector augmented-wave + core cor, Zval = 11.0
     Generated using &quot;atomic&quot; code by A. Dal Corso  v.6.3MaX
     Shape of augmentation charge: PSQ
     Using radial grid of 1199 points,  6 beta functions with: 
                l(1) =   0
                l(2) =   0
                l(3) =   1
                l(4) =   1
                l(5) =   2
                l(6) =   2
     Q(r) pseudized with 0 coefficients 


     PseudoPot. # 3 for Sn read from file:
     /home/yuhansun/pseudos/SSSP-1.3.0-PBE-precision/Sn_pbe_v1.uspp.F.UPF
     MD5 check sum: 4cf58ce39ec5d5d420df3dd08604eb00
     Pseudo is Ultrasoft + core correction, Zval = 14.0
     Generated by new atomic code, or converted to UPF format
     Using radial grid of  891 points,  6 beta functions with: 
                l(1) =   0
                l(2) =   0
                l(3) =   1
                l(4) =   1
                l(5) =   2
                l(6) =   2
     Q(r) pseudized with  6 coefficients,  rinner =    1.200   1.200   1.200
                                                       1.200   1.200

     PseudoPot. # 4 for S  read from file:
     /home/yuhansun/pseudos/SSSP-1.3.0-PBE-precision/s_pbe_v1.4.uspp.F.UPF
     MD5 check sum: 88d86576ff6df21479756cfb9bdac1df
     Pseudo is Ultrasoft + core correction, Zval =  6.0
     Generated by new atomic code, or converted to UPF format
     Using radial grid of  907 points,  6 beta functions with: 
                l(1) =   0
                l(2) =   0
                l(3) =   1
                l(4) =   1
                l(5) =   2
                l(6) =   2
     Q(r) pseudized with  8 coefficients,  rinner =    1.300   1.300   1.300
                                                       1.300   1.300

     atomic species   valence    mass     pseudopotential
     Sr               10.00    87.62000     Sr( 1.00)
     Cu               11.00    63.54600     Cu( 1.00)
     Sn               14.00   118.71000     Sn( 1.00)
     S                 6.00    32.06500     S ( 1.00)

     No symmetry found



   Cartesian axes

     site n.     atom                  positions (alat units)
         1        Sr     tau(   1) = (  -0.1405753   0.2434834   0.2046717  )
         2        Sr     tau(   2) = (   0.3594247   0.2434834   0.2046717  )
         3        Sr     tau(   3) = (  -0.3905753   0.6764960   0.2046717  )
         4        Sr     tau(   4) = (   0.1094247   0.6764960   0.2046717  )
         5        Sr     tau(   5) = (   0.1094247   0.1895292   0.6140139  )
         6        Sr     tau(   6) = (   0.6094247   0.1895292   0.6140139  )
         7        Sr     tau(   7) = (  -0.1405753   0.6225418   0.6140139  )
         8        Sr     tau(   8) = (   0.3594247   0.6225418   0.6140139  )
         9        Sr     tau(   9) = (   0.2811505   0.0000000   1.0233574  )
        10        Sr     tau(  10) = (   0.7811505   0.0000000   1.0233574  )
        11        Sr     tau(  11) = (   0.0311505   0.4330126   1.0233574  )
        12        Sr     tau(  12) = (   0.5311505   0.4330126   1.0233574  )
        13        Cu     tau(  13) = (  -0.1226788   0.2753211   0.5061747  )
        14        Cu     tau(  14) = (   0.3773212   0.2753211   0.5061747  )
        15        Cu     tau(  15) = (  -0.3726788   0.7083337   0.5061747  )
        16        Cu     tau(  16) = (   0.1273212   0.7083337   0.5061747  )
        17        Cu     tau(  17) = (   0.0729045   0.1891087   0.9155169  )
        18        Cu     tau(  18) = (   0.5729045   0.1891087   0.9155169  )
        19        Cu     tau(  19) = (  -0.1770956   0.6221213   0.9155169  )
        20        Cu     tau(  20) = (   0.3229044   0.6221213   0.9155169  )
        21        Cu     tau(  21) = (   0.0497750   0.4015949   0.0968325  )
        22        Cu     tau(  22) = (   0.5497750   0.4015949   0.0968325  )
        23        Cu     tau(  23) = (  -0.2002251   0.8346075   0.0968325  )
        24        Cu     tau(  24) = (   0.2997749   0.8346075   0.0968325  )
        25        Cu     tau(  25) = (   0.2997745   0.0314177   0.7218532  )
        26        Cu     tau(  26) = (   0.7997745   0.0314177   0.7218532  )
        27        Cu     tau(  27) = (   0.0497745   0.4644302   0.7218532  )
        28        Cu     tau(  28) = (   0.5497745   0.4644302   0.7218532  )
        29        Cu     tau(  29) = (   0.1273207   0.1576915   0.3125110  )
        30        Cu     tau(  30) = (   0.6273207   0.1576915   0.3125110  )
        31        Cu     tau(  31) = (  -0.1226793   0.5907041   0.3125110  )
        32        Cu     tau(  32) = (   0.3773207   0.5907041   0.3125110  )
        33        Cu     tau(  33) = (   0.3229040   0.2439039   1.1311954  )
        34        Cu     tau(  34) = (   0.8229040   0.2439039   1.1311954  )
        35        Cu     tau(  35) = (   0.0729039   0.6769164   1.1311954  )
        36        Cu     tau(  36) = (   0.5729039   0.6769164   1.1311954  )
        37        Sn     tau(  37) = (  -0.1762580   0.3052877   0.8186857  )
        38        Sn     tau(  38) = (   0.3237420   0.3052877   0.8186857  )
        39        Sn     tau(  39) = (  -0.4262581   0.7383003   0.8186857  )
        40        Sn     tau(  40) = (   0.0737419   0.7383003   0.8186857  )
        41        Sn     tau(  41) = (   0.0737420   0.1277249   0.0000000  )
        42        Sn     tau(  42) = (   0.5737420   0.1277249   0.0000000  )
        43        Sn     tau(  43) = (  -0.1762581   0.5607374   0.0000000  )
        44        Sn     tau(  44) = (   0.3237419   0.5607374   0.0000000  )
        45        Sn     tau(  45) = (   0.3525160   0.0000000   0.4093422  )
        46        Sn     tau(  46) = (   0.8525160   0.0000000   0.4093422  )
        47        Sn     tau(  47) = (   0.1025160   0.4330126   0.4093422  )
        48        Sn     tau(  48) = (   0.6025160   0.4330126   0.4093422  )
        49        S      tau(  49) = (  -0.0975717   0.2081538   0.9671149  )
        50        S      tau(  50) = (   0.4011797   0.2103164   0.9671149  )
        51        S      tau(  51) = (  -0.3488203   0.6433290   0.9671149  )
        52        S      tau(  52) = (   0.1511797   0.6433290   0.9671149  )
        53        S      tau(  53) = (   0.1172707   0.2422736   0.1484293  )
        54        S      tau(  54) = (   0.6172707   0.2422736   0.1484293  )
        55        S      tau(  55) = (  -0.1327293   0.6752862   0.1484293  )
        56        S      tau(  56) = (   0.3672707   0.6752862   0.1484293  )
        57        S      tau(  57) = (  -0.0184505   0.4134352   0.5577727  )
        58        S      tau(  58) = (   0.4815495   0.4134352   0.5577727  )
        59        S      tau(  59) = (  -0.2684506   0.8464478   0.5577727  )
        60        S      tau(  60) = (   0.2315494   0.8464478   0.5577727  )
        61        S      tau(  61) = (   0.2315495   0.0195774   0.2609129  )
        62        S      tau(  62) = (   0.7315495   0.0195774   0.2609129  )
        63        S      tau(  63) = (  -0.0184505   0.4525899   0.2609129  )
        64        S      tau(  64) = (   0.4815495   0.4525899   0.2609129  )
        65        S      tau(  65) = (   0.1511797   0.2226962   1.0795986  )
        66        S      tau(  66) = (   0.6511797   0.2226962   1.0795986  )
        67        S      tau(  67) = (  -0.0988203   0.6557088   1.0795986  )
        68        S      tau(  68) = (   0.4011797   0.6557088   1.0795986  )
        69        S      tau(  69) = (   0.3672707   0.1907390   0.6702552  )
        70        S      tau(  70) = (   0.8672707   0.1907390   0.6702552  )
        71        S      tau(  71) = (   0.1172707   0.6237516   0.6702552  )
        72        S      tau(  72) = (   0.6172707   0.6237516   0.6702552  )
        73        S      tau(  73) = (  -0.0296498   0.1532012   0.4035914  )
        74        S      tau(  74) = (   0.4703502   0.1532012   0.4035914  )
        75        S      tau(  75) = (  -0.2796498   0.5862137   0.4035914  )
        76        S      tau(  76) = (   0.2203502   0.5862137   0.4035914  )
        77        S      tau(  77) = (   0.1321490   0.3307341   0.8129336  )
        78        S      tau(  78) = (   0.6321490   0.3307341   0.8129336  )
        79        S      tau(  79) = (  -0.1178511   0.7637467   0.8129336  )
        80        S      tau(  80) = (   0.3821489   0.7637467   0.8129336  )
        81        S      tau(  81) = (  -0.1024985   0.3820894   1.2222770  )
        82        S      tau(  82) = (   0.3975015   0.3820894   1.2222770  )
        83        S      tau(  83) = (  -0.3524986   0.8151020   1.2222770  )
        84        S      tau(  84) = (   0.1475014   0.8151020   1.2222770  )
        85        S      tau(  85) = (   0.1475010   0.0509231   0.8244365  )
        86        S      tau(  86) = (   0.6475010   0.0509231   0.8244365  )
        87        S      tau(  87) = (  -0.1024990   0.4839357   0.8244365  )
        88        S      tau(  88) = (   0.3975010   0.4839357   0.8244365  )
        89        S      tau(  89) = (   0.2203497   0.2798114   0.4150943  )
        90        S      tau(  90) = (   0.7203497   0.2798114   0.4150943  )
        91        S      tau(  91) = (  -0.0296503   0.7128240   0.4150943  )
        92        S      tau(  92) = (   0.4703497   0.7128240   0.4150943  )
        93        S      tau(  93) = (   0.3821485   0.1022784   0.0057509  )
        94        S      tau(  94) = (   0.8821485   0.1022784   0.0057509  )
        95        S      tau(  95) = (   0.1321485   0.5352910   0.0057509  )
        96        S      tau(  96) = (   0.6321485   0.5352910   0.0057509  )

     number of k points=    14
                       cart. coord. in units 2pi/alat
        k(    1) = (   0.0000000   0.0000000   0.0000000), wk =   0.0740741
        k(    2) = (   0.0000000   0.0000000   0.2714379), wk =   0.1481481
        k(    3) = (   0.0000000   0.3849003   0.0000000), wk =   0.1481481
        k(    4) = (   0.0000000   0.3849003   0.2714379), wk =   0.1481481
        k(    5) = (   0.3333333   0.5773505   0.0000000), wk =   0.1481481
        k(    6) = (   0.3333333   0.5773505   0.2714379), wk =   0.1481481
        k(    7) = (  -0.3333333   0.1924501   0.0000000), wk =   0.1481481
        k(    8) = (   0.3333333   0.1924502   0.0000000), wk =   0.1481481
        k(    9) = (   0.0000000  -0.3849003   0.2714379), wk =   0.1481481
        k(   10) = (  -0.3333333   0.1924501   0.2714379), wk =   0.1481481
        k(   11) = (   0.3333333   0.1924502   0.2714379), wk =   0.1481481
        k(   12) = (  -0.3333333  -0.1924502   0.2714379), wk =   0.1481481
        k(   13) = (   0.3333333  -0.1924501   0.2714379), wk =   0.1481481
        k(   14) = (  -0.3333333  -0.5773505   0.2714379), wk =   0.1481481

     Dense  grid:  2619931 G-vectors     FFT dimensions: ( 180, 180, 216)

     Smooth grid:   926125 G-vectors     FFT dimensions: ( 120, 120, 150)

     Estimated max dynamical RAM per process >       1.07 GB

     Estimated total dynamical RAM >      33.54 GB

     Initial potential from superposition of free atoms

     starting charge     827.5884, renormalised to     840.0000

     negative rho (up, down):  7.777E-01 0.000E+00
     Starting wfcs are  672 randomized atomic wfcs
     Checking if some PAW data can be deallocated... 

     total cpu time spent up to now is       46.8 secs

     Self-consistent Calculation

     iteration #  1     ecut=    60.00 Ry     beta= 0.30
     Davidson diagonalization with overlap
     ethr =  1.00E-02,  avg # of iterations =  2.0

     negative rho (up, down):  7.747E-01 0.000E+00

     total cpu time spent up to now is      136.9 secs

     total energy              =   -9070.27791937 Ry
     estimated scf accuracy    <      22.00888024 Ry

     iteration #  2     ecut=    60.00 Ry     beta= 0.30
     Davidson diagonalization with overlap
     ethr =  2.62E-03,  avg # of iterations =  4.8

     negative rho (up, down):  7.752E-01 0.000E+00

     total cpu time spent up to now is      249.7 secs

     total energy              =   -9076.61378086 Ry
     estimated scf accuracy    <       8.26429131 Ry

     iteration #  3     ecut=    60.00 Ry     beta= 0.30
     Davidson diagonalization with overlap
     ethr =  9.84E-04,  avg # of iterations =  2.0

     negative rho (up, down):  7.804E-01 0.000E+00

     total cpu time spent up to now is      342.3 secs

     total energy              =   -9076.48460736 Ry
     estimated scf accuracy    <       1.63276073 Ry

     iteration #  4     ecut=    60.00 Ry     beta= 0.30
     Davidson diagonalization with overlap
     ethr =  1.94E-04,  avg # of iterations =  6.5

     negative rho (up, down):  7.829E-01 0.000E+00

     total cpu time spent up to now is      478.7 secs

     total energy              =   -9076.69833975 Ry
     estimated scf accuracy    <       2.09401412 Ry

     iteration #  5     ecut=    60.00 Ry     beta= 0.30
     Davidson diagonalization with overlap
     ethr =  1.94E-04,  avg # of iterations =  5.6

     negative rho (up, down):  7.883E-01 0.000E+00

     total cpu time spent up to now is      588.5 secs

     total energy              =   -9077.13756772 Ry
     estimated scf accuracy    <       0.14428270 Ry

     iteration #  6     ecut=    60.00 Ry     beta= 0.30
     Davidson diagonalization with overlap
     ethr =  1.72E-05,  avg # of iterations =  6.4

     negative rho (up, down):  7.902E-01 0.000E+00

     total cpu time spent up to now is      703.5 secs

     total energy              =   -9077.18442265 Ry
     estimated scf accuracy    <       0.01314320 Ry

     iteration #  7     ecut=    60.00 Ry     beta= 0.30
     Davidson diagonalization with overlap
     ethr =  1.56E-06,  avg # of iterations =  5.1

     negative rho (up, down):  7.907E-01 0.000E+00

     total cpu time spent up to now is      832.0 secs

     total energy              =   -9077.18878240 Ry
     estimated scf accuracy    <       0.00578248 Ry

     iteration #  8     ecut=    60.00 Ry     beta= 0.30
     Davidson diagonalization with overlap
     ethr =  6.88E-07,  avg # of iterations =  6.4

     negative rho (up, down):  7.912E-01 0.000E+00

     total cpu time spent up to now is      981.0 secs

     total energy              =   -9077.17885985 Ry
     estimated scf accuracy    <       0.05019241 Ry

     iteration #  9     ecut=    60.00 Ry     beta= 0.30
     Davidson diagonalization with overlap
     ethr =  6.88E-07,  avg # of iterations =  7.1

     negative rho (up, down):  7.911E-01 0.000E+00

     total cpu time spent up to now is     1138.3 secs

     total energy              =   -9077.18756424 Ry
     estimated scf accuracy    <       0.00178111 Ry

     iteration # 10     ecut=    60.00 Ry     beta= 0.30
     Davidson diagonalization with overlap
     ethr =  2.12E-07,  avg # of iterations =  2.7

     negative rho (up, down):  7.907E-01 0.000E+00

     total cpu time spent up to now is     1234.1 secs

     total energy              =   -9077.18748477 Ry
     estimated scf accuracy    <       0.00046815 Ry

     iteration # 11     ecut=    60.00 Ry     beta= 0.30
     Davidson diagonalization with overlap
     ethr =  5.57E-08,  avg # of iterations =  5.4

     negative rho (up, down):  7.905E-01 0.000E+00

     total cpu time spent up to now is     1366.4 secs

     total energy              =   -9077.18765140 Ry
     estimated scf accuracy    <       0.00017067 Ry

     iteration # 12     ecut=    60.00 Ry     beta= 0.30
     Davidson diagonalization with overlap
     ethr =  2.03E-08,  avg # of iterations =  3.8

     negative rho (up, down):  7.904E-01 0.000E+00

     total cpu time spent up to now is     1473.8 secs

     total energy              =   -9077.18767068 Ry
     estimated scf accuracy    <       0.00003979 Ry

     iteration # 13     ecut=    60.00 Ry     beta= 0.30
     Davidson diagonalization with overlap
     ethr =  4.74E-09,  avg # of iterations =  5.8

     negative rho (up, down):  7.903E-01 0.000E+00

     total cpu time spent up to now is     1589.9 secs

     total energy              =   -9077.18767986 Ry
     estimated scf accuracy    <       0.00000789 Ry

     iteration # 14     ecut=    60.00 Ry     beta= 0.30
     Davidson diagonalization with overlap
     ethr =  9.39E-10,  avg # of iterations =  3.2

     negative rho (up, down):  7.902E-01 0.000E+00

     total cpu time spent up to now is     1695.4 secs

     total energy              =   -9077.18768119 Ry
     estimated scf accuracy    <       0.00000183 Ry

     iteration # 15     ecut=    60.00 Ry     beta= 0.30
     Davidson diagonalization with overlap
     ethr =  2.17E-10,  avg # of iterations =  4.9

     negative rho (up, down):  7.902E-01 0.000E+00

     total cpu time spent up to now is     1806.0 secs

     total energy              =   -9077.18768173 Ry
     estimated scf accuracy    <       0.00000035 Ry

     iteration # 16     ecut=    60.00 Ry     beta= 0.30
     Davidson diagonalization with overlap
     ethr =  4.20E-11,  avg # of iterations =  5.8

     negative rho (up, down):  7.902E-01 0.000E+00

     total cpu time spent up to now is     1938.9 secs

     total energy              =   -9077.18768191 Ry
     estimated scf accuracy    <       0.00000006 Ry

     iteration # 17     ecut=    60.00 Ry     beta= 0.30
     Davidson diagonalization with overlap
     ethr =  7.38E-12,  avg # of iterations =  6.5

     negative rho (up, down):  7.902E-01 0.000E+00

     total cpu time spent up to now is     2075.9 secs

     total energy              =   -9077.18768195 Ry
     estimated scf accuracy    <       0.00000002 Ry

     iteration # 18     ecut=    60.00 Ry     beta= 0.30
     Davidson diagonalization with overlap
     ethr =  2.69E-12,  avg # of iterations =  5.4

     negative rho (up, down):  7.902E-01 0.000E+00

     total cpu time spent up to now is     2201.3 secs

     total energy              =   -9077.18768197 Ry
     estimated scf accuracy    <          8.8E-09 Ry

     iteration # 19     ecut=    60.00 Ry     beta= 0.30
     Davidson diagonalization with overlap
     ethr =  1.05E-12,  avg # of iterations =  3.4

     negative rho (up, down):  7.902E-01 0.000E+00

     total cpu time spent up to now is     2312.1 secs

     total energy              =   -9077.18768198 Ry
     estimated scf accuracy    <          4.6E-09 Ry

     iteration # 20     ecut=    60.00 Ry     beta= 0.30
     Davidson diagonalization with overlap
     ethr =  5.42E-13,  avg # of iterations =  5.9

     negative rho (up, down):  7.902E-01 0.000E+00

     total cpu time spent up to now is     2428.1 secs

     total energy              =   -9077.18768198 Ry
     estimated scf accuracy    <          1.2E-09 Ry

     iteration # 21     ecut=    60.00 Ry     beta= 0.30
     Davidson diagonalization with overlap
     ethr =  1.42E-13,  avg # of iterations =  2.9

     negative rho (up, down):  7.902E-01 0.000E+00

     total cpu time spent up to now is     2535.1 secs

     End of self-consistent calculation

          k = 0.0000 0.0000 0.0000 (115723 PWs)   bands (ev):

   -28.2813 -28.2779 -28.2760 -28.2758 -28.2758 -28.2758 -28.2755 -28.2754
   -28.2753 -28.2753 -28.2746 -28.2614 -14.9235 -14.9234 -14.9233 -14.9230
   -14.9229 -14.9229 -14.9228 -14.9226 -14.9226 -14.9221 -14.9221 -14.9210
   -14.9176 -14.9175 -14.9174 -14.9171 -14.9170 -14.9170 -14.9169 -14.9167
   -14.9167 -14.9162 -14.9152 -14.9140 -14.9055 -14.9054 -14.9053 -14.9051
   -14.9050 -14.9049 -14.9049 -14.9047 -14.9047 -14.9042 -14.9031 -14.9026
   -14.8653 -14.8653 -14.8652 -14.8651 -14.8649 -14.8648 -14.8648 -14.8647
   -14.8646 -14.8645 -14.8640 -14.8629 -14.8201 -14.8200 -14.8199 -14.8197
   -14.8196 -14.8195 -14.8195 -14.8193 -14.8193 -14.8189 -14.8188 -14.8178
   -10.3416 -10.3391 -10.3383 -10.3375 -10.3366 -10.3364 -10.3361 -10.3355
   -10.3334 -10.3312 -10.3270 -10.3202 -10.3107 -10.3093 -10.3087 -10.3050
   -10.3041 -10.3020 -10.3013 -10.2988 -10.2939 -10.2927 -10.2886 -10.2806
   -10.2717 -10.2708 -10.2703 -10.2666 -10.2652 -10.2642 -10.2635 -10.2627
   -10.2603 -10.2587 -10.2559 -10.2494  -6.8622  -6.5547  -6.5537  -6.4174
    -6.4166  -6.4128  -6.2995  -6.2989  -6.2961  -6.2183  -6.2176  -6.2140
    -5.9908  -5.9900  -5.9888  -5.8504  -5.8496  -5.8486  -5.7965  -5.7958
    -5.7953  -5.7372  -5.7356  -5.6189  -5.6186  -5.6163  -5.6143  -5.6133
    -5.6125  -5.6003  -5.5595  -5.5586  -5.5579  -5.5458  -5.5449  -5.5438
    -5.5171  -5.5144  -5.4325  -5.4291  -5.4286  -5.4257  -5.3736  -5.3723
    -5.3458  -5.3453  -5.3421  -5.2501  -0.6118  -0.6114  -0.6101  -0.3890
    -0.3888  -0.3882  -0.3498  -0.3159  -0.3153  -0.3139  -0.3012  -0.3006
     1.3845   1.3850   1.3866   1.5918   1.5933   1.6556   1.7161   1.7170
     1.7180   1.8053   1.8064   1.8079   2.0204   2.0411   2.0426   2.0841
     2.0846   2.0849   2.2477   2.2484   2.2494   2.3093   2.3114   2.4033
     2.4044   2.4052   2.4606   2.4615   2.4628   2.5485   2.5497   2.6620
     2.6630   2.6649   2.7838   2.7843   2.7853   2.8714   2.8731   2.9246
     2.9251   2.9265   2.9534   2.9537   2.9557   3.0271   3.0274   3.0278
     3.0459   3.0460   3.0466   3.1641   3.2138   3.2148   3.2171   3.2268
     3.2273   3.2570   3.2574   3.2599   3.3759   3.3774   3.3779   3.3930
     3.3948   3.4257   3.4272   3.4274   3.4353   3.4362   3.4366   3.4737
     3.4760   3.4762   3.4918   3.4945   3.4951   3.4954   3.5155   3.5176
     3.5843   3.5849   3.5853   3.6262   3.6268   3.6282   3.6896   3.6898
     3.6902   3.6913   3.6927   3.7060   3.7948   3.7956   3.8252   3.8260
     3.8279   3.9628   4.0204   4.0205   4.0220   4.0356   4.0360   4.0376
     4.1239   4.1246   4.1256   4.1267   4.1727   4.1733   4.1750   4.2014
     4.2077   4.2097   4.2101   4.2436   4.2443   4.2465   4.2801   4.2836
     4.4237   4.4240   4.4249   4.5170   4.5182   4.5196   4.5340   4.5362
     4.6190   4.6202   4.6209   4.8559   5.1242   5.1543   5.1552   5.1562
     5.1732   5.1740   5.1750   5.1768   5.1792   5.2216   5.2257   5.2265
     5.2280   5.2283   5.2300   5.2512   5.2517   5.2524   5.2658   5.2665
     5.2666   5.2781   5.2784   5.2792   5.3103   5.3108   5.3116   5.3118
     5.3137   5.3242   5.3369   5.3375   5.3379   5.3745   5.3753   5.3774
     5.4381   5.4388   5.4699   5.4712   5.4719   5.4740   5.4759   5.4770
     5.4784   5.4983   5.4989   5.6002   5.6009   5.6015   5.6175   5.6182
     5.6190   5.6265   5.6461   5.6468   5.6473   5.6584   5.6592   5.6612
     5.7243   5.7255   5.7436   5.7823   5.7828   5.7837   5.8199   5.8216
     5.8220   5.9035   5.9037   5.9040   5.9271   5.9277   5.9283   5.9957
     5.9976   6.0253   6.0262   6.0265   6.1494   6.1506   6.1513   6.1525
     6.2613   6.2618   6.2626   6.2627   6.2642   6.2648   6.2892   6.2914
     6.3333   6.3353   6.3355   6.3622   6.3636   6.3648   6.3890   6.3893
     6.3905   6.5523   6.5702   6.5711   6.5736   6.6353   6.6380   6.6389
     6.7460   6.7479   6.7487   6.7646   6.7649   6.7810   6.7816   6.7824
     6.8096   6.9647   7.1801   7.1813

          k = 0.0000 0.0000 0.2714 (115879 PWs)   bands (ev):

   -28.2813 -28.2779 -28.2760 -28.2758 -28.2758 -28.2758 -28.2755 -28.2754
   -28.2753 -28.2753 -28.2746 -28.2614 -14.9235 -14.9234 -14.9233 -14.9230
   -14.9229 -14.9229 -14.9228 -14.9226 -14.9226 -14.9221 -14.9221 -14.9210
   -14.9176 -14.9175 -14.9174 -14.9171 -14.9170 -14.9170 -14.9169 -14.9167
   -14.9167 -14.9162 -14.9152 -14.9140 -14.9055 -14.9054 -14.9053 -14.9051
   -14.9050 -14.9049 -14.9049 -14.9047 -14.9047 -14.9042 -14.9031 -14.9026
   -14.8653 -14.8653 -14.8652 -14.8651 -14.8649 -14.8648 -14.8648 -14.8647
   -14.8646 -14.8645 -14.8640 -14.8629 -14.8201 -14.8200 -14.8199 -14.8197
   -14.8196 -14.8195 -14.8195 -14.8193 -14.8193 -14.8189 -14.8188 -14.8178
   -10.3422 -10.3399 -10.3390 -10.3380 -10.3372 -10.3368 -10.3351 -10.3340
   -10.3331 -10.3304 -10.3268 -10.3205 -10.3129 -10.3086 -10.3075 -10.3072
   -10.3030 -10.3020 -10.3001 -10.2952 -10.2940 -10.2933 -10.2893 -10.2827
   -10.2710 -10.2705 -10.2696 -10.2671 -10.2659 -10.2645 -10.2632 -10.2622
   -10.2600 -10.2585 -10.2567 -10.2498  -6.8230  -6.7125  -6.4092  -6.4086
    -6.4075  -6.4042  -6.3041  -6.3036  -6.3007  -6.2307  -6.2298  -6.2261
    -5.9925  -5.9918  -5.9910  -5.8528  -5.8357  -5.8349  -5.8339  -5.7737
    -5.7729  -5.7722  -5.6565  -5.6559  -5.6538  -5.6511  -5.6131  -5.6127
    -5.6116  -5.6110  -5.5555  -5.5527  -5.5516  -5.5513  -5.5454  -5.5447
    -5.5437  -5.4536  -5.4349  -5.4344  -5.4340  -5.4313  -5.3755  -5.3456
    -5.3378  -5.3375  -5.3340  -5.2806  -0.6040  -0.6036  -0.6022  -0.4126
    -0.4120  -0.4116  -0.3473  -0.3319  -0.3012  -0.3007  -0.2995  -0.2743
     1.4086   1.4094   1.4110   1.5703   1.6143   1.6183   1.6188   1.6199
     1.6581   1.9349   1.9353   1.9368   2.0053   2.0472   2.0525   2.0528
     2.0538   2.0691   2.2760   2.2765   2.2783   2.3055   2.3890   2.3896
     2.3906   2.3920   2.4156   2.4164   2.4171   2.4569   2.6220   2.6230
     2.6243   2.6673   2.7195   2.7910   2.7981   2.7989   2.7994   2.8721
     2.8726   2.8737   2.9745   2.9755   2.9762   3.0454   3.0456   3.0486
     3.1063   3.1068   3.1089   3.1751   3.1982   3.2037   3.2046   3.2060
     3.2739   3.2744   3.2757   3.2835   3.3743   3.3825   3.3841   3.3843
     3.4185   3.4197   3.4200   3.4395   3.4402   3.4410   3.4484   3.4491
     3.4499   3.4767   3.4977   3.5168   3.5185   3.5192   3.5372   3.5445
     3.5491   3.5503   3.5514   3.6397   3.6443   3.6448   3.6466   3.6510
     3.6801   3.6807   3.6825   3.7727   3.8300   3.8756   3.8764   3.8793
     3.9078   3.9213   3.9947   3.9956   3.9961   4.0554   4.0558   4.0574
     4.0747   4.1170   4.1172   4.1182   4.1473   4.1485   4.1504   4.1651
     4.1711   4.1720   4.1726   4.2114   4.2500   4.2512   4.2530   4.2681
     4.4209   4.4215   4.4225   4.4831   4.5584   4.5596   4.5602   4.6040
     4.6053   4.6058   4.6758   4.8060   5.1354   5.1467   5.1536   5.1540
     5.1546   5.1640   5.1862   5.1865   5.1876   5.2156   5.2161   5.2168
     5.2173   5.2473   5.2477   5.2486   5.2583   5.2588   5.2597   5.2604
     5.2756   5.2767   5.2771   5.2783   5.3281   5.3289   5.3300   5.3323
     5.3332   5.3353   5.3408   5.3420   5.3427   5.3652   5.3733   5.3743
     5.3758   5.3891   5.4022   5.4198   5.4203   5.4218   5.5259   5.5317
     5.5321   5.5329   5.5817   5.5877   5.5881   5.5887   5.5897   5.6189
     5.6198   5.6204   5.6508   5.6517   5.6530   5.6604   5.6813   5.6818
     5.6829   5.7546   5.7555   5.7560   5.7902   5.7982   5.8167   5.8179
     5.8183   5.8712   5.8829   5.8838   5.8845   5.9880   5.9885   5.9894
     6.0415   6.0424   6.0436   6.0970   6.0981   6.0994   6.1754   6.1911
     6.1922   6.1930   6.2360   6.2683   6.2691   6.2694   6.3249   6.3263
     6.3275   6.3584   6.3609   6.3707   6.3713   6.3725   6.3955   6.4288
     6.4295   6.4307   6.4800   6.6396   6.6411   6.6414   6.6428   6.6433
     6.6452   6.6704   6.7082   6.7094   6.7100   6.7524   6.7531   6.7538
     6.9420   7.0048   7.0949   7.1698

          k = 0.0000 0.3849 0.0000 (115797 PWs)   bands (ev):

   -28.2813 -28.2779 -28.2760 -28.2758 -28.2758 -28.2758 -28.2755 -28.2754
   -28.2753 -28.2753 -28.2746 -28.2614 -14.9234 -14.9234 -14.9232 -14.9230
   -14.9229 -14.9229 -14.9228 -14.9226 -14.9226 -14.9222 -14.9221 -14.9210
   -14.9176 -14.9175 -14.9173 -14.9171 -14.9170 -14.9170 -14.9169 -14.9168
   -14.9167 -14.9162 -14.9152 -14.9140 -14.9055 -14.9054 -14.9053 -14.9050
   -14.9049 -14.9049 -14.9049 -14.9047 -14.9047 -14.9042 -14.9031 -14.9026
   -14.8653 -14.8653 -14.8652 -14.8651 -14.8649 -14.8648 -14.8648 -14.8647
   -14.8646 -14.8645 -14.8640 -14.8629 -14.8201 -14.8200 -14.8199 -14.8197
   -14.8196 -14.8195 -14.8195 -14.8193 -14.8193 -14.8189 -14.8188 -14.8178
   -10.3411 -10.3384 -10.3372 -10.3367 -10.3366 -10.3362 -10.3350 -10.3337
   -10.3328 -10.3326 -10.3283 -10.3206 -10.3094 -10.3072 -10.3067 -10.3046
   -10.3037 -10.3023 -10.3017 -10.2994 -10.2961 -10.2915 -10.2895 -10.2832
   -10.2713 -10.2698 -10.2693 -10.2676 -10.2661 -10.2644 -10.2638 -10.2626
   -10.2607 -10.2604 -10.2575 -10.2508  -6.7869  -6.5885  -6.4988  -6.4970
    -6.4382  -6.4366  -6.3644  -6.3482  -6.2845  -6.2824  -6.2479  -6.2454
    -5.9118  -5.9093  -5.8201  -5.8192  -5.8174  -5.7767  -5.7677  -5.7665
    -5.7313  -5.7234  -5.7227  -5.6903  -5.6897  -5.6471  -5.6387  -5.6372
    -5.6288  -5.5953  -5.5848  -5.5837  -5.5681  -5.5274  -5.5195  -5.5178
    -5.5143  -5.5046  -5.4623  -5.4508  -5.4364  -5.4341  -5.4219  -5.4151
    -5.3482  -5.3475  -5.3116  -5.2693  -0.5707  -0.5696  -0.5622  -0.4352
    -0.4040  -0.4032  -0.3767  -0.3382  -0.3377  -0.3365  -0.3117  -0.3025
     1.4198   1.4871   1.4877   1.5015   1.6396   1.6515   1.6885   1.7237
     1.7251   1.8283   1.8769   1.8786   1.9544   1.9555   1.9566   2.0288
     2.1165   2.2070   2.2297   2.2309   2.3400   2.3643   2.3860   2.3864
     2.3936   2.4092   2.4507   2.5377   2.5383   2.6126   2.6140   2.6171
     2.6569   2.7346   2.8130   2.8133   2.8218   2.8409   2.8420   2.8447
     2.8543   2.8849   2.9094   2.9107   2.9146   2.9624   2.9640   3.0039
     3.0503   3.0565   3.0574   3.1244   3.1476   3.1755   3.2043   3.2114
     3.2123   3.2338   3.2597   3.2621   3.2689   3.3238   3.3290   3.3310
     3.3393   3.3727   3.3942   3.3951   3.4331   3.4402   3.4416   3.4493
     3.4967   3.4983   3.4999   3.5103   3.5112   3.5142   3.5218   3.5421
     3.5617   3.6045   3.6064   3.6114   3.6348   3.6460   3.6792   3.6805
     3.6947   3.7028   3.7043   3.7080   3.7789   3.7813   3.8490   3.8595
     3.8958   3.9739   3.9750   3.9781   3.9802   4.0298   4.0382   4.0395
     4.0927   4.1113   4.1201   4.1222   4.1264   4.1616   4.1653   4.1779
     4.2480   4.2665   4.2676   4.2828   4.3030   4.3220   4.3246   4.3681
     4.3776   4.4156   4.4172   4.4828   4.5169   4.5271   4.5277   4.5289
     4.5896   4.5912   4.6263   4.7481   5.1430   5.1441   5.1468   5.1541
     5.1599   5.1603   5.1693   5.1742   5.2143   5.2187   5.2196   5.2212
     5.2274   5.2368   5.2477   5.2490   5.2494   5.2608   5.2673   5.2712
     5.2720   5.2889   5.3036   5.3043   5.3138   5.3185   5.3268   5.3276
     5.3364   5.3493   5.3518   5.3532   5.3571   5.3652   5.4129   5.4148
     5.4329   5.4505   5.4603   5.4626   5.4854   5.4928   5.4993   5.5005
     5.5024   5.5123   5.5272   5.5435   5.5558   5.5570   5.5608   5.6023
     5.6033   5.6299   5.6310   5.6322   5.6678   5.6780   5.6951   5.6959
     5.6968   5.7172   5.7293   5.7565   5.7743   5.7762   5.8081   5.8188
     5.8192   5.8633   5.8756   5.8759   5.9496   5.9521   5.9648   5.9658
     5.9903   6.0062   6.0072   6.0202   6.1388   6.1398   6.1452   6.1607
     6.2252   6.2304   6.2307   6.2516   6.2701   6.2883   6.2918   6.2991
     6.3613   6.3619   6.3774   6.3895   6.3899   6.4407   6.4861   6.4863
     6.5239   6.5378   6.5392   6.5758   6.6045   6.6507   6.6835   6.6918
     6.6935   6.7290   6.7363   6.7381   6.7627   6.7788   6.7931   6.8116
     6.8124   6.9046   6.9097   7.0815

          k = 0.0000 0.3849 0.2714 (115773 PWs)   bands (ev):

   -28.2813 -28.2779 -28.2760 -28.2758 -28.2758 -28.2758 -28.2755 -28.2754
   -28.2753 -28.2753 -28.2746 -28.2614 -14.9234 -14.9234 -14.9232 -14.9230
   -14.9229 -14.9229 -14.9228 -14.9226 -14.9226 -14.9222 -14.9221 -14.9210
   -14.9176 -14.9175 -14.9173 -14.9171 -14.9170 -14.9170 -14.9169 -14.9168
   -14.9167 -14.9162 -14.9152 -14.9140 -14.9055 -14.9054 -14.9053 -14.9050
   -14.9050 -14.9049 -14.9049 -14.9047 -14.9047 -14.9042 -14.9031 -14.9026
   -14.8653 -14.8653 -14.8652 -14.8651 -14.8649 -14.8648 -14.8648 -14.8647
   -14.8646 -14.8645 -14.8640 -14.8629 -14.8201 -14.8200 -14.8199 -14.8197
   -14.8196 -14.8195 -14.8195 -14.8193 -14.8193 -14.8189 -14.8188 -14.8178
   -10.3417 -10.3390 -10.3379 -10.3375 -10.3370 -10.3360 -10.3339 -10.3336
   -10.3324 -10.3313 -10.3284 -10.3208 -10.3113 -10.3081 -10.3066 -10.3053
   -10.3026 -10.3011 -10.2998 -10.2978 -10.2950 -10.2919 -10.2906 -10.2847
   -10.2714 -10.2695 -10.2689 -10.2674 -10.2662 -10.2646 -10.2636 -10.2624
   -10.2607 -10.2600 -10.2586 -10.2511  -6.7498  -6.6459  -6.5591  -6.4712
    -6.4225  -6.4211  -6.3633  -6.3284  -6.3257  -6.2581  -6.2240  -6.2215
    -5.9056  -5.9035  -5.8233  -5.8209  -5.8086  -5.8067  -5.7912  -5.7604
    -5.7586  -5.7319  -5.7107  -5.7092  -5.6709  -5.6353  -5.6287  -5.6279
    -5.6268  -5.6078  -5.6005  -5.5991  -5.5693  -5.5282  -5.5228  -5.5215
    -5.5194  -5.4964  -5.4673  -5.4329  -5.4288  -5.4259  -5.4223  -5.3632
    -5.3481  -5.3468  -5.3202  -5.2985  -0.5597  -0.5585  -0.5572  -0.4360
    -0.4352  -0.4250  -0.3929  -0.3724  -0.3190  -0.3184  -0.2987  -0.2786
     1.4345   1.4851   1.4859   1.4875   1.6256   1.6412   1.7724   1.7730
     1.7823   1.7899   1.8003   1.8024   1.9156   1.9954   1.9967   2.0781
     2.1566   2.1999   2.2105   2.2477   2.2490   2.3616   2.3933   2.3936
     2.3994   2.4486   2.5115   2.5124   2.5474   2.5901   2.5917   2.6077
     2.6428   2.7115   2.7616   2.7684   2.7695   2.7896   2.8094   2.8100
     2.8389   2.8739   2.9163   2.9168   2.9181   2.9818   3.0243   3.0254
     3.0676   3.1061   3.1072   3.1319   3.1702   3.1921   3.1934   3.1945
     3.2000   3.2321   3.2633   3.2658   3.2770   3.3179   3.3206   3.3220
     3.3241   3.3874   3.3896   3.4109   3.4455   3.4459   3.4687   3.4695
     3.4715   3.4725   3.4746   3.4766   3.5338   3.5355   3.5373   3.5907
     3.6103   3.6123   3.6134   3.6329   3.6435   3.6473   3.6586   3.6601
     3.6690   3.7107   3.7112   3.7124   3.8353   3.8386   3.8796   3.8884
     3.9041   3.9495   3.9511   3.9748   3.9818   4.0197   4.0474   4.0488
     4.0493   4.0661   4.1095   4.1133   4.1199   4.1319   4.1346   4.1469
     4.1906   4.2556   4.2666   4.2675   4.2884   4.2898   4.2949   4.3861
     4.3978   4.4367   4.4384   4.4676   4.5239   4.5249   4.5351   4.5953
     4.6098   4.6108   4.6218   4.7207   5.1499   5.1513   5.1543   5.1563
     5.1714   5.1751   5.1759   5.1830   5.1902   5.1974   5.2007   5.2065
     5.2083   5.2334   5.2348   5.2355   5.2542   5.2635   5.2651   5.2660
     5.2791   5.2972   5.3071   5.3126   5.3131   5.3284   5.3357   5.3369
     5.3573   5.3584   5.3595   5.3631   5.3797   5.3920   5.4059   5.4079
     5.4127   5.4314   5.4329   5.4445   5.4455   5.4923   5.5010   5.5024
     5.5090   5.5156   5.5531   5.5595   5.5738   5.5748   5.6022   5.6102
     5.6117   5.6184   5.6237   5.6255   5.6428   5.6698   5.6822   5.7135
     5.7152   5.7169   5.7344   5.7719   5.7723   5.7738   5.8019   5.8025
     5.8094   5.8586   5.8749   5.8755   5.8777   5.9146   5.9586   5.9595
     6.0338   6.0342   6.0355   6.0598   6.0785   6.0795   6.1730   6.2073
     6.2134   6.2144   6.2664   6.2677   6.2698   6.2772   6.2851   6.3482
     6.3498   6.3653   6.3717   6.4147   6.4236   6.4256   6.4270   6.4711
     6.4979   6.4986   6.5454   6.5593   6.5948   6.5965   6.6664   6.6674
     6.6775   6.7197   6.7355   6.7367   6.7470   6.8125   6.8142   6.8448
     6.8699   6.9284   6.9373   7.0528

          k = 0.3333 0.5774 0.0000 (115752 PWs)   bands (ev):

   -28.2813 -28.2779 -28.2760 -28.2758 -28.2758 -28.2758 -28.2755 -28.2754
   -28.2753 -28.2753 -28.2746 -28.2614 -14.9234 -14.9234 -14.9232 -14.9230
   -14.9229 -14.9228 -14.9228 -14.9227 -14.9226 -14.9222 -14.9221 -14.9210
   -14.9176 -14.9175 -14.9174 -14.9171 -14.9170 -14.9169 -14.9169 -14.9168
   -14.9167 -14.9162 -14.9152 -14.9140 -14.9055 -14.9054 -14.9053 -14.9050
   -14.9049 -14.9049 -14.9049 -14.9047 -14.9047 -14.9042 -14.9031 -14.9026
   -14.8653 -14.8653 -14.8652 -14.8651 -14.8649 -14.8648 -14.8648 -14.8647
   -14.8646 -14.8645 -14.8640 -14.8629 -14.8201 -14.8200 -14.8199 -14.8197
   -14.8196 -14.8195 -14.8195 -14.8193 -14.8193 -14.8189 -14.8188 -14.8178
   -10.3409 -10.3384 -10.3365 -10.3357 -10.3356 -10.3353 -10.3351 -10.3349
   -10.3322 -10.3311 -10.3305 -10.3212 -10.3088 -10.3065 -10.3051 -10.3043
   -10.3034 -10.3024 -10.3011 -10.3002 -10.2971 -10.2911 -10.2901 -10.2848
   -10.2711 -10.2689 -10.2677 -10.2667 -10.2664 -10.2659 -10.2648 -10.2644
   -10.2614 -10.2597 -10.2588 -10.2509  -6.6505  -6.6503  -6.6470  -6.3992
    -6.3990  -6.3987  -6.3985  -6.3976  -6.3936  -6.2924  -6.2894  -6.1914
    -5.8652  -5.8514  -5.8506  -5.7492  -5.7484  -5.7474  -5.7324  -5.7319
    -5.7298  -5.7084  -5.7069  -5.6947  -5.6941  -5.6925  -5.6850  -5.6847
    -5.6815  -5.6449  -5.5418  -5.5409  -5.5405  -5.5297  -5.5291  -5.5283
    -5.5113  -5.4723  -5.4715  -5.4710  -5.4666  -5.4663  -5.4636  -5.3970
    -5.3950  -5.3020  -5.3017  -5.2984  -0.5438  -0.5146  -0.5140  -0.5125
    -0.3961  -0.3955  -0.3909  -0.3900  -0.3891  -0.3100  -0.3095  -0.3083
     1.4839   1.4841   1.4856   1.6747   1.6753   1.6766   1.6862   1.6866
     1.6882   1.7339   1.7351   1.7992   2.0810   2.0818   2.0822   2.0828
     2.0857   2.1443   2.1447   2.1457   2.2554   2.3971   2.3975   2.3987
     2.4943   2.4950   2.4962   2.5634   2.5644   2.5651   2.5970   2.5977
     2.7739   2.7742   2.7753   2.8373   2.8381   2.8433   2.8442   2.8451
     2.8503   2.8526   2.8531   2.8540   2.8683   3.0094   3.0102   3.0116
     3.0250   3.0254   3.0258   3.0618   3.1337   3.1344   3.1353   3.1967
     3.1972   3.1982   3.2585   3.2591   3.2607   3.2701   3.2712   3.3618
     3.3695   3.3715   3.3721   3.3741   3.4252   3.4256   3.4274   3.4860
     3.4878   3.5006   3.5025   3.5028   3.5285   3.5300   3.5304   3.5469
     3.5478   3.5792   3.5798   3.5807   3.6496   3.6503   3.6518   3.7201
     3.7207   3.7223   3.7278   3.7295   3.7574   3.8007   3.8017   3.8039
     3.9582   3.9594   3.9607   3.9866   3.9874   4.0296   4.0302   4.0309
     4.0836   4.0848   4.0856   4.1408   4.1505   4.1509   4.1534   4.2843
     4.2859   4.2938   4.3178   4.3185   4.3197   4.3202   4.3213   4.3233
     4.3855   4.3863   4.3876   4.4959   4.5142   4.5146   4.5198   4.5204
     4.5210   4.6535   4.6546   4.6549   5.1372   5.1431   5.1439   5.1444
     5.1728   5.1731   5.1873   5.1879   5.1884   5.1960   5.1964   5.1976
     5.2462   5.2465   5.2476   5.2649   5.2658   5.2660   5.2975   5.2983
     5.2989   5.3004   5.3022   5.3031   5.3133   5.3179   5.3189   5.3200
     5.3393   5.3398   5.3411   5.4022   5.4031   5.4037   5.4077   5.4080
     5.4543   5.4553   5.4562   5.4575   5.4825   5.4832   5.4843   5.4880
     5.4892   5.5344   5.5355   5.5363   5.5640   5.5641   5.5648   5.5702
     5.5706   5.5715   5.6408   5.6715   5.6725   5.6938   5.6945   5.6957
     5.7067   5.7071   5.7073   5.7796   5.7801   5.7808   5.7990   5.7995
     5.7998   5.8236   5.8248   5.8439   5.9298   5.9308   5.9316   6.0460
     6.0467   6.0471   6.0484   6.0494   6.1382   6.1387   6.1392   6.1581
     6.2189   6.2191   6.2205   6.2587   6.2602   6.2607   6.2836   6.2849
     6.3748   6.4094   6.4105   6.4119   6.4164   6.4173   6.4237   6.4516
     6.4521   6.4532   6.6141   6.6152   6.6158   6.6758   6.6769   6.6780
     6.7256   6.7404   6.7407   6.8059   6.8060   6.8080   6.8097   6.8103
     6.8120   6.9387   6.9393   6.9405

          k = 0.3333 0.5774 0.2714 (115827 PWs)   bands (ev):

   -28.2813 -28.2779 -28.2760 -28.2758 -28.2758 -28.2758 -28.2755 -28.2754
   -28.2753 -28.2753 -28.2746 -28.2614 -14.9234 -14.9234 -14.9232 -14.9230
   -14.9229 -14.9228 -14.9228 -14.9227 -14.9226 -14.9222 -14.9221 -14.9210
   -14.9176 -14.9175 -14.9174 -14.9171 -14.9170 -14.9169 -14.9169 -14.9168
   -14.9167 -14.9162 -14.9152 -14.9140 -14.9055 -14.9054 -14.9053 -14.9050
   -14.9049 -14.9049 -14.9049 -14.9047 -14.9047 -14.9042 -14.9031 -14.9026
   -14.8653 -14.8653 -14.8652 -14.8651 -14.8649 -14.8648 -14.8648 -14.8647
   -14.8646 -14.8645 -14.8640 -14.8629 -14.8201 -14.8200 -14.8199 -14.8197
   -14.8196 -14.8195 -14.8195 -14.8193 -14.8193 -14.8189 -14.8188 -14.8178
   -10.3412 -10.3391 -10.3376 -10.3372 -10.3357 -10.3349 -10.3336 -10.3335
   -10.3319 -10.3311 -10.3305 -10.3211 -10.3099 -10.3080 -10.3069 -10.3048
   -10.3017 -10.3012 -10.2983 -10.2978 -10.2953 -10.2928 -10.2920 -10.2857
   -10.2710 -10.2696 -10.2677 -10.2673 -10.2658 -10.2647 -10.2643 -10.2637
   -10.2617 -10.2606 -10.2596 -10.2511  -6.6183  -6.6181  -6.6150  -6.5249
    -6.5246  -6.5216  -6.3069  -6.2893  -6.2890  -6.2866  -6.2563  -6.2130
    -5.8749  -5.8577  -5.8453  -5.7797  -5.7794  -5.7772  -5.7423  -5.7421
    -5.7394  -5.7152  -5.6884  -5.6878  -5.6863  -5.6727  -5.6719  -5.6715
    -5.6693  -5.6429  -5.5570  -5.5563  -5.5556  -5.5251  -5.5243  -5.5239
    -5.5050  -5.5036  -5.5025  -5.5020  -5.4574  -5.3981  -5.3978  -5.3952
    -5.3573  -5.3229  -5.3225  -5.3193  -0.5198  -0.5058  -0.5051  -0.5035
    -0.4608  -0.4173  -0.4166  -0.4155  -0.3547  -0.2930  -0.2926  -0.2917
     1.4820   1.4823   1.4837   1.6379   1.6387   1.6399   1.6906   1.7754
     1.7759   1.7768   1.7786   1.7935   1.9811   1.9814   1.9828   2.0556
     2.1709   2.1927   2.1936   2.1945   2.2476   2.3973   2.3977   2.4000
     2.4890   2.4896   2.4907   2.5574   2.5877   2.5884   2.5891   2.5926
     2.6790   2.7362   2.7369   2.7378   2.8228   2.8240   2.8243   2.8281
     2.9019   2.9025   2.9036   2.9248   2.9374   2.9543   2.9553   2.9566
     3.0596   3.0601   3.0610   3.0877   3.0881   3.0893   3.1264   3.1804
     3.2442   3.2449   3.2456   3.2703   3.2709   3.2719   3.3208   3.3268
     3.3279   3.3287   3.3732   3.4076   3.4204   3.4649   3.4653   3.4664
     3.4926   3.4973   3.4994   3.4999   3.5354   3.5373   3.5374   3.5400
     3.5608   3.6158   3.6164   3.6172   3.6542   3.6550   3.6565   3.6976
     3.6978   3.6997   3.7205   3.7448   3.8214   3.8409   3.8415   3.8444
     3.9383   3.9396   3.9408   3.9419   4.0293   4.0298   4.0303   4.0404
     4.0671   4.0679   4.0688   4.1086   4.1133   4.1140   4.1157   4.1684
     4.2725   4.2730   4.2746   4.2903   4.3141   4.3604   4.3614   4.3625
     4.4161   4.4170   4.4178   4.4919   4.4931   4.4942   4.5071   4.5112
     4.5641   4.6662   4.6667   4.6676   5.1484   5.1566   5.1568   5.1575
     5.1578   5.1821   5.1826   5.1828   5.1975   5.1980   5.1987   5.2107
     5.2242   5.2246   5.2257   5.2513   5.2520   5.2526   5.2561   5.2677
     5.3006   5.3015   5.3019   5.3091   5.3282   5.3290   5.3302   5.3672
     5.3678   5.3683   5.3746   5.3933   5.3954   5.4074   5.4089   5.4099
     5.4327   5.4332   5.4336   5.4385   5.4843   5.4843   5.4847   5.4901
     5.5390   5.5393   5.5399   5.5436   5.5655   5.5660   5.5667   5.6048
     5.6059   5.6060   5.6377   5.6388   5.6716   5.6729   5.6735   5.7030
     5.7033   5.7040   5.7175   5.7584   5.7594   5.7601   5.8012   5.8076
     5.8205   5.8234   5.8239   5.8249   5.8896   5.8905   5.8914   6.0567
     6.0599   6.0609   6.0620   6.0774   6.1195   6.1200   6.1208   6.1347
     6.1954   6.2379   6.2381   6.2393   6.2841   6.3010   6.3024   6.3037
     6.3069   6.3844   6.3851   6.3872   6.4502   6.4669   6.4677   6.4694
     6.4912   6.4934   6.5581   6.5592   6.5598   6.6453   6.6850   6.6858
     6.6870   6.7607   6.7777   6.7782   6.7801   6.7928   6.8542   6.8545
     6.8564   6.9353   6.9361   6.9375

          k =-0.3333 0.1925 0.0000 (115797 PWs)   bands (ev):

   -28.2813 -28.2779 -28.2760 -28.2758 -28.2758 -28.2758 -28.2755 -28.2754
   -28.2753 -28.2753 -28.2746 -28.2614 -14.9234 -14.9234 -14.9233 -14.9230
   -14.9229 -14.9228 -14.9228 -14.9226 -14.9226 -14.9222 -14.9221 -14.9210
   -14.9176 -14.9175 -14.9174 -14.9171 -14.9170 -14.9169 -14.9169 -14.9168
   -14.9167 -14.9162 -14.9152 -14.9140 -14.9055 -14.9054 -14.9053 -14.9050
   -14.9049 -14.9049 -14.9049 -14.9047 -14.9047 -14.9042 -14.9031 -14.9026
   -14.8653 -14.8653 -14.8652 -14.8651 -14.8649 -14.8648 -14.8648 -14.8647
   -14.8646 -14.8645 -14.8640 -14.8629 -14.8201 -14.8200 -14.8199 -14.8197
   -14.8196 -14.8195 -14.8195 -14.8193 -14.8193 -14.8189 -14.8188 -14.8178
   -10.3410 -10.3386 -10.3377 -10.3365 -10.3362 -10.3354 -10.3349 -10.3344
   -10.3330 -10.3321 -10.3284 -10.3211 -10.3091 -10.3076 -10.3062 -10.3045
   -10.3037 -10.3024 -10.3017 -10.2986 -10.2952 -10.2944 -10.2887 -10.2829
   -10.2709 -10.2695 -10.2692 -10.2678 -10.2666 -10.2639 -10.2632 -10.2630
   -10.2623 -10.2599 -10.2575 -10.2503  -6.7870  -6.5888  -6.4983  -6.4975
    -6.4382  -6.4358  -6.3642  -6.3483  -6.2848  -6.2820  -6.2483  -6.2456
    -5.9117  -5.9112  -5.8196  -5.8189  -5.8175  -5.7775  -5.7677  -5.7671
    -5.7318  -5.7240  -5.7210  -5.6898  -5.6889  -5.6462  -5.6381  -5.6378
    -5.6288  -5.5933  -5.5845  -5.5841  -5.5690  -5.5279  -5.5189  -5.5178
    -5.5161  -5.5043  -5.4629  -5.4506  -5.4366  -5.4346  -5.4216  -5.4152
    -5.3481  -5.3455  -5.3127  -5.2696  -0.5712  -0.5707  -0.5610  -0.4343
    -0.4041  -0.4032  -0.3772  -0.3377  -0.3375  -0.3365  -0.3122  -0.3028
     1.4183   1.4879   1.4890   1.5005   1.6404   1.6516   1.6898   1.7238
     1.7247   1.8286   1.8767   1.8773   1.9547   1.9554   1.9571   2.0278
     2.1159   2.2077   2.2298   2.2303   2.3392   2.3642   2.3865   2.3880
     2.3938   2.4091   2.4501   2.5378   2.5389   2.6127   2.6140   2.6171
     2.6571   2.7348   2.8136   2.8138   2.8216   2.8409   2.8424   2.8451
     2.8539   2.8845   2.9085   2.9097   2.9162   2.9620   2.9631   3.0038
     3.0500   3.0565   3.0569   3.1242   3.1485   3.1754   3.2035   3.2112
     3.2120   3.2338   3.2608   3.2619   3.2681   3.3227   3.3305   3.3310
     3.3401   3.3731   3.3945   3.3951   3.4332   3.4405   3.4412   3.4494
     3.4957   3.4979   3.5009   3.5090   3.5111   3.5135   3.5227   3.5422
     3.5611   3.6047   3.6057   3.6108   3.6350   3.6466   3.6792   3.6806
     3.6941   3.7028   3.7050   3.7085   3.7790   3.7821   3.8489   3.8593
     3.8962   3.9735   3.9747   3.9786   3.9803   4.0298   4.0387   4.0396
     4.0926   4.1112   4.1207   4.1217   4.1255   4.1624   4.1631   4.1779
     4.2491   4.2665   4.2678   4.2840   4.3021   4.3224   4.3240   4.3681
     4.3780   4.4155   4.4171   4.4836   4.5167   4.5269   4.5283   4.5288
     4.5901   4.5909   4.6257   4.7477   5.1429   5.1435   5.1469   5.1551
     5.1597   5.1604   5.1694   5.1737   5.2140   5.2182   5.2195   5.2213
     5.2279   5.2370   5.2484   5.2488   5.2499   5.2609   5.2672   5.2711
     5.2716   5.2887   5.3041   5.3043   5.3134   5.3188   5.3268   5.3278
     5.3356   5.3498   5.3522   5.3529   5.3577   5.3661   5.4131   5.4142
     5.4335   5.4510   5.4611   5.4614   5.4850   5.4923   5.4990   5.5000
     5.5023   5.5123   5.5282   5.5429   5.5561   5.5568   5.5610   5.6030
     5.6035   5.6291   5.6312   5.6317   5.6679   5.6774   5.6945   5.6954
     5.6965   5.7176   5.7291   5.7562   5.7749   5.7754   5.8081   5.8195
     5.8203   5.8633   5.8759   5.8767   5.9498   5.9509   5.9647   5.9658
     5.9898   6.0061   6.0071   6.0211   6.1393   6.1397   6.1446   6.1604
     6.2255   6.2288   6.2295   6.2509   6.2707   6.2887   6.2901   6.3000
     6.3614   6.3620   6.3777   6.3899   6.3908   6.4404   6.4864   6.4874
     6.5240   6.5375   6.5380   6.5759   6.6041   6.6515   6.6845   6.6914
     6.6929   6.7299   6.7371   6.7385   6.7629   6.7776   6.7936   6.8119
     6.8133   6.9039   6.9091   7.0803

          k = 0.3333 0.1925 0.0000 (115797 PWs)   bands (ev):

   -28.2813 -28.2779 -28.2760 -28.2758 -28.2758 -28.2758 -28.2755 -28.2754
   -28.2753 -28.2753 -28.2746 -28.2614 -14.9234 -14.9234 -14.9232 -14.9230
   -14.9229 -14.9228 -14.9228 -14.9226 -14.9226 -14.9222 -14.9221 -14.9210
   -14.9176 -14.9175 -14.9174 -14.9171 -14.9170 -14.9169 -14.9169 -14.9168
   -14.9167 -14.9162 -14.9152 -14.9140 -14.9055 -14.9054 -14.9053 -14.9050
   -14.9050 -14.9049 -14.9049 -14.9047 -14.9047 -14.9042 -14.9031 -14.9026
   -14.8653 -14.8653 -14.8652 -14.8651 -14.8649 -14.8648 -14.8648 -14.8647
   -14.8646 -14.8645 -14.8640 -14.8629 -14.8201 -14.8200 -14.8199 -14.8197
   -14.8196 -14.8195 -14.8195 -14.8193 -14.8193 -14.8189 -14.8188 -14.8178
   -10.3412 -10.3388 -10.3377 -10.3368 -10.3361 -10.3355 -10.3345 -10.3339
   -10.3329 -10.3326 -10.3285 -10.3210 -10.3093 -10.3076 -10.3066 -10.3047
   -10.3033 -10.3025 -10.3017 -10.2987 -10.2950 -10.2938 -10.2894 -10.2828
   -10.2713 -10.2702 -10.2690 -10.2674 -10.2660 -10.2641 -10.2628 -10.2625
   -10.2619 -10.2609 -10.2580 -10.2502  -6.7870  -6.5891  -6.4991  -6.4967
    -6.4384  -6.4341  -6.3652  -6.3471  -6.2848  -6.2832  -6.2482  -6.2461
    -5.9111  -5.9101  -5.8196  -5.8188  -5.8179  -5.7767  -5.7684  -5.7673
    -5.7311  -5.7238  -5.7222  -5.6907  -5.6894  -5.6473  -5.6382  -5.6371
    -5.6288  -5.5943  -5.5840  -5.5836  -5.5679  -5.5276  -5.5191  -5.5180
    -5.5153  -5.5039  -5.4621  -5.4508  -5.4365  -5.4353  -5.4228  -5.4146
    -5.3483  -5.3456  -5.3126  -5.2695  -0.5712  -0.5701  -0.5615  -0.4344
    -0.4040  -0.4035  -0.3770  -0.3382  -0.3375  -0.3357  -0.3124  -0.3031
     1.4189   1.4871   1.4890   1.5014   1.6406   1.6527   1.6873   1.7236
     1.7248   1.8280   1.8770   1.8775   1.9547   1.9558   1.9567   2.0283
     2.1157   2.2077   2.2299   2.2310   2.3392   2.3641   2.3860   2.3877
     2.3938   2.4099   2.4503   2.5372   2.5376   2.6126   2.6139   2.6176
     2.6579   2.7342   2.8135   2.8143   2.8221   2.8406   2.8426   2.8443
     2.8546   2.8855   2.9082   2.9091   2.9156   2.9625   2.9630   3.0043
     3.0507   3.0566   3.0570   3.1235   3.1475   3.1753   3.2048   3.2116
     3.2125   3.2333   3.2605   3.2611   3.2690   3.3238   3.3304   3.3305
     3.3388   3.3721   3.3953   3.3960   3.4332   3.4409   3.4423   3.4497
     3.4971   3.4978   3.4991   3.5096   3.5109   3.5139   3.5214   3.5429
     3.5612   3.6052   3.6055   3.6112   3.6338   3.6454   3.6796   3.6797
     3.6944   3.7027   3.7052   3.7093   3.7786   3.7791   3.8493   3.8617
     3.8956   3.9747   3.9753   3.9778   3.9805   4.0298   4.0380   4.0388
     4.0930   4.1118   4.1206   4.1214   4.1266   4.1627   4.1633   4.1781
     4.2473   4.2661   4.2677   4.2815   4.3038   4.3230   4.3234   4.3680
     4.3780   4.4158   4.4173   4.4822   4.5179   4.5273   4.5278   4.5289
     4.5903   4.5913   4.6259   4.7480   5.1435   5.1445   5.1459   5.1530
     5.1593   5.1609   5.1691   5.1747   5.2148   5.2190   5.2192   5.2213
     5.2272   5.2370   5.2483   5.2489   5.2498   5.2608   5.2675   5.2712
     5.2723   5.2887   5.3034   5.3040   5.3136   5.3184   5.3265   5.3277
     5.3374   5.3492   5.3515   5.3530   5.3566   5.3645   5.4136   5.4148
     5.4335   5.4504   5.4603   5.4606   5.4850   5.4939   5.5004   5.5010
     5.5024   5.5124   5.5266   5.5438   5.5558   5.5567   5.5608   5.6025
     5.6031   5.6307   5.6309   5.6321   5.6677   5.6783   5.6953   5.6958
     5.6966   5.7168   5.7292   5.7556   5.7750   5.7759   5.8082   5.8185
     5.8197   5.8644   5.8744   5.8761   5.9505   5.9521   5.9640   5.9644
     5.9906   6.0065   6.0076   6.0214   6.1381   6.1391   6.1454   6.1603
     6.2253   6.2296   6.2309   6.2518   6.2714   6.2890   6.2895   6.2985
     6.3611   6.3621   6.3764   6.3894   6.3905   6.4412   6.4857   6.4871
     6.5242   6.5377   6.5396   6.5757   6.6047   6.6503   6.6828   6.6927
     6.6938   6.7294   6.7374   6.7380   6.7627   6.7780   6.7927   6.8121
     6.8131   6.9043   6.9093   7.0807

          k = 0.0000-0.3849 0.2714 (115773 PWs)   bands (ev):

   -28.2813 -28.2779 -28.2760 -28.2758 -28.2758 -28.2758 -28.2755 -28.2754
   -28.2753 -28.2753 -28.2746 -28.2614 -14.9234 -14.9234 -14.9232 -14.9230
   -14.9229 -14.9229 -14.9228 -14.9226 -14.9226 -14.9222 -14.9221 -14.9210
   -14.9176 -14.9175 -14.9173 -14.9171 -14.9170 -14.9170 -14.9169 -14.9168
   -14.9167 -14.9162 -14.9152 -14.9140 -14.9055 -14.9054 -14.9053 -14.9050
   -14.9050 -14.9049 -14.9049 -14.9047 -14.9047 -14.9042 -14.9031 -14.9026
   -14.8653 -14.8653 -14.8652 -14.8651 -14.8649 -14.8648 -14.8648 -14.8647
   -14.8646 -14.8645 -14.8640 -14.8629 -14.8201 -14.8200 -14.8199 -14.8197
   -14.8196 -14.8195 -14.8195 -14.8193 -14.8193 -14.8189 -14.8188 -14.8178
   -10.3417 -10.3390 -10.3376 -10.3375 -10.3368 -10.3361 -10.3342 -10.3339
   -10.3319 -10.3314 -10.3284 -10.3208 -10.3112 -10.3081 -10.3063 -10.3050
   -10.3037 -10.3020 -10.2986 -10.2968 -10.2952 -10.2934 -10.2896 -10.2849
   -10.2710 -10.2696 -10.2689 -10.2682 -10.2664 -10.2642 -10.2630 -10.2620
   -10.2612 -10.2608 -10.2579 -10.2512  -6.7500  -6.6457  -6.5598  -6.4679
    -6.4192  -6.4181  -6.3630  -6.3400  -6.3372  -6.2646  -6.2102  -6.2079
    -5.9143  -5.9120  -5.8237  -5.8219  -5.8186  -5.8170  -5.7649  -5.7633
    -5.7526  -5.7330  -5.6829  -5.6823  -5.6813  -5.6627  -5.6422  -5.6412
    -5.6378  -5.6073  -5.5862  -5.5847  -5.5728  -5.5302  -5.5275  -5.5265
    -5.5160  -5.4855  -5.4651  -5.4398  -5.4371  -5.4344  -5.3992  -5.3701
    -5.3442  -5.3433  -5.3295  -5.2949  -0.5619  -0.5607  -0.5518  -0.4333
    -0.4290  -0.4283  -0.4105  -0.3593  -0.3222  -0.3218  -0.2895  -0.2832
     1.4059   1.4938   1.4946   1.5156   1.6122   1.7117   1.7128   1.7223
     1.7372   1.7733   1.8450   1.8470   1.9664   1.9870   2.0208   2.0224
     2.1301   2.1995   2.2092   2.2100   2.2863   2.3355   2.3970   2.4266
     2.4275   2.5189   2.5297   2.5305   2.5574   2.5581   2.5583   2.5596
     2.6000   2.6787   2.7640   2.7650   2.8240   2.8248   2.8254   2.8296
     2.8506   2.8522   2.8960   2.8966   2.9055   3.0084   3.0188   3.0199
     3.0763   3.0782   3.1182   3.1190   3.1337   3.1804   3.1811   3.1877
     3.2132   3.2457   3.2661   3.2839   3.2869   3.2955   3.3302   3.3312
     3.3744   3.3769   3.3781   3.3793   3.4467   3.4475   3.4490   3.4767
     3.4800   3.4808   3.5058   3.5179   3.5335   3.5349   3.5366   3.5578
     3.5863   3.5874   3.6111   3.6315   3.6399   3.6446   3.6828   3.6838
     3.6870   3.6966   3.7038   3.7058   3.8360   3.8391   3.8785   3.8798
     3.9415   3.9454   3.9465   3.9480   3.9716   4.0323   4.0538   4.0562
     4.0600   4.0614   4.0994   4.1018   4.1211   4.1243   4.1299   4.1335
     4.2236   4.2401   4.2680   4.2694   4.2906   4.2923   4.3137   4.3662
     4.3923   4.4337   4.4350   4.4806   4.5208   4.5438   4.5448   4.5845
     4.5951   4.5964   4.6308   4.7292   5.1471   5.1478   5.1529   5.1643
     5.1677   5.1686   5.1690   5.1726   5.1993   5.2044   5.2123   5.2170
     5.2192   5.2286   5.2406   5.2412   5.2597   5.2639   5.2644   5.2647
     5.2655   5.2730   5.3096   5.3107   5.3180   5.3335   5.3458   5.3473
     5.3594   5.3623   5.3627   5.3677   5.3691   5.3802   5.3884   5.3889
     5.4094   5.4326   5.4473   5.4510   5.4524   5.4687   5.4961   5.4978
     5.5165   5.5239   5.5557   5.5572   5.5676   5.5695   5.6011   5.6023
     5.6071   5.6200   5.6310   5.6493   5.6504   5.6605   5.6746   5.7084
     5.7092   5.7393   5.7597   5.7606   5.7702   5.7842   5.8051   5.8053
     5.8141   5.8398   5.8671   5.8674   5.8756   5.8933   5.9685   5.9693
     6.0195   6.0250   6.0258   6.1009   6.1025   6.1113   6.1591   6.1870
     6.2028   6.2038   6.2047   6.2629   6.2640   6.2871   6.3188   6.3420
     6.3548   6.3678   6.3707   6.4132   6.4197   6.4203   6.4521   6.4811
     6.4823   6.5064   6.5577   6.5662   6.6060   6.6081   6.6472   6.6661
     6.6675   6.7361   6.7385   6.7404   6.7491   6.8032   6.8053   6.8509
     6.8667   6.9182   6.9454   7.0398

          k =-0.3333 0.1925 0.2714 (115773 PWs)   bands (ev):

   -28.2813 -28.2779 -28.2760 -28.2758 -28.2758 -28.2758 -28.2755 -28.2754
   -28.2753 -28.2753 -28.2746 -28.2614 -14.9234 -14.9234 -14.9233 -14.9230
   -14.9229 -14.9228 -14.9228 -14.9226 -14.9226 -14.9222 -14.9221 -14.9210
   -14.9176 -14.9175 -14.9174 -14.9171 -14.9170 -14.9169 -14.9169 -14.9168
   -14.9167 -14.9162 -14.9152 -14.9140 -14.9055 -14.9054 -14.9053 -14.9050
   -14.9049 -14.9049 -14.9049 -14.9047 -14.9047 -14.9042 -14.9031 -14.9026
   -14.8653 -14.8653 -14.8652 -14.8651 -14.8649 -14.8648 -14.8648 -14.8647
   -14.8646 -14.8645 -14.8640 -14.8629 -14.8201 -14.8200 -14.8199 -14.8197
   -14.8196 -14.8195 -14.8195 -14.8193 -14.8193 -14.8189 -14.8188 -14.8178
   -10.3415 -10.3393 -10.3384 -10.3371 -10.3366 -10.3352 -10.3344 -10.3334
   -10.3328 -10.3309 -10.3287 -10.3211 -10.3109 -10.3090 -10.3054 -10.3048
   -10.3030 -10.3027 -10.2980 -10.2963 -10.2959 -10.2943 -10.2905 -10.2841
   -10.2706 -10.2690 -10.2688 -10.2682 -10.2675 -10.2637 -10.2627 -10.2623
   -10.2621 -10.2605 -10.2584 -10.2505  -6.7501  -6.6457  -6.5604  -6.4674
    -6.4190  -6.4168  -6.3630  -6.3404  -6.3376  -6.2648  -6.2107  -6.2077
    -5.9141  -5.9137  -5.8241  -5.8211  -5.8185  -5.8165  -5.7647  -5.7641
    -5.7536  -5.7322  -5.6829  -5.6821  -5.6803  -5.6631  -5.6419  -5.6410
    -5.6371  -5.6058  -5.5864  -5.5847  -5.5734  -5.5300  -5.5274  -5.5262
    -5.5171  -5.4865  -5.4649  -5.4401  -5.4374  -5.4351  -5.3976  -5.3702
    -5.3441  -5.3415  -5.3316  -5.2951  -0.5624  -0.5618  -0.5505  -0.4322
    -0.4287  -0.4282  -0.4108  -0.3604  -0.3217  -0.3212  -0.2901  -0.2833
     1.4046   1.4949   1.4957   1.5146   1.6127   1.7118   1.7128   1.7224
     1.7379   1.7737   1.8449   1.8454   1.9667   1.9864   2.0212   2.0227
     2.1298   2.1998   2.2093   2.2096   2.2862   2.3343   2.3967   2.4271
     2.4288   2.5190   2.5293   2.5314   2.5573   2.5583   2.5587   2.5597
     2.5992   2.6781   2.7643   2.7653   2.8241   2.8248   2.8257   2.8305
     2.8509   2.8527   2.8954   2.8972   2.9052   3.0079   3.0178   3.0201
     3.0761   3.0796   3.1177   3.1184   3.1332   3.1805   3.1808   3.1875
     3.2126   3.2460   3.2658   3.2847   3.2859   3.2947   3.3305   3.3312
     3.3752   3.3765   3.3782   3.3786   3.4466   3.4476   3.4502   3.4767
     3.4795   3.4805   3.5061   3.5182   3.5324   3.5344   3.5362   3.5583
     3.5861   3.5875   3.6109   3.6319   3.6403   3.6447   3.6823   3.6843
     3.6869   3.6963   3.7040   3.7064   3.8365   3.8397   3.8784   3.8800
     3.9415   3.9449   3.9459   3.9483   3.9723   4.0321   4.0536   4.0560
     4.0605   4.0613   4.1003   4.1007   4.1219   4.1223   4.1294   4.1333
     4.2249   4.2416   4.2682   4.2694   4.2906   4.2925   4.3127   4.3660
     4.3923   4.4340   4.4346   4.4805   4.5213   4.5434   4.5451   4.5852
     4.5955   4.5961   4.6300   4.7286   5.1472   5.1474   5.1539   5.1645
     5.1676   5.1685   5.1690   5.1728   5.1994   5.2046   5.2112   5.2174
     5.2186   5.2284   5.2404   5.2413   5.2596   5.2643   5.2646   5.2650
     5.2668   5.2727   5.3095   5.3100   5.3177   5.3332   5.3460   5.3473
     5.3592   5.3618   5.3629   5.3682   5.3697   5.3809   5.3881   5.3892
     5.4093   5.4332   5.4475   5.4509   5.4517   5.4687   5.4963   5.4973
     5.5163   5.5245   5.5559   5.5568   5.5682   5.5690   5.6017   5.6018
     5.6069   5.6203   5.6299   5.6500   5.6505   5.6602   5.6741   5.7081
     5.7089   5.7386   5.7602   5.7603   5.7704   5.7841   5.8054   5.8060
     5.8138   5.8393   5.8675   5.8680   5.8749   5.8938   5.9683   5.9696
     6.0188   6.0249   6.0258   6.1014   6.1027   6.1113   6.1590   6.1876
     6.2028   6.2031   6.2044   6.2621   6.2632   6.2883   6.3184   6.3426
     6.3546   6.3684   6.3689   6.4129   6.4195   6.4209   6.4519   6.4816
     6.4823   6.5062   6.5574   6.5668   6.6066   6.6079   6.6479   6.6672
     6.6674   6.7367   6.7375   6.7402   6.7490   6.8041   6.8051   6.8520
     6.8660   6.9187   6.9456   7.0381

          k = 0.3333 0.1925 0.2714 (115773 PWs)   bands (ev):

   -28.2813 -28.2779 -28.2760 -28.2758 -28.2758 -28.2758 -28.2755 -28.2754
   -28.2753 -28.2753 -28.2746 -28.2614 -14.9234 -14.9234 -14.9232 -14.9230
   -14.9229 -14.9228 -14.9228 -14.9226 -14.9226 -14.9222 -14.9221 -14.9210
   -14.9176 -14.9175 -14.9174 -14.9171 -14.9170 -14.9169 -14.9169 -14.9168
   -14.9167 -14.9162 -14.9152 -14.9140 -14.9055 -14.9054 -14.9053 -14.9050
   -14.9050 -14.9049 -14.9049 -14.9047 -14.9047 -14.9042 -14.9031 -14.9026
   -14.8653 -14.8653 -14.8652 -14.8651 -14.8649 -14.8648 -14.8648 -14.8647
   -14.8646 -14.8645 -14.8640 -14.8629 -14.8201 -14.8200 -14.8199 -14.8197
   -14.8196 -14.8195 -14.8195 -14.8193 -14.8193 -14.8189 -14.8188 -14.8178
   -10.3416 -10.3395 -10.3383 -10.3376 -10.3364 -10.3350 -10.3338 -10.3335
   -10.3326 -10.3312 -10.3289 -10.3209 -10.3112 -10.3080 -10.3065 -10.3056
   -10.3036 -10.3012 -10.2978 -10.2959 -10.2954 -10.2949 -10.2909 -10.2841
   -10.2711 -10.2700 -10.2686 -10.2679 -10.2661 -10.2637 -10.2626 -10.2623
   -10.2616 -10.2611 -10.2592 -10.2504  -6.7502  -6.6457  -6.5608  -6.4676
    -6.4195  -6.4145  -6.3629  -6.3404  -6.3387  -6.2644  -6.2105  -6.2088
    -5.9138  -5.9128  -5.8240  -5.8212  -5.8182  -5.8175  -5.7651  -5.7642
    -5.7530  -5.7328  -5.6827  -5.6822  -5.6800  -5.6630  -5.6424  -5.6416
    -5.6361  -5.6070  -5.5855  -5.5848  -5.5726  -5.5307  -5.5276  -5.5259
    -5.5159  -5.4856  -5.4658  -5.4397  -5.4372  -5.4363  -5.3985  -5.3692
    -5.3442  -5.3414  -5.3307  -5.2957  -0.5624  -0.5613  -0.5511  -0.4321
    -0.4291  -0.4276  -0.4108  -0.3608  -0.3223  -0.3207  -0.2902  -0.2833
     1.4053   1.4938   1.4958   1.5157   1.6122   1.7116   1.7126   1.7226
     1.7370   1.7732   1.8454   1.8460   1.9665   1.9859   2.0215   2.0226
     2.1298   2.2001   2.2090   2.2113   2.2855   2.3342   2.3966   2.4267
     2.4279   2.5198   2.5293   2.5301   2.5574   2.5579   2.5588   2.5607
     2.6000   2.6788   2.7638   2.7645   2.8234   2.8251   2.8261   2.8297
     2.8514   2.8526   2.8959   2.8964   2.9062   3.0088   3.0184   3.0189
     3.0760   3.0782   3.1177   3.1183   3.1330   3.1805   3.1817   3.1879
     3.2131   3.2461   3.2662   3.2853   3.2861   3.2947   3.3303   3.3308
     3.3752   3.3768   3.3791   3.3794   3.4467   3.4474   3.4498   3.4755
     3.4797   3.4806   3.5049   3.5194   3.5332   3.5345   3.5364   3.5575
     3.5863   3.5869   3.6101   3.6309   3.6415   3.6445   3.6831   3.6862
     3.6868   3.6960   3.7038   3.7049   3.8355   3.8369   3.8797   3.8814
     3.9415   3.9460   3.9464   3.9482   3.9715   4.0324   4.0538   4.0561
     4.0597   4.0604   4.1003   4.1010   4.1222   4.1230   4.1302   4.1335
     4.2229   4.2396   4.2679   4.2703   4.2906   4.2916   4.3145   4.3676
     4.3909   4.4339   4.4346   4.4803   4.5211   4.5433   4.5452   4.5849
     4.5953   4.5968   4.6306   4.7290   5.1473   5.1482   5.1518   5.1637
     5.1675   5.1687   5.1694   5.1721   5.1989   5.2042   5.2130   5.2181
     5.2189   5.2289   5.2403   5.2415   5.2603   5.2631   5.2641   5.2646
     5.2652   5.2731   5.3096   5.3110   5.3183   5.3343   5.3456   5.3465
     5.3599   5.3620   5.3631   5.3673   5.3685   5.3800   5.3881   5.3893
     5.4106   5.4322   5.4469   5.4508   5.4523   5.4688   5.4961   5.4974
     5.5169   5.5233   5.5553   5.5571   5.5682   5.5688   5.6018   5.6022
     5.6072   5.6199   5.6319   5.6495   5.6503   5.6603   5.6747   5.7084
     5.7095   5.7394   5.7597   5.7604   5.7700   5.7839   5.8045   5.8056
     5.8143   5.8402   5.8663   5.8677   5.8759   5.8947   5.9683   5.9685
     6.0196   6.0249   6.0258   6.1009   6.1019   6.1121   6.1602   6.1875
     6.2027   6.2034   6.2048   6.2618   6.2632   6.2875   6.3182   6.3411
     6.3548   6.3692   6.3701   6.4132   6.4190   6.4200   6.4517   6.4808
     6.4826   6.5069   6.5576   6.5659   6.6068   6.6084   6.6470   6.6661
     6.6676   6.7376   6.7384   6.7401   6.7481   6.8043   6.8053   6.8517
     6.8665   6.9182   6.9456   7.0386

          k =-0.3333-0.1925 0.2714 (115773 PWs)   bands (ev):

   -28.2813 -28.2779 -28.2760 -28.2758 -28.2758 -28.2758 -28.2755 -28.2754
   -28.2753 -28.2753 -28.2746 -28.2614 -14.9234 -14.9234 -14.9232 -14.9230
   -14.9229 -14.9228 -14.9228 -14.9226 -14.9226 -14.9222 -14.9221 -14.9210
   -14.9176 -14.9175 -14.9174 -14.9171 -14.9170 -14.9169 -14.9169 -14.9168
   -14.9167 -14.9162 -14.9152 -14.9140 -14.9055 -14.9054 -14.9053 -14.9050
   -14.9050 -14.9049 -14.9049 -14.9047 -14.9047 -14.9042 -14.9031 -14.9026
   -14.8653 -14.8653 -14.8652 -14.8651 -14.8649 -14.8648 -14.8648 -14.8647
   -14.8646 -14.8645 -14.8640 -14.8629 -14.8201 -14.8200 -14.8199 -14.8197
   -14.8196 -14.8195 -14.8195 -14.8193 -14.8193 -14.8189 -14.8188 -14.8178
   -10.3416 -10.3395 -10.3383 -10.3378 -10.3365 -10.3345 -10.3340 -10.3334
   -10.3328 -10.3314 -10.3288 -10.3209 -10.3113 -10.3079 -10.3069 -10.3055
   -10.3020 -10.3012 -10.2993 -10.2966 -10.2956 -10.2940 -10.2901 -10.2843
   -10.2711 -10.2703 -10.2681 -10.2675 -10.2661 -10.2643 -10.2628 -10.2621
   -10.2617 -10.2608 -10.2590 -10.2504  -6.7500  -6.6458  -6.5600  -6.4710
    -6.4227  -6.4180  -6.3633  -6.3285  -6.3270  -6.2578  -6.2243  -6.2226
    -5.9052  -5.9043  -5.8230  -5.8204  -5.8081  -5.8073  -5.7913  -5.7606
    -5.7597  -5.7314  -5.7107  -5.7086  -5.6713  -5.6350  -5.6288  -5.6279
    -5.6267  -5.6067  -5.5994  -5.5991  -5.5694  -5.5288  -5.5226  -5.5212
    -5.5204  -5.4965  -5.4675  -5.4324  -5.4287  -5.4278  -5.4203  -5.3637
    -5.3479  -5.3449  -5.3220  -5.2986  -0.5592  -0.5587  -0.5576  -0.4359
    -0.4349  -0.4240  -0.3937  -0.3730  -0.3191  -0.3174  -0.2990  -0.2791
     1.4339   1.4852   1.4866   1.4882   1.6260   1.6410   1.7722   1.7737
     1.7821   1.7897   1.8000   1.8009   1.9153   1.9960   1.9968   2.0772
     2.1557   2.2004   2.2116   2.2478   2.2499   2.3603   2.3934   2.3950
     2.3983   2.4494   2.5112   2.5118   2.5475   2.5896   2.5915   2.6082
     2.6448   2.7119   2.7611   2.7684   2.7697   2.7891   2.8083   2.8102
     2.8392   2.8742   2.9163   2.9167   2.9186   2.9815   3.0239   3.0248
     3.0676   3.1064   3.1075   3.1314   3.1708   3.1919   3.1929   3.1947
     3.1998   3.2324   3.2643   3.2649   3.2761   3.3176   3.3214   3.3222
     3.3238   3.3894   3.3900   3.4110   3.4455   3.4463   3.4677   3.4691
     3.4712   3.4729   3.4756   3.4767   3.5327   3.5355   3.5364   3.5914
     3.6101   3.6124   3.6130   3.6330   3.6417   3.6477   3.6586   3.6599
     3.6677   3.7107   3.7116   3.7155   3.8354   3.8357   3.8819   3.8884
     3.9038   3.9499   3.9506   3.9746   3.9818   4.0197   4.0477   4.0487
     4.0495   4.0660   4.1106   4.1111   4.1199   4.1328   4.1335   4.1484
     4.1898   4.2549   4.2664   4.2674   4.2888   4.2900   4.2946   4.3872
     4.3971   4.4374   4.4377   4.4672   4.5238   4.5253   4.5354   4.5956
     4.6096   4.6112   4.6214   4.7206   5.1510   5.1514   5.1540   5.1557
     5.1706   5.1746   5.1759   5.1834   5.1900   5.1974   5.2014   5.2073
     5.2080   5.2339   5.2350   5.2350   5.2540   5.2630   5.2650   5.2659
     5.2784   5.2981   5.3070   5.3122   5.3134   5.3288   5.3351   5.3359
     5.3573   5.3580   5.3598   5.3638   5.3798   5.3917   5.4066   5.4075
     5.4130   5.4317   5.4331   5.4450   5.4454   5.4917   5.5015   5.5023
     5.5080   5.5150   5.5533   5.5600   5.5736   5.5745   5.6031   5.6106
     5.6114   5.6186   5.6245   5.6254   5.6428   5.6699   5.6818   5.7138
     5.7147   5.7166   5.7339   5.7720   5.7726   5.7735   5.8018   5.8026
     5.8098   5.8588   5.8737   5.8757   5.8787   5.9150   5.9584   5.9589
     6.0343   6.0348   6.0366   6.0600   6.0774   6.0796   6.1731   6.2069
     6.2123   6.2132   6.2659   6.2669   6.2700   6.2768   6.2854   6.3485
     6.3495   6.3646   6.3718   6.4160   6.4247   6.4255   6.4276   6.4708
     6.4977   6.4989   6.5457   6.5584   6.5949   6.5962   6.6666   6.6683
     6.6767   6.7196   6.7362   6.7377   6.7474   6.8133   6.8141   6.8449
     6.8689   6.9281   6.9371   7.0523

          k = 0.3333-0.1925 0.2714 (115773 PWs)   bands (ev):

   -28.2813 -28.2779 -28.2760 -28.2758 -28.2758 -28.2758 -28.2755 -28.2754
   -28.2753 -28.2753 -28.2746 -28.2614 -14.9234 -14.9234 -14.9233 -14.9230
   -14.9229 -14.9228 -14.9228 -14.9226 -14.9226 -14.9222 -14.9221 -14.9210
   -14.9176 -14.9175 -14.9174 -14.9171 -14.9170 -14.9169 -14.9169 -14.9168
   -14.9167 -14.9162 -14.9152 -14.9140 -14.9055 -14.9054 -14.9053 -14.9050
   -14.9049 -14.9049 -14.9049 -14.9047 -14.9047 -14.9042 -14.9031 -14.9026
   -14.8653 -14.8653 -14.8652 -14.8651 -14.8649 -14.8648 -14.8648 -14.8647
   -14.8646 -14.8645 -14.8640 -14.8629 -14.8201 -14.8200 -14.8199 -14.8197
   -14.8196 -14.8195 -14.8195 -14.8193 -14.8193 -14.8189 -14.8188 -14.8178
   -10.3415 -10.3392 -10.3385 -10.3371 -10.3368 -10.3349 -10.3344 -10.3334
   -10.3331 -10.3310 -10.3286 -10.3211 -10.3114 -10.3076 -10.3067 -10.3052
   -10.3027 -10.3007 -10.2994 -10.2973 -10.2966 -10.2933 -10.2895 -10.2845
   -10.2707 -10.2696 -10.2689 -10.2679 -10.2666 -10.2639 -10.2631 -10.2625
   -10.2623 -10.2599 -10.2584 -10.2506  -6.7499  -6.6458  -6.5595  -6.4709
    -6.4224  -6.4199  -6.3634  -6.3288  -6.3260  -6.2581  -6.2245  -6.2214
    -5.9054  -5.9050  -5.8222  -5.8204  -5.8088  -5.8073  -5.7926  -5.7599
    -5.7592  -5.7312  -5.7100  -5.7092  -5.6719  -5.6338  -5.6279  -5.6277
    -5.6264  -5.6071  -5.6002  -5.5992  -5.5696  -5.5279  -5.5224  -5.5218
    -5.5212  -5.4955  -5.4684  -5.4335  -5.4288  -5.4265  -5.4219  -5.3624
    -5.3478  -5.3450  -5.3213  -5.2993  -0.5591  -0.5589  -0.5576  -0.4357
    -0.4353  -0.4240  -0.3936  -0.3730  -0.3184  -0.3179  -0.2990  -0.2790
     1.4328   1.4859   1.4863   1.4872   1.6260   1.6420   1.7729   1.7741
     1.7829   1.7910   1.7997   1.8006   1.9150   1.9953   1.9963   2.0773
     2.1555   2.2007   2.2112   2.2477   2.2480   2.3603   2.3934   2.3956
     2.3995   2.4485   2.5114   2.5133   2.5468   2.5906   2.5916   2.6086
     2.6431   2.7120   2.7617   2.7686   2.7695   2.7889   2.8092   2.8099
     2.8393   2.8740   2.9156   2.9165   2.9183   2.9811   3.0235   3.0259
     3.0676   3.1063   3.1070   3.1321   3.1698   3.1918   3.1933   3.1943
     3.2011   3.2314   3.2639   3.2650   3.2766   3.3179   3.3214   3.3220
     3.3234   3.3888   3.3890   3.4104   3.4449   3.4458   3.4677   3.4693
     3.4719   3.4733   3.4757   3.4770   3.5338   3.5344   3.5364   3.5910
     3.6105   3.6126   3.6136   3.6327   3.6434   3.6483   3.6588   3.6609
     3.6681   3.7102   3.7116   3.7127   3.8355   3.8384   3.8798   3.8888
     3.9046   3.9495   3.9508   3.9739   3.9824   4.0199   4.0471   4.0491
     4.0498   4.0652   4.1105   4.1111   4.1191   4.1326   4.1333   4.1474
     4.1919   4.2557   4.2668   4.2683   4.2878   4.2897   4.2943   4.3867
     4.3979   4.4372   4.4382   4.4679   4.5236   4.5251   4.5351   4.5956
     4.6099   4.6108   4.6211   4.7200   5.1498   5.1499   5.1544   5.1570
     5.1721   5.1757   5.1762   5.1831   5.1902   5.1974   5.2001   5.2068
     5.2074   5.2341   5.2344   5.2350   5.2543   5.2642   5.2653   5.2660
     5.2792   5.2970   5.3069   5.3122   5.3128   5.3282   5.3364   5.3380
     5.3575   5.3581   5.3599   5.3626   5.3797   5.3935   5.4062   5.4066
     5.4125   5.4309   5.4330   5.4442   5.4451   5.4926   5.5011   5.5018
     5.5099   5.5156   5.5533   5.5588   5.5740   5.5744   5.6016   5.6108
     5.6110   5.6180   5.6247   5.6253   5.6425   5.6697   5.6817   5.7138
     5.7149   5.7172   5.7334   5.7722   5.7728   5.7733   5.8025   5.8028
     5.8093   5.8584   5.8755   5.8765   5.8776   5.9140   5.9586   5.9596
     6.0337   6.0344   6.0354   6.0586   6.0787   6.0798   6.1731   6.2056
     6.2128   6.2134   6.2660   6.2669   6.2701   6.2783   6.2864   6.3486
     6.3499   6.3660   6.3720   6.4146   6.4242   6.4249   6.4275   6.4707
     6.4984   6.4993   6.5455   6.5590   6.5946   6.5953   6.6660   6.6676
     6.6779   6.7197   6.7357   6.7374   6.7481   6.8128   6.8145   6.8457
     6.8684   6.9282   6.9370   7.0520

          k =-0.3333-0.5774 0.2714 (115827 PWs)   bands (ev):

   -28.2813 -28.2779 -28.2760 -28.2758 -28.2758 -28.2758 -28.2755 -28.2754
   -28.2753 -28.2753 -28.2746 -28.2614 -14.9234 -14.9234 -14.9232 -14.9230
   -14.9229 -14.9228 -14.9228 -14.9227 -14.9226 -14.9222 -14.9221 -14.9210
   -14.9176 -14.9175 -14.9173 -14.9171 -14.9170 -14.9169 -14.9169 -14.9168
   -14.9167 -14.9162 -14.9152 -14.9140 -14.9055 -14.9054 -14.9053 -14.9050
   -14.9049 -14.9049 -14.9049 -14.9047 -14.9047 -14.9042 -14.9031 -14.9026
   -14.8653 -14.8653 -14.8652 -14.8651 -14.8649 -14.8648 -14.8648 -14.8647
   -14.8646 -14.8645 -14.8640 -14.8629 -14.8201 -14.8200 -14.8199 -14.8197
   -14.8196 -14.8195 -14.8195 -14.8193 -14.8193 -14.8189 -14.8188 -14.8178
   -10.3413 -10.3389 -10.3378 -10.3372 -10.3357 -10.3350 -10.3335 -10.3333
   -10.3320 -10.3312 -10.3304 -10.3211 -10.3099 -10.3081 -10.3070 -10.3046
   -10.3018 -10.3011 -10.2985 -10.2976 -10.2957 -10.2926 -10.2918 -10.2857
   -10.2711 -10.2695 -10.2678 -10.2669 -10.2659 -10.2652 -10.2641 -10.2635
   -10.2620 -10.2603 -10.2596 -10.2511  -6.6183  -6.6182  -6.6150  -6.5249
    -6.5247  -6.5214  -6.3069  -6.2893  -6.2889  -6.2867  -6.2561  -6.2130
    -5.8749  -5.8579  -5.8451  -5.7797  -5.7795  -5.7765  -5.7424  -5.7421
    -5.7401  -5.7154  -5.6882  -5.6880  -5.6859  -5.6726  -5.6720  -5.6715
    -5.6688  -5.6436  -5.5571  -5.5562  -5.5558  -5.5254  -5.5245  -5.5235
    -5.5046  -5.5034  -5.5028  -5.5010  -5.4586  -5.3981  -5.3979  -5.3951
    -5.3570  -5.3229  -5.3226  -5.3192  -0.5200  -0.5058  -0.5051  -0.5035
    -0.4605  -0.4174  -0.4165  -0.4156  -0.3548  -0.2930  -0.2925  -0.2916
     1.4821   1.4822   1.4838   1.6374   1.6389   1.6396   1.6906   1.7755
     1.7763   1.7767   1.7786   1.7934   1.9805   1.9815   1.9829   2.0556
     2.1710   2.1928   2.1935   2.1954   2.2473   2.3973   2.3983   2.3989
     2.4890   2.4898   2.4908   2.5572   2.5876   2.5881   2.5897   2.5923
     2.6796   2.7365   2.7373   2.7374   2.8227   2.8235   2.8242   2.8279
     2.9014   2.9025   2.9031   2.9254   2.9369   2.9550   2.9554   2.9569
     3.0600   3.0602   3.0611   3.0875   3.0885   3.0891   3.1262   3.1805
     3.2442   3.2447   3.2459   3.2702   3.2707   3.2726   3.3207   3.3271
     3.3274   3.3286   3.3737   3.4073   3.4196   3.4642   3.4654   3.4663
     3.4925   3.4975   3.4995   3.4999   3.5365   3.5370   3.5376   3.5409
     3.5605   3.6157   3.6164   3.6173   3.6541   3.6546   3.6564   3.6972
     3.6982   3.6996   3.7204   3.7450   3.8218   3.8408   3.8413   3.8432
     3.9382   3.9400   3.9409   3.9428   4.0294   4.0300   4.0307   4.0397
     4.0669   4.0676   4.0684   4.1089   4.1133   4.1138   4.1159   4.1678
     4.2729   4.2734   4.2745   4.2893   4.3158   4.3605   4.3610   4.3630
     4.4153   4.4170   4.4174   4.4926   4.4931   4.4940   4.5069   4.5115
     4.5640   4.6661   4.6668   4.6676   5.1483   5.1561   5.1568   5.1573
     5.1581   5.1822   5.1827   5.1833   5.1969   5.1978   5.1984   5.2104
     5.2240   5.2246   5.2253   5.2512   5.2518   5.2529   5.2568   5.2687
     5.3009   5.3016   5.3027   5.3088   5.3273   5.3288   5.3296   5.3674
     5.3680   5.3691   5.3740   5.3929   5.3949   5.4082   5.4090   5.4105
     5.4327   5.4330   5.4334   5.4379   5.4840   5.4844   5.4849   5.4915
     5.5383   5.5388   5.5394   5.5435   5.5657   5.5666   5.5673   5.6053
     5.6056   5.6058   5.6378   5.6389   5.6716   5.6718   5.6732   5.7030
     5.7037   5.7046   5.7168   5.7588   5.7593   5.7606   5.8016   5.8077
     5.8203   5.8233   5.8240   5.8245   5.8894   5.8904   5.8914   6.0565
     6.0599   6.0605   6.0614   6.0770   6.1196   6.1207   6.1214   6.1351
     6.1960   6.2371   6.2381   6.2389   6.2840   6.3021   6.3023   6.3037
     6.3067   6.3842   6.3856   6.3870   6.4499   6.4671   6.4674   6.4687
     6.4917   6.4930   6.5584   6.5595   6.5604   6.6455   6.6846   6.6857
     6.6868   6.7609   6.7778   6.7781   6.7798   6.7925   6.8542   6.8548
     6.8568   6.9358   6.9361   6.9369

     highest occupied level (ev):     7.1813

!    total energy              =   -9077.18768199 Ry
     estimated scf accuracy    <          4.2E-10 Ry

     The total energy is the sum of the following terms:
     one-electron contribution =   -2776.30295550 Ry
     hartree contribution      =    2019.90366453 Ry
     xc contribution           =   -2269.38034915 Ry
     ewald contribution        =   -3895.61099150 Ry
     one-center paw contrib.   =   -2155.79705037 Ry

     convergence has been achieved in  21 iterations

     negative rho (up, down):  7.902E-01 0.000E+00

     Forces acting on atoms (cartesian axes, Ry/au):

     atom    1 type  1   force =    -0.00015261    0.00019566   -0.00005886
     atom    2 type  1   force =    -0.00015552    0.00026986   -0.00002201
     atom    3 type  1   force =    -0.00016710    0.00027610   -0.00001806
     atom    4 type  1   force =    -0.00013590    0.00029042   -0.00002050
     atom    5 type  1   force =    -0.00017864   -0.00031053    0.00000075
     atom    6 type  1   force =    -0.00012719   -0.00031805   -0.00001564
     atom    7 type  1   force =    -0.00016977   -0.00019122   -0.00012403
     atom    8 type  1   force =    -0.00016281   -0.00022339    0.00001237
     atom    9 type  1   force =     0.00027809    0.00004778    0.00000666
     atom   10 type  1   force =     0.00030065   -0.00019851    0.00002675
     atom   11 type  1   force =     0.00043664   -0.00011640    0.00012727
     atom   12 type  1   force =     0.00028623    0.00000597    0.00005164
     atom   13 type  2   force =     0.00018945   -0.00043940    0.00022726
     atom   14 type  2   force =     0.00019431   -0.00039668    0.00018639
     atom   15 type  2   force =     0.00020334   -0.00037756    0.00017331
     atom   16 type  2   force =     0.00020506   -0.00037965    0.00017977
     atom   17 type  2   force =     0.00207066    0.00001211   -0.00048289
     atom   18 type  2   force =     0.00021937    0.00034760    0.00017692
     atom   19 type  2   force =     0.00026184    0.00039952    0.00014596
     atom   20 type  2   force =     0.00024625    0.00039691    0.00018774
     atom   21 type  2   force =    -0.00039924    0.00001858    0.00018431
     atom   22 type  2   force =    -0.00044405    0.00002189    0.00018087
     atom   23 type  2   force =    -0.00044061    0.00002134    0.00017815
     atom   24 type  2   force =    -0.00037319    0.00007043    0.00017052
     atom   25 type  2   force =    -0.00053302   -0.00003452   -0.00014479
     atom   26 type  2   force =    -0.00043346    0.00000637   -0.00020117
     atom   27 type  2   force =    -0.00041990    0.00000451   -0.00023584
     atom   28 type  2   force =    -0.00043541   -0.00003340   -0.00015779
     atom   29 type  2   force =     0.00020145    0.00038020   -0.00020016
     atom   30 type  2   force =     0.00020674    0.00037903   -0.00019687
     atom   31 type  2   force =     0.00020114    0.00038911   -0.00019183
     atom   32 type  2   force =     0.00020288    0.00038932   -0.00020187
     atom   33 type  2   force =     0.00012447   -0.00037293   -0.00015764
     atom   34 type  2   force =     0.00093257   -0.00065941   -0.00124283
     atom   35 type  2   force =     0.00024139   -0.00035991   -0.00017491
     atom   36 type  2   force =     0.00022319   -0.00036960   -0.00017017
     atom   37 type  3   force =     0.00252816   -0.00391922    0.00404716
     atom   38 type  3   force =     0.00030406   -0.00049875    0.00000101
     atom   39 type  3   force =     0.00018846   -0.00032084    0.00004325
     atom   40 type  3   force =     0.00032558   -0.00040798    0.00003803
     atom   41 type  3   force =     0.00010024    0.00047856   -0.00009056
     atom   42 type  3   force =     0.00033497    0.00035460    0.00010941
     atom   43 type  3   force =     0.00023005    0.00049679   -0.00000062
     atom   44 type  3   force =     0.00030787    0.00047981   -0.00000976
     atom   45 type  3   force =    -0.00056743    0.00000071   -0.00000009
     atom   46 type  3   force =    -0.00056760    0.00000207   -0.00002232
     atom   47 type  3   force =    -0.00051393    0.00001300   -0.00002296
     atom   48 type  3   force =    -0.00052220   -0.00000123   -0.00004890
     atom   49 type  4   force =    -0.00642118    0.00513295   -0.00246222
     atom   50 type  4   force =     0.00035074   -0.00008585   -0.00000058
     atom   51 type  4   force =     0.00036314   -0.00012509    0.00000538
     atom   52 type  4   force =     0.00031664   -0.00020744    0.00000018
     atom   53 type  4   force =    -0.00006649    0.00036482    0.00002446
     atom   54 type  4   force =    -0.00010237    0.00036048    0.00001980
     atom   55 type  4   force =    -0.00008423    0.00033705    0.00001532
     atom   56 type  4   force =    -0.00010036    0.00032982    0.00002774
     atom   57 type  4   force =    -0.00028068   -0.00024987    0.00002505
     atom   58 type  4   force =    -0.00024897   -0.00027218    0.00005901
     atom   59 type  4   force =    -0.00023417   -0.00026507   -0.00000484
     atom   60 type  4   force =    -0.00025953   -0.00025294    0.00003683
     atom   61 type  4   force =    -0.00025512    0.00025729   -0.00001829
     atom   62 type  4   force =    -0.00027604    0.00024531    0.00002957
     atom   63 type  4   force =    -0.00027598    0.00026106   -0.00001571
     atom   64 type  4   force =    -0.00025928    0.00025890    0.00001027
     atom   65 type  4   force =     0.00115403    0.00028412    0.00041870
     atom   66 type  4   force =     0.00098658    0.00036550   -0.00036483
     atom   67 type  4   force =     0.00037527    0.00008123   -0.00002922
     atom   68 type  4   force =     0.00036728    0.00002397    0.00000205
     atom   69 type  4   force =    -0.00008423   -0.00035372   -0.00001235
     atom   70 type  4   force =    -0.00009826   -0.00031607   -0.00029908
     atom   71 type  4   force =    -0.00012303   -0.00037769   -0.00002104
     atom   72 type  4   force =    -0.00005691   -0.00036529   -0.00002670
     atom   73 type  4   force =     0.00002868    0.00016039   -0.00024228
     atom   74 type  4   force =     0.00001491    0.00015924   -0.00024047
     atom   75 type  4   force =     0.00002190    0.00015469   -0.00023403
     atom   76 type  4   force =     0.00001433    0.00014997   -0.00024191
     atom   77 type  4   force =     0.00001144   -0.00007159   -0.00019246
     atom   78 type  4   force =    -0.00026660   -0.00002226   -0.00017232
     atom   79 type  4   force =    -0.00013700   -0.00014664   -0.00025252
     atom   80 type  4   force =    -0.00011139   -0.00020369   -0.00036455
     atom   81 type  4   force =     0.00003352   -0.00033953   -0.00061366
     atom   82 type  4   force =     0.00015272   -0.00009637   -0.00023781
     atom   83 type  4   force =     0.00016066   -0.00009903   -0.00023856
     atom   84 type  4   force =     0.00008625   -0.00009963   -0.00017570
     atom   85 type  4   force =     0.00064431   -0.00018764   -0.00006718
     atom   86 type  4   force =     0.00006391    0.00004606    0.00017012
     atom   87 type  4   force =     0.00021757   -0.00017695    0.00076830
     atom   88 type  4   force =     0.00016463    0.00008600    0.00023775
     atom   89 type  4   force =     0.00001529   -0.00015008    0.00025986
     atom   90 type  4   force =    -0.00000135   -0.00014634    0.00025242
     atom   91 type  4   force =     0.00001310   -0.00016505    0.00026198
     atom   92 type  4   force =     0.00001960   -0.00016137    0.00025374
     atom   93 type  4   force =    -0.00008014    0.00008320    0.00022933
     atom   94 type  4   force =    -0.00010275   -0.00014178    0.00070755
     atom   95 type  4   force =    -0.00016168    0.00005411    0.00022411
     atom   96 type  4   force =    -0.00013426    0.00006388    0.00024638

     Total force =     0.011751     Total SCF correction =     0.000062
     Message from routine punch:
     Nothing written, as per user request (disk_io='none')

     init_run     :     43.44s CPU     46.42s WALL (       1 calls)
     electrons    :   2335.67s CPU   2488.35s WALL (       1 calls)
     forces       :     21.38s CPU     22.59s WALL (       1 calls)

     Called by init_run:
     wfcinit      :     39.90s CPU     42.56s WALL (       1 calls)
     potinit      :      1.12s CPU      1.17s WALL (       1 calls)
     hinit0       :      1.11s CPU      1.16s WALL (       1 calls)

     Called by electrons:
     c_bands      :   2072.21s CPU   2189.09s WALL (      21 calls)
     sum_band     :    229.92s CPU    253.86s WALL (      21 calls)
     v_of_rho     :      6.02s CPU      7.01s WALL (      22 calls)
     newd         :     21.23s CPU     32.04s WALL (      22 calls)
     PAW_pot      :      5.95s CPU      6.00s WALL (      22 calls)
     mix_rho      :      0.84s CPU      0.93s WALL (      21 calls)

     Called by c_bands:
     init_us_2    :     25.42s CPU     25.70s WALL (     308 calls)
     cegterg      :   2011.24s CPU   2127.53s WALL (     147 calls)

     Called by *egterg:
     cdiaghg      :     94.93s CPU     98.20s WALL (     887 calls)
     h_psi        :   1073.23s CPU   1153.16s WALL (     894 calls)
     s_psi        :    254.36s CPU    256.25s WALL (     894 calls)
     g_psi        :      4.98s CPU      5.03s WALL (     740 calls)

     Called by h_psi:
     h_psi:calbec :    249.37s CPU    253.55s WALL (     894 calls)
     vloc_psi     :    563.18s CPU    629.43s WALL (     894 calls)
     add_vuspsi   :    255.34s CPU    257.37s WALL (     894 calls)

     General routines
     calbec       :    345.58s CPU    351.35s WALL (    1069 calls)
     fft          :      5.09s CPU      5.79s WALL (     295 calls)
     ffts         :      0.78s CPU      0.81s WALL (      43 calls)
     fftw         :    481.02s CPU    546.04s WALL (  427838 calls)
     interpolate  :      1.01s CPU      1.08s WALL (      22 calls)

     Parallel routines

     PWSCF        :  40m 0.77s CPU  42m37.94s WALL


   This run was terminated on:   2:26: 4  21Aug2026            

=------------------------------------------------------------------------------=
   JOB DONE.
=------------------------------------------------------------------------------=
