
     Program PWSCF v.7.3.1 starts on 21Aug2026 at  3: 4:21 

     This program is part of the open-source Quantum ESPRESSO suite
     for quantum simulation of materials; please cite
         "P. Giannozzi et al., J. Phys.:Condens. Matter 21 395502 (2009);
         "P. Giannozzi et al., J. Phys.:Condens. Matter 29 465901 (2017);
         "P. Giannozzi et al., J. Chem. Phys. 152 154105 (2020);
          URL http://www.quantum-espresso.org", 
     in publications or presentations arising from this work. More details at
     http://www.quantum-espresso.org/quote

     Parallel version (MPI & OpenMP), running on      32 processor cores
     Number of MPI processes:                32
     Threads/MPI process:                     1

     MPI processes distributed on     1 nodes
     254960 MiB available memory on the printing compute node when the environment starts

     Reading input from scf.in

     Current dimensions of program PWSCF are:
     Max number of different atomic species (ntypx) = 10
     Max number of k-points (npk) =  40000
     Max angular momentum in pseudopotentials (lmaxx) =  4
     file Cu.paw.z_11.ld1.psl.v1.0.0-low.upf: wavefunction(s)  4S 3D renormalized

     K-points division:     npool     =       2
     R & G space division:  proc/nbgrp/npool/nimage =      16
     Subspace diagonalization in iterative solution of the eigenvalue problem:
     one sub-group per band group will be used
     scalapack distributed-memory algorithm (size of sub-group:  4*  4 procs)


     Parallelization info
     --------------------
     sticks:   dense  smooth     PW     G-vecs:    dense   smooth      PW
     Min        1193     597    157               163743    57882    7779
     Max        1194     599    158               163747    57885    7784
     Sum       19099    9565   2515              2619931   926125  124485

     Using Slab Decomposition



     bravais-lattice index     =            0
     lattice parameter (alat)  =      24.0273  a.u.
     unit-cell volume          =   14752.0463 (a.u.)^3
     number of atoms/cell      =           96
     number of atomic types    =            4
     number of electrons       =       840.00
     number of Kohn-Sham states=          420
     kinetic-energy cutoff     =      60.0000  Ry
     charge density cutoff     =     480.0000  Ry
     scf convergence threshold =      1.0E-09
     mixing beta               =       0.3000
     number of iterations used =            8  plain     mixing
     Exchange-correlation=  SLA  PW   PBX  PBC
                           (   1   4   3   4   0   0   0)

     celldm(1)=  24.027274  celldm(2)=   0.000000  celldm(3)=   0.000000
     celldm(4)=   0.000000  celldm(5)=   0.000000  celldm(6)=   0.000000

     crystal axes: (cart. coord. in units of alat)
               a(1) = (   1.000000   0.000000   0.000000 )  
               a(2) = (  -0.500000   0.866025   0.000000 )  
               a(3) = (   0.000000   0.000000   1.228028 )  

     reciprocal axes: (cart. coord. in units 2 pi/alat)
               b(1) = (  1.000000  0.577351 -0.000000 )  
               b(2) = (  0.000000  1.154701  0.000000 )  
               b(3) = (  0.000000 -0.000000  0.814314 )  


     PseudoPot. # 1 for Sr read from file:
     /home/yuhansun/pseudos/SSSP-1.3.0-PBE-precision/Sr_pbe_v1.uspp.F.UPF
     MD5 check sum: 6b418c05fbe9db5448babca5e47b7a5b
     Pseudo is Ultrasoft + core correction, Zval = 10.0
     Generated by new atomic code, or converted to UPF format
     Using radial grid of  883 points,  6 beta functions with: 
                l(1) =   0
                l(2) =   0
                l(3) =   1
                l(4) =   1
                l(5) =   2
                l(6) =   2
     Q(r) pseudized with  6 coefficients,  rinner =    1.400   1.400   1.400
                                                       1.400   1.400

     PseudoPot. # 2 for Cu read from file:
     /home/yuhansun/pseudos/SSSP-1.3.0-PBE-precision/Cu.paw.z_11.ld1.psl.v1.0.0-low.upf
     MD5 check sum: 619f40885d92a09a85a8b37550532d0c
     Pseudo is Projector augmented-wave + core cor, Zval = 11.0
     Generated using &quot;atomic&quot; code by A. Dal Corso  v.6.3MaX
     Shape of augmentation charge: PSQ
     Using radial grid of 1199 points,  6 beta functions with: 
                l(1) =   0
                l(2) =   0
                l(3) =   1
                l(4) =   1
                l(5) =   2
                l(6) =   2
     Q(r) pseudized with 0 coefficients 


     PseudoPot. # 3 for Sn read from file:
     /home/yuhansun/pseudos/SSSP-1.3.0-PBE-precision/Sn_pbe_v1.uspp.F.UPF
     MD5 check sum: 4cf58ce39ec5d5d420df3dd08604eb00
     Pseudo is Ultrasoft + core correction, Zval = 14.0
     Generated by new atomic code, or converted to UPF format
     Using radial grid of  891 points,  6 beta functions with: 
                l(1) =   0
                l(2) =   0
                l(3) =   1
                l(4) =   1
                l(5) =   2
                l(6) =   2
     Q(r) pseudized with  6 coefficients,  rinner =    1.200   1.200   1.200
                                                       1.200   1.200

     PseudoPot. # 4 for S  read from file:
     /home/yuhansun/pseudos/SSSP-1.3.0-PBE-precision/s_pbe_v1.4.uspp.F.UPF
     MD5 check sum: 88d86576ff6df21479756cfb9bdac1df
     Pseudo is Ultrasoft + core correction, Zval =  6.0
     Generated by new atomic code, or converted to UPF format
     Using radial grid of  907 points,  6 beta functions with: 
                l(1) =   0
                l(2) =   0
                l(3) =   1
                l(4) =   1
                l(5) =   2
                l(6) =   2
     Q(r) pseudized with  8 coefficients,  rinner =    1.300   1.300   1.300
                                                       1.300   1.300

     atomic species   valence    mass     pseudopotential
     Sr               10.00    87.62000     Sr( 1.00)
     Cu               11.00    63.54600     Cu( 1.00)
     Sn               14.00   118.71000     Sn( 1.00)
     S                 6.00    32.06500     S ( 1.00)

     No symmetry found



   Cartesian axes

     site n.     atom                  positions (alat units)
         1        Sr     tau(   1) = (  -0.1405753   0.2434834   0.2046717  )
         2        Sr     tau(   2) = (   0.3594247   0.2434834   0.2046717  )
         3        Sr     tau(   3) = (  -0.3905753   0.6764960   0.2046717  )
         4        Sr     tau(   4) = (   0.1094247   0.6764960   0.2046717  )
         5        Sr     tau(   5) = (   0.1094247   0.1895292   0.6140139  )
         6        Sr     tau(   6) = (   0.6094247   0.1895292   0.6140139  )
         7        Sr     tau(   7) = (  -0.1405753   0.6225418   0.6140139  )
         8        Sr     tau(   8) = (   0.3594247   0.6225418   0.6140139  )
         9        Sr     tau(   9) = (   0.2811505   0.0000000   1.0233574  )
        10        Sr     tau(  10) = (   0.7811505   0.0000000   1.0233574  )
        11        Sr     tau(  11) = (   0.0311505   0.4330126   1.0233574  )
        12        Sr     tau(  12) = (   0.5311505   0.4330126   1.0233574  )
        13        Cu     tau(  13) = (  -0.1226788   0.2753211   0.5061747  )
        14        Cu     tau(  14) = (   0.3773212   0.2753211   0.5061747  )
        15        Cu     tau(  15) = (  -0.3726788   0.7083337   0.5061747  )
        16        Cu     tau(  16) = (   0.1273212   0.7083337   0.5061747  )
        17        Cu     tau(  17) = (   0.0729045   0.1891087   0.9155169  )
        18        Cu     tau(  18) = (   0.5729045   0.1891087   0.9155169  )
        19        Cu     tau(  19) = (  -0.1770956   0.6221213   0.9155169  )
        20        Cu     tau(  20) = (   0.3229044   0.6221213   0.9155169  )
        21        Cu     tau(  21) = (   0.0497750   0.4015949   0.0968325  )
        22        Cu     tau(  22) = (   0.5497750   0.4015949   0.0968325  )
        23        Cu     tau(  23) = (  -0.2002251   0.8346075   0.0968325  )
        24        Cu     tau(  24) = (   0.2997749   0.8346075   0.0968325  )
        25        Cu     tau(  25) = (   0.2997745   0.0314177   0.7218532  )
        26        Cu     tau(  26) = (   0.7997745   0.0314177   0.7218532  )
        27        Cu     tau(  27) = (   0.0497745   0.4644302   0.7218532  )
        28        Cu     tau(  28) = (   0.5497745   0.4644302   0.7218532  )
        29        Cu     tau(  29) = (   0.1273207   0.1576915   0.3125110  )
        30        Cu     tau(  30) = (   0.6273207   0.1576915   0.3125110  )
        31        Cu     tau(  31) = (  -0.1226793   0.5907041   0.3125110  )
        32        Cu     tau(  32) = (   0.3773207   0.5907041   0.3125110  )
        33        Cu     tau(  33) = (   0.3229040   0.2439039   1.1311954  )
        34        Cu     tau(  34) = (   0.8229040   0.2439039   1.1311954  )
        35        Cu     tau(  35) = (   0.0729039   0.6769164   1.1311954  )
        36        Cu     tau(  36) = (   0.5729039   0.6769164   1.1311954  )
        37        Sn     tau(  37) = (   0.8187476   0.3052877   0.8186857  )
        38        Sn     tau(  38) = (   0.3237420   0.3052877   0.8186857  )
        39        Sn     tau(  39) = (  -0.4262581   0.7383003   0.8186857  )
        40        Sn     tau(  40) = (   0.0737419   0.7383003   0.8186857  )
        41        Sn     tau(  41) = (   0.0737420   0.1277249   0.0000000  )
        42        Sn     tau(  42) = (   0.5737420   0.1277249   0.0000000  )
        43        Sn     tau(  43) = (  -0.1762581   0.5607374   0.0000000  )
        44        Sn     tau(  44) = (   0.3237419   0.5607374   0.0000000  )
        45        Sn     tau(  45) = (   0.3525160   0.0000000   0.4093422  )
        46        Sn     tau(  46) = (   0.8525160   0.0000000   0.4093422  )
        47        Sn     tau(  47) = (   0.1025160   0.4330126   0.4093422  )
        48        Sn     tau(  48) = (   0.6025160   0.4330126   0.4093422  )
        49        S      tau(  49) = (  -0.0988203   0.2103164   0.9671149  )
        50        S      tau(  50) = (   0.4011797   0.2103164   0.9671149  )
        51        S      tau(  51) = (  -0.3488203   0.6433290   0.9671149  )
        52        S      tau(  52) = (   0.1511797   0.6433290   0.9671149  )
        53        S      tau(  53) = (   0.1172707   0.2422736   0.1484293  )
        54        S      tau(  54) = (   0.6172707   0.2422736   0.1484293  )
        55        S      tau(  55) = (  -0.1327293   0.6752862   0.1484293  )
        56        S      tau(  56) = (   0.3672707   0.6752862   0.1484293  )
        57        S      tau(  57) = (  -0.0184505   0.4134352   0.5577727  )
        58        S      tau(  58) = (   0.4815495   0.4134352   0.5577727  )
        59        S      tau(  59) = (  -0.2684506   0.8464478   0.5577727  )
        60        S      tau(  60) = (   0.2315494   0.8464478   0.5577727  )
        61        S      tau(  61) = (   0.2315495   0.0195774   0.2609129  )
        62        S      tau(  62) = (   0.7315495   0.0195774   0.2609129  )
        63        S      tau(  63) = (  -0.0184505   0.4525899   0.2609129  )
        64        S      tau(  64) = (   0.4815495   0.4525899   0.2609129  )
        65        S      tau(  65) = (   0.1511797   0.2226962   1.0795986  )
        66        S      tau(  66) = (   0.6511797   0.2226962   1.0795986  )
        67        S      tau(  67) = (  -0.0988203   0.6557088   1.0795986  )
        68        S      tau(  68) = (   0.4011797   0.6557088   1.0795986  )
        69        S      tau(  69) = (   0.3672707   0.1907390   0.6702552  )
        70        S      tau(  70) = (   0.8672707   0.1907390   0.6702552  )
        71        S      tau(  71) = (   0.1172707   0.6237516   0.6702552  )
        72        S      tau(  72) = (   0.6172707   0.6237516   0.6702552  )
        73        S      tau(  73) = (  -0.0296498   0.1532012   0.4035914  )
        74        S      tau(  74) = (   0.4703502   0.1532012   0.4035914  )
        75        S      tau(  75) = (  -0.2796498   0.5862137   0.4035914  )
        76        S      tau(  76) = (   0.2203502   0.5862137   0.4035914  )
        77        S      tau(  77) = (   0.1321490   0.3307341   0.8129336  )
        78        S      tau(  78) = (   0.6321490   0.3307341   0.8129336  )
        79        S      tau(  79) = (  -0.1178511   0.7637467   0.8129336  )
        80        S      tau(  80) = (   0.3821489   0.7637467   0.8129336  )
        81        S      tau(  81) = (  -0.1024985   0.3820894   1.2222770  )
        82        S      tau(  82) = (   0.3975015   0.3820894   1.2222770  )
        83        S      tau(  83) = (  -0.3524986   0.8151020   1.2222770  )
        84        S      tau(  84) = (   0.1475014   0.8151020   1.2222770  )
        85        S      tau(  85) = (   0.1475010   0.0509231   0.8244365  )
        86        S      tau(  86) = (   0.6475010   0.0509231   0.8244365  )
        87        S      tau(  87) = (  -0.1024990   0.4839357   0.8244365  )
        88        S      tau(  88) = (   0.3975010   0.4839357   0.8244365  )
        89        S      tau(  89) = (   0.2203497   0.2798114   0.4150943  )
        90        S      tau(  90) = (   0.7203497   0.2798114   0.4150943  )
        91        S      tau(  91) = (  -0.0296503   0.7128240   0.4150943  )
        92        S      tau(  92) = (   0.4703497   0.7128240   0.4150943  )
        93        S      tau(  93) = (   0.3821485   0.1022784   0.0057509  )
        94        S      tau(  94) = (   0.8821485   0.1022784   0.0057509  )
        95        S      tau(  95) = (   0.1321485   0.5352910   0.0057509  )
        96        S      tau(  96) = (   0.6321485   0.5352910   0.0057509  )

     number of k points=    14
                       cart. coord. in units 2pi/alat
        k(    1) = (   0.0000000   0.0000000   0.0000000), wk =   0.0740741
        k(    2) = (   0.0000000   0.0000000   0.2714379), wk =   0.1481481
        k(    3) = (   0.0000000   0.3849003   0.0000000), wk =   0.1481481
        k(    4) = (   0.0000000   0.3849003   0.2714379), wk =   0.1481481
        k(    5) = (   0.3333333   0.5773505   0.0000000), wk =   0.1481481
        k(    6) = (   0.3333333   0.5773505   0.2714379), wk =   0.1481481
        k(    7) = (  -0.3333333   0.1924501   0.0000000), wk =   0.1481481
        k(    8) = (   0.3333333   0.1924502   0.0000000), wk =   0.1481481
        k(    9) = (   0.0000000  -0.3849003   0.2714379), wk =   0.1481481
        k(   10) = (  -0.3333333   0.1924501   0.2714379), wk =   0.1481481
        k(   11) = (   0.3333333   0.1924502   0.2714379), wk =   0.1481481
        k(   12) = (  -0.3333333  -0.1924502   0.2714379), wk =   0.1481481
        k(   13) = (   0.3333333  -0.1924501   0.2714379), wk =   0.1481481
        k(   14) = (  -0.3333333  -0.5773505   0.2714379), wk =   0.1481481

     Dense  grid:  2619931 G-vectors     FFT dimensions: ( 180, 180, 216)

     Smooth grid:   926125 G-vectors     FFT dimensions: ( 120, 120, 150)

     Estimated max dynamical RAM per process >       1.07 GB

     Estimated total dynamical RAM >      33.54 GB

     Initial potential from superposition of free atoms

     starting charge     827.5884, renormalised to     840.0000

     negative rho (up, down):  7.777E-01 0.000E+00
     Starting wfcs are  672 randomized atomic wfcs
     Checking if some PAW data can be deallocated... 

     total cpu time spent up to now is       41.5 secs

     Self-consistent Calculation

     iteration #  1     ecut=    60.00 Ry     beta= 0.30
     Davidson diagonalization with overlap
     ethr =  1.00E-02,  avg # of iterations =  2.0

     negative rho (up, down):  7.747E-01 0.000E+00

     total cpu time spent up to now is      116.7 secs

     total energy              =   -9070.28234832 Ry
     estimated scf accuracy    <      21.99380211 Ry

     iteration #  2     ecut=    60.00 Ry     beta= 0.30
     Davidson diagonalization with overlap
     ethr =  2.62E-03,  avg # of iterations =  4.9

     negative rho (up, down):  7.752E-01 0.000E+00

     total cpu time spent up to now is      212.1 secs

     total energy              =   -9076.62217742 Ry
     estimated scf accuracy    <       8.23627136 Ry

     iteration #  3     ecut=    60.00 Ry     beta= 0.30
     Davidson diagonalization with overlap
     ethr =  9.81E-04,  avg # of iterations =  2.0

     negative rho (up, down):  7.804E-01 0.000E+00

     total cpu time spent up to now is      288.5 secs

     total energy              =   -9076.49538313 Ry
     estimated scf accuracy    <       1.62962990 Ry

     iteration #  4     ecut=    60.00 Ry     beta= 0.30
     Davidson diagonalization with overlap
     ethr =  1.94E-04,  avg # of iterations =  5.5

     negative rho (up, down):  7.829E-01 0.000E+00

     total cpu time spent up to now is      398.4 secs

     total energy              =   -9076.72666375 Ry
     estimated scf accuracy    <       2.07210825 Ry

     iteration #  5     ecut=    60.00 Ry     beta= 0.30
     Davidson diagonalization with overlap
     ethr =  1.94E-04,  avg # of iterations =  4.1

     negative rho (up, down):  7.874E-01 0.000E+00

     total cpu time spent up to now is      486.4 secs

     total energy              =   -9077.15434368 Ry
     estimated scf accuracy    <       0.10917822 Ry

     iteration #  6     ecut=    60.00 Ry     beta= 0.30
     Davidson diagonalization with overlap
     ethr =  1.30E-05,  avg # of iterations =  5.6

     negative rho (up, down):  7.899E-01 0.000E+00

     total cpu time spent up to now is      590.3 secs

     total energy              =   -9077.18156194 Ry
     estimated scf accuracy    <       0.03741847 Ry

     iteration #  7     ecut=    60.00 Ry     beta= 0.30
     Davidson diagonalization with overlap
     ethr =  4.45E-06,  avg # of iterations =  3.1

     negative rho (up, down):  7.912E-01 0.000E+00

     total cpu time spent up to now is      667.6 secs

     total energy              =   -9077.18772807 Ry
     estimated scf accuracy    <       0.00659798 Ry

     iteration #  8     ecut=    60.00 Ry     beta= 0.30
     Davidson diagonalization with overlap
     ethr =  7.85E-07,  avg # of iterations =  8.3

     negative rho (up, down):  7.912E-01 0.000E+00

     total cpu time spent up to now is      799.8 secs

     total energy              =   -9077.17680531 Ry
     estimated scf accuracy    <       0.06355694 Ry

     iteration #  9     ecut=    60.00 Ry     beta= 0.30
     Davidson diagonalization with overlap
     ethr =  7.85E-07,  avg # of iterations =  6.4

     negative rho (up, down):  7.911E-01 0.000E+00

     total cpu time spent up to now is      926.3 secs

     total energy              =   -9077.18598052 Ry
     estimated scf accuracy    <       0.00104226 Ry

     iteration # 10     ecut=    60.00 Ry     beta= 0.30
     Davidson diagonalization with overlap
     ethr =  1.24E-07,  avg # of iterations =  3.6

     negative rho (up, down):  7.908E-01 0.000E+00

     total cpu time spent up to now is     1006.2 secs

     total energy              =   -9077.18590056 Ry
     estimated scf accuracy    <       0.00066648 Ry

     iteration # 11     ecut=    60.00 Ry     beta= 0.30
     Davidson diagonalization with overlap
     ethr =  7.93E-08,  avg # of iterations =  5.1

     negative rho (up, down):  7.906E-01 0.000E+00

     total cpu time spent up to now is     1095.7 secs

     total energy              =   -9077.18587490 Ry
     estimated scf accuracy    <       0.00047130 Ry

     iteration # 12     ecut=    60.00 Ry     beta= 0.30
     Davidson diagonalization with overlap
     ethr =  5.61E-08,  avg # of iterations =  5.3

     negative rho (up, down):  7.904E-01 0.000E+00

     total cpu time spent up to now is     1183.0 secs

     total energy              =   -9077.18597026 Ry
     estimated scf accuracy    <       0.00006621 Ry

     iteration # 13     ecut=    60.00 Ry     beta= 0.30
     Davidson diagonalization with overlap
     ethr =  7.88E-09,  avg # of iterations =  6.1

     negative rho (up, down):  7.904E-01 0.000E+00

     total cpu time spent up to now is     1284.5 secs

     total energy              =   -9077.18597253 Ry
     estimated scf accuracy    <       0.00008931 Ry

     iteration # 14     ecut=    60.00 Ry     beta= 0.30
     Davidson diagonalization with overlap
     ethr =  7.88E-09,  avg # of iterations =  2.2

     negative rho (up, down):  7.903E-01 0.000E+00

     total cpu time spent up to now is     1359.5 secs

     total energy              =   -9077.18597467 Ry
     estimated scf accuracy    <       0.00001542 Ry

     iteration # 15     ecut=    60.00 Ry     beta= 0.30
     Davidson diagonalization with overlap
     ethr =  1.84E-09,  avg # of iterations =  8.1

     negative rho (up, down):  7.903E-01 0.000E+00

     total cpu time spent up to now is     1470.7 secs

     total energy              =   -9077.18598041 Ry
     estimated scf accuracy    <       0.00000601 Ry

     iteration # 16     ecut=    60.00 Ry     beta= 0.30
     Davidson diagonalization with overlap
     ethr =  7.15E-10,  avg # of iterations =  3.6

     negative rho (up, down):  7.902E-01 0.000E+00

     total cpu time spent up to now is     1546.6 secs

     total energy              =   -9077.18598017 Ry
     estimated scf accuracy    <       0.00000179 Ry

     iteration # 17     ecut=    60.00 Ry     beta= 0.30
     Davidson diagonalization with overlap
     ethr =  2.14E-10,  avg # of iterations =  7.6

     negative rho (up, down):  7.902E-01 0.000E+00

     total cpu time spent up to now is     1661.8 secs

     total energy              =   -9077.18598101 Ry
     estimated scf accuracy    <       0.00000391 Ry

     iteration # 18     ecut=    60.00 Ry     beta= 0.30
     Davidson diagonalization with overlap
     ethr =  2.14E-10,  avg # of iterations =  3.0

     negative rho (up, down):  7.902E-01 0.000E+00

     total cpu time spent up to now is     1734.6 secs

     total energy              =   -9077.18598087 Ry
     estimated scf accuracy    <       0.00000132 Ry

     iteration # 19     ecut=    60.00 Ry     beta= 0.30
     Davidson diagonalization with overlap
     ethr =  1.57E-10,  avg # of iterations =  6.4

     negative rho (up, down):  7.902E-01 0.000E+00

     total cpu time spent up to now is     1829.0 secs

     total energy              =   -9077.18598115 Ry
     estimated scf accuracy    <       0.00000008 Ry

     iteration # 20     ecut=    60.00 Ry     beta= 0.30
     Davidson diagonalization with overlap
     ethr =  9.26E-12,  avg # of iterations =  4.5

     negative rho (up, down):  7.902E-01 0.000E+00

     total cpu time spent up to now is     1916.5 secs

     total energy              =   -9077.18598115 Ry
     estimated scf accuracy    <       0.00000006 Ry

     iteration # 21     ecut=    60.00 Ry     beta= 0.30
     Davidson diagonalization with overlap
     ethr =  6.92E-12,  avg # of iterations =  5.9

     negative rho (up, down):  7.902E-01 0.000E+00

     total cpu time spent up to now is     2002.9 secs

     total energy              =   -9077.18598116 Ry
     estimated scf accuracy    <          2.2E-09 Ry

     iteration # 22     ecut=    60.00 Ry     beta= 0.30
     Davidson diagonalization with overlap
     ethr =  2.60E-13,  avg # of iterations = 12.4

     negative rho (up, down):  7.902E-01 0.000E+00

     total cpu time spent up to now is     2173.8 secs

     total energy              =   -9077.18598116 Ry
     estimated scf accuracy    <       0.00000002 Ry

     iteration # 23     ecut=    60.00 Ry     beta= 0.30
     Davidson diagonalization with overlap
     ethr =  2.60E-13,  avg # of iterations =  8.0

     negative rho (up, down):  7.902E-01 0.000E+00

     total cpu time spent up to now is     2308.0 secs

     End of self-consistent calculation

          k = 0.0000 0.0000 0.0000 (115723 PWs)   bands (ev):

   -28.2937 -28.2932 -28.2777 -28.2755 -28.2748 -28.2745 -28.2739 -28.2728
   -28.2726 -28.2685 -28.2679 -28.2618 -14.9386 -14.9249 -14.9249 -14.9247
   -14.9246 -14.9227 -14.9222 -14.9222 -14.9210 -14.9201 -14.9193 -14.9192
   -14.9190 -14.9189 -14.9189 -14.9186 -14.9180 -14.9169 -14.9163 -14.9163
   -14.9151 -14.9142 -14.9133 -14.9129 -14.9084 -14.9070 -14.9069 -14.9067
   -14.9065 -14.9048 -14.9043 -14.9042 -14.9031 -14.9021 -14.9012 -14.9009
   -14.8708 -14.8668 -14.8667 -14.8665 -14.8665 -14.8646 -14.8641 -14.8641
   -14.8629 -14.8619 -14.8610 -14.8608 -14.8256 -14.8219 -14.8216 -14.8215
   -14.8211 -14.8195 -14.8189 -14.8189 -14.8177 -14.8167 -14.8158 -14.8155
   -10.3548 -10.3520 -10.3383 -10.3371 -10.3361 -10.3349 -10.3346 -10.3326
   -10.3296 -10.3281 -10.3251 -10.3208 -10.3194 -10.3172 -10.3079 -10.3059
   -10.3041 -10.3016 -10.2983 -10.2967 -10.2915 -10.2900 -10.2893 -10.2820
   -10.2799 -10.2778 -10.2693 -10.2663 -10.2642 -10.2631 -10.2617 -10.2606
   -10.2577 -10.2563 -10.2537 -10.2481  -6.8640  -6.5613  -6.5536  -6.4238
    -6.4163  -6.4119  -6.3097  -6.2994  -6.2975  -6.2239  -6.2175  -6.2163
    -6.0016  -5.9874  -5.9850  -5.8612  -5.8472  -5.8453  -5.8010  -5.7938
    -5.7918  -5.7390  -5.7331  -5.6329  -5.6174  -5.6168  -5.6124  -5.6112
    -5.6098  -5.5970  -5.5685  -5.5575  -5.5569  -5.5456  -5.5437  -5.5358
    -5.5142  -5.5101  -5.4347  -5.4285  -5.4258  -5.4204  -5.3750  -5.3711
    -5.3451  -5.3432  -5.3336  -5.2470  -0.6150  -0.6104  -0.6087  -0.3915
    -0.3887  -0.3876  -0.3515  -0.3183  -0.3151  -0.3144  -0.3031  -0.2996
     1.3799   1.3862   1.3889   1.5884   1.5942   1.6544   1.7143   1.7162
     1.7196   1.8038   1.8067   1.8119   2.0202   2.0391   2.0428   2.0797
     2.0857   2.0876   2.2478   2.2494   2.2517   2.3094   2.3109   2.4015
     2.4057   2.4073   2.4577   2.4596   2.4665   2.5465   2.5513   2.6591
     2.6645   2.6660   2.7802   2.7822   2.7892   2.8678   2.8741   2.9192
     2.9257   2.9270   2.9512   2.9535   2.9616   3.0207   3.0280   3.0312
     3.0410   3.0471   3.0510   3.1624   3.2089   3.2146   3.2161   3.2289
     3.2307   3.2555   3.2592   3.2620   3.3756   3.3784   3.3791   3.3936
     3.3964   3.4231   3.4264   3.4293   3.4355   3.4364   3.4382   3.4750
     3.4777   3.4792   3.4936   3.4940   3.4956   3.4982   3.5160   3.5205
     3.5781   3.5862   3.5886   3.6203   3.6284   3.6305   3.6840   3.6893
     3.6914   3.6921   3.6953   3.7070   3.7954   3.7984   3.8212   3.8280
     3.8290   3.9635   4.0151   4.0217   4.0222   4.0354   4.0363   4.0414
     4.1195   4.1253   4.1276   4.1290   4.1700   4.1752   4.1765   4.1993
     4.2092   4.2107   4.2113   4.2442   4.2453   4.2492   4.2803   4.2851
     4.4222   4.4253   4.4263   4.5156   4.5200   4.5213   4.5371   4.5373
     4.6185   4.6205   4.6249   4.8568   5.1239   5.1534   5.1559   5.1568
     5.1722   5.1743   5.1760   5.1796   5.1800   5.2221   5.2253   5.2264
     5.2282   5.2299   5.2317   5.2507   5.2529   5.2536   5.2658   5.2672
     5.2691   5.2786   5.2794   5.2801   5.3089   5.3099   5.3124   5.3141
     5.3156   5.3250   5.3378   5.3378   5.3392   5.3742   5.3766   5.3778
     5.4389   5.4396   5.4703   5.4717   5.4722   5.4751   5.4765   5.4783
     5.4804   5.4977   5.5005   5.6003   5.6016   5.6025   5.6165   5.6194
     5.6198   5.6279   5.6459   5.6474   5.6485   5.6578   5.6609   5.6617
     5.7243   5.7267   5.7440   5.7818   5.7835   5.7838   5.8192   5.8219
     5.8235   5.9031   5.9042   5.9059   5.9269   5.9283   5.9307   5.9963
     5.9978   6.0259   6.0268   6.0287   6.1476   6.1499   6.1523   6.1552
     6.2593   6.2608   6.2627   6.2640   6.2652   6.2673   6.2897   6.2924
     6.3334   6.3353   6.3382   6.3635   6.3640   6.3651   6.3887   6.3908
     6.3918   6.5519   6.5702   6.5718   6.5747   6.6330   6.6387   6.6408
     6.7461   6.7496   6.7497   6.7651   6.7661   6.7811   6.7827   6.7847
     6.8100   6.9658   7.1799   7.1817

          k = 0.0000 0.0000 0.2714 (115879 PWs)   bands (ev):

   -28.2937 -28.2932 -28.2777 -28.2755 -28.2748 -28.2745 -28.2739 -28.2728
   -28.2726 -28.2685 -28.2679 -28.2618 -14.9386 -14.9249 -14.9249 -14.9247
   -14.9246 -14.9227 -14.9222 -14.9222 -14.9210 -14.9201 -14.9193 -14.9192
   -14.9190 -14.9189 -14.9189 -14.9186 -14.9180 -14.9169 -14.9163 -14.9163
   -14.9151 -14.9142 -14.9133 -14.9129 -14.9084 -14.9070 -14.9069 -14.9067
   -14.9065 -14.9048 -14.9043 -14.9042 -14.9031 -14.9021 -14.9012 -14.9009
   -14.8708 -14.8668 -14.8667 -14.8665 -14.8665 -14.8646 -14.8641 -14.8641
   -14.8629 -14.8619 -14.8610 -14.8608 -14.8256 -14.8219 -14.8216 -14.8215
   -14.8211 -14.8195 -14.8189 -14.8189 -14.8177 -14.8167 -14.8158 -14.8155
   -10.3552 -10.3520 -10.3390 -10.3375 -10.3366 -10.3351 -10.3333 -10.3324
   -10.3292 -10.3281 -10.3249 -10.3214 -10.3193 -10.3168 -10.3093 -10.3063
   -10.3016 -10.3012 -10.2987 -10.2950 -10.2928 -10.2910 -10.2878 -10.2824
   -10.2798 -10.2789 -10.2688 -10.2663 -10.2645 -10.2637 -10.2613 -10.2602
   -10.2577 -10.2562 -10.2539 -10.2486  -6.8249  -6.7147  -6.4200  -6.4083
    -6.4071  -6.4052  -6.3161  -6.3040  -6.2999  -6.2355  -6.2294  -6.2276
    -6.0066  -5.9898  -5.9849  -5.8530  -5.8472  -5.8326  -5.8304  -5.7758
    -5.7713  -5.7684  -5.6600  -5.6555  -5.6531  -5.6458  -5.6261  -5.6113
    -5.6107  -5.6052  -5.5663  -5.5543  -5.5507  -5.5475  -5.5458  -5.5439
    -5.5310  -5.4528  -5.4373  -5.4338  -5.4300  -5.4254  -5.3757  -5.3452
    -5.3373  -5.3360  -5.3250  -5.2773  -0.6069  -0.6027  -0.6010  -0.4157
    -0.4117  -0.4110  -0.3489  -0.3328  -0.3029  -0.3008  -0.2996  -0.2747
     1.4046   1.4107   1.4123   1.5684   1.6077   1.6170   1.6194   1.6271
     1.6576   1.9302   1.9364   1.9398   2.0053   2.0439   2.0503   2.0539
     2.0565   2.0697   2.2769   2.2771   2.2801   2.3053   2.3853   2.3885
     2.3916   2.3937   2.4150   2.4180   2.4201   2.4572   2.6186   2.6238
     2.6255   2.6661   2.7193   2.7880   2.7958   2.7987   2.8030   2.8678
     2.8728   2.8776   2.9704   2.9760   2.9780   3.0412   3.0457   3.0501
     3.1030   3.1067   3.1099   3.1746   3.1964   3.2031   3.2048   3.2094
     3.2724   3.2747   3.2776   3.2851   3.3736   3.3824   3.3857   3.3878
     3.4164   3.4188   3.4236   3.4380   3.4390   3.4423   3.4487   3.4497
     3.4533   3.4781   3.4991   3.5146   3.5200   3.5221   3.5370   3.5427
     3.5488   3.5525   3.5541   3.6367   3.6422   3.6457   3.6494   3.6520
     3.6784   3.6811   3.6841   3.7746   3.8308   3.8727   3.8769   3.8805
     3.9079   3.9224   3.9888   3.9966   3.9979   4.0527   4.0565   4.0597
     4.0757   4.1111   4.1180   4.1206   4.1471   4.1502   4.1512   4.1649
     4.1714   4.1727   4.1774   4.2129   4.2486   4.2521   4.2550   4.2701
     4.4199   4.4223   4.4237   4.4852   4.5570   4.5600   4.5635   4.6037
     4.6059   4.6096   4.6776   4.8072   5.1344   5.1465   5.1542   5.1552
     5.1555   5.1647   5.1871   5.1878   5.1885   5.2141   5.2163   5.2178
     5.2194   5.2469   5.2481   5.2493   5.2572   5.2593   5.2613   5.2626
     5.2735   5.2779   5.2788   5.2803   5.3266   5.3293   5.3306   5.3339
     5.3346   5.3365   5.3413   5.3431   5.3438   5.3660   5.3727   5.3751
     5.3785   5.3900   5.4033   5.4205   5.4218   5.4227   5.5256   5.5323
     5.5334   5.5341   5.5809   5.5873   5.5887   5.5895   5.5910   5.6201
     5.6209   5.6214   5.6481   5.6526   5.6537   5.6621   5.6816   5.6832
     5.6836   5.7528   5.7559   5.7572   5.7906   5.7987   5.8169   5.8183
     5.8200   5.8714   5.8832   5.8844   5.8864   5.9874   5.9888   5.9911
     6.0411   6.0430   6.0454   6.0965   6.0983   6.1005   6.1755   6.1916
     6.1934   6.1950   6.2368   6.2686   6.2690   6.2707   6.3244   6.3265
     6.3281   6.3585   6.3619   6.3706   6.3723   6.3738   6.3954   6.4290
     6.4298   6.4326   6.4806   6.6374   6.6401   6.6423   6.6437   6.6451
     6.6471   6.6719   6.7090   6.7108   6.7117   6.7521   6.7540   6.7565
     6.9417   7.0056   7.0948   7.1703

          k = 0.0000 0.3849 0.0000 (115797 PWs)   bands (ev):

   -28.2937 -28.2932 -28.2777 -28.2755 -28.2748 -28.2745 -28.2739 -28.2728
   -28.2726 -28.2685 -28.2679 -28.2618 -14.9386 -14.9249 -14.9249 -14.9247
   -14.9246 -14.9227 -14.9222 -14.9222 -14.9210 -14.9201 -14.9193 -14.9192
   -14.9190 -14.9189 -14.9189 -14.9186 -14.9181 -14.9169 -14.9163 -14.9163
   -14.9151 -14.9141 -14.9133 -14.9129 -14.9084 -14.9070 -14.9069 -14.9067
   -14.9065 -14.9048 -14.9043 -14.9042 -14.9031 -14.9021 -14.9012 -14.9009
   -14.8708 -14.8668 -14.8667 -14.8665 -14.8665 -14.8646 -14.8641 -14.8641
   -14.8629 -14.8619 -14.8610 -14.8608 -14.8256 -14.8219 -14.8216 -14.8215
   -14.8211 -14.8195 -14.8189 -14.8189 -14.8177 -14.8167 -14.8158 -14.8155
   -10.3546 -10.3513 -10.3375 -10.3364 -10.3357 -10.3339 -10.3334 -10.3320
   -10.3301 -10.3279 -10.3260 -10.3209 -10.3196 -10.3163 -10.3059 -10.3046
   -10.3029 -10.3015 -10.2989 -10.2977 -10.2923 -10.2917 -10.2875 -10.2824
   -10.2804 -10.2797 -10.2683 -10.2667 -10.2654 -10.2635 -10.2620 -10.2597
   -10.2581 -10.2571 -10.2551 -10.2499  -6.7890  -6.5922  -6.5061  -6.4969
    -6.4411  -6.4326  -6.3710  -6.3490  -6.2901  -6.2833  -6.2514  -6.2453
    -5.9270  -5.9075  -5.8358  -5.8182  -5.8146  -5.7751  -5.7704  -5.7646
    -5.7308  -5.7216  -5.7192  -5.6901  -5.6869  -5.6443  -5.6401  -5.6361
    -5.6252  -5.5949  -5.5899  -5.5822  -5.5646  -5.5317  -5.5189  -5.5161
    -5.5104  -5.5041  -5.4635  -5.4488  -5.4364  -5.4283  -5.4180  -5.4157
    -5.3478  -5.3444  -5.3070  -5.2653  -0.5730  -0.5687  -0.5617  -0.4360
    -0.4045  -0.4037  -0.3786  -0.3384  -0.3366  -0.3361  -0.3147  -0.3046
     1.4193   1.4837   1.4901   1.5010   1.6392   1.6508   1.6896   1.7214
     1.7278   1.8286   1.8742   1.8843   1.9488   1.9553   1.9588   2.0283
     2.1165   2.2073   2.2289   2.2315   2.3385   2.3630   2.3849   2.3881
     2.3959   2.4092   2.4514   2.5361   2.5408   2.6092   2.6154   2.6199
     2.6566   2.7344   2.8096   2.8141   2.8179   2.8361   2.8431   2.8444
     2.8549   2.8847   2.9059   2.9124   2.9185   2.9565   2.9660   3.0038
     3.0492   3.0568   3.0609   3.1241   3.1469   3.1722   3.2008   3.2117
     3.2168   3.2355   3.2593   3.2627   3.2741   3.3214   3.3301   3.3332
     3.3403   3.3737   3.3935   3.3960   3.4344   3.4393   3.4421   3.4507
     3.4950   3.4992   3.5023   3.5091   3.5141   3.5150   3.5236   3.5444
     3.5634   3.5966   3.6079   3.6127   3.6354   3.6476   3.6736   3.6815
     3.6964   3.7016   3.7062   3.7094   3.7800   3.7834   3.8477   3.8567
     3.8967   3.9720   3.9743   3.9788   3.9835   4.0286   4.0383   4.0402
     4.0925   4.1108   4.1190   4.1235   4.1266   4.1627   4.1676   4.1782
     4.2490   4.2657   4.2689   4.2839   4.3036   4.3225   4.3262   4.3687
     4.3785   4.4165   4.4183   4.4831   4.5186   4.5260   4.5291   4.5338
     4.5874   4.5960   4.6263   4.7489   5.1416   5.1448   5.1478   5.1550
     5.1597   5.1604   5.1701   5.1758   5.2134   5.2188   5.2200   5.2231
     5.2285   5.2374   5.2475   5.2503   5.2516   5.2614   5.2675   5.2723
     5.2731   5.2897   5.3040   5.3054   5.3139   5.3190   5.3269   5.3287
     5.3376   5.3498   5.3523   5.3540   5.3587   5.3665   5.4140   5.4152
     5.4337   5.4505   5.4590   5.4641   5.4858   5.4921   5.5000   5.5014
     5.5038   5.5137   5.5286   5.5445   5.5564   5.5578   5.5624   5.6030
     5.6048   5.6288   5.6314   5.6348   5.6659   5.6764   5.6933   5.6962
     5.6988   5.7187   5.7307   5.7566   5.7748   5.7770   5.8084   5.8197
     5.8211   5.8648   5.8763   5.8773   5.9475   5.9532   5.9653   5.9671
     5.9907   6.0059   6.0097   6.0221   6.1379   6.1414   6.1453   6.1614
     6.2248   6.2297   6.2317   6.2517   6.2707   6.2863   6.2947   6.3004
     6.3612   6.3634   6.3768   6.3908   6.3925   6.4415   6.4863   6.4887
     6.5234   6.5385   6.5396   6.5767   6.6048   6.6514   6.6837   6.6899
     6.6952   6.7298   6.7373   6.7397   6.7642   6.7793   6.7936   6.8115
     6.8157   6.9038   6.9107   7.0799

          k = 0.0000 0.3849 0.2714 (115773 PWs)   bands (ev):

   -28.2937 -28.2932 -28.2777 -28.2755 -28.2748 -28.2745 -28.2739 -28.2728
   -28.2726 -28.2685 -28.2679 -28.2618 -14.9386 -14.9249 -14.9249 -14.9247
   -14.9246 -14.9227 -14.9222 -14.9222 -14.9210 -14.9201 -14.9193 -14.9192
   -14.9190 -14.9189 -14.9189 -14.9186 -14.9181 -14.9169 -14.9163 -14.9163
   -14.9151 -14.9141 -14.9133 -14.9129 -14.9084 -14.9070 -14.9069 -14.9067
   -14.9065 -14.9048 -14.9043 -14.9042 -14.9031 -14.9021 -14.9012 -14.9009
   -14.8708 -14.8668 -14.8667 -14.8665 -14.8665 -14.8646 -14.8641 -14.8641
   -14.8629 -14.8619 -14.8610 -14.8608 -14.8256 -14.8219 -14.8216 -14.8215
   -14.8211 -14.8195 -14.8189 -14.8189 -14.8177 -14.8167 -14.8158 -14.8155
   -10.3550 -10.3512 -10.3380 -10.3372 -10.3358 -10.3345 -10.3329 -10.3315
   -10.3294 -10.3276 -10.3259 -10.3216 -10.3194 -10.3160 -10.3072 -10.3050
   -10.3024 -10.3006 -10.2984 -10.2958 -10.2933 -10.2902 -10.2883 -10.2837
   -10.2807 -10.2795 -10.2682 -10.2666 -10.2656 -10.2635 -10.2617 -10.2594
   -10.2583 -10.2570 -10.2556 -10.2502  -6.7521  -6.6484  -6.5631  -6.4744
    -6.4246  -6.4181  -6.3687  -6.3350  -6.3218  -6.2628  -6.2291  -6.2234
    -5.9208  -5.9016  -5.8278  -5.8214  -5.8187  -5.8049  -5.7884  -5.7589
    -5.7561  -5.7279  -5.7096  -5.7070  -5.6704  -5.6356  -5.6317  -5.6270
    -5.6220  -5.6074  -5.6037  -5.5927  -5.5697  -5.5308  -5.5263  -5.5205
    -5.5143  -5.4932  -5.4678  -5.4360  -5.4289  -5.4230  -5.4166  -5.3614
    -5.3473  -5.3433  -5.3158  -5.2934  -0.5622  -0.5583  -0.5559  -0.4364
    -0.4348  -0.4246  -0.3959  -0.3743  -0.3185  -0.3180  -0.3008  -0.2799
     1.4338   1.4796   1.4874   1.4894   1.6249   1.6416   1.7703   1.7742
     1.7800   1.7916   1.7981   1.8103   1.9154   1.9902   1.9974   2.0783
     2.1551   2.2000   2.2114   2.2458   2.2517   2.3602   2.3934   2.3956
     2.3995   2.4486   2.5105   2.5148   2.5492   2.5857   2.5930   2.6083
     2.6432   2.7125   2.7572   2.7626   2.7711   2.7873   2.8075   2.8136
     2.8400   2.8742   2.9105   2.9172   2.9234   2.9805   3.0230   3.0260
     3.0681   3.1053   3.1078   3.1324   3.1666   3.1916   3.1936   3.1951
     3.2014   3.2320   3.2628   3.2663   3.2800   3.3172   3.3202   3.3230
     3.3275   3.3877   3.3891   3.4123   3.4415   3.4474   3.4666   3.4686
     3.4739   3.4752   3.4779   3.4794   3.5346   3.5361   3.5388   3.5901
     3.6087   3.6123   3.6151   3.6340   3.6454   3.6480   3.6550   3.6608
     3.6721   3.7068   3.7113   3.7154   3.8351   3.8397   3.8774   3.8877
     3.9045   3.9489   3.9516   3.9747   3.9824   4.0206   4.0408   4.0506
     4.0521   4.0642   4.1077   4.1129   4.1223   4.1341   4.1369   4.1494
     4.1922   4.2549   4.2665   4.2697   4.2872   4.2913   4.2958   4.3872
     4.3975   4.4377   4.4396   4.4692   4.5251   4.5273   4.5379   4.5941
     4.6082   4.6162   4.6221   4.7210   5.1486   5.1519   5.1536   5.1579
     5.1717   5.1747   5.1767   5.1844   5.1911   5.1977   5.2009   5.2080
     5.2096   5.2318   5.2359   5.2382   5.2550   5.2633   5.2665   5.2680
     5.2797   5.2977   5.3074   5.3136   5.3139   5.3293   5.3361   5.3382
     5.3565   5.3585   5.3622   5.3642   5.3806   5.3935   5.4057   5.4079
     5.4140   5.4310   5.4335   5.4459   5.4462   5.4927   5.5018   5.5031
     5.5103   5.5161   5.5537   5.5595   5.5748   5.5764   5.6014   5.6105
     5.6117   5.6195   5.6253   5.6264   5.6435   5.6693   5.6817   5.7131
     5.7152   5.7179   5.7352   5.7723   5.7735   5.7746   5.8013   5.8038
     5.8113   5.8593   5.8742   5.8765   5.8809   5.9151   5.9585   5.9607
     6.0327   6.0350   6.0381   6.0596   6.0778   6.0812   6.1734   6.2049
     6.2150   6.2156   6.2649   6.2677   6.2711   6.2791   6.2862   6.3483
     6.3512   6.3667   6.3720   6.4154   6.4227   6.4266   6.4280   6.4709
     6.4987   6.5012   6.5470   6.5589   6.5953   6.5985   6.6646   6.6703
     6.6784   6.7199   6.7353   6.7391   6.7487   6.8105   6.8172   6.8462
     6.8684   6.9283   6.9383   7.0517

          k = 0.3333 0.5774 0.0000 (115752 PWs)   bands (ev):

   -28.2937 -28.2932 -28.2777 -28.2755 -28.2748 -28.2745 -28.2739 -28.2728
   -28.2726 -28.2685 -28.2679 -28.2618 -14.9386 -14.9249 -14.9249 -14.9247
   -14.9246 -14.9227 -14.9222 -14.9222 -14.9210 -14.9201 -14.9193 -14.9192
   -14.9190 -14.9189 -14.9189 -14.9186 -14.9180 -14.9169 -14.9163 -14.9163
   -14.9151 -14.9141 -14.9133 -14.9129 -14.9084 -14.9070 -14.9069 -14.9067
   -14.9065 -14.9048 -14.9043 -14.9042 -14.9031 -14.9021 -14.9012 -14.9009
   -14.8708 -14.8668 -14.8667 -14.8665 -14.8665 -14.8646 -14.8641 -14.8641
   -14.8629 -14.8619 -14.8610 -14.8608 -14.8256 -14.8219 -14.8216 -14.8215
   -14.8211 -14.8195 -14.8189 -14.8189 -14.8177 -14.8167 -14.8158 -14.8155
   -10.3544 -10.3513 -10.3372 -10.3361 -10.3344 -10.3334 -10.3327 -10.3319
   -10.3304 -10.3280 -10.3268 -10.3209 -10.3198 -10.3162 -10.3055 -10.3030
   -10.3024 -10.3005 -10.2999 -10.2974 -10.2940 -10.2914 -10.2874 -10.2833
   -10.2814 -10.2793 -10.2675 -10.2667 -10.2645 -10.2639 -10.2628 -10.2616
   -10.2582 -10.2576 -10.2555 -10.2499  -6.6613  -6.6491  -6.6434  -6.4224
    -6.3999  -6.3981  -6.3972  -6.3949  -6.3921  -6.2946  -6.2900  -6.1951
    -5.8740  -5.8577  -5.8475  -5.7637  -5.7474  -5.7443  -5.7343  -5.7298
    -5.7275  -5.7146  -5.7059  -5.6988  -5.6922  -5.6881  -5.6838  -5.6810
    -5.6745  -5.6432  -5.5604  -5.5397  -5.5370  -5.5291  -5.5279  -5.5220
    -5.5089  -5.4766  -5.4709  -5.4682  -5.4662  -5.4612  -5.4547  -5.3955
    -5.3905  -5.3036  -5.3000  -5.2890  -0.5447  -0.5200  -0.5134  -0.5101
    -0.3995  -0.3949  -0.3927  -0.3894  -0.3868  -0.3128  -0.3089  -0.3084
     1.4800   1.4842   1.4876   1.6645   1.6743   1.6784   1.6847   1.6878
     1.6950   1.7339   1.7371   1.7992   2.0707   2.0797   2.0828   2.0849
     2.0937   2.1402   2.1450   2.1484   2.2554   2.3952   2.3974   2.4007
     2.4941   2.4950   2.4966   2.5594   2.5640   2.5687   2.5958   2.5974
     2.7666   2.7754   2.7764   2.8302   2.8365   2.8404   2.8447   2.8464
     2.8488   2.8523   2.8546   2.8573   2.8715   3.0023   3.0110   3.0164
     3.0243   3.0259   3.0286   3.0624   3.1302   3.1350   3.1404   3.1888
     3.1989   3.2040   3.2519   3.2608   3.2632   3.2721   3.2763   3.3610
     3.3671   3.3713   3.3746   3.3754   3.4233   3.4281   3.4296   3.4863
     3.4901   3.5003   3.5027   3.5068   3.5274   3.5309   3.5338   3.5466
     3.5479   3.5777   3.5816   3.5830   3.6458   3.6518   3.6545   3.7160
     3.7215   3.7230   3.7296   3.7311   3.7579   3.8008   3.8023   3.8058
     3.9549   3.9602   3.9651   3.9839   3.9874   4.0253   4.0295   4.0353
     4.0796   4.0863   4.0885   4.1387   4.1475   4.1533   4.1560   4.2852
     4.2856   4.2930   4.3104   4.3191   4.3211   4.3226   4.3254   4.3272
     4.3856   4.3874   4.3904   4.4965   4.5127   4.5154   4.5198   4.5228
     4.5270   4.6487   4.6561   4.6609   5.1371   5.1415   5.1444   5.1466
     5.1733   5.1734   5.1863   5.1877   5.1904   5.1939   5.1982   5.2006
     5.2462   5.2473   5.2489   5.2654   5.2664   5.2673   5.2964   5.2987
     5.2998   5.3018   5.3035   5.3043   5.3144   5.3178   5.3197   5.3214
     5.3390   5.3415   5.3434   5.4003   5.4027   5.4046   5.4090   5.4100
     5.4539   5.4560   5.4568   5.4597   5.4814   5.4845   5.4859   5.4886
     5.4896   5.5335   5.5364   5.5383   5.5640   5.5651   5.5657   5.5684
     5.5720   5.5745   5.6412   5.6718   5.6733   5.6927   5.6956   5.6965
     5.7054   5.7081   5.7101   5.7799   5.7807   5.7819   5.7975   5.8001
     5.8024   5.8239   5.8257   5.8450   5.9270   5.9316   5.9344   6.0432
     6.0463   6.0480   6.0506   6.0530   6.1373   6.1391   6.1405   6.1587
     6.2179   6.2198   6.2216   6.2581   6.2606   6.2626   6.2839   6.2858
     6.3752   6.4090   6.4098   6.4128   6.4178   6.4186   6.4244   6.4500
     6.4526   6.4560   6.6134   6.6153   6.6191   6.6752   6.6777   6.6793
     6.7258   6.7408   6.7422   6.8010   6.8072   6.8100   6.8108   6.8132
     6.8149   6.9356   6.9398   6.9439

          k = 0.3333 0.5774 0.2714 (115827 PWs)   bands (ev):

   -28.2937 -28.2932 -28.2777 -28.2755 -28.2748 -28.2745 -28.2739 -28.2728
   -28.2726 -28.2685 -28.2679 -28.2618 -14.9386 -14.9249 -14.9249 -14.9247
   -14.9246 -14.9227 -14.9222 -14.9222 -14.9210 -14.9201 -14.9193 -14.9192
   -14.9190 -14.9189 -14.9189 -14.9186 -14.9180 -14.9169 -14.9163 -14.9163
   -14.9151 -14.9141 -14.9133 -14.9129 -14.9084 -14.9070 -14.9069 -14.9067
   -14.9065 -14.9048 -14.9043 -14.9042 -14.9031 -14.9021 -14.9012 -14.9009
   -14.8708 -14.8668 -14.8667 -14.8665 -14.8665 -14.8646 -14.8641 -14.8641
   -14.8629 -14.8619 -14.8610 -14.8608 -14.8256 -14.8219 -14.8216 -14.8215
   -14.8211 -14.8195 -14.8189 -14.8189 -14.8177 -14.8167 -14.8158 -14.8155
   -10.3547 -10.3511 -10.3377 -10.3365 -10.3353 -10.3331 -10.3325 -10.3315
   -10.3302 -10.3279 -10.3263 -10.3211 -10.3197 -10.3161 -10.3059 -10.3047
   -10.3022 -10.3006 -10.2975 -10.2956 -10.2932 -10.2919 -10.2885 -10.2831
   -10.2823 -10.2795 -10.2678 -10.2664 -10.2647 -10.2636 -10.2629 -10.2609
   -10.2586 -10.2577 -10.2557 -10.2503  -6.6296  -6.6169  -6.6118  -6.5350
    -6.5235  -6.5185  -6.3121  -6.3005  -6.2885  -6.2858  -6.2565  -6.2169
    -5.8795  -5.8592  -5.8501  -5.7837  -5.7789  -5.7725  -5.7505  -5.7394
    -5.7356  -5.7183  -5.6965  -5.6857  -5.6823  -5.6751  -5.6706  -5.6697
    -5.6607  -5.6431  -5.5721  -5.5551  -5.5502  -5.5307  -5.5235  -5.5180
    -5.5067  -5.5023  -5.5011  -5.4909  -5.4555  -5.3999  -5.3960  -5.3899
    -5.3542  -5.3243  -5.3208  -5.3088  -0.5210  -0.5111  -0.5042  -0.5012
    -0.4617  -0.4199  -0.4167  -0.4137  -0.3548  -0.2959  -0.2922  -0.2911
     1.4782   1.4823   1.4861   1.6310   1.6385   1.6435   1.6913   1.7689
     1.7727   1.7807   1.7830   1.7955   1.9744   1.9828   1.9875   2.0558
     2.1741   2.1907   2.1927   2.1956   2.2444   2.3945   2.3993   2.4012
     2.4866   2.4900   2.4919   2.5572   2.5831   2.5870   2.5900   2.5959
     2.6780   2.7306   2.7370   2.7400   2.8202   2.8229   2.8251   2.8282
     2.8948   2.9035   2.9051   2.9259   2.9380   2.9523   2.9552   2.9614
     3.0577   3.0606   3.0641   3.0865   3.0905   3.0919   3.1279   3.1788
     3.2397   3.2461   3.2494   3.2660   3.2726   3.2760   3.3200   3.3254
     3.3287   3.3312   3.3742   3.4092   3.4221   3.4633   3.4657   3.4707
     3.4902   3.4983   3.5001   3.5027   3.5332   3.5364   3.5391   3.5416
     3.5626   3.6118   3.6182   3.6195   3.6537   3.6554   3.6584   3.6961
     3.6994   3.7015   3.7211   3.7463   3.8217   3.8388   3.8423   3.8462
     3.9340   3.9403   3.9426   3.9456   4.0196   4.0307   4.0319   4.0398
     4.0664   4.0691   4.0727   4.1064   4.1105   4.1168   4.1183   4.1699
     4.2694   4.2745   4.2769   4.2888   4.3168   4.3565   4.3634   4.3667
     4.4163   4.4185   4.4203   4.4921   4.4931   4.4977   4.5076   4.5136
     4.5647   4.6616   4.6689   4.6733   5.1483   5.1547   5.1566   5.1582
     5.1599   5.1802   5.1837   5.1851   5.1969   5.1990   5.2000   5.2107
     5.2243   5.2251   5.2277   5.2493   5.2532   5.2554   5.2578   5.2691
     5.3005   5.3023   5.3047   5.3095   5.3277   5.3301   5.3318   5.3665
     5.3688   5.3696   5.3757   5.3942   5.3956   5.4076   5.4103   5.4108
     5.4306   5.4337   5.4347   5.4394   5.4839   5.4858   5.4867   5.4924
     5.5387   5.5400   5.5408   5.5440   5.5665   5.5666   5.5678   5.6048
     5.6067   5.6076   5.6385   5.6394   5.6713   5.6730   5.6743   5.7018
     5.7047   5.7059   5.7180   5.7570   5.7604   5.7611   5.8024   5.8077
     5.8211   5.8230   5.8253   5.8271   5.8882   5.8903   5.8947   6.0542
     6.0599   6.0619   6.0625   6.0786   6.1179   6.1212   6.1242   6.1359
     6.1966   6.2371   6.2380   6.2393   6.2835   6.3013   6.3018   6.3047
     6.3092   6.3835   6.3866   6.3883   6.4505   6.4651   6.4696   6.4721
     6.4919   6.4935   6.5565   6.5612   6.5637   6.6462   6.6829   6.6862
     6.6895   6.7607   6.7753   6.7803   6.7829   6.7940   6.8520   6.8554
     6.8600   6.9322   6.9374   6.9403

          k =-0.3333 0.1925 0.0000 (115797 PWs)   bands (ev):

   -28.2937 -28.2932 -28.2777 -28.2755 -28.2748 -28.2745 -28.2739 -28.2728
   -28.2726 -28.2685 -28.2679 -28.2618 -14.9386 -14.9249 -14.9249 -14.9247
   -14.9246 -14.9227 -14.9222 -14.9222 -14.9210 -14.9201 -14.9193 -14.9192
   -14.9190 -14.9189 -14.9189 -14.9186 -14.9180 -14.9169 -14.9163 -14.9163
   -14.9151 -14.9141 -14.9133 -14.9129 -14.9084 -14.9070 -14.9069 -14.9067
   -14.9065 -14.9048 -14.9043 -14.9042 -14.9031 -14.9021 -14.9012 -14.9009
   -14.8708 -14.8668 -14.8667 -14.8665 -14.8665 -14.8646 -14.8641 -14.8641
   -14.8629 -14.8619 -14.8610 -14.8608 -14.8256 -14.8219 -14.8216 -14.8215
   -14.8211 -14.8195 -14.8189 -14.8189 -14.8177 -14.8167 -14.8158 -14.8155
   -10.3545 -10.3515 -10.3376 -10.3366 -10.3348 -10.3344 -10.3336 -10.3312
   -10.3300 -10.3282 -10.3261 -10.3212 -10.3196 -10.3163 -10.3064 -10.3039
   -10.3032 -10.3015 -10.2990 -10.2966 -10.2933 -10.2912 -10.2886 -10.2829
   -10.2801 -10.2791 -10.2686 -10.2666 -10.2646 -10.2637 -10.2621 -10.2600
   -10.2579 -10.2577 -10.2556 -10.2489  -6.7888  -6.5905  -6.5058  -6.4969
    -6.4434  -6.4351  -6.3690  -6.3485  -6.2923  -6.2826  -6.2524  -6.2467
    -5.9172  -5.9075  -5.8246  -5.8168  -5.8117  -5.7857  -5.7676  -5.7638
    -5.7367  -5.7273  -5.7188  -5.6912  -5.6882  -5.6483  -5.6427  -5.6363
    -5.6273  -5.5967  -5.5899  -5.5824  -5.5633  -5.5251  -5.5218  -5.5171
    -5.5105  -5.5009  -5.4627  -5.4487  -5.4358  -5.4285  -5.4213  -5.4123
    -5.3475  -5.3399  -5.3096  -5.2661  -0.5757  -0.5690  -0.5603  -0.4344
    -0.4075  -0.4023  -0.3774  -0.3387  -0.3380  -0.3360  -0.3128  -0.3032
     1.4160   1.4859   1.4895   1.5006   1.6383   1.6499   1.6901   1.7230
     1.7262   1.8295   1.8734   1.8792   1.9516   1.9567   1.9616   2.0268
     2.1146   2.2066   2.2271   2.2337   2.3406   2.3630   2.3861   2.3879
     2.3943   2.4112   2.4487   2.5376   2.5416   2.6071   2.6140   2.6190
     2.6548   2.7359   2.8095   2.8143   2.8235   2.8353   2.8435   2.8487
     2.8527   2.8812   2.9059   2.9123   2.9143   2.9591   2.9695   3.0053
     3.0488   3.0509   3.0601   3.1268   3.1496   3.1753   3.1972   3.2124
     3.2161   3.2345   3.2609   3.2632   3.2684   3.3233   3.3307   3.3334
     3.3427   3.3745   3.3926   3.3972   3.4315   3.4398   3.4424   3.4495
     3.4961   3.4984   3.5034   3.5097   3.5126   3.5168   3.5241   3.5445
     3.5596   3.6019   3.6074   3.6118   3.6342   3.6470   3.6799   3.6825
     3.6924   3.7038   3.7055   3.7090   3.7784   3.7831   3.8501   3.8609
     3.8980   3.9636   3.9754   3.9794   3.9842   4.0296   4.0379   4.0421
     4.0920   4.1103   4.1199   4.1234   4.1267   4.1614   4.1649   4.1785
     4.2468   4.2675   4.2706   4.2838   4.3033   4.3214   4.3245   4.3690
     4.3781   4.4166   4.4180   4.4842   4.5167   4.5285   4.5293   4.5330
     4.5881   4.5923   4.6296   4.7497   5.1415   5.1437   5.1479   5.1559
     5.1584   5.1614   5.1702   5.1752   5.2144   5.2180   5.2201   5.2225
     5.2288   5.2381   5.2477   5.2504   5.2515   5.2609   5.2678   5.2714
     5.2737   5.2896   5.3040   5.3060   5.3149   5.3192   5.3276   5.3280
     5.3366   5.3500   5.3535   5.3543   5.3583   5.3670   5.4110   5.4154
     5.4341   5.4520   5.4616   5.4627   5.4847   5.4930   5.4990   5.5013
     5.5038   5.5133   5.5287   5.5425   5.5561   5.5575   5.5621   5.6026
     5.6042   5.6273   5.6325   5.6343   5.6685   5.6787   5.6938   5.6977
     5.6989   5.7173   5.7291   5.7570   5.7748   5.7767   5.8081   5.8196
     5.8211   5.8631   5.8766   5.8778   5.9502   5.9510   5.9654   5.9668
     5.9900   6.0071   6.0081   6.0215   6.1389   6.1404   6.1455   6.1611
     6.2253   6.2291   6.2308   6.2505   6.2711   6.2882   6.2912   6.3010
     6.3606   6.3635   6.3786   6.3902   6.3919   6.4413   6.4850   6.4895
     6.5241   6.5380   6.5389   6.5763   6.6045   6.6522   6.6849   6.6906
     6.6944   6.7297   6.7383   6.7390   6.7641   6.7787   6.7947   6.8119
     6.8139   6.9040   6.9121   7.0819

          k = 0.3333 0.1925 0.0000 (115797 PWs)   bands (ev):

   -28.2937 -28.2932 -28.2777 -28.2755 -28.2748 -28.2745 -28.2739 -28.2728
   -28.2726 -28.2685 -28.2679 -28.2618 -14.9386 -14.9249 -14.9249 -14.9247
   -14.9246 -14.9227 -14.9222 -14.9222 -14.9210 -14.9201 -14.9193 -14.9192
   -14.9190 -14.9189 -14.9189 -14.9186 -14.9181 -14.9169 -14.9163 -14.9163
   -14.9151 -14.9142 -14.9133 -14.9129 -14.9084 -14.9070 -14.9069 -14.9067
   -14.9065 -14.9048 -14.9043 -14.9042 -14.9031 -14.9021 -14.9012 -14.9009
   -14.8708 -14.8668 -14.8667 -14.8665 -14.8665 -14.8646 -14.8641 -14.8641
   -14.8629 -14.8619 -14.8610 -14.8608 -14.8256 -14.8219 -14.8216 -14.8215
   -14.8211 -14.8195 -14.8189 -14.8189 -14.8177 -14.8167 -14.8158 -14.8155
   -10.3546 -10.3517 -10.3375 -10.3361 -10.3353 -10.3335 -10.3332 -10.3320
   -10.3305 -10.3283 -10.3260 -10.3206 -10.3198 -10.3168 -10.3064 -10.3035
   -10.3026 -10.3015 -10.2990 -10.2968 -10.2935 -10.2913 -10.2889 -10.2821
   -10.2799 -10.2798 -10.2682 -10.2655 -10.2650 -10.2638 -10.2617 -10.2610
   -10.2600 -10.2566 -10.2546 -10.2493  -6.7889  -6.5909  -6.5049  -6.4981
    -6.4433  -6.4349  -6.3645  -6.3536  -6.2880  -6.2844  -6.2518  -6.2475
    -5.9118  -5.9087  -5.8393  -5.8177  -5.8127  -5.7827  -5.7715  -5.7620
    -5.7305  -5.7252  -5.7207  -5.6942  -5.6848  -5.6522  -5.6382  -5.6366
    -5.6244  -5.5936  -5.5839  -5.5810  -5.5670  -5.5320  -5.5204  -5.5166
    -5.5098  -5.4998  -5.4612  -5.4487  -5.4364  -5.4343  -5.4197  -5.4125
    -5.3484  -5.3387  -5.3098  -5.2662  -0.5717  -0.5699  -0.5631  -0.4373
    -0.4038  -0.4025  -0.3768  -0.3432  -0.3379  -0.3358  -0.3116  -0.3021
     1.4198   1.4844   1.4884   1.5028   1.6390   1.6546   1.6838   1.7236
     1.7257   1.8273   1.8760   1.8789   1.9514   1.9561   1.9597   2.0286
     2.1161   2.2034   2.2283   2.2324   2.3398   2.3641   2.3811   2.3895
     2.3955   2.4114   2.4523   2.5362   2.5389   2.6069   2.6136   2.6166
     2.6597   2.7305   2.8058   2.8138   2.8238   2.8395   2.8431   2.8454
     2.8567   2.8867   2.9085   2.9097   2.9153   2.9629   2.9648   3.0049
     3.0495   3.0562   3.0591   3.1210   3.1447   3.1762   3.2038   3.2120
     3.2133   3.2335   3.2596   3.2631   3.2706   3.3255   3.3297   3.3326
     3.3380   3.3717   3.3956   3.3970   3.4345   3.4408   3.4448   3.4514
     3.4964   3.4981   3.5025   3.5103   3.5131   3.5151   3.5239   3.5434
     3.5627   3.6052   3.6067   3.6104   3.6339   3.6445   3.6777   3.6800
     3.6954   3.7016   3.7068   3.7124   3.7767   3.7806   3.8505   3.8630
     3.8958   3.9731   3.9750   3.9788   3.9818   4.0302   4.0344   4.0400
     4.0899   4.1132   4.1191   4.1218   4.1285   4.1627   4.1637   4.1787
     4.2467   4.2647   4.2685   4.2836   4.3049   4.3231   4.3257   4.3697
     4.3800   4.4154   4.4179   4.4849   4.5183   4.5269   4.5302   4.5322
     4.5909   4.5939   4.6245   4.7486   5.1414   5.1447   5.1457   5.1554
     5.1598   5.1616   5.1704   5.1758   5.2153   5.2188   5.2197   5.2218
     5.2279   5.2369   5.2488   5.2494   5.2512   5.2617   5.2684   5.2725
     5.2732   5.2898   5.3037   5.3050   5.3139   5.3192   5.3265   5.3285
     5.3381   5.3493   5.3524   5.3534   5.3571   5.3671   5.4136   5.4159
     5.4339   5.4509   5.4610   5.4624   5.4860   5.4942   5.5007   5.5020
     5.5028   5.5135   5.5272   5.5447   5.5567   5.5579   5.5621   5.6031
     5.6036   5.6301   5.6324   5.6332   5.6680   5.6788   5.6944   5.6967
     5.6987   5.7167   5.7303   5.7563   5.7756   5.7761   5.8086   5.8185
     5.8200   5.8647   5.8744   5.8763   5.9512   5.9523   5.9642   5.9660
     5.9911   6.0076   6.0089   6.0215   6.1366   6.1399   6.1461   6.1614
     6.2254   6.2291   6.2325   6.2524   6.2717   6.2887   6.2906   6.2996
     6.3606   6.3614   6.3786   6.3896   6.3925   6.4415   6.4854   6.4875
     6.5245   6.5382   6.5408   6.5768   6.6056   6.6513   6.6804   6.6934
     6.6946   6.7303   6.7374   6.7408   6.7636   6.7792   6.7928   6.8124
     6.8151   6.9052   6.9104   7.0813

          k = 0.0000-0.3849 0.2714 (115773 PWs)   bands (ev):

   -28.2937 -28.2932 -28.2777 -28.2755 -28.2748 -28.2745 -28.2739 -28.2728
   -28.2726 -28.2685 -28.2679 -28.2618 -14.9386 -14.9249 -14.9249 -14.9247
   -14.9246 -14.9227 -14.9222 -14.9222 -14.9210 -14.9201 -14.9193 -14.9192
   -14.9190 -14.9189 -14.9189 -14.9186 -14.9181 -14.9169 -14.9163 -14.9163
   -14.9151 -14.9141 -14.9133 -14.9129 -14.9084 -14.9070 -14.9069 -14.9067
   -14.9065 -14.9048 -14.9043 -14.9042 -14.9031 -14.9021 -14.9012 -14.9009
   -14.8708 -14.8668 -14.8667 -14.8665 -14.8665 -14.8646 -14.8641 -14.8641
   -14.8629 -14.8619 -14.8610 -14.8608 -14.8256 -14.8219 -14.8216 -14.8215
   -14.8211 -14.8195 -14.8189 -14.8189 -14.8177 -14.8167 -14.8158 -14.8155
   -10.3549 -10.3512 -10.3379 -10.3373 -10.3358 -10.3343 -10.3331 -10.3314
   -10.3295 -10.3277 -10.3259 -10.3211 -10.3196 -10.3163 -10.3074 -10.3037
   -10.3030 -10.3010 -10.2988 -10.2952 -10.2930 -10.2916 -10.2875 -10.2832
   -10.2812 -10.2794 -10.2679 -10.2670 -10.2657 -10.2635 -10.2614 -10.2597
   -10.2583 -10.2573 -10.2550 -10.2504  -6.7524  -6.6482  -6.5638  -6.4710
    -6.4211  -6.4154  -6.3690  -6.3453  -6.3335  -6.2693  -6.2164  -6.2100
    -5.9277  -5.9096  -5.8337  -5.8217  -5.8194  -5.8149  -5.7700  -5.7606
    -5.7490  -5.7296  -5.6865  -5.6815  -5.6753  -5.6615  -5.6420  -5.6392
    -5.6358  -5.6057  -5.5962  -5.5800  -5.5701  -5.5336  -5.5267  -5.5219
    -5.5142  -5.4864  -5.4646  -5.4417  -5.4358  -5.4300  -5.3967  -5.3682
    -5.3437  -5.3416  -5.3228  -5.2903  -0.5641  -0.5599  -0.5510  -0.4352
    -0.4283  -0.4277  -0.4131  -0.3609  -0.3219  -0.3212  -0.2919  -0.2844
     1.4051   1.4917   1.4962   1.5139   1.6126   1.7080   1.7142   1.7254
     1.7376   1.7743   1.8405   1.8505   1.9668   1.9875   2.0193   2.0226
     2.1294   2.1984   2.2084   2.2125   2.2864   2.3346   2.3959   2.4271
     2.4289   2.5193   2.5251   2.5324   2.5534   2.5568   2.5605   2.5618
     2.6021   2.6770   2.7602   2.7677   2.8201   2.8249   2.8268   2.8319
     2.8499   2.8525   2.8915   2.8990   2.9088   3.0074   3.0154   3.0214
     3.0752   3.0778   3.1171   3.1206   3.1329   3.1724   3.1820   3.1914
     3.2140   3.2465   3.2697   3.2838   3.2890   3.2973   3.3287   3.3324
     3.3693   3.3780   3.3796   3.3822   3.4454   3.4480   3.4524   3.4771
     3.4789   3.4825   3.5064   3.5202   3.5327   3.5355   3.5387   3.5584
     3.5835   3.5888   3.6118   3.6316   3.6408   3.6456   3.6776   3.6849
     3.6887   3.6978   3.7021   3.7092   3.8366   3.8412   3.8754   3.8792
     3.9410   3.9439   3.9458   3.9521   3.9718   4.0279   4.0526   4.0555
     4.0597   4.0639   4.0985   4.1041   4.1214   4.1250   4.1314   4.1370
     4.2253   4.2405   4.2680   4.2711   4.2894   4.2934   4.3145   4.3680
     4.3911   4.4354   4.4361   4.4823   4.5228   4.5442   4.5478   4.5813
     4.5943   4.6032   4.6310   4.7300   5.1462   5.1483   5.1537   5.1627
     5.1673   5.1695   5.1720   5.1739   5.2000   5.2048   5.2122   5.2172
     5.2206   5.2297   5.2412   5.2421   5.2600   5.2642   5.2648   5.2659
     5.2676   5.2745   5.3093   5.3109   5.3195   5.3335   5.3452   5.3488
     5.3596   5.3628   5.3637   5.3689   5.3704   5.3811   5.3891   5.3906
     5.4104   5.4337   5.4480   5.4521   5.4531   5.4697   5.4967   5.4985
     5.5158   5.5246   5.5561   5.5580   5.5682   5.5710   5.6009   5.6026
     5.6085   5.6191   5.6310   5.6500   5.6518   5.6604   5.6754   5.7083
     5.7099   5.7393   5.7590   5.7618   5.7712   5.7845   5.8056   5.8065
     5.8153   5.8401   5.8677   5.8690   5.8760   5.8951   5.9683   5.9709
     6.0185   6.0248   6.0275   6.0999   6.1045   6.1121   6.1605   6.1865
     6.2011   6.2055   6.2068   6.2637   6.2654   6.2882   6.3194   6.3425
     6.3529   6.3678   6.3716   6.4115   6.4208   6.4223   6.4530   6.4816
     6.4832   6.5089   6.5585   6.5671   6.6061   6.6096   6.6478   6.6660
     6.6698   6.7341   6.7392   6.7407   6.7505   6.8040   6.8071   6.8525
     6.8663   6.9199   6.9461   7.0378

          k =-0.3333 0.1925 0.2714 (115773 PWs)   bands (ev):

   -28.2937 -28.2932 -28.2777 -28.2755 -28.2748 -28.2745 -28.2739 -28.2728
   -28.2726 -28.2685 -28.2679 -28.2618 -14.9386 -14.9249 -14.9249 -14.9247
   -14.9246 -14.9227 -14.9222 -14.9222 -14.9210 -14.9201 -14.9193 -14.9192
   -14.9190 -14.9189 -14.9189 -14.9186 -14.9180 -14.9169 -14.9163 -14.9163
   -14.9151 -14.9141 -14.9133 -14.9129 -14.9084 -14.9070 -14.9069 -14.9067
   -14.9065 -14.9048 -14.9043 -14.9042 -14.9031 -14.9021 -14.9012 -14.9009
   -14.8708 -14.8668 -14.8667 -14.8665 -14.8665 -14.8646 -14.8641 -14.8641
   -14.8629 -14.8619 -14.8610 -14.8608 -14.8256 -14.8219 -14.8216 -14.8215
   -14.8211 -14.8195 -14.8189 -14.8189 -14.8177 -14.8167 -14.8158 -14.8155
   -10.3548 -10.3514 -10.3384 -10.3366 -10.3358 -10.3343 -10.3322 -10.3316
   -10.3301 -10.3277 -10.3259 -10.3216 -10.3193 -10.3162 -10.3075 -10.3045
   -10.3025 -10.3006 -10.2981 -10.2953 -10.2926 -10.2918 -10.2891 -10.2833
   -10.2806 -10.2792 -10.2683 -10.2668 -10.2650 -10.2637 -10.2611 -10.2600
   -10.2582 -10.2577 -10.2560 -10.2492  -6.7521  -6.6483  -6.5620  -6.4694
    -6.4240  -6.4162  -6.3691  -6.3474  -6.3366  -6.2683  -6.2153  -6.2091
    -5.9203  -5.9096  -5.8257  -5.8224  -5.8154  -5.8116  -5.7743  -5.7619
    -5.7540  -5.7292  -5.6960  -5.6807  -5.6787  -5.6624  -5.6446  -5.6400
    -5.6359  -5.6062  -5.5950  -5.5831  -5.5673  -5.5349  -5.5271  -5.5245
    -5.5115  -5.4825  -5.4629  -5.4400  -5.4346  -5.4291  -5.3973  -5.3691
    -5.3434  -5.3369  -5.3272  -5.2908  -0.5667  -0.5603  -0.5499  -0.4337
    -0.4309  -0.4272  -0.4102  -0.3619  -0.3228  -0.3203  -0.2911  -0.2833
     1.4026   1.4934   1.4967   1.5142   1.6108   1.7089   1.7126   1.7228
     1.7378   1.7736   1.8422   1.8476   1.9659   1.9871   2.0199   2.0271
     2.1266   2.1998   2.2096   2.2109   2.2844   2.3357   2.3977   2.4258
     2.4291   2.5178   2.5286   2.5323   2.5548   2.5575   2.5603   2.5654
     2.5984   2.6755   2.7587   2.7662   2.8205   2.8240   2.8278   2.8324
     2.8507   2.8540   2.8907   2.8986   2.9054   3.0032   3.0167   3.0249
     3.0773   3.0825   3.1125   3.1194   3.1341   3.1754   3.1811   3.1931
     3.2144   3.2449   3.2630   3.2851   3.2883   3.2971   3.3313   3.3333
     3.3737   3.3754   3.3802   3.3858   3.4462   3.4487   3.4504   3.4752
     3.4800   3.4808   3.5055   3.5200   3.5319   3.5361   3.5400   3.5582
     3.5845   3.5894   3.6083   3.6334   3.6413   3.6464   3.6812   3.6851
     3.6880   3.6972   3.7050   3.7070   3.8352   3.8407   3.8771   3.8823
     3.9351   3.9434   3.9466   3.9526   3.9745   4.0323   4.0506   4.0578
     4.0604   4.0631   4.0966   4.1024   4.1207   4.1227   4.1283   4.1361
     4.2253   4.2422   4.2683   4.2713   4.2911   4.2947   4.3145   4.3642
     4.3928   4.4331   4.4359   4.4824   4.5246   4.5444   4.5469   4.5822
     4.5951   4.5989   4.6338   4.7311   5.1457   5.1483   5.1539   5.1629
     5.1670   5.1697   5.1720   5.1740   5.1994   5.2052   5.2116   5.2183
     5.2189   5.2298   5.2413   5.2422   5.2595   5.2629   5.2659   5.2673
     5.2679   5.2737   5.3091   5.3118   5.3195   5.3336   5.3467   5.3482
     5.3601   5.3628   5.3640   5.3687   5.3710   5.3810   5.3876   5.3905
     5.4102   5.4336   5.4475   5.4514   5.4533   5.4692   5.4958   5.4985
     5.5175   5.5251   5.5556   5.5575   5.5674   5.5696   5.6015   5.6027
     5.6083   5.6212   5.6309   5.6491   5.6518   5.6615   5.6754   5.7088
     5.7099   5.7381   5.7597   5.7621   5.7709   5.7855   5.8060   5.8071
     5.8148   5.8394   5.8671   5.8690   5.8756   5.8942   5.9690   5.9698
     6.0187   6.0268   6.0272   6.1011   6.1030   6.1119   6.1589   6.1881
     6.2005   6.2050   6.2061   6.2614   6.2646   6.2881   6.3170   6.3434
     6.3549   6.3685   6.3707   6.4143   6.4203   6.4222   6.4524   6.4800
     6.4844   6.5069   6.5580   6.5674   6.6079   6.6085   6.6488   6.6677
     6.6688   6.7347   6.7382   6.7419   6.7505   6.8038   6.8061   6.8518
     6.8676   6.9189   6.9470   7.0399

          k = 0.3333 0.1925 0.2714 (115773 PWs)   bands (ev):

   -28.2937 -28.2932 -28.2777 -28.2755 -28.2748 -28.2745 -28.2739 -28.2728
   -28.2726 -28.2685 -28.2679 -28.2618 -14.9386 -14.9249 -14.9249 -14.9247
   -14.9246 -14.9227 -14.9222 -14.9222 -14.9210 -14.9201 -14.9193 -14.9192
   -14.9190 -14.9189 -14.9189 -14.9186 -14.9181 -14.9169 -14.9163 -14.9163
   -14.9151 -14.9142 -14.9133 -14.9129 -14.9084 -14.9070 -14.9069 -14.9067
   -14.9065 -14.9048 -14.9043 -14.9042 -14.9031 -14.9021 -14.9012 -14.9009
   -14.8708 -14.8668 -14.8667 -14.8665 -14.8665 -14.8646 -14.8641 -14.8641
   -14.8629 -14.8619 -14.8610 -14.8608 -14.8256 -14.8219 -14.8216 -14.8215
   -14.8211 -14.8195 -14.8189 -14.8189 -14.8177 -14.8167 -14.8158 -14.8155
   -10.3549 -10.3517 -10.3381 -10.3366 -10.3356 -10.3337 -10.3329 -10.3317
   -10.3299 -10.3281 -10.3260 -10.3213 -10.3194 -10.3163 -10.3072 -10.3058
   -10.3010 -10.3004 -10.2971 -10.2956 -10.2945 -10.2911 -10.2895 -10.2821
   -10.2810 -10.2797 -10.2678 -10.2657 -10.2649 -10.2643 -10.2614 -10.2604
   -10.2601 -10.2568 -10.2550 -10.2496  -6.7522  -6.6484  -6.5613  -6.4722
    -6.4254  -6.4158  -6.3671  -6.3411  -6.3393  -6.2681  -6.2158  -6.2099
    -5.9158  -5.9121  -5.8390  -5.8224  -5.8173  -5.8117  -5.7702  -5.7626
    -5.7516  -5.7317  -5.6883  -5.6799  -5.6785  -5.6626  -5.6509  -5.6415
    -5.6262  -5.6062  -5.5845  -5.5830  -5.5714  -5.5416  -5.5243  -5.5206
    -5.5142  -5.4836  -5.4649  -5.4404  -5.4364  -5.4328  -5.3952  -5.3673
    -5.3443  -5.3351  -5.3263  -5.2926  -0.5627  -0.5608  -0.5532  -0.4359
    -0.4292  -0.4274  -0.4100  -0.3602  -0.3256  -0.3212  -0.2895  -0.2829
     1.4063   1.4905   1.4958   1.5169   1.6111   1.7092   1.7117   1.7228
     1.7359   1.7753   1.8461   1.8468   1.9653   1.9853   2.0212   2.0236
     2.1308   2.1961   2.2066   2.2138   2.2869   2.3351   2.3951   2.4237
     2.4313   2.5182   2.5279   2.5311   2.5521   2.5576   2.5615   2.5630
     2.5986   2.6797   2.7611   2.7659   2.8136   2.8220   2.8297   2.8326
     2.8499   2.8548   2.8964   2.8973   2.9074   3.0094   3.0183   3.0196
     3.0716   3.0790   3.1160   3.1202   3.1325   3.1803   3.1831   3.1873
     3.2136   3.2451   3.2664   3.2857   3.2868   3.2965   3.3304   3.3332
     3.3751   3.3768   3.3798   3.3808   3.4470   3.4497   3.4506   3.4767
     3.4808   3.4822   3.5068   3.5201   3.5343   3.5347   3.5380   3.5573
     3.5852   3.5885   3.6111   3.6298   3.6416   3.6454   3.6807   3.6875
     3.6886   3.6983   3.7048   3.7070   3.8339   3.8359   3.8798   3.8837
     3.9408   3.9453   3.9466   3.9500   3.9713   4.0306   4.0504   4.0565
     4.0592   4.0617   4.0993   4.1017   4.1216   4.1240   4.1315   4.1345
     4.2224   4.2416   4.2659   4.2706   4.2921   4.2935   4.3159   4.3686
     4.3937   4.4336   4.4355   4.4821   4.5215   4.5442   4.5469   4.5867
     4.5968   4.5999   4.6291   4.7296   5.1460   5.1482   5.1519   5.1635
     5.1682   5.1691   5.1714   5.1737   5.1997   5.2053   5.2135   5.2181
     5.2198   5.2296   5.2417   5.2423   5.2601   5.2617   5.2642   5.2665
     5.2670   5.2748   5.3106   5.3116   5.3183   5.3347   5.3456   5.3474
     5.3596   5.3622   5.3638   5.3673   5.3714   5.3814   5.3886   5.3907
     5.4112   5.4335   5.4478   5.4525   5.4529   5.4695   5.4970   5.4985
     5.5165   5.5243   5.5559   5.5584   5.5689   5.5698   5.6019   5.6030
     5.6081   5.6202   5.6325   5.6494   5.6514   5.6603   5.6759   5.7094
     5.7104   5.7401   5.7584   5.7608   5.7702   5.7850   5.8054   5.8062
     5.8152   5.8402   5.8659   5.8682   5.8761   5.8957   5.9686   5.9697
     6.0201   6.0259   6.0267   6.1010   6.1021   6.1133   6.1608   6.1866
     6.2011   6.2043   6.2066   6.2616   6.2635   6.2881   6.3190   6.3414
     6.3554   6.3703   6.3714   6.4126   6.4185   6.4208   6.4526   6.4820
     6.4828   6.5079   6.5562   6.5688   6.6074   6.6090   6.6477   6.6673
     6.6692   6.7376   6.7392   6.7405   6.7490   6.8046   6.8076   6.8520
     6.8671   6.9188   6.9458   7.0397

          k =-0.3333-0.1925 0.2714 (115773 PWs)   bands (ev):

   -28.2937 -28.2932 -28.2777 -28.2755 -28.2748 -28.2745 -28.2739 -28.2728
   -28.2726 -28.2685 -28.2679 -28.2618 -14.9386 -14.9249 -14.9249 -14.9247
   -14.9246 -14.9227 -14.9222 -14.9222 -14.9210 -14.9201 -14.9193 -14.9192
   -14.9190 -14.9189 -14.9189 -14.9186 -14.9181 -14.9169 -14.9163 -14.9163
   -14.9151 -14.9142 -14.9133 -14.9129 -14.9084 -14.9070 -14.9069 -14.9067
   -14.9065 -14.9048 -14.9043 -14.9042 -14.9031 -14.9021 -14.9012 -14.9009
   -14.8708 -14.8668 -14.8667 -14.8665 -14.8665 -14.8646 -14.8641 -14.8641
   -14.8629 -14.8619 -14.8610 -14.8608 -14.8256 -14.8219 -14.8216 -14.8215
   -14.8211 -14.8195 -14.8189 -14.8189 -14.8177 -14.8167 -14.8158 -14.8155
   -10.3549 -10.3517 -10.3381 -10.3366 -10.3357 -10.3334 -10.3327 -10.3317
   -10.3307 -10.3278 -10.3260 -10.3208 -10.3195 -10.3166 -10.3078 -10.3042
   -10.3013 -10.2998 -10.2988 -10.2957 -10.2946 -10.2913 -10.2884 -10.2828
   -10.2806 -10.2795 -10.2675 -10.2661 -10.2652 -10.2644 -10.2612 -10.2607
   -10.2598 -10.2569 -10.2547 -10.2497  -6.7519  -6.6489  -6.5607  -6.4746
    -6.4285  -6.4192  -6.3672  -6.3306  -6.3270  -6.2628  -6.2285  -6.2236
    -5.9100  -5.9032  -5.8341  -5.8194  -5.8085  -5.8042  -5.7901  -5.7677
    -5.7566  -5.7305  -5.7119  -5.7043  -5.6711  -5.6446  -5.6317  -5.6273
    -5.6213  -5.6036  -5.5991  -5.5960  -5.5693  -5.5372  -5.5205  -5.5194
    -5.5176  -5.4902  -5.4664  -5.4317  -5.4280  -5.4261  -5.4168  -5.3629
    -5.3481  -5.3362  -5.3201  -5.2946  -0.5627  -0.5582  -0.5561  -0.4389
    -0.4354  -0.4251  -0.3929  -0.3724  -0.3222  -0.3180  -0.2984  -0.2785
     1.4350   1.4820   1.4860   1.4904   1.6240   1.6421   1.7669   1.7712
     1.7836   1.7889   1.8011   1.8026   1.9165   1.9966   1.9973   2.0774
     2.1566   2.1992   2.2088   2.2450   2.2523   2.3613   2.3917   2.3957
     2.3990   2.4502   2.5111   2.5124   2.5476   2.5852   2.5916   2.6091
     2.6446   2.7091   2.7546   2.7672   2.7722   2.7882   2.8089   2.8120
     2.8397   2.8744   2.9155   2.9170   2.9211   2.9806   3.0239   3.0257
     3.0649   3.1061   3.1089   3.1285   3.1716   3.1894   3.1925   3.1981
     3.2006   3.2331   3.2602   3.2655   3.2787   3.3165   3.3214   3.3246
     3.3273   3.3902   3.3908   3.4120   3.4457   3.4466   3.4668   3.4695
     3.4724   3.4755   3.4772   3.4795   3.5330   3.5361   3.5395   3.5896
     3.6082   3.6130   3.6149   3.6335   3.6413   3.6471   3.6595   3.6615
     3.6691   3.7098   3.7129   3.7202   3.8330   3.8359   3.8821   3.8904
     3.9048   3.9486   3.9506   3.9753   3.9811   4.0183   4.0407   4.0489
     4.0529   4.0674   4.1085   4.1122   4.1205   4.1320   4.1342   4.1491
     4.1913   4.2566   4.2659   4.2684   4.2889   4.2903   4.2963   4.3887
     4.3992   4.4366   4.4395   4.4693   4.5244   4.5266   4.5368   4.5962
     4.6108   4.6139   4.6210   4.7213   5.1491   5.1515   5.1524   5.1589
     5.1709   5.1748   5.1771   5.1839   5.1914   5.1984   5.2022   5.2083
     5.2090   5.2343   5.2349   5.2363   5.2541   5.2622   5.2664   5.2678
     5.2786   5.2988   5.3075   5.3128   5.3146   5.3292   5.3358   5.3377
     5.3575   5.3586   5.3606   5.3648   5.3801   5.3929   5.4078   5.4082
     5.4137   5.4307   5.4353   5.4450   5.4470   5.4924   5.5021   5.5034
     5.5094   5.5160   5.5542   5.5604   5.5743   5.5754   5.6038   5.6097
     5.6117   5.6197   5.6253   5.6268   5.6433   5.6712   5.6824   5.7140
     5.7154   5.7162   5.7350   5.7705   5.7737   5.7752   5.8020   5.8032
     5.8108   5.8587   5.8729   5.8758   5.8796   5.9156   5.9588   5.9604
     6.0342   6.0358   6.0379   6.0605   6.0785   6.0799   6.1732   6.2077
     6.2121   6.2141   6.2645   6.2662   6.2712   6.2779   6.2860   6.3470
     6.3499   6.3657   6.3723   6.4163   6.4242   6.4273   6.4284   6.4729
     6.4981   6.4998   6.5458   6.5604   6.5959   6.5976   6.6662   6.6698
     6.6775   6.7200   6.7357   6.7402   6.7472   6.8136   6.8152   6.8455
     6.8701   6.9291   6.9378   7.0526

          k = 0.3333-0.1925 0.2714 (115773 PWs)   bands (ev):

   -28.2937 -28.2932 -28.2777 -28.2755 -28.2748 -28.2745 -28.2739 -28.2728
   -28.2726 -28.2685 -28.2679 -28.2618 -14.9386 -14.9249 -14.9249 -14.9247
   -14.9246 -14.9227 -14.9222 -14.9222 -14.9210 -14.9201 -14.9193 -14.9192
   -14.9190 -14.9189 -14.9189 -14.9186 -14.9180 -14.9169 -14.9163 -14.9163
   -14.9151 -14.9141 -14.9133 -14.9129 -14.9084 -14.9070 -14.9069 -14.9067
   -14.9065 -14.9048 -14.9043 -14.9042 -14.9031 -14.9021 -14.9012 -14.9009
   -14.8708 -14.8668 -14.8667 -14.8665 -14.8665 -14.8646 -14.8641 -14.8641
   -14.8629 -14.8619 -14.8610 -14.8608 -14.8256 -14.8219 -14.8216 -14.8215
   -14.8211 -14.8195 -14.8189 -14.8189 -14.8177 -14.8167 -14.8158 -14.8155
   -10.3548 -10.3514 -10.3383 -10.3368 -10.3357 -10.3341 -10.3327 -10.3314
   -10.3295 -10.3284 -10.3257 -10.3215 -10.3195 -10.3161 -10.3072 -10.3051
   -10.3027 -10.3000 -10.2979 -10.2952 -10.2937 -10.2918 -10.2882 -10.2826
   -10.2813 -10.2795 -10.2687 -10.2661 -10.2648 -10.2639 -10.2613 -10.2602
   -10.2582 -10.2579 -10.2557 -10.2493  -6.7521  -6.6481  -6.5609  -6.4736
    -6.4268  -6.4199  -6.3690  -6.3365  -6.3250  -6.2617  -6.2285  -6.2227
    -5.9115  -5.9008  -5.8249  -5.8185  -5.8103  -5.8004  -5.7952  -5.7644
    -5.7580  -5.7345  -5.7102  -5.7078  -5.6747  -5.6433  -5.6293  -5.6254
    -5.6228  -5.6087  -5.6050  -5.5968  -5.5652  -5.5313  -5.5253  -5.5202
    -5.5124  -5.4946  -5.4659  -5.4333  -5.4266  -5.4228  -5.4180  -5.3609
    -5.3471  -5.3402  -5.3176  -5.2952  -0.5636  -0.5583  -0.5559  -0.4389
    -0.4344  -0.4237  -0.3943  -0.3735  -0.3196  -0.3171  -0.2994  -0.2797
     1.4299   1.4833   1.4866   1.4891   1.6246   1.6414   1.7682   1.7767
     1.7792   1.7906   1.7991   1.8047   1.9150   1.9940   2.0017   2.0779
     2.1542   2.1973   2.2107   2.2437   2.2521   2.3615   2.3926   2.3944
     2.4032   2.4479   2.5100   2.5143   2.5448   2.5895   2.5923   2.6087
     2.6431   2.7116   2.7607   2.7690   2.7723   2.7898   2.8061   2.8128
     2.8369   2.8724   2.9095   2.9169   2.9215   2.9795   3.0219   3.0279
     3.0694   3.1002   3.1090   3.1340   3.1673   3.1903   3.1937   3.1957
     3.2042   3.2314   3.2643   3.2688   3.2765   3.3178   3.3207   3.3228
     3.3288   3.3882   3.3919   3.4104   3.4437   3.4459   3.4654   3.4704
     3.4714   3.4737   3.4767   3.4817   3.5336   3.5367   3.5395   3.5918
     3.6061   3.6136   3.6153   3.6302   3.6443   3.6489   3.6579   3.6623
     3.6687   3.7090   3.7128   3.7163   3.8342   3.8399   3.8801   3.8895
     3.9058   3.9425   3.9524   3.9746   3.9847   4.0212   4.0441   4.0491
     4.0527   4.0676   4.1045   4.1124   4.1196   4.1314   4.1361   4.1471
     4.1918   4.2564   4.2671   4.2699   4.2886   4.2916   4.2963   4.3846
     4.3997   4.4361   4.4393   4.4699   4.5239   4.5259   4.5388   4.5943
     4.6095   4.6127   4.6246   4.7229   5.1488   5.1500   5.1534   5.1589
     5.1720   5.1760   5.1772   5.1842   5.1907   5.1984   5.2005   5.2079
     5.2091   5.2319   5.2351   5.2385   5.2547   5.2633   5.2659   5.2677
     5.2800   5.2970   5.3082   5.3121   5.3150   5.3285   5.3367   5.3382
     5.3570   5.3589   5.3618   5.3645   5.3806   5.3940   5.4063   5.4081
     5.4139   5.4321   5.4341   5.4445   5.4464   5.4929   5.5012   5.5026
     5.5102   5.5167   5.5534   5.5582   5.5734   5.5755   5.6020   5.6098
     5.6119   5.6198   5.6245   5.6272   5.6435   5.6704   5.6835   5.7136
     5.7157   5.7179   5.7338   5.7718   5.7739   5.7749   5.8017   5.8038
     5.8104   5.8587   5.8737   5.8770   5.8799   5.9144   5.9598   5.9604
     6.0320   6.0348   6.0369   6.0593   6.0799   6.0810   6.1738   6.2049
     6.2136   6.2148   6.2654   6.2674   6.2718   6.2780   6.2861   6.3489
     6.3503   6.3671   6.3728   6.4135   6.4242   6.4256   6.4289   6.4723
     6.4964   6.5018   6.5454   6.5608   6.5952   6.5959   6.6663   6.6682
     6.6790   6.7205   6.7357   6.7380   6.7488   6.8133   6.8148   6.8453
     6.8705   6.9297   6.9384   7.0535

          k =-0.3333-0.5774 0.2714 (115827 PWs)   bands (ev):

   -28.2937 -28.2932 -28.2777 -28.2755 -28.2748 -28.2745 -28.2739 -28.2728
   -28.2726 -28.2685 -28.2679 -28.2618 -14.9386 -14.9249 -14.9249 -14.9247
   -14.9246 -14.9227 -14.9222 -14.9222 -14.9210 -14.9201 -14.9193 -14.9192
   -14.9190 -14.9189 -14.9189 -14.9186 -14.9180 -14.9169 -14.9163 -14.9163
   -14.9151 -14.9141 -14.9133 -14.9129 -14.9084 -14.9070 -14.9069 -14.9067
   -14.9065 -14.9048 -14.9043 -14.9042 -14.9031 -14.9021 -14.9012 -14.9009
   -14.8708 -14.8668 -14.8667 -14.8665 -14.8665 -14.8646 -14.8641 -14.8641
   -14.8629 -14.8619 -14.8610 -14.8608 -14.8256 -14.8219 -14.8216 -14.8215
   -14.8211 -14.8195 -14.8189 -14.8189 -14.8177 -14.8167 -14.8158 -14.8155
   -10.3547 -10.3512 -10.3377 -10.3366 -10.3351 -10.3330 -10.3325 -10.3319
   -10.3301 -10.3276 -10.3264 -10.3215 -10.3194 -10.3160 -10.3062 -10.3047
   -10.3021 -10.3003 -10.2976 -10.2959 -10.2928 -10.2915 -10.2892 -10.2839
   -10.2813 -10.2797 -10.2676 -10.2665 -10.2647 -10.2637 -10.2628 -10.2608
   -10.2590 -10.2571 -10.2561 -10.2502  -6.6297  -6.6171  -6.6117  -6.5351
    -6.5237  -6.5181  -6.3110  -6.3011  -6.2884  -6.2859  -6.2593  -6.2145
    -5.8838  -5.8625  -5.8425  -5.7808  -5.7781  -5.7711  -5.7545  -5.7399
    -5.7361  -5.7180  -5.6988  -5.6863  -5.6814  -5.6770  -5.6711  -5.6661
    -5.6640  -5.6390  -5.5729  -5.5553  -5.5500  -5.5308  -5.5233  -5.5167
    -5.5070  -5.5025  -5.5008  -5.4939  -5.4550  -5.3992  -5.3962  -5.3884
    -5.3546  -5.3242  -5.3208  -5.3094  -0.5219  -0.5105  -0.5046  -0.5011
    -0.4601  -0.4210  -0.4161  -0.4141  -0.3553  -0.2954  -0.2922  -0.2911
     1.4773   1.4829   1.4857   1.6301   1.6396   1.6439   1.6917   1.7706
     1.7752   1.7797   1.7829   1.7937   1.9713   1.9820   1.9868   2.0577
     2.1668   2.1921   2.1945   2.1961   2.2511   2.3947   2.3966   2.4013
     2.4858   2.4900   2.4921   2.5562   2.5833   2.5896   2.5908   2.5956
     2.6784   2.7351   2.7373   2.7389   2.8163   2.8220   2.8250   2.8283
     2.8995   2.9020   2.9051   2.9245   2.9388   2.9506   2.9578   2.9606
     3.0545   3.0603   3.0646   3.0835   3.0891   3.0918   3.1259   3.1833
     3.2374   3.2452   3.2491   3.2678   3.2734   3.2749   3.3203   3.3257
     3.3300   3.3326   3.3754   3.4061   3.4206   3.4627   3.4663   3.4695
     3.4917   3.4981   3.5006   3.5033   3.5350   3.5376   3.5396   3.5436
     3.5612   3.6149   3.6178   3.6188   3.6506   3.6556   3.6587   3.6969
     3.6986   3.7023   3.7233   3.7448   3.8195   3.8381   3.8418   3.8465
     3.9353   3.9383   3.9418   3.9466   4.0258   4.0288   4.0345   4.0408
     4.0604   4.0690   4.0700   4.1035   4.1139   4.1165   4.1193   4.1695
     4.2719   4.2740   4.2763   4.2925   4.3144   4.3566   4.3623   4.3662
     4.4143   4.4189   4.4198   4.4915   4.4944   4.4991   4.5082   4.5130
     4.5650   4.6616   4.6684   4.6733   5.1480   5.1555   5.1559   5.1587
     5.1596   5.1804   5.1826   5.1858   5.1971   5.1989   5.1997   5.2114
     5.2238   5.2259   5.2274   5.2507   5.2528   5.2544   5.2574   5.2697
     5.3009   5.3021   5.3042   5.3094   5.3279   5.3299   5.3313   5.3672
     5.3686   5.3699   5.3748   5.3936   5.3960   5.4081   5.4100   5.4118
     5.4319   5.4338   5.4345   5.4398   5.4832   5.4849   5.4862   5.4918
     5.5389   5.5394   5.5405   5.5444   5.5654   5.5671   5.5683   5.6051
     5.6055   5.6085   5.6380   5.6398   5.6709   5.6726   5.6749   5.7024
     5.7044   5.7057   5.7191   5.7584   5.7603   5.7616   5.8020   5.8084
     5.8192   5.8240   5.8246   5.8270   5.8871   5.8918   5.8933   6.0545
     6.0599   6.0624   6.0644   6.0783   6.1167   6.1212   6.1235   6.1361
     6.1956   6.2356   6.2388   6.2414   6.2842   6.3007   6.3030   6.3043
     6.3070   6.3828   6.3872   6.3892   6.4497   6.4657   6.4688   6.4712
     6.4926   6.4939   6.5562   6.5611   6.5639   6.6458   6.6841   6.6871
     6.6894   6.7600   6.7752   6.7798   6.7828   6.7947   6.8528   6.8561
     6.8590   6.9320   6.9367   6.9408

     highest occupied level (ev):     7.1817

!    total energy              =   -9077.18598117 Ry
     estimated scf accuracy    <          8.5E-10 Ry

     The total energy is the sum of the following terms:
     one-electron contribution =   -2776.26641428 Ry
     hartree contribution      =    2019.89086269 Ry
     xc contribution           =   -2269.38573820 Ry
     ewald contribution        =   -3895.62822694 Ry
     one-center paw contrib.   =   -2155.79646444 Ry

     convergence has been achieved in  23 iterations

     negative rho (up, down):  7.902E-01 0.000E+00

     Forces acting on atoms (cartesian axes, Ry/au):

     atom    1 type  1   force =    -0.00009056    0.00025599   -0.00009874
     atom    2 type  1   force =    -0.00021558    0.00024894    0.00001308
     atom    3 type  1   force =    -0.00014064    0.00029736   -0.00002113
     atom    4 type  1   force =    -0.00016799    0.00024687    0.00002544
     atom    5 type  1   force =    -0.00043086   -0.00006169    0.00025739
     atom    6 type  1   force =    -0.00025571   -0.00134943   -0.00151243
     atom    7 type  1   force =     0.00003176   -0.00046777    0.00043839
     atom    8 type  1   force =    -0.00034393   -0.00004674   -0.00010011
     atom    9 type  1   force =     0.00027358   -0.00018831   -0.00003353
     atom   10 type  1   force =     0.00079117    0.00038476    0.00004462
     atom   11 type  1   force =    -0.00049591   -0.00050302   -0.00078638
     atom   12 type  1   force =    -0.00028757    0.00055748    0.00115734
     atom   13 type  2   force =     0.00012998   -0.00059488    0.00043001
     atom   14 type  2   force =     0.00014331   -0.00044290    0.00018561
     atom   15 type  2   force =     0.00021500   -0.00036802    0.00009179
     atom   16 type  2   force =     0.00026590   -0.00031214    0.00018585
     atom   17 type  2   force =    -0.00040389    0.00063491    0.00011354
     atom   18 type  2   force =    -0.00025836   -0.00075015    0.00105650
     atom   19 type  2   force =     0.00047511   -0.00014702   -0.00012621
     atom   20 type  2   force =     0.00025729    0.00051760    0.00026357
     atom   21 type  2   force =    -0.00048463    0.00002594    0.00018044
     atom   22 type  2   force =    -0.00041232    0.00001077    0.00019059
     atom   23 type  2   force =    -0.00044353    0.00001028    0.00017784
     atom   24 type  2   force =    -0.00036607    0.00005303    0.00019088
     atom   25 type  2   force =    -0.00037292   -0.00009490   -0.00010316
     atom   26 type  2   force =    -0.00023744    0.00015619   -0.00028011
     atom   27 type  2   force =    -0.00090203   -0.00015477    0.00006388
     atom   28 type  2   force =    -0.00115786    0.00081923   -0.00084693
     atom   29 type  2   force =     0.00018039    0.00037197   -0.00019866
     atom   30 type  2   force =     0.00022494    0.00037809   -0.00017285
     atom   31 type  2   force =     0.00021554    0.00039755   -0.00019059
     atom   32 type  2   force =     0.00018338    0.00038538   -0.00020027
     atom   33 type  2   force =     0.00021747   -0.00036234   -0.00009061
     atom   34 type  2   force =     0.00071500   -0.00048836   -0.00075539
     atom   35 type  2   force =     0.00020956   -0.00037816   -0.00015018
     atom   36 type  2   force =     0.00023528   -0.00037294   -0.00019797
     atom   37 type  3   force =     0.03281871   -0.00258830    0.00341056
     atom   38 type  3   force =    -0.00079166   -0.00057329   -0.00021071
     atom   39 type  3   force =     0.00026268   -0.00025113    0.00021297
     atom   40 type  3   force =    -0.00032219   -0.00088939   -0.00005450
     atom   41 type  3   force =     0.00006842    0.00044738   -0.00001623
     atom   42 type  3   force =     0.00007218    0.00031572    0.00017405
     atom   43 type  3   force =     0.00047994    0.00041463   -0.00004813
     atom   44 type  3   force =     0.00019595    0.00055035    0.00002687
     atom   45 type  3   force =    -0.00056949   -0.00010578   -0.00002892
     atom   46 type  3   force =    -0.00062792    0.00009027    0.00012740
     atom   47 type  3   force =    -0.00073924    0.00001716    0.00015815
     atom   48 type  3   force =    -0.00026731    0.00001511   -0.00031689
     atom   49 type  4   force =    -0.00337883    0.00301027   -0.00480580
     atom   50 type  4   force =     0.00071280    0.00017468   -0.00017552
     atom   51 type  4   force =     0.00035014   -0.00030241    0.00001909
     atom   52 type  4   force =     0.00045766    0.00008265   -0.00010187
     atom   53 type  4   force =    -0.00003621    0.00038677    0.00003912
     atom   54 type  4   force =    -0.00010387    0.00034811   -0.00011591
     atom   55 type  4   force =    -0.00011253    0.00039017    0.00007606
     atom   56 type  4   force =    -0.00007871    0.00032826    0.00000655
     atom   57 type  4   force =    -0.00006942   -0.00026018   -0.00004534
     atom   58 type  4   force =    -0.00017932   -0.00044041    0.00041112
     atom   59 type  4   force =    -0.00027958   -0.00020959    0.00005632
     atom   60 type  4   force =    -0.00053139   -0.00054724   -0.00019292
     atom   61 type  4   force =    -0.00024211    0.00028135   -0.00000502
     atom   62 type  4   force =    -0.00027418    0.00023885    0.00000042
     atom   63 type  4   force =    -0.00023102    0.00025607   -0.00006467
     atom   64 type  4   force =    -0.00030018    0.00024635    0.00009118
     atom   65 type  4   force =     0.00025805    0.00000389   -0.00018496
     atom   66 type  4   force =     0.00045087    0.00045886   -0.00005109
     atom   67 type  4   force =     0.00026159    0.00024587    0.00011894
     atom   68 type  4   force =     0.00039904   -0.00001092   -0.00002368
     atom   69 type  4   force =     0.00026759   -0.00032900   -0.00001452
     atom   70 type  4   force =    -0.00256201    0.00264340    0.00339150
     atom   71 type  4   force =    -0.00002695   -0.00031053    0.00007100
     atom   72 type  4   force =    -0.00002695   -0.00052483   -0.00001244
     atom   73 type  4   force =     0.00004012    0.00014725   -0.00027813
     atom   74 type  4   force =     0.00009685    0.00018927   -0.00017840
     atom   75 type  4   force =    -0.00001871    0.00014726   -0.00023334
     atom   76 type  4   force =     0.00003387    0.00012149   -0.00024217
     atom   77 type  4   force =     0.00022114   -0.00015562   -0.00020850
     atom   78 type  4   force =    -0.02025393    0.00303986   -0.00114222
     atom   79 type  4   force =     0.00001336    0.00057382   -0.00030975
     atom   80 type  4   force =    -0.00023200   -0.00017753   -0.00037159
     atom   81 type  4   force =     0.00002448   -0.00002562   -0.00012867
     atom   82 type  4   force =     0.00019695   -0.00008965   -0.00034867
     atom   83 type  4   force =     0.00015023   -0.00011696   -0.00024281
     atom   84 type  4   force =     0.00012344    0.00001006   -0.00027508
     atom   85 type  4   force =     0.00014988    0.00002366    0.00022561
     atom   86 type  4   force =     0.00025915    0.00025914    0.00014657
     atom   87 type  4   force =    -0.00348819   -0.00567340   -0.00013635
     atom   88 type  4   force =     0.00074893   -0.00008968    0.00030928
     atom   89 type  4   force =     0.00010070   -0.00017685    0.00022771
     atom   90 type  4   force =    -0.00019567   -0.00008780    0.00029414
     atom   91 type  4   force =     0.00001186   -0.00014001    0.00021626
     atom   92 type  4   force =     0.00004841   -0.00019204    0.00027277
     atom   93 type  4   force =    -0.00020201    0.00006843    0.00024478
     atom   94 type  4   force =    -0.00012733   -0.00006639    0.00059456
     atom   95 type  4   force =    -0.00008923    0.00011667    0.00026005
     atom   96 type  4   force =    -0.00021373    0.00002266    0.00018028

     Total force =     0.040778     Total SCF correction =     0.000077
     Message from routine punch:
     Nothing written, as per user request (disk_io='none')

     init_run     :     39.11s CPU     41.17s WALL (       1 calls)
     electrons    :   2173.72s CPU   2266.48s WALL (       1 calls)
     forces       :     19.26s CPU     19.76s WALL (       1 calls)

     Called by init_run:
     wfcinit      :     35.55s CPU     37.32s WALL (       1 calls)
     potinit      :      1.09s CPU      1.14s WALL (       1 calls)
     hinit0       :      1.05s CPU      1.08s WALL (       1 calls)

     Called by electrons:
     c_bands      :   1933.68s CPU   2007.53s WALL (      23 calls)
     sum_band     :    212.81s CPU    227.03s WALL (      23 calls)
     v_of_rho     :      4.06s CPU      4.48s WALL (      24 calls)
     newd         :     17.57s CPU     21.87s WALL (      24 calls)
     PAW_pot      :      5.57s CPU      5.60s WALL (      24 calls)
     mix_rho      :      0.68s CPU      0.74s WALL (      23 calls)

     Called by c_bands:
     init_us_2    :     25.65s CPU     25.97s WALL (     336 calls)
     cegterg      :   1873.74s CPU   1946.96s WALL (     161 calls)

     Called by *egterg:
     cdiaghg      :     97.12s CPU     99.85s WALL (    1064 calls)
     h_psi        :   1013.12s CPU   1069.12s WALL (    1071 calls)
     s_psi        :    242.07s CPU    244.75s WALL (    1071 calls)
     g_psi        :      3.75s CPU      3.80s WALL (     903 calls)

     Called by h_psi:
     h_psi:calbec :    242.31s CPU    245.88s WALL (    1071 calls)
     vloc_psi     :    522.37s CPU    569.73s WALL (    1071 calls)
     add_vuspsi   :    243.39s CPU    246.07s WALL (    1071 calls)

     General routines
     calbec       :    332.99s CPU    337.94s WALL (    1260 calls)
     fft          :      4.71s CPU      5.12s WALL (     321 calls)
     ffts         :      0.76s CPU      0.79s WALL (      47 calls)
     fftw         :    432.68s CPU    474.83s WALL (  472620 calls)
     interpolate  :      0.94s CPU      0.98s WALL (      24 calls)

     Parallel routines

     PWSCF        :  37m12.34s CPU  38m48.01s WALL


   This run was terminated on:   3:43: 9  21Aug2026            

=------------------------------------------------------------------------------=
   JOB DONE.
=------------------------------------------------------------------------------=
