
     Program PWSCF v.7.3.1 starts on 21Aug2026 at  3:48:37 

     This program is part of the open-source Quantum ESPRESSO suite
     for quantum simulation of materials; please cite
         "P. Giannozzi et al., J. Phys.:Condens. Matter 21 395502 (2009);
         "P. Giannozzi et al., J. Phys.:Condens. Matter 29 465901 (2017);
         "P. Giannozzi et al., J. Chem. Phys. 152 154105 (2020);
          URL http://www.quantum-espresso.org", 
     in publications or presentations arising from this work. More details at
     http://www.quantum-espresso.org/quote

     Parallel version (MPI & OpenMP), running on      32 processor cores
     Number of MPI processes:                32
     Threads/MPI process:                     1

     MPI processes distributed on     1 nodes
     326950 MiB available memory on the printing compute node when the environment starts

     Reading input from scf.in

     Current dimensions of program PWSCF are:
     Max number of different atomic species (ntypx) = 10
     Max number of k-points (npk) =  40000
     Max angular momentum in pseudopotentials (lmaxx) =  4
     file Cu.paw.z_11.ld1.psl.v1.0.0-low.upf: wavefunction(s)  4S 3D renormalized

     K-points division:     npool     =       2
     R & G space division:  proc/nbgrp/npool/nimage =      16
     Subspace diagonalization in iterative solution of the eigenvalue problem:
     one sub-group per band group will be used
     scalapack distributed-memory algorithm (size of sub-group:  4*  4 procs)


     Parallelization info
     --------------------
     sticks:   dense  smooth     PW     G-vecs:    dense   smooth      PW
     Min        1193     597    157               163743    57882    7779
     Max        1194     599    158               163747    57885    7784
     Sum       19099    9565   2515              2619931   926125  124485

     Using Slab Decomposition



     bravais-lattice index     =            0
     lattice parameter (alat)  =      24.0273  a.u.
     unit-cell volume          =   14752.0463 (a.u.)^3
     number of atoms/cell      =           96
     number of atomic types    =            4
     number of electrons       =       840.00
     number of Kohn-Sham states=          420
     kinetic-energy cutoff     =      60.0000  Ry
     charge density cutoff     =     480.0000  Ry
     scf convergence threshold =      1.0E-09
     mixing beta               =       0.3000
     number of iterations used =            8  plain     mixing
     Exchange-correlation=  SLA  PW   PBX  PBC
                           (   1   4   3   4   0   0   0)

     celldm(1)=  24.027274  celldm(2)=   0.000000  celldm(3)=   0.000000
     celldm(4)=   0.000000  celldm(5)=   0.000000  celldm(6)=   0.000000

     crystal axes: (cart. coord. in units of alat)
               a(1) = (   1.000000   0.000000   0.000000 )  
               a(2) = (  -0.500000   0.866025   0.000000 )  
               a(3) = (   0.000000   0.000000   1.228028 )  

     reciprocal axes: (cart. coord. in units 2 pi/alat)
               b(1) = (  1.000000  0.577351 -0.000000 )  
               b(2) = (  0.000000  1.154701  0.000000 )  
               b(3) = (  0.000000 -0.000000  0.814314 )  


     PseudoPot. # 1 for Sr read from file:
     /home/yuhansun/pseudos/SSSP-1.3.0-PBE-precision/Sr_pbe_v1.uspp.F.UPF
     MD5 check sum: 6b418c05fbe9db5448babca5e47b7a5b
     Pseudo is Ultrasoft + core correction, Zval = 10.0
     Generated by new atomic code, or converted to UPF format
     Using radial grid of  883 points,  6 beta functions with: 
                l(1) =   0
                l(2) =   0
                l(3) =   1
                l(4) =   1
                l(5) =   2
                l(6) =   2
     Q(r) pseudized with  6 coefficients,  rinner =    1.400   1.400   1.400
                                                       1.400   1.400

     PseudoPot. # 2 for Cu read from file:
     /home/yuhansun/pseudos/SSSP-1.3.0-PBE-precision/Cu.paw.z_11.ld1.psl.v1.0.0-low.upf
     MD5 check sum: 619f40885d92a09a85a8b37550532d0c
     Pseudo is Projector augmented-wave + core cor, Zval = 11.0
     Generated using &quot;atomic&quot; code by A. Dal Corso  v.6.3MaX
     Shape of augmentation charge: PSQ
     Using radial grid of 1199 points,  6 beta functions with: 
                l(1) =   0
                l(2) =   0
                l(3) =   1
                l(4) =   1
                l(5) =   2
                l(6) =   2
     Q(r) pseudized with 0 coefficients 


     PseudoPot. # 3 for Sn read from file:
     /home/yuhansun/pseudos/SSSP-1.3.0-PBE-precision/Sn_pbe_v1.uspp.F.UPF
     MD5 check sum: 4cf58ce39ec5d5d420df3dd08604eb00
     Pseudo is Ultrasoft + core correction, Zval = 14.0
     Generated by new atomic code, or converted to UPF format
     Using radial grid of  891 points,  6 beta functions with: 
                l(1) =   0
                l(2) =   0
                l(3) =   1
                l(4) =   1
                l(5) =   2
                l(6) =   2
     Q(r) pseudized with  6 coefficients,  rinner =    1.200   1.200   1.200
                                                       1.200   1.200

     PseudoPot. # 4 for S  read from file:
     /home/yuhansun/pseudos/SSSP-1.3.0-PBE-precision/s_pbe_v1.4.uspp.F.UPF
     MD5 check sum: 88d86576ff6df21479756cfb9bdac1df
     Pseudo is Ultrasoft + core correction, Zval =  6.0
     Generated by new atomic code, or converted to UPF format
     Using radial grid of  907 points,  6 beta functions with: 
                l(1) =   0
                l(2) =   0
                l(3) =   1
                l(4) =   1
                l(5) =   2
                l(6) =   2
     Q(r) pseudized with  8 coefficients,  rinner =    1.300   1.300   1.300
                                                       1.300   1.300

     atomic species   valence    mass     pseudopotential
     Sr               10.00    87.62000     Sr( 1.00)
     Cu               11.00    63.54600     Cu( 1.00)
     Sn               14.00   118.71000     Sn( 1.00)
     S                 6.00    32.06500     S ( 1.00)

     No symmetry found



   Cartesian axes

     site n.     atom                  positions (alat units)
         1        Sr     tau(   1) = (  -0.1405753   0.2434834   0.2046717  )
         2        Sr     tau(   2) = (   0.3594247   0.2434834   0.2046717  )
         3        Sr     tau(   3) = (  -0.3905753   0.6764960   0.2046717  )
         4        Sr     tau(   4) = (   0.1094247   0.6764960   0.2046717  )
         5        Sr     tau(   5) = (   0.1094247   0.1895292   0.6140139  )
         6        Sr     tau(   6) = (   0.6094247   0.1895292   0.6140139  )
         7        Sr     tau(   7) = (  -0.1405753   0.6225418   0.6140139  )
         8        Sr     tau(   8) = (   0.3594247   0.6225418   0.6140139  )
         9        Sr     tau(   9) = (   0.2811505   0.0000000   1.0233574  )
        10        Sr     tau(  10) = (   0.7811505   0.0000000   1.0233574  )
        11        Sr     tau(  11) = (   0.0311505   0.4330126   1.0233574  )
        12        Sr     tau(  12) = (   0.5311505   0.4330126   1.0233574  )
        13        Cu     tau(  13) = (  -0.1226788   0.2753211   0.5061747  )
        14        Cu     tau(  14) = (   0.3773212   0.2753211   0.5061747  )
        15        Cu     tau(  15) = (  -0.3726788   0.7083337   0.5061747  )
        16        Cu     tau(  16) = (   0.1273212   0.7083337   0.5061747  )
        17        Cu     tau(  17) = (   0.0729045   0.1891087   0.9155169  )
        18        Cu     tau(  18) = (   0.5729045   0.1891087   0.9155169  )
        19        Cu     tau(  19) = (  -0.1770956   0.6221213   0.9155169  )
        20        Cu     tau(  20) = (   0.3229044   0.6221213   0.9155169  )
        21        Cu     tau(  21) = (   0.0497750   0.4015949   0.0968325  )
        22        Cu     tau(  22) = (   0.5497750   0.4015949   0.0968325  )
        23        Cu     tau(  23) = (  -0.2002251   0.8346075   0.0968325  )
        24        Cu     tau(  24) = (   0.2997749   0.8346075   0.0968325  )
        25        Cu     tau(  25) = (   0.2997745   0.0314177   0.7218532  )
        26        Cu     tau(  26) = (   0.7997745   0.0314177   0.7218532  )
        27        Cu     tau(  27) = (   0.0497745   0.4644302   0.7218532  )
        28        Cu     tau(  28) = (   0.5497745   0.4644302   0.7218532  )
        29        Cu     tau(  29) = (   0.1273207   0.1576915   0.3125110  )
        30        Cu     tau(  30) = (   0.6273207   0.1576915   0.3125110  )
        31        Cu     tau(  31) = (  -0.1226793   0.5907041   0.3125110  )
        32        Cu     tau(  32) = (   0.3773207   0.5907041   0.3125110  )
        33        Cu     tau(  33) = (   0.3229040   0.2439039   1.1311954  )
        34        Cu     tau(  34) = (   0.8229040   0.2439039   1.1311954  )
        35        Cu     tau(  35) = (   0.0729039   0.6769164   1.1311954  )
        36        Cu     tau(  36) = (   0.5729039   0.6769164   1.1311954  )
        37        Sn     tau(  37) = (  -0.1762580   0.3052877   0.8186857  )
        38        Sn     tau(  38) = (   0.3237420   0.3052877   0.8186857  )
        39        Sn     tau(  39) = (  -0.4262581   0.7383003   0.8186857  )
        40        Sn     tau(  40) = (   0.0737419   0.7383003   0.8186857  )
        41        Sn     tau(  41) = (   0.0737420   0.1277249   0.0000000  )
        42        Sn     tau(  42) = (   0.5737420   0.1277249   0.0000000  )
        43        Sn     tau(  43) = (  -0.1762581   0.5607374   0.0000000  )
        44        Sn     tau(  44) = (   0.3237419   0.5607374   0.0000000  )
        45        Sn     tau(  45) = (   0.3525160   0.0000000   0.4093422  )
        46        Sn     tau(  46) = (   0.8525160   0.0000000   0.4093422  )
        47        Sn     tau(  47) = (   0.1025160   0.4330126   0.4093422  )
        48        Sn     tau(  48) = (   0.6025160   0.4330126   0.4093422  )
        49        S      tau(  49) = (  -0.0988203   0.2103164   0.9621206  )
        50        S      tau(  50) = (   0.4011797   0.2103164   0.9671149  )
        51        S      tau(  51) = (  -0.3488203   0.6433290   0.9671149  )
        52        S      tau(  52) = (   0.1511797   0.6433290   0.9671149  )
        53        S      tau(  53) = (   0.1172707   0.2422736   0.1484293  )
        54        S      tau(  54) = (   0.6172707   0.2422736   0.1484293  )
        55        S      tau(  55) = (  -0.1327293   0.6752862   0.1484293  )
        56        S      tau(  56) = (   0.3672707   0.6752862   0.1484293  )
        57        S      tau(  57) = (  -0.0184505   0.4134352   0.5577727  )
        58        S      tau(  58) = (   0.4815495   0.4134352   0.5577727  )
        59        S      tau(  59) = (  -0.2684506   0.8464478   0.5577727  )
        60        S      tau(  60) = (   0.2315494   0.8464478   0.5577727  )
        61        S      tau(  61) = (   0.2315495   0.0195774   0.2609129  )
        62        S      tau(  62) = (   0.7315495   0.0195774   0.2609129  )
        63        S      tau(  63) = (  -0.0184505   0.4525899   0.2609129  )
        64        S      tau(  64) = (   0.4815495   0.4525899   0.2609129  )
        65        S      tau(  65) = (   0.1511797   0.2226962   1.0795986  )
        66        S      tau(  66) = (   0.6511797   0.2226962   1.0795986  )
        67        S      tau(  67) = (  -0.0988203   0.6557088   1.0795986  )
        68        S      tau(  68) = (   0.4011797   0.6557088   1.0795986  )
        69        S      tau(  69) = (   0.3672707   0.1907390   0.6702552  )
        70        S      tau(  70) = (   0.8672707   0.1907390   0.6702552  )
        71        S      tau(  71) = (   0.1172707   0.6237516   0.6702552  )
        72        S      tau(  72) = (   0.6172707   0.6237516   0.6702552  )
        73        S      tau(  73) = (  -0.0296498   0.1532012   0.4035914  )
        74        S      tau(  74) = (   0.4703502   0.1532012   0.4035914  )
        75        S      tau(  75) = (  -0.2796498   0.5862137   0.4035914  )
        76        S      tau(  76) = (   0.2203502   0.5862137   0.4035914  )
        77        S      tau(  77) = (   0.1321490   0.3307341   0.8129336  )
        78        S      tau(  78) = (   0.6321490   0.3307341   0.8129336  )
        79        S      tau(  79) = (  -0.1178511   0.7637467   0.8129336  )
        80        S      tau(  80) = (   0.3821489   0.7637467   0.8129336  )
        81        S      tau(  81) = (  -0.1024985   0.3820894   1.2222770  )
        82        S      tau(  82) = (   0.3975015   0.3820894   1.2222770  )
        83        S      tau(  83) = (  -0.3524986   0.8151020   1.2222770  )
        84        S      tau(  84) = (   0.1475014   0.8151020   1.2222770  )
        85        S      tau(  85) = (   0.1475010   0.0509231   0.8244365  )
        86        S      tau(  86) = (   0.6475010   0.0509231   0.8244365  )
        87        S      tau(  87) = (  -0.1024990   0.4839357   0.8244365  )
        88        S      tau(  88) = (   0.3975010   0.4839357   0.8244365  )
        89        S      tau(  89) = (   0.2203497   0.2798114   0.4150943  )
        90        S      tau(  90) = (   0.7203497   0.2798114   0.4150943  )
        91        S      tau(  91) = (  -0.0296503   0.7128240   0.4150943  )
        92        S      tau(  92) = (   0.4703497   0.7128240   0.4150943  )
        93        S      tau(  93) = (   0.3821485   0.1022784   0.0057509  )
        94        S      tau(  94) = (   0.8821485   0.1022784   0.0057509  )
        95        S      tau(  95) = (   0.1321485   0.5352910   0.0057509  )
        96        S      tau(  96) = (   0.6321485   0.5352910   0.0057509  )

     number of k points=    14
                       cart. coord. in units 2pi/alat
        k(    1) = (   0.0000000   0.0000000   0.0000000), wk =   0.0740741
        k(    2) = (   0.0000000   0.0000000   0.2714379), wk =   0.1481481
        k(    3) = (   0.0000000   0.3849003   0.0000000), wk =   0.1481481
        k(    4) = (   0.0000000   0.3849003   0.2714379), wk =   0.1481481
        k(    5) = (   0.3333333   0.5773505   0.0000000), wk =   0.1481481
        k(    6) = (   0.3333333   0.5773505   0.2714379), wk =   0.1481481
        k(    7) = (  -0.3333333   0.1924501   0.0000000), wk =   0.1481481
        k(    8) = (   0.3333333   0.1924502   0.0000000), wk =   0.1481481
        k(    9) = (   0.0000000  -0.3849003   0.2714379), wk =   0.1481481
        k(   10) = (  -0.3333333   0.1924501   0.2714379), wk =   0.1481481
        k(   11) = (   0.3333333   0.1924502   0.2714379), wk =   0.1481481
        k(   12) = (  -0.3333333  -0.1924502   0.2714379), wk =   0.1481481
        k(   13) = (   0.3333333  -0.1924501   0.2714379), wk =   0.1481481
        k(   14) = (  -0.3333333  -0.5773505   0.2714379), wk =   0.1481481

     Dense  grid:  2619931 G-vectors     FFT dimensions: ( 180, 180, 216)

     Smooth grid:   926125 G-vectors     FFT dimensions: ( 120, 120, 150)

     Estimated max dynamical RAM per process >       1.07 GB

     Estimated total dynamical RAM >      33.54 GB

     Initial potential from superposition of free atoms

     starting charge     827.5884, renormalised to     840.0000

     negative rho (up, down):  7.777E-01 0.000E+00
     Starting wfcs are  672 randomized atomic wfcs
     Checking if some PAW data can be deallocated... 

     total cpu time spent up to now is       44.2 secs

     Self-consistent Calculation

     iteration #  1     ecut=    60.00 Ry     beta= 0.30
     Davidson diagonalization with overlap
     ethr =  1.00E-02,  avg # of iterations =  2.0

     negative rho (up, down):  7.747E-01 0.000E+00

     total cpu time spent up to now is      125.5 secs

     total energy              =   -9070.32135078 Ry
     estimated scf accuracy    <      21.90806423 Ry

     iteration #  2     ecut=    60.00 Ry     beta= 0.30
     Davidson diagonalization with overlap
     ethr =  2.61E-03,  avg # of iterations =  4.7

     negative rho (up, down):  7.752E-01 0.000E+00

     total cpu time spent up to now is      226.6 secs

     total energy              =   -9076.61643712 Ry
     estimated scf accuracy    <       8.14722467 Ry

     iteration #  3     ecut=    60.00 Ry     beta= 0.30
     Davidson diagonalization with overlap
     ethr =  9.70E-04,  avg # of iterations =  2.0

     negative rho (up, down):  7.804E-01 0.000E+00

     total cpu time spent up to now is      309.5 secs

     total energy              =   -9076.49394128 Ry
     estimated scf accuracy    <       1.60901304 Ry

     iteration #  4     ecut=    60.00 Ry     beta= 0.30
     Davidson diagonalization with overlap
     ethr =  1.92E-04,  avg # of iterations =  6.5

     negative rho (up, down):  7.829E-01 0.000E+00

     total cpu time spent up to now is      429.7 secs

     total energy              =   -9076.70282211 Ry
     estimated scf accuracy    <       2.06543352 Ry

     iteration #  5     ecut=    60.00 Ry     beta= 0.30
     Davidson diagonalization with overlap
     ethr =  1.92E-04,  avg # of iterations =  5.6

     negative rho (up, down):  7.882E-01 0.000E+00

     total cpu time spent up to now is      527.2 secs

     total energy              =   -9077.13942913 Ry
     estimated scf accuracy    <       0.14604960 Ry

     iteration #  6     ecut=    60.00 Ry     beta= 0.30
     Davidson diagonalization with overlap
     ethr =  1.74E-05,  avg # of iterations =  6.4

     negative rho (up, down):  7.902E-01 0.000E+00

     total cpu time spent up to now is      627.2 secs

     total energy              =   -9077.18272156 Ry
     estimated scf accuracy    <       0.01466509 Ry

     iteration #  7     ecut=    60.00 Ry     beta= 0.30
     Davidson diagonalization with overlap
     ethr =  1.75E-06,  avg # of iterations =  4.9

     negative rho (up, down):  7.908E-01 0.000E+00

     total cpu time spent up to now is      739.7 secs

     total energy              =   -9077.18730178 Ry
     estimated scf accuracy    <       0.00534528 Ry

     iteration #  8     ecut=    60.00 Ry     beta= 0.30
     Davidson diagonalization with overlap
     ethr =  6.36E-07,  avg # of iterations =  6.0

     negative rho (up, down):  7.912E-01 0.000E+00

     total cpu time spent up to now is      878.0 secs

     total energy              =   -9077.17763626 Ry
     estimated scf accuracy    <       0.05383976 Ry

     iteration #  9     ecut=    60.00 Ry     beta= 0.30
     Davidson diagonalization with overlap
     ethr =  6.36E-07,  avg # of iterations =  8.2

     negative rho (up, down):  7.911E-01 0.000E+00

     total cpu time spent up to now is     1018.0 secs

     total energy              =   -9077.18646632 Ry
     estimated scf accuracy    <       0.00101933 Ry

     iteration # 10     ecut=    60.00 Ry     beta= 0.30
     Davidson diagonalization with overlap
     ethr =  1.21E-07,  avg # of iterations =  3.9

     negative rho (up, down):  7.907E-01 0.000E+00

     total cpu time spent up to now is     1103.1 secs

     total energy              =   -9077.18631219 Ry
     estimated scf accuracy    <       0.00047749 Ry

     iteration # 11     ecut=    60.00 Ry     beta= 0.30
     Davidson diagonalization with overlap
     ethr =  5.68E-08,  avg # of iterations =  5.5

     negative rho (up, down):  7.905E-01 0.000E+00

     total cpu time spent up to now is     1210.6 secs

     total energy              =   -9077.18645966 Ry
     estimated scf accuracy    <       0.00013924 Ry

     iteration # 12     ecut=    60.00 Ry     beta= 0.30
     Davidson diagonalization with overlap
     ethr =  1.66E-08,  avg # of iterations =  3.2

     negative rho (up, down):  7.904E-01 0.000E+00

     total cpu time spent up to now is     1306.3 secs

     total energy              =   -9077.18646850 Ry
     estimated scf accuracy    <       0.00004159 Ry

     iteration # 13     ecut=    60.00 Ry     beta= 0.30
     Davidson diagonalization with overlap
     ethr =  4.95E-09,  avg # of iterations =  5.6

     negative rho (up, down):  7.903E-01 0.000E+00

     total cpu time spent up to now is     1415.2 secs

     total energy              =   -9077.18647958 Ry
     estimated scf accuracy    <       0.00001488 Ry

     iteration # 14     ecut=    60.00 Ry     beta= 0.30
     Davidson diagonalization with overlap
     ethr =  1.77E-09,  avg # of iterations =  5.1

     negative rho (up, down):  7.903E-01 0.000E+00

     total cpu time spent up to now is     1515.1 secs

     total energy              =   -9077.18648286 Ry
     estimated scf accuracy    <       0.00000282 Ry

     iteration # 15     ecut=    60.00 Ry     beta= 0.30
     Davidson diagonalization with overlap
     ethr =  3.35E-10,  avg # of iterations =  5.1

     negative rho (up, down):  7.902E-01 0.000E+00

     total cpu time spent up to now is     1617.8 secs

     total energy              =   -9077.18648297 Ry
     estimated scf accuracy    <       0.00000187 Ry

     iteration # 16     ecut=    60.00 Ry     beta= 0.30
     Davidson diagonalization with overlap
     ethr =  2.23E-10,  avg # of iterations =  5.9

     negative rho (up, down):  7.902E-01 0.000E+00

     total cpu time spent up to now is     1725.3 secs

     total energy              =   -9077.18648361 Ry
     estimated scf accuracy    <       0.00000071 Ry

     iteration # 17     ecut=    60.00 Ry     beta= 0.30
     Davidson diagonalization with overlap
     ethr =  8.44E-11,  avg # of iterations =  2.1

     negative rho (up, down):  7.902E-01 0.000E+00

     total cpu time spent up to now is     1804.4 secs

     total energy              =   -9077.18648361 Ry
     estimated scf accuracy    <       0.00000031 Ry

     iteration # 18     ecut=    60.00 Ry     beta= 0.30
     Davidson diagonalization with overlap
     ethr =  3.74E-11,  avg # of iterations =  5.9

     negative rho (up, down):  7.902E-01 0.000E+00

     total cpu time spent up to now is     1909.1 secs

     total energy              =   -9077.18648369 Ry
     estimated scf accuracy    <       0.00000001 Ry

     iteration # 19     ecut=    60.00 Ry     beta= 0.30
     Davidson diagonalization with overlap
     ethr =  1.47E-12,  avg # of iterations =  6.4

     negative rho (up, down):  7.902E-01 0.000E+00

     total cpu time spent up to now is     2051.3 secs

     total energy              =   -9077.18648370 Ry
     estimated scf accuracy    <          9.0E-09 Ry

     iteration # 20     ecut=    60.00 Ry     beta= 0.30
     Davidson diagonalization with overlap
     ethr =  1.07E-12,  avg # of iterations =  5.6

     negative rho (up, down):  7.902E-01 0.000E+00

     total cpu time spent up to now is     2155.4 secs

     total energy              =   -9077.18648370 Ry
     estimated scf accuracy    <          3.8E-09 Ry

     iteration # 21     ecut=    60.00 Ry     beta= 0.30
     Davidson diagonalization with overlap
     ethr =  4.56E-13,  avg # of iterations =  3.0

     negative rho (up, down):  7.902E-01 0.000E+00

     total cpu time spent up to now is     2245.3 secs

     End of self-consistent calculation

          k = 0.0000 0.0000 0.0000 (115723 PWs)   bands (ev):

   -28.2884 -28.2827 -28.2775 -28.2766 -28.2765 -28.2765 -28.2762 -28.2760
   -28.2729 -28.2718 -28.2712 -28.2710 -14.9321 -14.9279 -14.9276 -14.9266
   -14.9245 -14.9219 -14.9216 -14.9216 -14.9212 -14.9210 -14.9205 -14.9204
   -14.9203 -14.9202 -14.9201 -14.9193 -14.9186 -14.9157 -14.9153 -14.9152
   -14.9146 -14.9144 -14.9143 -14.9142 -14.9099 -14.9097 -14.9087 -14.9066
   -14.9055 -14.9037 -14.9032 -14.9031 -14.9025 -14.9023 -14.9023 -14.9022
   -14.8698 -14.8695 -14.8685 -14.8664 -14.8651 -14.8634 -14.8630 -14.8629
   -14.8622 -14.8622 -14.8621 -14.8621 -14.8244 -14.8242 -14.8231 -14.8212
   -14.8183 -14.8179 -14.8178 -14.8178 -14.8171 -14.8170 -14.8169 -14.8168
   -10.3481 -10.3425 -10.3389 -10.3379 -10.3377 -10.3374 -10.3340 -10.3332
   -10.3330 -10.3324 -10.3302 -10.3233 -10.3147 -10.3105 -10.3098 -10.3063
   -10.3032 -10.3029 -10.3013 -10.3008 -10.2952 -10.2916 -10.2908 -10.2825
   -10.2774 -10.2716 -10.2708 -10.2670 -10.2664 -10.2652 -10.2646 -10.2607
   -10.2602 -10.2598 -10.2580 -10.2528  -6.8649  -6.5598  -6.5549  -6.4249
    -6.4177  -6.4158  -6.3075  -6.2994  -6.2985  -6.2268  -6.2200  -6.2166
    -5.9915  -5.9884  -5.9876  -5.8500  -5.8492  -5.8475  -5.8002  -5.7961
    -5.7948  -5.7361  -5.7359  -5.6228  -5.6192  -5.6160  -5.6143  -5.6132
    -5.6109  -5.6007  -5.5623  -5.5589  -5.5567  -5.5467  -5.5459  -5.5414
    -5.5222  -5.5149  -5.4328  -5.4317  -5.4274  -5.4256  -5.3749  -5.3700
    -5.3517  -5.3462  -5.3401  -5.2513  -0.6141  -0.6101  -0.6098  -0.3893
    -0.3888  -0.3873  -0.3525  -0.3173  -0.3163  -0.3132  -0.3032  -0.3005
     1.3844   1.3847   1.3883   1.5911   1.5948   1.6586   1.7145   1.7162
     1.7176   1.8049   1.8067   1.8123   2.0197   2.0406   2.0434   2.0830
     2.0851   2.0875   2.2458   2.2467   2.2488   2.3090   2.3097   2.4013
     2.4038   2.4079   2.4596   2.4616   2.4620   2.5474   2.5516   2.6595
     2.6634   2.6665   2.7828   2.7848   2.7849   2.8704   2.8739   2.9237
     2.9264   2.9282   2.9503   2.9537   2.9566   3.0269   3.0286   3.0306
     3.0441   3.0458   3.0466   3.1654   3.2106   3.2147   3.2160   3.2282
     3.2291   3.2561   3.2587   3.2593   3.3765   3.3788   3.3795   3.3935
     3.3983   3.4244   3.4280   3.4320   3.4365   3.4372   3.4415   3.4721
     3.4758   3.4822   3.4917   3.4944   3.4953   3.4975   3.5127   3.5200
     3.5829   3.5867   3.5880   3.6245   3.6276   3.6290   3.6886   3.6897
     3.6911   3.6919   3.6937   3.7098   3.7946   3.7969   3.8250   3.8262
     3.8326   3.9643   4.0184   4.0225   4.0250   4.0364   4.0380   4.0423
     4.1212   4.1267   4.1275   4.1290   4.1712   4.1744   4.1766   4.2022
     4.2081   4.2104   4.2126   4.2437   4.2450   4.2509   4.2795   4.2835
     4.4230   4.4243   4.4282   4.5136   4.5192   4.5199   4.5351   4.5378
     4.6186   4.6207   4.6220   4.8546   5.1263   5.1552   5.1570   5.1587
     5.1744   5.1758   5.1770   5.1802   5.1816   5.2237   5.2280   5.2293
     5.2301   5.2317   5.2319   5.2521   5.2533   5.2563   5.2659   5.2676
     5.2709   5.2778   5.2808   5.2818   5.3119   5.3127   5.3138   5.3142
     5.3171   5.3270   5.3387   5.3394   5.3417   5.3757   5.3775   5.3795
     5.4398   5.4411   5.4707   5.4720   5.4730   5.4763   5.4775   5.4790
     5.4815   5.4995   5.5010   5.6020   5.6023   5.6039   5.6178   5.6200
     5.6217   5.6284   5.6482   5.6490   5.6494   5.6598   5.6615   5.6625
     5.7261   5.7266   5.7463   5.7830   5.7841   5.7873   5.8205   5.8226
     5.8248   5.9018   5.9035   5.9070   5.9270   5.9280   5.9303   5.9968
     5.9986   6.0257   6.0278   6.0281   6.1499   6.1514   6.1524   6.1533
     6.2584   6.2622   6.2632   6.2637   6.2645   6.2662   6.2892   6.2936
     6.3330   6.3348   6.3387   6.3630   6.3654   6.3658   6.3878   6.3902
     6.3923   6.5541   6.5682   6.5725   6.5734   6.6369   6.6387   6.6400
     6.7471   6.7475   6.7494   6.7649   6.7661   6.7758   6.7810   6.7852
     6.8078   6.9647   7.1784   7.1814

          k = 0.0000 0.0000 0.2714 (115879 PWs)   bands (ev):

   -28.2884 -28.2827 -28.2775 -28.2766 -28.2765 -28.2765 -28.2762 -28.2760
   -28.2729 -28.2718 -28.2712 -28.2710 -14.9321 -14.9279 -14.9276 -14.9266
   -14.9245 -14.9219 -14.9216 -14.9216 -14.9212 -14.9210 -14.9205 -14.9204
   -14.9203 -14.9202 -14.9201 -14.9193 -14.9186 -14.9157 -14.9153 -14.9152
   -14.9146 -14.9144 -14.9143 -14.9142 -14.9099 -14.9097 -14.9087 -14.9066
   -14.9055 -14.9037 -14.9032 -14.9031 -14.9025 -14.9023 -14.9023 -14.9022
   -14.8698 -14.8695 -14.8685 -14.8664 -14.8651 -14.8635 -14.8630 -14.8629
   -14.8622 -14.8622 -14.8621 -14.8621 -14.8244 -14.8242 -14.8231 -14.8212
   -14.8183 -14.8179 -14.8178 -14.8178 -14.8171 -14.8170 -14.8169 -14.8168
   -10.3484 -10.3430 -10.3396 -10.3384 -10.3381 -10.3373 -10.3339 -10.3334
   -10.3320 -10.3319 -10.3291 -10.3238 -10.3150 -10.3126 -10.3086 -10.3065
   -10.3032 -10.3025 -10.3015 -10.2969 -10.2934 -10.2927 -10.2921 -10.2846
   -10.2768 -10.2711 -10.2708 -10.2670 -10.2664 -10.2655 -10.2646 -10.2605
   -10.2600 -10.2596 -10.2584 -10.2534  -6.8257  -6.7153  -6.4207  -6.4097
    -6.4084  -6.4066  -6.3118  -6.3042  -6.3028  -6.2378  -6.2332  -6.2286
    -5.9927  -5.9904  -5.9899  -5.8526  -5.8358  -5.8341  -5.8325  -5.7785
    -5.7733  -5.7714  -5.6588  -5.6565  -5.6526  -5.6517  -5.6134  -5.6129
    -5.6124  -5.6095  -5.5595  -5.5548  -5.5519  -5.5506  -5.5459  -5.5446
    -5.5420  -5.4554  -5.4381  -5.4338  -5.4331  -5.4310  -5.3749  -5.3477
    -5.3418  -5.3383  -5.3327  -5.2816  -0.6066  -0.6022  -0.6018  -0.4132
    -0.4126  -0.4097  -0.3499  -0.3335  -0.3023  -0.3015  -0.2991  -0.2749
     1.4085   1.4097   1.4127   1.5716   1.6154   1.6168   1.6187   1.6218
     1.6577   1.9337   1.9360   1.9393   2.0062   2.0465   2.0509   2.0537
     2.0563   2.0690   2.2740   2.2753   2.2774   2.3050   2.3876   2.3889
     2.3906   2.3914   2.4145   2.4162   2.4186   2.4561   2.6193   2.6227
     2.6256   2.6675   2.7186   2.7928   2.7984   2.7995   2.7995   2.8698
     2.8730   2.8750   2.9750   2.9773   2.9793   3.0434   3.0463   3.0483
     3.1052   3.1065   3.1083   3.1762   3.1979   3.2013   3.2046   3.2071
     3.2713   3.2755   3.2761   3.2845   3.3754   3.3833   3.3849   3.3880
     3.4175   3.4209   3.4230   3.4404   3.4412   3.4429   3.4499   3.4504
     3.4518   3.4797   3.4979   3.5149   3.5194   3.5218   3.5375   3.5460
     3.5492   3.5518   3.5555   3.6347   3.6438   3.6457   3.6465   3.6546
     3.6803   3.6815   3.6837   3.7733   3.8303   3.8750   3.8774   3.8838
     3.9083   3.9226   3.9936   3.9970   3.9990   4.0559   4.0574   4.0624
     4.0748   4.1167   4.1197   4.1208   4.1471   4.1496   4.1522   4.1648
     4.1722   4.1731   4.1752   4.2113   4.2499   4.2518   4.2563   4.2680
     4.4204   4.4218   4.4253   4.4837   4.5562   4.5594   4.5616   4.6039
     4.6058   4.6071   4.6761   4.8054   5.1374   5.1481   5.1547   5.1564
     5.1583   5.1659   5.1874   5.1893   5.1905   5.2164   5.2184   5.2187
     5.2200   5.2486   5.2496   5.2517   5.2591   5.2608   5.2615   5.2653
     5.2762   5.2782   5.2795   5.2808   5.3302   5.3306   5.3320   5.3343
     5.3358   5.3383   5.3424   5.3444   5.3457   5.3670   5.3737   5.3755
     5.3789   5.3916   5.4045   5.4207   5.4222   5.4235   5.5277   5.5330
     5.5344   5.5354   5.5830   5.5889   5.5903   5.5908   5.5915   5.6200
     5.6220   5.6233   5.6531   5.6539   5.6551   5.6619   5.6814   5.6839
     5.6844   5.7557   5.7563   5.7594   5.7918   5.8003   5.8171   5.8184
     5.8212   5.8724   5.8824   5.8839   5.8866   5.9887   5.9897   5.9907
     6.0421   6.0439   6.0446   6.0977   6.0988   6.1003   6.1762   6.1897
     6.1927   6.1945   6.2375   6.2679   6.2697   6.2706   6.3250   6.3269
     6.3286   6.3585   6.3623   6.3710   6.3722   6.3751   6.3969   6.4273
     6.4299   6.4322   6.4818   6.6378   6.6414   6.6425   6.6435   6.6447
     6.6460   6.6710   6.7043   6.7081   6.7127   6.7503   6.7531   6.7555
     6.9406   7.0055   7.0939   7.1694

          k = 0.0000 0.3849 0.0000 (115797 PWs)   bands (ev):

   -28.2884 -28.2827 -28.2775 -28.2766 -28.2765 -28.2765 -28.2762 -28.2760
   -28.2729 -28.2718 -28.2712 -28.2710 -14.9321 -14.9279 -14.9275 -14.9266
   -14.9245 -14.9219 -14.9216 -14.9215 -14.9211 -14.9210 -14.9205 -14.9204
   -14.9202 -14.9202 -14.9202 -14.9193 -14.9187 -14.9157 -14.9153 -14.9152
   -14.9146 -14.9144 -14.9143 -14.9142 -14.9099 -14.9097 -14.9087 -14.9066
   -14.9055 -14.9036 -14.9032 -14.9031 -14.9024 -14.9023 -14.9023 -14.9022
   -14.8698 -14.8695 -14.8685 -14.8664 -14.8651 -14.8634 -14.8630 -14.8629
   -14.8622 -14.8622 -14.8621 -14.8621 -14.8244 -14.8242 -14.8231 -14.8212
   -14.8183 -14.8178 -14.8178 -14.8178 -14.8171 -14.8170 -14.8169 -14.8168
   -10.3474 -10.3419 -10.3382 -10.3374 -10.3368 -10.3356 -10.3345 -10.3333
   -10.3321 -10.3318 -10.3304 -10.3256 -10.3131 -10.3096 -10.3075 -10.3053
   -10.3031 -10.3028 -10.3015 -10.3003 -10.2970 -10.2942 -10.2896 -10.2852
   -10.2765 -10.2716 -10.2705 -10.2673 -10.2667 -10.2655 -10.2637 -10.2631
   -10.2615 -10.2600 -10.2581 -10.2545  -6.7898  -6.5928  -6.5042  -6.4981
    -6.4404  -6.4377  -6.3700  -6.3492  -6.2908  -6.2854  -6.2526  -6.2490
    -5.9132  -5.9111  -5.8201  -5.8185  -5.8174  -5.7780  -5.7693  -5.7672
    -5.7322  -5.7231  -5.7216  -5.6906  -5.6884  -5.6462  -5.6394  -5.6368
    -5.6297  -5.5930  -5.5864  -5.5842  -5.5685  -5.5283  -5.5216  -5.5186
    -5.5167  -5.5035  -5.4635  -5.4533  -5.4384  -5.4341  -5.4221  -5.4142
    -5.3482  -5.3442  -5.3164  -5.2713  -0.5731  -0.5695  -0.5606  -0.4350
    -0.4055  -0.4030  -0.3774  -0.3380  -0.3370  -0.3357  -0.3146  -0.3053
     1.4202   1.4873   1.4893   1.5013   1.6404   1.6527   1.6903   1.7225
     1.7273   1.8302   1.8738   1.8786   1.9533   1.9553   1.9574   2.0286
     2.1160   2.2073   2.2280   2.2289   2.3370   2.3624   2.3867   2.3878
     2.3945   2.4090   2.4488   2.5370   2.5399   2.6126   2.6147   2.6174
     2.6576   2.7355   2.8132   2.8149   2.8228   2.8404   2.8429   2.8459
     2.8543   2.8841   2.9060   2.9084   2.9155   2.9597   2.9627   3.0049
     3.0508   3.0563   3.0581   3.1259   3.1501   3.1763   3.2055   3.2114
     3.2145   3.2356   3.2560   3.2636   3.2720   3.3241   3.3296   3.3331
     3.3405   3.3750   3.3940   3.3961   3.4321   3.4397   3.4430   3.4506
     3.4948   3.4984   3.5025   3.5102   3.5124   3.5168   3.5239   3.5390
     3.5615   3.6049   3.6060   3.6129   3.6364   3.6472   3.6796   3.6820
     3.6940   3.7034   3.7065   3.7126   3.7779   3.7855   3.8498   3.8611
     3.8974   3.9728   3.9768   3.9798   3.9816   4.0312   4.0399   4.0420
     4.0944   4.1117   4.1204   4.1237   4.1290   4.1625   4.1667   4.1794
     4.2495   4.2672   4.2695   4.2835   4.3001   4.3231   4.3292   4.3689
     4.3773   4.4173   4.4193   4.4844   4.5116   4.5249   4.5279   4.5310
     4.5875   4.5928   4.6282   4.7483   5.1450   5.1457   5.1492   5.1567
     5.1619   5.1631   5.1716   5.1764   5.2154   5.2190   5.2220   5.2242
     5.2296   5.2389   5.2495   5.2506   5.2526   5.2629   5.2689   5.2729
     5.2749   5.2914   5.3054   5.3068   5.3171   5.3213   5.3283   5.3300
     5.3380   5.3516   5.3539   5.3560   5.3594   5.3675   5.4137   5.4165
     5.4347   5.4528   5.4619   5.4661   5.4876   5.4946   5.5003   5.5021
     5.5044   5.5142   5.5296   5.5450   5.5575   5.5581   5.5629   5.6045
     5.6049   5.6297   5.6321   5.6341   5.6696   5.6794   5.6961   5.6968
     5.6994   5.7188   5.7306   5.7575   5.7759   5.7779   5.8098   5.8208
     5.8215   5.8636   5.8768   5.8781   5.9521   5.9532   5.9650   5.9662
     5.9907   6.0077   6.0082   6.0220   6.1389   6.1404   6.1456   6.1623
     6.2251   6.2278   6.2319   6.2516   6.2711   6.2885   6.2895   6.3010
     6.3616   6.3643   6.3786   6.3911   6.3928   6.4417   6.4857   6.4890
     6.5253   6.5373   6.5400   6.5754   6.6049   6.6513   6.6837   6.6910
     6.6954   6.7299   6.7370   6.7392   6.7606   6.7769   6.7941   6.8117
     6.8150   6.9015   6.9093   7.0784

          k = 0.0000 0.3849 0.2714 (115773 PWs)   bands (ev):

   -28.2884 -28.2827 -28.2775 -28.2766 -28.2765 -28.2765 -28.2762 -28.2760
   -28.2729 -28.2718 -28.2712 -28.2710 -14.9321 -14.9279 -14.9275 -14.9266
   -14.9245 -14.9219 -14.9216 -14.9215 -14.9211 -14.9210 -14.9205 -14.9204
   -14.9202 -14.9202 -14.9202 -14.9193 -14.9187 -14.9157 -14.9153 -14.9152
   -14.9146 -14.9144 -14.9143 -14.9142 -14.9099 -14.9097 -14.9087 -14.9066
   -14.9055 -14.9036 -14.9032 -14.9031 -14.9024 -14.9023 -14.9023 -14.9022
   -14.8698 -14.8695 -14.8685 -14.8664 -14.8651 -14.8634 -14.8630 -14.8629
   -14.8622 -14.8622 -14.8621 -14.8621 -14.8244 -14.8242 -14.8231 -14.8212
   -14.8183 -14.8178 -14.8178 -14.8178 -14.8171 -14.8170 -14.8169 -14.8168
   -10.3476 -10.3423 -10.3385 -10.3378 -10.3372 -10.3357 -10.3350 -10.3330
   -10.3316 -10.3308 -10.3300 -10.3257 -10.3139 -10.3107 -10.3070 -10.3066
   -10.3033 -10.3009 -10.3001 -10.2991 -10.2953 -10.2945 -10.2898 -10.2875
   -10.2765 -10.2719 -10.2704 -10.2670 -10.2662 -10.2654 -10.2640 -10.2628
   -10.2613 -10.2600 -10.2583 -10.2553  -6.7530  -6.6486  -6.5638  -6.4741
    -6.4243  -6.4219  -6.3673  -6.3343  -6.3290  -6.2615  -6.2299  -6.2248
    -5.9066  -5.9050  -5.8216  -5.8204  -5.8100  -5.8073  -5.7926  -5.7618
    -5.7592  -5.7317  -5.7104  -5.7087  -5.6731  -5.6330  -5.6294  -5.6275
    -5.6266  -5.6073  -5.6006  -5.5997  -5.5690  -5.5291  -5.5247  -5.5215
    -5.5209  -5.4960  -5.4693  -5.4331  -5.4308  -5.4264  -5.4219  -5.3635
    -5.3479  -5.3437  -5.3257  -5.3008  -0.5613  -0.5579  -0.5570  -0.4371
    -0.4338  -0.4242  -0.3946  -0.3748  -0.3184  -0.3174  -0.3006  -0.2806
     1.4351   1.4854   1.4870   1.4883   1.6257   1.6423   1.7728   1.7747
     1.7827   1.7914   1.7969   1.8038   1.9168   1.9932   1.9961   2.0789
     2.1544   2.1997   2.2112   2.2464   2.2482   2.3577   2.3933   2.3945
     2.3981   2.4490   2.5111   2.5127   2.5460   2.5901   2.5936   2.6080
     2.6439   2.7114   2.7625   2.7676   2.7696   2.7897   2.8095   2.8111
     2.8390   2.8756   2.9141   2.9159   2.9193   2.9815   3.0210   3.0241
     3.0692   3.1054   3.1092   3.1336   3.1713   3.1921   3.1939   3.1955
     3.2022   3.2321   3.2605   3.2675   3.2781   3.3188   3.3201   3.3235
     3.3274   3.3872   3.3900   3.4129   3.4452   3.4472   3.4673   3.4708
     3.4737   3.4745   3.4769   3.4785   3.5327   3.5368   3.5397   3.5931
     3.6106   3.6131   3.6164   3.6344   3.6384   3.6490   3.6591   3.6609
     3.6660   3.7113   3.7121   3.7157   3.8350   3.8411   3.8810   3.8893
     3.9055   3.9494   3.9512   3.9764   3.9837   4.0213   4.0476   4.0507
     4.0518   4.0679   4.1105   4.1151   4.1224   4.1335   4.1361   4.1487
     4.1923   4.2557   4.2677   4.2703   4.2898   4.2916   4.2944   4.3852
     4.3970   4.4375   4.4408   4.4677   4.5248   4.5269   4.5320   4.5927
     4.6083   4.6121   4.6234   4.7218   5.1515   5.1531   5.1562   5.1588
     5.1742   5.1776   5.1783   5.1850   5.1926   5.1993   5.2028   5.2075
     5.2110   5.2348   5.2366   5.2392   5.2564   5.2654   5.2664   5.2694
     5.2820   5.2997   5.3097   5.3130   5.3155   5.3297   5.3380   5.3399
     5.3588   5.3608   5.3619   5.3654   5.3818   5.3944   5.4073   5.4096
     5.4147   5.4333   5.4359   5.4453   5.4471   5.4945   5.5024   5.5042
     5.5111   5.5174   5.5551   5.5612   5.5753   5.5766   5.6042   5.6124
     5.6130   5.6204   5.6253   5.6277   5.6441   5.6710   5.6826   5.7135
     5.7170   5.7195   5.7343   5.7731   5.7745   5.7754   5.8033   5.8054
     5.8110   5.8600   5.8765   5.8774   5.8793   5.9152   5.9598   5.9613
     6.0340   6.0354   6.0362   6.0603   6.0790   6.0805   6.1744   6.2070
     6.2116   6.2153   6.2636   6.2680   6.2713   6.2783   6.2868   6.3494
     6.3524   6.3670   6.3734   6.4158   6.4244   6.4255   6.4287   6.4715
     6.4977   6.5002   6.5450   6.5604   6.5950   6.5977   6.6656   6.6689
     6.6766   6.7182   6.7366   6.7377   6.7492   6.8134   6.8151   6.8449
     6.8649   6.9267   6.9376   7.0500

          k = 0.3333 0.5774 0.0000 (115752 PWs)   bands (ev):

   -28.2884 -28.2827 -28.2775 -28.2766 -28.2765 -28.2765 -28.2762 -28.2760
   -28.2729 -28.2718 -28.2712 -28.2710 -14.9321 -14.9278 -14.9276 -14.9266
   -14.9246 -14.9218 -14.9216 -14.9216 -14.9211 -14.9210 -14.9205 -14.9204
   -14.9202 -14.9202 -14.9202 -14.9193 -14.9187 -14.9157 -14.9153 -14.9152
   -14.9145 -14.9144 -14.9144 -14.9142 -14.9099 -14.9097 -14.9087 -14.9066
   -14.9055 -14.9036 -14.9032 -14.9031 -14.9024 -14.9023 -14.9023 -14.9022
   -14.8698 -14.8695 -14.8685 -14.8664 -14.8651 -14.8634 -14.8630 -14.8629
   -14.8622 -14.8622 -14.8621 -14.8621 -14.8243 -14.8242 -14.8231 -14.8212
   -14.8183 -14.8178 -14.8178 -14.8178 -14.8171 -14.8170 -14.8169 -14.8168
   -10.3473 -10.3415 -10.3382 -10.3366 -10.3360 -10.3351 -10.3348 -10.3338
   -10.3329 -10.3297 -10.3290 -10.3283 -10.3127 -10.3093 -10.3055 -10.3052
   -10.3037 -10.3020 -10.3018 -10.3008 -10.2978 -10.2914 -10.2896 -10.2890
   -10.2763 -10.2717 -10.2689 -10.2679 -10.2670 -10.2646 -10.2644 -10.2635
   -10.2630 -10.2595 -10.2584 -10.2563  -6.6568  -6.6503  -6.6497  -6.4151
    -6.4003  -6.3992  -6.3980  -6.3970  -6.3968  -6.2972  -6.2925  -6.1955
    -5.8646  -5.8513  -5.8493  -5.7512  -5.7491  -5.7472  -5.7355  -5.7310
    -5.7301  -5.7099  -5.7068  -5.6978  -5.6942  -5.6928  -5.6858  -5.6841
    -5.6814  -5.6461  -5.5427  -5.5413  -5.5388  -5.5323  -5.5279  -5.5263
    -5.5118  -5.4772  -5.4719  -5.4698  -5.4687  -5.4661  -5.4629  -5.3999
    -5.3936  -5.3043  -5.3011  -5.3001  -0.5432  -0.5163  -0.5145  -0.5128
    -0.3979  -0.3939  -0.3918  -0.3907  -0.3888  -0.3129  -0.3093  -0.3078
     1.4834   1.4848   1.4863   1.6739   1.6757   1.6778   1.6854   1.6881
     1.6925   1.7332   1.7357   1.8003   2.0775   2.0815   2.0825   2.0835
     2.0855   2.1428   2.1452   2.1456   2.2547   2.3943   2.3966   2.3978
     2.4925   2.4942   2.4966   2.5625   2.5640   2.5656   2.5953   2.5985
     2.7722   2.7751   2.7769   2.8326   2.8380   2.8420   2.8442   2.8457
     2.8487   2.8515   2.8537   2.8546   2.8683   3.0069   3.0107   3.0120
     3.0244   3.0270   3.0306   3.0623   3.1337   3.1342   3.1386   3.1967
     3.1980   3.2014   3.2593   3.2609   3.2619   3.2709   3.2733   3.3631
     3.3689   3.3721   3.3739   3.3753   3.4254   3.4264   3.4309   3.4845
     3.4914   3.4989   3.5036   3.5050   3.5272   3.5309   3.5332   3.5472
     3.5495   3.5776   3.5808   3.5826   3.6477   3.6517   3.6541   3.7189
     3.7222   3.7248   3.7278   3.7333   3.7580   3.8006   3.8028   3.8086
     3.9581   3.9598   3.9636   3.9874   3.9902   4.0299   4.0309   4.0340
     4.0841   4.0850   4.0876   4.1425   4.1516   4.1525   4.1553   4.2846
     4.2879   4.2953   4.3150   4.3193   4.3205   4.3219   4.3234   4.3243
     4.3823   4.3876   4.3896   4.4968   4.5128   4.5157   4.5182   4.5220
     4.5237   4.6505   4.6554   4.6571   5.1390   5.1451   5.1459   5.1473
     5.1743   5.1754   5.1888   5.1903   5.1906   5.1978   5.1984   5.2016
     5.2476   5.2488   5.2501   5.2661   5.2678   5.2693   5.2982   5.3005
     5.3013   5.3021   5.3046   5.3054   5.3152   5.3199   5.3213   5.3239
     5.3411   5.3421   5.3445   5.4018   5.4051   5.4056   5.4094   5.4107
     5.4549   5.4573   5.4580   5.4594   5.4842   5.4854   5.4864   5.4901
     5.4917   5.5361   5.5369   5.5379   5.5645   5.5661   5.5671   5.5711
     5.5720   5.5736   5.6426   5.6733   5.6738   5.6952   5.6962   5.6969
     5.7080   5.7090   5.7099   5.7810   5.7815   5.7827   5.7987   5.8010
     5.8027   5.8249   5.8261   5.8453   5.9318   5.9323   5.9347   6.0461
     6.0475   6.0482   6.0492   6.0504   6.1385   6.1394   6.1407   6.1595
     6.2186   6.2205   6.2217   6.2583   6.2609   6.2626   6.2846   6.2861
     6.3742   6.4080   6.4113   6.4132   6.4166   6.4181   6.4238   6.4513
     6.4528   6.4548   6.6129   6.6149   6.6162   6.6739   6.6762   6.6783
     6.7253   6.7401   6.7429   6.8040   6.8062   6.8076   6.8090   6.8114
     6.8129   6.9377   6.9393   6.9405

          k = 0.3333 0.5774 0.2714 (115827 PWs)   bands (ev):

   -28.2884 -28.2827 -28.2775 -28.2766 -28.2765 -28.2765 -28.2762 -28.2760
   -28.2729 -28.2718 -28.2712 -28.2710 -14.9321 -14.9278 -14.9276 -14.9266
   -14.9246 -14.9218 -14.9216 -14.9216 -14.9211 -14.9210 -14.9205 -14.9204
   -14.9202 -14.9202 -14.9202 -14.9193 -14.9187 -14.9157 -14.9153 -14.9152
   -14.9145 -14.9144 -14.9144 -14.9142 -14.9099 -14.9097 -14.9087 -14.9066
   -14.9055 -14.9036 -14.9032 -14.9031 -14.9024 -14.9023 -14.9023 -14.9022
   -14.8698 -14.8695 -14.8685 -14.8664 -14.8651 -14.8634 -14.8630 -14.8629
   -14.8622 -14.8622 -14.8621 -14.8621 -14.8243 -14.8242 -14.8231 -14.8212
   -14.8183 -14.8178 -14.8178 -14.8178 -14.8171 -14.8170 -14.8169 -14.8168
   -10.3475 -10.3418 -10.3386 -10.3374 -10.3369 -10.3351 -10.3346 -10.3326
   -10.3321 -10.3297 -10.3291 -10.3279 -10.3133 -10.3102 -10.3074 -10.3063
   -10.3034 -10.3001 -10.2988 -10.2983 -10.2964 -10.2926 -10.2911 -10.2905
   -10.2763 -10.2717 -10.2691 -10.2676 -10.2669 -10.2654 -10.2639 -10.2626
   -10.2621 -10.2604 -10.2592 -10.2567  -6.6252  -6.6181  -6.6175  -6.5313
    -6.5247  -6.5239  -6.3134  -6.2965  -6.2891  -6.2884  -6.2599  -6.2166
    -5.8745  -5.8571  -5.8443  -5.7811  -5.7792  -5.7760  -5.7452  -5.7421
    -5.7405  -5.7157  -5.6914  -5.6875  -5.6866  -5.6759  -5.6718  -5.6707
    -5.6690  -5.6452  -5.5574  -5.5560  -5.5544  -5.5274  -5.5252  -5.5224
    -5.5047  -5.5036  -5.5020  -5.5001  -5.4601  -5.4015  -5.3976  -5.3961
    -5.3578  -5.3254  -5.3221  -5.3205  -0.5193  -0.5074  -0.5060  -0.5038
    -0.4606  -0.4186  -0.4165  -0.4159  -0.3550  -0.2952  -0.2925  -0.2913
     1.4817   1.4833   1.4843   1.6370   1.6398   1.6424   1.6900   1.7745
     1.7766   1.7772   1.7820   1.7947   1.9801   1.9813   1.9826   2.0545
     2.1711   2.1916   2.1937   2.1944   2.2462   2.3955   2.3970   2.3986
     2.4859   2.4884   2.4908   2.5567   2.5865   2.5883   2.5895   2.5916
     2.6788   2.7346   2.7378   2.7393   2.8217   2.8238   2.8257   2.8279
     2.9006   2.9024   2.9045   2.9246   2.9342   2.9517   2.9561   2.9592
     3.0596   3.0607   3.0634   3.0881   3.0899   3.0912   3.1267   3.1814
     3.2450   3.2456   3.2475   3.2713   3.2726   3.2733   3.3221   3.3243
     3.3289   3.3308   3.3753   3.4082   3.4219   3.4660   3.4662   3.4702
     3.4931   3.4959   3.5011   3.5023   3.5351   3.5375   3.5389   3.5431
     3.5617   3.6144   3.6177   3.6200   3.6529   3.6552   3.6596   3.6943
     3.6988   3.7024   3.7201   3.7471   3.8223   3.8406   3.8426   3.8474
     3.9378   3.9410   3.9416   3.9450   4.0302   4.0316   4.0321   4.0418
     4.0672   4.0697   4.0710   4.1103   4.1150   4.1156   4.1179   4.1700
     4.2716   4.2744   4.2751   4.2923   4.3159   4.3589   4.3611   4.3641
     4.4132   4.4177   4.4208   4.4891   4.4943   4.4963   4.5076   4.5127
     4.5648   4.6632   4.6680   4.6696   5.1500   5.1579   5.1593   5.1596
     5.1601   5.1832   5.1845   5.1861   5.1996   5.2001   5.2023   5.2129
     5.2263   5.2273   5.2291   5.2520   5.2533   5.2558   5.2592   5.2694
     5.3017   5.3024   5.3046   5.3114   5.3298   5.3306   5.3335   5.3685
     5.3699   5.3708   5.3764   5.3954   5.3977   5.4094   5.4108   5.4125
     5.4341   5.4351   5.4366   5.4403   5.4848   5.4861   5.4876   5.4921
     5.5401   5.5409   5.5424   5.5460   5.5663   5.5677   5.5692   5.6066
     5.6076   5.6084   5.6396   5.6408   5.6731   5.6747   5.6749   5.7035
     5.7042   5.7066   5.7176   5.7597   5.7609   5.7625   5.8027   5.8087
     5.8224   5.8238   5.8252   5.8268   5.8916   5.8921   5.8940   6.0576
     6.0601   6.0616   6.0635   6.0764   6.1205   6.1214   6.1228   6.1363
     6.1966   6.2369   6.2394   6.2409   6.2850   6.3006   6.3031   6.3043
     6.3077   6.3848   6.3868   6.3881   6.4501   6.4661   6.4690   6.4702
     6.4906   6.4937   6.5566   6.5606   6.5615   6.6457   6.6825   6.6858
     6.6871   6.7600   6.7762   6.7788   6.7800   6.7942   6.8510   6.8558
     6.8563   6.9338   6.9366   6.9379

          k =-0.3333 0.1925 0.0000 (115797 PWs)   bands (ev):

   -28.2884 -28.2827 -28.2775 -28.2766 -28.2765 -28.2765 -28.2762 -28.2760
   -28.2729 -28.2718 -28.2712 -28.2710 -14.9321 -14.9278 -14.9276 -14.9266
   -14.9246 -14.9218 -14.9216 -14.9216 -14.9211 -14.9211 -14.9205 -14.9204
   -14.9202 -14.9202 -14.9202 -14.9193 -14.9187 -14.9157 -14.9153 -14.9152
   -14.9145 -14.9144 -14.9144 -14.9142 -14.9099 -14.9097 -14.9087 -14.9066
   -14.9055 -14.9036 -14.9032 -14.9031 -14.9024 -14.9023 -14.9023 -14.9022
   -14.8698 -14.8695 -14.8685 -14.8664 -14.8651 -14.8634 -14.8630 -14.8629
   -14.8622 -14.8622 -14.8621 -14.8621 -14.8244 -14.8242 -14.8231 -14.8212
   -14.8183 -14.8178 -14.8178 -14.8178 -14.8171 -14.8170 -14.8169 -14.8168
   -10.3478 -10.3415 -10.3386 -10.3377 -10.3375 -10.3360 -10.3342 -10.3326
   -10.3318 -10.3316 -10.3302 -10.3255 -10.3134 -10.3097 -10.3076 -10.3054
   -10.3038 -10.3024 -10.3019 -10.3004 -10.2936 -10.2927 -10.2924 -10.2856
   -10.2769 -10.2705 -10.2703 -10.2679 -10.2671 -10.2662 -10.2630 -10.2614
   -10.2606 -10.2598 -10.2596 -10.2559  -6.7897  -6.5918  -6.5039  -6.4984
    -6.4427  -6.4389  -6.3683  -6.3509  -6.2919  -6.2840  -6.2529  -6.2477
    -5.9092  -5.9087  -5.8221  -5.8178  -5.8173  -5.7763  -5.7692  -5.7678
    -5.7305  -5.7248  -5.7223  -5.6920  -5.6897  -5.6517  -5.6389  -5.6376
    -5.6301  -5.5990  -5.5842  -5.5830  -5.5656  -5.5278  -5.5204  -5.5178
    -5.5160  -5.5049  -5.4602  -5.4530  -5.4363  -5.4342  -5.4239  -5.4135
    -5.3530  -5.3487  -5.3109  -5.2701  -0.5698  -0.5691  -0.5642  -0.4377
    -0.4028  -0.4022  -0.3765  -0.3408  -0.3401  -0.3379  -0.3110  -0.3023
     1.4194   1.4867   1.4885   1.5025   1.6387   1.6541   1.6885   1.7238
     1.7264   1.8286   1.8770   1.8801   1.9546   1.9568   1.9584   2.0287
     2.1158   2.2060   2.2286   2.2316   2.3398   2.3629   2.3843   2.3856
     2.3940   2.4090   2.4500   2.5355   2.5388   2.6107   2.6132   2.6165
     2.6583   2.7332   2.8105   2.8135   2.8216   2.8398   2.8424   2.8444
     2.8525   2.8854   2.9074   2.9102   2.9148   2.9625   2.9643   3.0038
     3.0485   3.0578   3.0595   3.1246   3.1462   3.1765   3.2072   3.2127
     3.2154   3.2330   3.2609   3.2622   3.2699   3.3240   3.3308   3.3320
     3.3415   3.3754   3.3976   3.3986   3.4325   3.4409   3.4439   3.4504
     3.4939   3.4992   3.5029   3.5091   3.5115   3.5176   3.5209   3.5461
     3.5630   3.6050   3.6073   3.6108   3.6355   3.6450   3.6798   3.6832
     3.6966   3.7005   3.7046   3.7132   3.7792   3.7841   3.8505   3.8609
     3.8961   3.9757   3.9768   3.9803   3.9834   4.0307   4.0382   4.0405
     4.0909   4.1104   4.1216   4.1233   4.1284   4.1652   4.1673   4.1784
     4.2487   4.2652   4.2680   4.2823   4.3037   4.3229   4.3254   4.3699
     4.3807   4.4149   4.4172   4.4839   4.5195   4.5243   4.5279   4.5333
     4.5924   4.5931   4.6216   4.7456   5.1446   5.1469   5.1487   5.1563
     5.1610   5.1628   5.1715   5.1773   5.2167   5.2192   5.2217   5.2239
     5.2288   5.2392   5.2491   5.2505   5.2534   5.2633   5.2707   5.2735
     5.2742   5.2917   5.3050   5.3063   5.3167   5.3209   5.3276   5.3317
     5.3382   5.3507   5.3537   5.3552   5.3590   5.3673   5.4146   5.4173
     5.4341   5.4528   5.4611   5.4636   5.4864   5.4950   5.5009   5.5032
     5.5045   5.5126   5.5278   5.5455   5.5574   5.5592   5.5624   5.6048
     5.6063   5.6311   5.6334   5.6342   5.6696   5.6790   5.6954   5.6978
     5.6990   5.7188   5.7315   5.7573   5.7759   5.7778   5.8106   5.8194
     5.8203   5.8663   5.8756   5.8774   5.9528   5.9542   5.9654   5.9664
     5.9921   6.0070   6.0082   6.0213   6.1390   6.1400   6.1454   6.1616
     6.2271   6.2303   6.2325   6.2547   6.2695   6.2906   6.2922   6.2985
     6.3612   6.3618   6.3776   6.3897   6.3915   6.4407   6.4834   6.4876
     6.5253   6.5380   6.5385   6.5748   6.6055   6.6498   6.6834   6.6932
     6.6938   6.7285   6.7365   6.7387   6.7624   6.7792   6.7908   6.8099
     6.8132   6.9053   6.9097   7.0815

          k = 0.3333 0.1925 0.0000 (115797 PWs)   bands (ev):

   -28.2884 -28.2827 -28.2775 -28.2766 -28.2765 -28.2765 -28.2762 -28.2760
   -28.2729 -28.2718 -28.2712 -28.2710 -14.9321 -14.9278 -14.9276 -14.9266
   -14.9246 -14.9218 -14.9216 -14.9216 -14.9211 -14.9210 -14.9205 -14.9204
   -14.9202 -14.9202 -14.9202 -14.9193 -14.9187 -14.9157 -14.9153 -14.9152
   -14.9146 -14.9144 -14.9143 -14.9142 -14.9099 -14.9097 -14.9087 -14.9066
   -14.9055 -14.9036 -14.9032 -14.9031 -14.9025 -14.9023 -14.9023 -14.9022
   -14.8698 -14.8695 -14.8685 -14.8664 -14.8651 -14.8634 -14.8630 -14.8629
   -14.8622 -14.8622 -14.8621 -14.8621 -14.8243 -14.8242 -14.8231 -14.8212
   -14.8183 -14.8179 -14.8178 -14.8178 -14.8171 -14.8170 -14.8169 -14.8168
   -10.3476 -10.3422 -10.3378 -10.3373 -10.3367 -10.3355 -10.3345 -10.3333
   -10.3325 -10.3319 -10.3302 -10.3255 -10.3133 -10.3098 -10.3070 -10.3055
   -10.3030 -10.3027 -10.3016 -10.3009 -10.2963 -10.2934 -10.2901 -10.2853
   -10.2767 -10.2720 -10.2701 -10.2669 -10.2660 -10.2648 -10.2643 -10.2633
   -10.2613 -10.2608 -10.2582 -10.2546  -6.7897  -6.5916  -6.5035  -6.4994
    -6.4449  -6.4374  -6.3664  -6.3533  -6.2882  -6.2846  -6.2529  -6.2477
    -5.9128  -5.9095  -5.8212  -5.8190  -5.8169  -5.7789  -5.7688  -5.7664
    -5.7315  -5.7239  -5.7229  -5.6911  -5.6877  -5.6468  -5.6383  -5.6367
    -5.6292  -5.5980  -5.5863  -5.5837  -5.5689  -5.5286  -5.5191  -5.5179
    -5.5156  -5.5043  -5.4635  -5.4502  -5.4394  -5.4363  -5.4203  -5.4155
    -5.3506  -5.3453  -5.3136  -5.2706  -0.5727  -0.5698  -0.5615  -0.4364
    -0.4050  -0.4034  -0.3777  -0.3387  -0.3371  -0.3348  -0.3133  -0.3040
     1.4184   1.4871   1.4904   1.5013   1.6427   1.6537   1.6908   1.7219
     1.7268   1.8278   1.8760   1.8787   1.9537   1.9560   1.9570   2.0274
     2.1153   2.2068   2.2291   2.2307   2.3380   2.3627   2.3825   2.3878
     2.3929   2.4096   2.4500   2.5354   2.5401   2.6101   2.6143   2.6175
     2.6565   2.7361   2.8111   2.8138   2.8209   2.8376   2.8425   2.8446
     2.8554   2.8865   2.9071   2.9093   2.9150   2.9612   2.9635   3.0038
     3.0536   3.0569   3.0588   3.1241   3.1506   3.1771   3.2039   3.2101
     3.2135   3.2356   3.2619   3.2635   3.2692   3.3256   3.3317   3.3346
     3.3394   3.3727   3.3954   3.3965   3.4330   3.4415   3.4475   3.4524
     3.4953   3.4995   3.5002   3.5093   3.5137   3.5142   3.5221   3.5422
     3.5605   3.6042   3.6057   3.6133   3.6340   3.6487   3.6785   3.6820
     3.6932   3.7023   3.7055   3.7127   3.7789   3.7816   3.8507   3.8656
     3.8975   3.9745   3.9757   3.9802   3.9813   4.0294   4.0395   4.0437
     4.0955   4.1112   4.1214   4.1235   4.1275   4.1632   4.1650   4.1797
     4.2479   4.2664   4.2684   4.2824   4.3039   4.3238   4.3250   4.3687
     4.3775   4.4151   4.4201   4.4822   4.5176   4.5264   4.5279   4.5314
     4.5884   4.5923   4.6282   4.7482   5.1436   5.1463   5.1488   5.1561
     5.1608   5.1639   5.1717   5.1770   5.2156   5.2206   5.2217   5.2238
     5.2310   5.2389   5.2497   5.2512   5.2523   5.2630   5.2676   5.2724
     5.2759   5.2904   5.3049   5.3080   5.3143   5.3204   5.3294   5.3308
     5.3400   5.3502   5.3537   5.3555   5.3597   5.3677   5.4142   5.4174
     5.4356   5.4529   5.4618   5.4627   5.4861   5.4952   5.5009   5.5027
     5.5047   5.5145   5.5305   5.5454   5.5576   5.5587   5.5624   5.6030
     5.6048   5.6308   5.6323   5.6340   5.6698   5.6805   5.6959   5.6975
     5.6986   5.7183   5.7307   5.7579   5.7758   5.7772   5.8096   5.8199
     5.8219   5.8642   5.8769   5.8788   5.9513   5.9530   5.9657   5.9667
     5.9909   6.0064   6.0085   6.0223   6.1397   6.1412   6.1463   6.1619
     6.2251   6.2297   6.2305   6.2516   6.2721   6.2885   6.2901   6.3006
     6.3613   6.3632   6.3771   6.3889   6.3914   6.4425   6.4843   6.4884
     6.5250   6.5373   6.5386   6.5759   6.6048   6.6505   6.6846   6.6911
     6.6950   6.7298   6.7371   6.7393   6.7621   6.7775   6.7926   6.8091
     6.8150   6.9038   6.9090   7.0806

          k = 0.0000-0.3849 0.2714 (115773 PWs)   bands (ev):

   -28.2884 -28.2827 -28.2775 -28.2766 -28.2765 -28.2765 -28.2762 -28.2760
   -28.2729 -28.2718 -28.2712 -28.2710 -14.9321 -14.9279 -14.9275 -14.9266
   -14.9245 -14.9219 -14.9216 -14.9215 -14.9211 -14.9210 -14.9205 -14.9204
   -14.9202 -14.9202 -14.9202 -14.9193 -14.9187 -14.9157 -14.9153 -14.9152
   -14.9146 -14.9144 -14.9143 -14.9142 -14.9099 -14.9097 -14.9087 -14.9066
   -14.9055 -14.9036 -14.9032 -14.9031 -14.9024 -14.9023 -14.9023 -14.9022
   -14.8698 -14.8695 -14.8685 -14.8664 -14.8651 -14.8634 -14.8630 -14.8629
   -14.8622 -14.8622 -14.8621 -14.8621 -14.8244 -14.8242 -14.8231 -14.8212
   -14.8183 -14.8178 -14.8178 -14.8178 -14.8171 -14.8170 -14.8169 -14.8168
   -10.3476 -10.3424 -10.3385 -10.3378 -10.3372 -10.3356 -10.3350 -10.3330
   -10.3317 -10.3310 -10.3298 -10.3257 -10.3138 -10.3112 -10.3065 -10.3062
   -10.3037 -10.3014 -10.2992 -10.2987 -10.2953 -10.2947 -10.2919 -10.2863
   -10.2761 -10.2718 -10.2701 -10.2673 -10.2668 -10.2654 -10.2635 -10.2628
   -10.2610 -10.2604 -10.2586 -10.2550  -6.7531  -6.6486  -6.5647  -6.4704
    -6.4207  -6.4187  -6.3671  -6.3457  -6.3408  -6.2681  -6.2167  -6.2109
    -5.9154  -5.9139  -5.8246  -5.8203  -5.8181  -5.8164  -5.7673  -5.7639
    -5.7537  -5.7317  -5.6850  -5.6817  -5.6803  -5.6640  -5.6422  -5.6409
    -5.6365  -5.6073  -5.5868  -5.5857  -5.5730  -5.5302  -5.5285  -5.5265
    -5.5171  -5.4875  -5.4651  -5.4400  -5.4388  -5.4347  -5.3977  -5.3712
    -5.3441  -5.3403  -5.3364  -5.2969  -0.5647  -0.5605  -0.5501  -0.4321
    -0.4303  -0.4268  -0.4117  -0.3627  -0.3215  -0.3207  -0.2919  -0.2846
     1.4063   1.4942   1.4966   1.5159   1.6131   1.7097   1.7142   1.7223
     1.7381   1.7756   1.8432   1.8473   1.9676   1.9885   2.0197   2.0217
     2.1284   2.1994   2.2084   2.2101   2.2845   2.3316   2.3954   2.4265
     2.4285   2.5187   2.5281   2.5297   2.5575   2.5582   2.5603   2.5619
     2.5992   2.6780   2.7633   2.7660   2.8245   2.8260   2.8266   2.8305
     2.8505   2.8552   2.8943   2.8955   2.9052   3.0079   3.0159   3.0185
     3.0782   3.0805   3.1176   3.1194   3.1342   3.1798   3.1835   3.1895
     3.2150   3.2466   3.2675   3.2797   3.2886   3.2972   3.3309   3.3336
     3.3726   3.3776   3.3792   3.3816   3.4464   3.4487   3.4511   3.4785
     3.4795   3.4826   3.5085   3.5133   3.5323   3.5362   3.5397   3.5599
     3.5863   3.5889   3.6116   3.6325   3.6418   3.6445   3.6833   3.6847
     3.6879   3.6970   3.7046   3.7070   3.8360   3.8427   3.8793   3.8808
     3.9418   3.9446   3.9475   3.9499   3.9734   4.0336   4.0553   4.0564
     4.0609   4.0643   4.0999   4.1037   4.1232   4.1249   4.1316   4.1370
     4.2260   4.2423   4.2700   4.2716   4.2910   4.2972   4.3109   4.3651
     4.3920   4.4342   4.4374   4.4792   4.5164   4.5452   4.5468   4.5826
     4.5934   4.5977   4.6325   4.7302   5.1490   5.1499   5.1556   5.1658
     5.1695   5.1702   5.1723   5.1751   5.2012   5.2066   5.2140   5.2184
     5.2208   5.2315   5.2419   5.2443   5.2625   5.2646   5.2667   5.2672
     5.2690   5.2756   5.3113   5.3137   5.3203   5.3350   5.3477   5.3495
     5.3612   5.3644   5.3647   5.3699   5.3719   5.3832   5.3888   5.3915
     5.4109   5.4348   5.4489   5.4518   5.4542   5.4709   5.4975   5.4997
     5.5186   5.5262   5.5571   5.5590   5.5696   5.5719   5.6036   5.6038
     5.6092   5.6216   5.6320   5.6505   5.6522   5.6622   5.6758   5.7081
     5.7116   5.7399   5.7607   5.7627   5.7721   5.7853   5.8059   5.8075
     5.8150   5.8413   5.8687   5.8693   5.8769   5.8947   5.9701   5.9708
     6.0200   6.0259   6.0264   6.1016   6.1036   6.1124   6.1607   6.1891
     6.2005   6.2044   6.2049   6.2597   6.2654   6.2888   6.3188   6.3437
     6.3556   6.3692   6.3721   6.4150   6.4193   6.4224   6.4527   6.4815
     6.4835   6.5069   6.5572   6.5680   6.6061   6.6096   6.6465   6.6663
     6.6692   6.7362   6.7385   6.7402   6.7479   6.8039   6.8066   6.8510
     6.8632   6.9183   6.9457   7.0357

          k =-0.3333 0.1925 0.2714 (115773 PWs)   bands (ev):

   -28.2884 -28.2827 -28.2775 -28.2766 -28.2765 -28.2765 -28.2762 -28.2760
   -28.2729 -28.2718 -28.2712 -28.2710 -14.9321 -14.9278 -14.9276 -14.9266
   -14.9246 -14.9218 -14.9216 -14.9216 -14.9211 -14.9211 -14.9205 -14.9204
   -14.9202 -14.9202 -14.9202 -14.9193 -14.9187 -14.9157 -14.9153 -14.9152
   -14.9145 -14.9144 -14.9144 -14.9142 -14.9099 -14.9097 -14.9087 -14.9066
   -14.9055 -14.9036 -14.9032 -14.9031 -14.9024 -14.9023 -14.9023 -14.9022
   -14.8698 -14.8695 -14.8685 -14.8664 -14.8651 -14.8634 -14.8630 -14.8629
   -14.8622 -14.8622 -14.8621 -14.8621 -14.8244 -14.8242 -14.8231 -14.8212
   -14.8183 -14.8178 -14.8178 -14.8178 -14.8171 -14.8170 -14.8169 -14.8168
   -10.3480 -10.3418 -10.3392 -10.3381 -10.3379 -10.3362 -10.3343 -10.3319
   -10.3310 -10.3306 -10.3299 -10.3262 -10.3138 -10.3109 -10.3079 -10.3061
   -10.3039 -10.3032 -10.2982 -10.2955 -10.2942 -10.2938 -10.2935 -10.2877
   -10.2768 -10.2705 -10.2701 -10.2681 -10.2674 -10.2655 -10.2625 -10.2618
   -10.2601 -10.2597 -10.2594 -10.2573  -6.7529  -6.6485  -6.5629  -6.4715
    -6.4239  -6.4204  -6.3672  -6.3452  -6.3390  -6.2677  -6.2168  -6.2099
    -5.9120  -5.9114  -5.8242  -5.8225  -5.8177  -5.8169  -5.7663  -5.7634
    -5.7518  -5.7344  -5.6858  -5.6828  -5.6813  -5.6618  -5.6440  -5.6429
    -5.6402  -5.6101  -5.5864  -5.5834  -5.5713  -5.5318  -5.5285  -5.5265
    -5.5139  -5.4848  -5.4667  -5.4388  -5.4366  -5.4351  -5.4030  -5.3706
    -5.3481  -5.3446  -5.3276  -5.2958  -0.5606  -0.5602  -0.5544  -0.4360
    -0.4287  -0.4281  -0.4093  -0.3603  -0.3242  -0.3233  -0.2891  -0.2833
     1.4055   1.4931   1.4955   1.5171   1.6140   1.7114   1.7142   1.7214
     1.7372   1.7736   1.8457   1.8475   1.9661   1.9866   2.0233   2.0257
     2.1305   2.1983   2.2072   2.2095   2.2860   2.3352   2.3976   2.4249
     2.4271   2.5163   2.5281   2.5298   2.5540   2.5572   2.5593   2.5597
     2.5998   2.6784   2.7630   2.7649   2.8204   2.8250   2.8252   2.8306
     2.8486   2.8541   2.8956   2.8971   2.9064   3.0062   3.0179   3.0203
     3.0745   3.0803   3.1190   3.1206   3.1336   3.1821   3.1841   3.1896
     3.2122   3.2462   3.2663   3.2860   3.2870   3.2961   3.3304   3.3319
     3.3759   3.3787   3.3816   3.3827   3.4453   3.4484   3.4521   3.4759
     3.4793   3.4826   3.5073   3.5226   3.5336   3.5353   3.5397   3.5598
     3.5859   3.5898   3.6141   3.6292   3.6383   3.6459   3.6789   3.6852
     3.6898   3.6974   3.7047   3.7094   3.8359   3.8413   3.8797   3.8813
     3.9412   3.9464   3.9487   3.9511   3.9732   4.0320   4.0542   4.0575
     4.0602   4.0621   4.1015   4.1033   4.1239   4.1261   4.1325   4.1350
     4.2212   4.2399   4.2674   4.2700   4.2910   4.2936   4.3149   4.3696
     4.3940   4.4336   4.4342   4.4828   4.5238   4.5410   4.5449   4.5875
     4.5977   4.5982   4.6271   4.7259   5.1488   5.1507   5.1552   5.1660
     5.1689   5.1706   5.1724   5.1750   5.2008   5.2065   5.2143   5.2191
     5.2220   5.2320   5.2422   5.2433   5.2622   5.2644   5.2656   5.2661
     5.2691   5.2761   5.3111   5.3117   5.3203   5.3360   5.3471   5.3497
     5.3617   5.3643   5.3660   5.3688   5.3718   5.3829   5.3899   5.3930
     5.4111   5.4342   5.4495   5.4526   5.4542   5.4703   5.4978   5.4995
     5.5182   5.5250   5.5563   5.5583   5.5703   5.5711   5.6034   5.6049
     5.6079   5.6219   5.6318   5.6520   5.6529   5.6619   5.6755   5.7097
     5.7114   5.7416   5.7608   5.7627   5.7715   5.7855   5.8052   5.8063
     5.8166   5.8414   5.8662   5.8688   5.8774   5.8978   5.9698   5.9702
     6.0206   6.0260   6.0262   6.1016   6.1023   6.1126   6.1609   6.1877
     6.2036   6.2047   6.2071   6.2640   6.2652   6.2855   6.3210   6.3415
     6.3559   6.3710   6.3719   6.4148   6.4183   6.4195   6.4520   6.4800
     6.4819   6.5079   6.5579   6.5653   6.6065   6.6075   6.6456   6.6644
     6.6674   6.7384   6.7394   6.7406   6.7486   6.8016   6.8055   6.8493
     6.8677   6.9176   6.9452   7.0404

          k = 0.3333 0.1925 0.2714 (115773 PWs)   bands (ev):

   -28.2884 -28.2827 -28.2775 -28.2766 -28.2765 -28.2765 -28.2762 -28.2760
   -28.2729 -28.2718 -28.2712 -28.2710 -14.9321 -14.9278 -14.9276 -14.9266
   -14.9246 -14.9218 -14.9216 -14.9216 -14.9211 -14.9210 -14.9205 -14.9204
   -14.9202 -14.9202 -14.9202 -14.9193 -14.9187 -14.9157 -14.9153 -14.9152
   -14.9146 -14.9144 -14.9143 -14.9142 -14.9099 -14.9097 -14.9087 -14.9066
   -14.9055 -14.9036 -14.9032 -14.9031 -14.9025 -14.9023 -14.9023 -14.9022
   -14.8698 -14.8695 -14.8685 -14.8664 -14.8651 -14.8634 -14.8630 -14.8629
   -14.8622 -14.8622 -14.8621 -14.8621 -14.8243 -14.8242 -14.8231 -14.8212
   -14.8183 -14.8179 -14.8178 -14.8178 -14.8171 -14.8170 -14.8169 -14.8168
   -10.3478 -10.3426 -10.3385 -10.3377 -10.3372 -10.3354 -10.3349 -10.3328
   -10.3318 -10.3310 -10.3298 -10.3259 -10.3138 -10.3110 -10.3078 -10.3064
   -10.3026 -10.3018 -10.2992 -10.2980 -10.2954 -10.2942 -10.2919 -10.2867
   -10.2765 -10.2722 -10.2696 -10.2667 -10.2664 -10.2647 -10.2639 -10.2633
   -10.2615 -10.2608 -10.2585 -10.2551  -6.7528  -6.6487  -6.5629  -6.4717
    -6.4275  -6.4181  -6.3661  -6.3424  -6.3405  -6.2688  -6.2148  -6.2104
    -5.9153  -5.9121  -5.8253  -5.8211  -5.8183  -5.8159  -5.7668  -5.7637
    -5.7544  -5.7331  -5.6853  -5.6818  -5.6800  -5.6643  -5.6423  -5.6394
    -5.6364  -5.6086  -5.5883  -5.5857  -5.5733  -5.5310  -5.5267  -5.5255
    -5.5169  -5.4872  -5.4642  -5.4403  -5.4392  -5.4371  -5.3973  -5.3712
    -5.3465  -5.3415  -5.3324  -5.2960  -0.5644  -0.5610  -0.5509  -0.4342
    -0.4295  -0.4266  -0.4120  -0.3615  -0.3222  -0.3201  -0.2908  -0.2841
     1.4052   1.4944   1.4972   1.5162   1.6131   1.7097   1.7130   1.7235
     1.7397   1.7754   1.8442   1.8477   1.9664   1.9856   2.0209   2.0223
     2.1287   2.1996   2.2086   2.2106   2.2852   2.3333   2.3959   2.4226
     2.4285   2.5180   2.5292   2.5302   2.5531   2.5578   2.5595   2.5610
     2.5995   2.6775   2.7625   2.7656   2.8206   2.8255   2.8278   2.8295
     2.8504   2.8558   2.8951   2.8968   2.9054   3.0074   3.0176   3.0199
     3.0779   3.0805   3.1172   3.1203   3.1345   3.1791   3.1817   3.1890
     3.2146   3.2472   3.2673   3.2858   3.2863   3.2959   3.3316   3.3355
     3.3759   3.3771   3.3794   3.3801   3.4484   3.4502   3.4540   3.4773
     3.4812   3.4825   3.5056   3.5186   3.5315   3.5359   3.5365   3.5582
     3.5860   3.5899   3.6090   3.6335   3.6408   3.6472   3.6806   3.6852
     3.6882   3.6951   3.7054   3.7063   3.8368   3.8391   3.8798   3.8859
     3.9427   3.9461   3.9474   3.9488   3.9744   4.0324   4.0547   4.0561
     4.0612   4.0654   4.1007   4.1030   4.1229   4.1240   4.1305   4.1357
     4.2235   4.2428   4.2695   4.2719   4.2898   4.2936   4.3142   4.3664
     4.3905   4.4329   4.4375   4.4805   4.5212   4.5439   4.5475   4.5836
     4.5943   4.5974   4.6325   4.7297   5.1475   5.1499   5.1543   5.1664
     5.1698   5.1709   5.1719   5.1749   5.2018   5.2062   5.2140   5.2191
     5.2214   5.2302   5.2428   5.2441   5.2615   5.2641   5.2666   5.2679
     5.2714   5.2754   5.3106   5.3133   5.3201   5.3358   5.3475   5.3489
     5.3611   5.3638   5.3661   5.3695   5.3709   5.3814   5.3896   5.3927
     5.4117   5.4348   5.4488   5.4514   5.4533   5.4712   5.4980   5.5009
     5.5193   5.5271   5.5571   5.5592   5.5690   5.5701   5.6032   5.6037
     5.6092   5.6217   5.6330   5.6511   5.6518   5.6624   5.6758   5.7085
     5.7109   5.7404   5.7610   5.7619   5.7724   5.7854   5.8049   5.8082
     5.8154   5.8417   5.8688   5.8704   5.8770   5.8946   5.9695   5.9709
     6.0198   6.0249   6.0272   6.1017   6.1033   6.1119   6.1610   6.1894
     6.2029   6.2040   6.2050   6.2620   6.2639   6.2887   6.3184   6.3431
     6.3559   6.3679   6.3703   6.4128   6.4187   6.4217   6.4525   6.4812
     6.4842   6.5079   6.5581   6.5662   6.6049   6.6085   6.6473   6.6660
     6.6693   6.7352   6.7398   6.7405   6.7488   6.7994   6.8074   6.8508
     6.8658   6.9177   6.9460   7.0385

          k =-0.3333-0.1925 0.2714 (115773 PWs)   bands (ev):

   -28.2884 -28.2827 -28.2775 -28.2766 -28.2765 -28.2765 -28.2762 -28.2760
   -28.2729 -28.2718 -28.2712 -28.2710 -14.9321 -14.9278 -14.9276 -14.9266
   -14.9246 -14.9218 -14.9216 -14.9216 -14.9211 -14.9210 -14.9205 -14.9204
   -14.9202 -14.9202 -14.9202 -14.9193 -14.9187 -14.9157 -14.9153 -14.9152
   -14.9146 -14.9144 -14.9143 -14.9142 -14.9099 -14.9097 -14.9087 -14.9066
   -14.9055 -14.9036 -14.9032 -14.9031 -14.9025 -14.9023 -14.9023 -14.9022
   -14.8698 -14.8695 -14.8685 -14.8664 -14.8651 -14.8634 -14.8630 -14.8629
   -14.8622 -14.8622 -14.8621 -14.8621 -14.8243 -14.8242 -14.8231 -14.8212
   -14.8183 -14.8179 -14.8178 -14.8178 -14.8171 -14.8170 -14.8169 -14.8168
   -10.3478 -10.3426 -10.3385 -10.3376 -10.3372 -10.3354 -10.3350 -10.3327
   -10.3318 -10.3310 -10.3300 -10.3257 -10.3139 -10.3111 -10.3070 -10.3065
   -10.3029 -10.3010 -10.3007 -10.2981 -10.2952 -10.2946 -10.2906 -10.2872
   -10.2765 -10.2722 -10.2693 -10.2673 -10.2664 -10.2650 -10.2640 -10.2629
   -10.2612 -10.2608 -10.2584 -10.2553  -6.7527  -6.6488  -6.5620  -6.4752
    -6.4304  -6.4214  -6.3666  -6.3316  -6.3284  -6.2623  -6.2281  -6.2243
    -5.9065  -5.9034  -5.8252  -5.8197  -5.8092  -5.8061  -5.7918  -5.7622
    -5.7588  -5.7331  -5.7124  -5.7066  -5.6721  -5.6351  -5.6289  -5.6282
    -5.6255  -5.6106  -5.6007  -5.5997  -5.5694  -5.5288  -5.5221  -5.5216
    -5.5209  -5.4946  -5.4689  -5.4336  -5.4325  -5.4282  -5.4204  -5.3631
    -5.3502  -5.3446  -5.3224  -5.3002  -0.5613  -0.5588  -0.5574  -0.4365
    -0.4336  -0.4259  -0.3945  -0.3743  -0.3190  -0.3168  -0.2998  -0.2796
     1.4333   1.4851   1.4868   1.4897   1.6275   1.6444   1.7698   1.7761
     1.7825   1.7915   1.7997   1.8008   1.9152   1.9953   1.9962   2.0780
     2.1551   2.1990   2.2107   2.2470   2.2493   2.3599   2.3906   2.3942
     2.3981   2.4487   2.5103   2.5134   2.5473   2.5854   2.5931   2.6072
     2.6421   2.7120   2.7621   2.7674   2.7693   2.7879   2.8070   2.8118
     2.8365   2.8779   2.9145   2.9169   2.9194   2.9818   3.0231   3.0259
     3.0719   3.1061   3.1073   3.1330   3.1709   3.1909   3.1942   3.1956
     3.2002   3.2326   3.2651   3.2668   3.2781   3.3192   3.3220   3.3236
     3.3262   3.3899   3.3906   3.4099   3.4463   3.4496   3.4681   3.4709
     3.4729   3.4738   3.4757   3.4796   3.5328   3.5357   3.5395   3.5938
     3.6090   3.6128   3.6169   3.6325   3.6412   3.6488   3.6586   3.6609
     3.6680   3.7086   3.7115   3.7161   3.8363   3.8384   3.8833   3.8934
     3.9048   3.9498   3.9512   3.9732   3.9846   4.0216   4.0488   4.0503
     4.0548   4.0658   4.1108   4.1116   4.1192   4.1339   4.1364   4.1501
     4.1931   4.2542   4.2662   4.2697   4.2900   4.2915   4.2962   4.3857
     4.3974   4.4360   4.4402   4.4675   4.5238   4.5265   4.5356   4.5945
     4.6091   4.6118   4.6237   4.7213   5.1514   5.1521   5.1565   5.1580
     5.1730   5.1779   5.1788   5.1862   5.1920   5.1993   5.2031   5.2084
     5.2102   5.2348   5.2364   5.2388   5.2559   5.2654   5.2677   5.2705
     5.2803   5.2989   5.3086   5.3134   5.3173   5.3314   5.3377   5.3389
     5.3585   5.3604   5.3620   5.3657   5.3824   5.3940   5.4074   5.4086
     5.4160   5.4332   5.4349   5.4459   5.4480   5.4934   5.5029   5.5046
     5.5118   5.5175   5.5548   5.5614   5.5752   5.5771   5.6043   5.6119
     5.6133   5.6209   5.6250   5.6264   5.6448   5.6713   5.6833   5.7139
     5.7159   5.7196   5.7348   5.7726   5.7743   5.7750   5.8026   5.8053
     5.8114   5.8600   5.8764   5.8779   5.8792   5.9155   5.9590   5.9608
     6.0333   6.0363   6.0374   6.0604   6.0794   6.0813   6.1739   6.2055
     6.2128   6.2144   6.2661   6.2675   6.2711   6.2776   6.2883   6.3486
     6.3493   6.3666   6.3739   6.4171   6.4241   6.4255   6.4283   6.4702
     6.4979   6.5007   6.5460   6.5588   6.5950   6.5958   6.6660   6.6677
     6.6767   6.7193   6.7351   6.7371   6.7484   6.8106   6.8155   6.8449
     6.8686   6.9284   6.9363   7.0521

          k = 0.3333-0.1925 0.2714 (115773 PWs)   bands (ev):

   -28.2884 -28.2827 -28.2775 -28.2766 -28.2765 -28.2765 -28.2762 -28.2760
   -28.2729 -28.2718 -28.2712 -28.2710 -14.9321 -14.9278 -14.9276 -14.9266
   -14.9246 -14.9218 -14.9216 -14.9216 -14.9211 -14.9211 -14.9205 -14.9204
   -14.9202 -14.9202 -14.9202 -14.9193 -14.9187 -14.9157 -14.9153 -14.9152
   -14.9145 -14.9144 -14.9144 -14.9142 -14.9099 -14.9097 -14.9087 -14.9066
   -14.9055 -14.9036 -14.9032 -14.9031 -14.9024 -14.9023 -14.9023 -14.9022
   -14.8698 -14.8695 -14.8685 -14.8664 -14.8651 -14.8634 -14.8630 -14.8629
   -14.8622 -14.8622 -14.8621 -14.8621 -14.8244 -14.8242 -14.8231 -14.8212
   -14.8183 -14.8178 -14.8178 -14.8178 -14.8171 -14.8170 -14.8169 -14.8168
   -10.3480 -10.3419 -10.3391 -10.3382 -10.3381 -10.3362 -10.3340 -10.3318
   -10.3310 -10.3306 -10.3304 -10.3261 -10.3139 -10.3112 -10.3074 -10.3070
   -10.3029 -10.3012 -10.3001 -10.2958 -10.2947 -10.2945 -10.2927 -10.2873
   -10.2767 -10.2703 -10.2702 -10.2681 -10.2673 -10.2651 -10.2633 -10.2615
   -10.2607 -10.2599 -10.2595 -10.2567  -6.7526  -6.6489  -6.5623  -6.4744
    -6.4273  -6.4235  -6.3670  -6.3340  -6.3274  -6.2616  -6.2300  -6.2237
    -5.9037  -5.9028  -5.8256  -5.8210  -5.8077  -5.8058  -5.7901  -5.7614
    -5.7589  -5.7327  -5.7125  -5.7096  -5.6705  -5.6409  -5.6305  -5.6281
    -5.6275  -5.6105  -5.5995  -5.5982  -5.5683  -5.5301  -5.5231  -5.5210
    -5.5173  -5.4996  -5.4647  -5.4307  -5.4286  -5.4272  -5.4229  -5.3669
    -5.3519  -5.3484  -5.3195  -5.2984  -0.5623  -0.5570  -0.5564  -0.4361
    -0.4350  -0.4278  -0.3921  -0.3730  -0.3209  -0.3200  -0.2981  -0.2787
     1.4346   1.4847   1.4865   1.4887   1.6239   1.6436   1.7717   1.7745
     1.7819   1.7903   1.8012   1.8034   1.9161   1.9970   2.0000   2.0771
     2.1559   2.2008   2.2092   2.2465   2.2486   2.3616   2.3915   2.3926
     2.3998   2.4465   2.5085   2.5135   2.5469   2.5891   2.5899   2.6092
     2.6418   2.7089   2.7604   2.7680   2.7688   2.7911   2.8071   2.8110
     2.8395   2.8751   2.9144   2.9169   2.9182   2.9820   3.0227   3.0253
     3.0655   3.1084   3.1094   3.1297   3.1734   3.1921   3.1934   3.1956
     3.2034   3.2335   3.2641   3.2657   3.2770   3.3181   3.3224   3.3246
     3.3255   3.3920   3.3923   3.4111   3.4453   3.4480   3.4666   3.4703
     3.4714   3.4735   3.4778   3.4813   3.5315   3.5366   3.5379   3.5888
     3.6116   3.6132   3.6171   3.6344   3.6442   3.6459   3.6596   3.6610
     3.6743   3.7066   3.7120   3.7160   3.8361   3.8413   3.8805   3.8890
     3.9046   3.9515   3.9540   3.9769   3.9831   4.0198   4.0457   4.0494
     4.0504   4.0677   4.1121   4.1141   4.1212   4.1342   4.1360   4.1494
     4.1906   4.2543   4.2667   4.2687   4.2881   4.2903   4.2955   4.3897
     4.4001   4.4368   4.4376   4.4693   4.5218   4.5248   4.5389   4.5981
     4.6113   4.6125   4.6176   4.7178   5.1520   5.1537   5.1557   5.1596
     5.1731   5.1761   5.1782   5.1854   5.1921   5.1995   5.2034   5.2093
     5.2114   5.2347   5.2366   5.2394   5.2562   5.2651   5.2664   5.2694
     5.2820   5.3000   5.3093   5.3130   5.3146   5.3299   5.3367   5.3406
     5.3595   5.3600   5.3624   5.3656   5.3819   5.3937   5.4089   5.4096
     5.4130   5.4323   5.4347   5.4453   5.4475   5.4938   5.5035   5.5045
     5.5099   5.5175   5.5562   5.5618   5.5752   5.5771   5.6023   5.6125
     5.6138   5.6188   5.6265   5.6284   5.6444   5.6707   5.6839   5.7161
     5.7169   5.7184   5.7366   5.7724   5.7739   5.7756   5.8020   5.8027
     5.8125   5.8599   5.8749   5.8771   5.8812   5.9167   5.9596   5.9604
     6.0340   6.0357   6.0375   6.0611   6.0785   6.0796   6.1745   6.2090
     6.2151   6.2156   6.2664   6.2672   6.2697   6.2786   6.2866   6.3486
     6.3505   6.3641   6.3722   6.4170   6.4252   6.4255   6.4288   6.4712
     6.4947   6.4988   6.5462   6.5587   6.5952   6.5974   6.6664   6.6677
     6.6766   6.7196   6.7339   6.7381   6.7463   6.8119   6.8140   6.8428
     6.8712   6.9293   6.9362   7.0530

          k =-0.3333-0.5774 0.2714 (115827 PWs)   bands (ev):

   -28.2884 -28.2827 -28.2775 -28.2766 -28.2765 -28.2765 -28.2762 -28.2760
   -28.2729 -28.2718 -28.2712 -28.2710 -14.9321 -14.9278 -14.9276 -14.9266
   -14.9246 -14.9218 -14.9216 -14.9216 -14.9211 -14.9210 -14.9205 -14.9204
   -14.9202 -14.9202 -14.9202 -14.9193 -14.9187 -14.9157 -14.9153 -14.9152
   -14.9145 -14.9144 -14.9144 -14.9142 -14.9099 -14.9097 -14.9087 -14.9066
   -14.9055 -14.9036 -14.9032 -14.9031 -14.9024 -14.9023 -14.9023 -14.9022
   -14.8698 -14.8695 -14.8685 -14.8664 -14.8651 -14.8634 -14.8630 -14.8629
   -14.8622 -14.8622 -14.8621 -14.8621 -14.8243 -14.8242 -14.8231 -14.8212
   -14.8183 -14.8178 -14.8178 -14.8178 -14.8171 -14.8170 -14.8169 -14.8168
   -10.3475 -10.3419 -10.3386 -10.3374 -10.3369 -10.3350 -10.3345 -10.3327
   -10.3321 -10.3296 -10.3293 -10.3279 -10.3132 -10.3101 -10.3074 -10.3065
   -10.3035 -10.2993 -10.2990 -10.2985 -10.2966 -10.2928 -10.2912 -10.2902
   -10.2764 -10.2715 -10.2691 -10.2676 -10.2667 -10.2653 -10.2643 -10.2627
   -10.2619 -10.2602 -10.2595 -10.2566  -6.6251  -6.6182  -6.6175  -6.5312
    -6.5248  -6.5240  -6.3135  -6.2964  -6.2891  -6.2884  -6.2596  -6.2169
    -5.8744  -5.8570  -5.8444  -5.7813  -5.7788  -5.7765  -5.7448  -5.7429
    -5.7402  -5.7153  -5.6921  -5.6882  -5.6865  -5.6752  -5.6723  -5.6714
    -5.6687  -5.6432  -5.5575  -5.5557  -5.5548  -5.5275  -5.5239  -5.5230
    -5.5075  -5.5036  -5.5020  -5.5006  -5.4580  -5.4010  -5.3975  -5.3960
    -5.3581  -5.3261  -5.3220  -5.3201  -0.5197  -0.5074  -0.5059  -0.5036
    -0.4601  -0.4184  -0.4166  -0.4163  -0.3552  -0.2948  -0.2928  -0.2912
     1.4818   1.4837   1.4843   1.6370   1.6394   1.6419   1.6903   1.7737
     1.7764   1.7769   1.7810   1.7953   1.9806   1.9817   1.9845   2.0552
     2.1694   2.1912   2.1931   2.1941   2.2475   2.3947   2.3971   2.3985
     2.4877   2.4886   2.4903   2.5570   2.5855   2.5889   2.5894   2.5925
     2.6771   2.7355   2.7375   2.7388   2.8214   2.8232   2.8254   2.8276
     2.8974   2.9031   2.9047   2.9230   2.9371   2.9545   2.9562   2.9585
     3.0586   3.0614   3.0645   3.0882   3.0904   3.0916   3.1273   3.1818
     3.2437   3.2452   3.2475   3.2701   3.2722   3.2733   3.3225   3.3269
     3.3285   3.3309   3.3747   3.4090   3.4218   3.4635   3.4664   3.4692
     3.4913   3.4981   3.5012   3.5024   3.5359   3.5377   3.5389   3.5446
     3.5608   3.6128   3.6175   3.6198   3.6515   3.6560   3.6591   3.6940
     3.6993   3.7032   3.7238   3.7445   3.8222   3.8409   3.8424   3.8473
     3.9384   3.9401   3.9417   3.9451   4.0300   4.0311   4.0331   4.0420
     4.0673   4.0682   4.0709   4.1099   4.1145   4.1156   4.1196   4.1691
     4.2714   4.2745   4.2768   4.2908   4.3187   4.3596   4.3613   4.3637
     4.4113   4.4178   4.4191   4.4904   4.4935   4.4973   4.5078   4.5126
     4.5648   4.6637   4.6676   4.6695   5.1501   5.1571   5.1586   5.1599
     5.1609   5.1834   5.1851   5.1864   5.1983   5.1996   5.2012   5.2125
     5.2251   5.2269   5.2281   5.2525   5.2534   5.2562   5.2609   5.2720
     5.3024   5.3031   5.3053   5.3105   5.3297   5.3314   5.3322   5.3683
     5.3699   5.3729   5.3766   5.3944   5.3974   5.4099   5.4113   5.4119
     5.4337   5.4348   5.4359   5.4394   5.4846   5.4865   5.4874   5.4933
     5.5387   5.5396   5.5416   5.5455   5.5671   5.5683   5.5701   5.6056
     5.6072   5.6083   5.6400   5.6409   5.6729   5.6739   5.6747   5.7047
     5.7055   5.7063   5.7187   5.7593   5.7611   5.7621   5.8017   5.8095
     5.8214   5.8246   5.8257   5.8271   5.8906   5.8926   5.8931   6.0573
     6.0606   6.0615   6.0628   6.0780   6.1206   6.1216   6.1224   6.1348
     6.1966   6.2373   6.2391   6.2398   6.2856   6.3008   6.3035   6.3047
     6.3077   6.3847   6.3868   6.3887   6.4507   6.4665   6.4688   6.4701
     6.4913   6.4930   6.5568   6.5601   6.5618   6.6462   6.6826   6.6857
     6.6868   6.7613   6.7752   6.7777   6.7802   6.7926   6.8517   6.8553
     6.8570   6.9348   6.9359   6.9376

     highest occupied level (ev):     7.1814

!    total energy              =   -9077.18648371 Ry
     estimated scf accuracy    <          9.1E-10 Ry

     The total energy is the sum of the following terms:
     one-electron contribution =   -2776.79142013 Ry
     hartree contribution      =    2020.16312397 Ry
     xc contribution           =   -2269.39893453 Ry
     ewald contribution        =   -3895.36433825 Ry
     one-center paw contrib.   =   -2155.79491477 Ry

     convergence has been achieved in  21 iterations

     negative rho (up, down):  7.902E-01 0.000E+00

     Forces acting on atoms (cartesian axes, Ry/au):

     atom    1 type  1   force =    -0.00016656    0.00027502    0.00028612
     atom    2 type  1   force =    -0.00014345    0.00029040    0.00011615
     atom    3 type  1   force =    -0.00017274    0.00024449    0.00010371
     atom    4 type  1   force =    -0.00014447    0.00025386    0.00009001
     atom    5 type  1   force =    -0.00034359   -0.00024447    0.00002256
     atom    6 type  1   force =     0.00004979   -0.00025424    0.00000463
     atom    7 type  1   force =    -0.00014298   -0.00032478    0.00012409
     atom    8 type  1   force =    -0.00015158   -0.00027144    0.00002225
     atom    9 type  1   force =     0.00036446   -0.00012732   -0.00017597
     atom   10 type  1   force =     0.00016905   -0.00003383   -0.00031084
     atom   11 type  1   force =     0.00045598    0.00036135   -0.00034131
     atom   12 type  1   force =     0.00032105    0.00005461   -0.00014953
     atom   13 type  2   force =     0.00014692   -0.00049758    0.00040306
     atom   14 type  2   force =     0.00020838   -0.00037209    0.00019542
     atom   15 type  2   force =     0.00020380   -0.00038504    0.00019772
     atom   16 type  2   force =     0.00022918   -0.00036435    0.00019255
     atom   17 type  2   force =     0.00260364    0.00029382   -0.00104310
     atom   18 type  2   force =     0.00016756    0.00034909    0.00014315
     atom   19 type  2   force =     0.00017558    0.00037749    0.00025695
     atom   20 type  2   force =     0.00024202    0.00036939    0.00015179
     atom   21 type  2   force =    -0.00032482    0.00002749    0.00022676
     atom   22 type  2   force =    -0.00041216    0.00001830    0.00021491
     atom   23 type  2   force =    -0.00045211   -0.00000124    0.00021350
     atom   24 type  2   force =    -0.00058474   -0.00008111    0.00016474
     atom   25 type  2   force =    -0.00042951   -0.00004009   -0.00015585
     atom   26 type  2   force =    -0.00044171   -0.00001261   -0.00019283
     atom   27 type  2   force =    -0.00041900   -0.00011144   -0.00016762
     atom   28 type  2   force =    -0.00045733    0.00005006   -0.00023839
     atom   29 type  2   force =     0.00015779    0.00035962   -0.00015787
     atom   30 type  2   force =     0.00021193    0.00042685   -0.00015719
     atom   31 type  2   force =     0.00019995    0.00040211   -0.00015678
     atom   32 type  2   force =     0.00019831    0.00038634   -0.00015258
     atom   33 type  2   force =     0.00044471   -0.00032703   -0.00023789
     atom   34 type  2   force =     0.00122394   -0.00111138   -0.00319490
     atom   35 type  2   force =     0.00022697   -0.00037732   -0.00021486
     atom   36 type  2   force =     0.00024040   -0.00037599   -0.00022842
     atom   37 type  3   force =    -0.00557503    0.00733673   -0.01272878
     atom   38 type  3   force =     0.00008451   -0.00025715   -0.00016896
     atom   39 type  3   force =     0.00027781   -0.00049118   -0.00002813
     atom   40 type  3   force =     0.00015377   -0.00040736   -0.00009044
     atom   41 type  3   force =     0.00030945    0.00042572    0.00023051
     atom   42 type  3   force =     0.00042806    0.00032586    0.00029351
     atom   43 type  3   force =     0.00013889    0.00086047   -0.00027064
     atom   44 type  3   force =     0.00028032    0.00052568   -0.00001355
     atom   45 type  3   force =    -0.00052429    0.00000083    0.00007585
     atom   46 type  3   force =    -0.00046103    0.00010767    0.00015213
     atom   47 type  3   force =    -0.00055378   -0.00002420    0.00018336
     atom   48 type  3   force =    -0.00049685   -0.00009648    0.00004349
     atom   49 type  4   force =     0.00156379   -0.00749467    0.02378091
     atom   50 type  4   force =     0.00033402   -0.00015028    0.00009704
     atom   51 type  4   force =     0.00037246   -0.00010916    0.00005323
     atom   52 type  4   force =     0.00039441   -0.00010950    0.00010636
     atom   53 type  4   force =    -0.00011137    0.00033488   -0.00012640
     atom   54 type  4   force =    -0.00013136    0.00032216   -0.00004111
     atom   55 type  4   force =    -0.00010363    0.00025178   -0.00000526
     atom   56 type  4   force =    -0.00008559    0.00038898   -0.00001530
     atom   57 type  4   force =    -0.00024300   -0.00028234   -0.00013632
     atom   58 type  4   force =    -0.00026506   -0.00022054   -0.00001331
     atom   59 type  4   force =    -0.00024014   -0.00025531   -0.00001988
     atom   60 type  4   force =    -0.00025846   -0.00032570   -0.00004908
     atom   61 type  4   force =    -0.00025614    0.00023944   -0.00010052
     atom   62 type  4   force =    -0.00026346    0.00026175   -0.00015765
     atom   63 type  4   force =    -0.00035191    0.00026501   -0.00015836
     atom   64 type  4   force =    -0.00031532    0.00026589   -0.00007763
     atom   65 type  4   force =    -0.00090048    0.00002024   -0.00084693
     atom   66 type  4   force =     0.00170832    0.00029025   -0.00083502
     atom   67 type  4   force =     0.00034468    0.00007130   -0.00000340
     atom   68 type  4   force =     0.00034159    0.00014902   -0.00000226
     atom   69 type  4   force =    -0.00009139   -0.00033172    0.00001487
     atom   70 type  4   force =    -0.00041995    0.00011991   -0.00136473
     atom   71 type  4   force =    -0.00008746   -0.00034966    0.00001444
     atom   72 type  4   force =    -0.00008205   -0.00031065    0.00001524
     atom   73 type  4   force =     0.00006623    0.00010256   -0.00049331
     atom   74 type  4   force =    -0.00000035    0.00014746   -0.00028320
     atom   75 type  4   force =     0.00000547    0.00017648   -0.00027987
     atom   76 type  4   force =     0.00000478    0.00015825   -0.00030619
     atom   77 type  4   force =     0.00077617    0.00035550   -0.00051543
     atom   78 type  4   force =     0.00018176   -0.00025260    0.00003746
     atom   79 type  4   force =    -0.00007907    0.00002923   -0.00023201
     atom   80 type  4   force =    -0.00018054   -0.00004987   -0.00019683
     atom   81 type  4   force =     0.00011383   -0.00140310   -0.00132916
     atom   82 type  4   force =     0.00007597   -0.00012175   -0.00026786
     atom   83 type  4   force =     0.00012900   -0.00003391   -0.00028788
     atom   84 type  4   force =     0.00011487   -0.00008248   -0.00030639
     atom   85 type  4   force =     0.00053850   -0.00027274    0.00013412
     atom   86 type  4   force =     0.00012379    0.00001984    0.00031952
     atom   87 type  4   force =    -0.00004203    0.00008747    0.00004247
     atom   88 type  4   force =     0.00015196    0.00006172    0.00028363
     atom   89 type  4   force =     0.00002829   -0.00017262    0.00017838
     atom   90 type  4   force =    -0.00001781   -0.00008633    0.00013292
     atom   91 type  4   force =     0.00003017   -0.00016598    0.00020189
     atom   92 type  4   force =     0.00002803   -0.00018652    0.00020552
     atom   93 type  4   force =    -0.00012046    0.00010420    0.00016877
     atom   94 type  4   force =    -0.00002674    0.00091410   -0.00137335
     atom   95 type  4   force =    -0.00015147    0.00005049    0.00022771
     atom   96 type  4   force =    -0.00011937    0.00004602    0.00027768

     Total force =     0.030375     Total SCF correction =     0.000081
     Message from routine punch:
     Nothing written, as per user request (disk_io='none')

     init_run     :     41.45s CPU     43.75s WALL (       1 calls)
     electrons    :   2100.58s CPU   2201.14s WALL (       1 calls)
     forces       :     20.58s CPU     21.04s WALL (       1 calls)

     Called by init_run:
     wfcinit      :     37.63s CPU     39.73s WALL (       1 calls)
     potinit      :      1.15s CPU      1.19s WALL (       1 calls)
     hinit0       :      1.07s CPU      1.09s WALL (       1 calls)

     Called by electrons:
     c_bands      :   1857.82s CPU   1937.92s WALL (      21 calls)
     sum_band     :    215.08s CPU    231.92s WALL (      21 calls)
     v_of_rho     :      4.14s CPU      4.58s WALL (      22 calls)
     newd         :     17.95s CPU     21.07s WALL (      22 calls)
     PAW_pot      :      5.70s CPU      5.74s WALL (      22 calls)
     mix_rho      :      0.70s CPU      0.75s WALL (      21 calls)

     Called by c_bands:
     init_us_2    :     18.56s CPU     18.74s WALL (     308 calls)
     cegterg      :   1806.66s CPU   1886.25s WALL (     147 calls)

     Called by *egterg:
     cdiaghg      :     99.79s CPU    102.74s WALL (     883 calls)
     h_psi        :    993.32s CPU   1059.45s WALL (     890 calls)
     s_psi        :    228.24s CPU    230.24s WALL (     890 calls)
     g_psi        :      3.17s CPU      3.20s WALL (     736 calls)

     Called by h_psi:
     h_psi:calbec :    234.42s CPU    237.23s WALL (     890 calls)
     vloc_psi     :    526.75s CPU    586.06s WALL (     890 calls)
     add_vuspsi   :    228.54s CPU    230.55s WALL (     890 calls)

     General routines
     calbec       :    326.31s CPU    330.27s WALL (    1065 calls)
     fft          :      4.55s CPU      5.05s WALL (     295 calls)
     ffts         :      0.78s CPU      0.80s WALL (      43 calls)
     fftw         :    450.58s CPU    511.72s WALL (  423872 calls)
     interpolate  :      0.95s CPU      1.01s WALL (      22 calls)

     Parallel routines

     PWSCF        :  36m 2.85s CPU  37m46.66s WALL


   This run was terminated on:   4:26:24  21Aug2026            

=------------------------------------------------------------------------------=
   JOB DONE.
=------------------------------------------------------------------------------=
