
     Program PWSCF v.7.3.1 starts on 21Aug2026 at  3:11:41 

     This program is part of the open-source Quantum ESPRESSO suite
     for quantum simulation of materials; please cite
         "P. Giannozzi et al., J. Phys.:Condens. Matter 21 395502 (2009);
         "P. Giannozzi et al., J. Phys.:Condens. Matter 29 465901 (2017);
         "P. Giannozzi et al., J. Chem. Phys. 152 154105 (2020);
          URL http://www.quantum-espresso.org", 
     in publications or presentations arising from this work. More details at
     http://www.quantum-espresso.org/quote

     Parallel version (MPI & OpenMP), running on      32 processor cores
     Number of MPI processes:                32
     Threads/MPI process:                     1

     MPI processes distributed on     1 nodes
     135939 MiB available memory on the printing compute node when the environment starts

     Reading input from scf.in

     Current dimensions of program PWSCF are:
     Max number of different atomic species (ntypx) = 10
     Max number of k-points (npk) =  40000
     Max angular momentum in pseudopotentials (lmaxx) =  4
     file Cu.paw.z_11.ld1.psl.v1.0.0-low.upf: wavefunction(s)  4S 3D renormalized

     K-points division:     npool     =       2
     R & G space division:  proc/nbgrp/npool/nimage =      16
     Subspace diagonalization in iterative solution of the eigenvalue problem:
     one sub-group per band group will be used
     scalapack distributed-memory algorithm (size of sub-group:  4*  4 procs)


     Parallelization info
     --------------------
     sticks:   dense  smooth     PW     G-vecs:    dense   smooth      PW
     Min        1193     597    157               163743    57882    7779
     Max        1194     599    158               163747    57885    7784
     Sum       19099    9565   2515              2619931   926125  124485

     Using Slab Decomposition



     bravais-lattice index     =            0
     lattice parameter (alat)  =      24.0273  a.u.
     unit-cell volume          =   14752.0463 (a.u.)^3
     number of atoms/cell      =           96
     number of atomic types    =            4
     number of electrons       =       840.00
     number of Kohn-Sham states=          420
     kinetic-energy cutoff     =      60.0000  Ry
     charge density cutoff     =     480.0000  Ry
     scf convergence threshold =      1.0E-09
     mixing beta               =       0.3000
     number of iterations used =            8  plain     mixing
     Exchange-correlation=  SLA  PW   PBX  PBC
                           (   1   4   3   4   0   0   0)

     celldm(1)=  24.027274  celldm(2)=   0.000000  celldm(3)=   0.000000
     celldm(4)=   0.000000  celldm(5)=   0.000000  celldm(6)=   0.000000

     crystal axes: (cart. coord. in units of alat)
               a(1) = (   1.000000   0.000000   0.000000 )  
               a(2) = (  -0.500000   0.866025   0.000000 )  
               a(3) = (   0.000000   0.000000   1.228028 )  

     reciprocal axes: (cart. coord. in units 2 pi/alat)
               b(1) = (  1.000000  0.577351 -0.000000 )  
               b(2) = (  0.000000  1.154701  0.000000 )  
               b(3) = (  0.000000 -0.000000  0.814314 )  


     PseudoPot. # 1 for Sr read from file:
     /home/yuhansun/pseudos/SSSP-1.3.0-PBE-precision/Sr_pbe_v1.uspp.F.UPF
     MD5 check sum: 6b418c05fbe9db5448babca5e47b7a5b
     Pseudo is Ultrasoft + core correction, Zval = 10.0
     Generated by new atomic code, or converted to UPF format
     Using radial grid of  883 points,  6 beta functions with: 
                l(1) =   0
                l(2) =   0
                l(3) =   1
                l(4) =   1
                l(5) =   2
                l(6) =   2
     Q(r) pseudized with  6 coefficients,  rinner =    1.400   1.400   1.400
                                                       1.400   1.400

     PseudoPot. # 2 for Cu read from file:
     /home/yuhansun/pseudos/SSSP-1.3.0-PBE-precision/Cu.paw.z_11.ld1.psl.v1.0.0-low.upf
     MD5 check sum: 619f40885d92a09a85a8b37550532d0c
     Pseudo is Projector augmented-wave + core cor, Zval = 11.0
     Generated using &quot;atomic&quot; code by A. Dal Corso  v.6.3MaX
     Shape of augmentation charge: PSQ
     Using radial grid of 1199 points,  6 beta functions with: 
                l(1) =   0
                l(2) =   0
                l(3) =   1
                l(4) =   1
                l(5) =   2
                l(6) =   2
     Q(r) pseudized with 0 coefficients 


     PseudoPot. # 3 for Sn read from file:
     /home/yuhansun/pseudos/SSSP-1.3.0-PBE-precision/Sn_pbe_v1.uspp.F.UPF
     MD5 check sum: 4cf58ce39ec5d5d420df3dd08604eb00
     Pseudo is Ultrasoft + core correction, Zval = 14.0
     Generated by new atomic code, or converted to UPF format
     Using radial grid of  891 points,  6 beta functions with: 
                l(1) =   0
                l(2) =   0
                l(3) =   1
                l(4) =   1
                l(5) =   2
                l(6) =   2
     Q(r) pseudized with  6 coefficients,  rinner =    1.200   1.200   1.200
                                                       1.200   1.200

     PseudoPot. # 4 for S  read from file:
     /home/yuhansun/pseudos/SSSP-1.3.0-PBE-precision/s_pbe_v1.4.uspp.F.UPF
     MD5 check sum: 88d86576ff6df21479756cfb9bdac1df
     Pseudo is Ultrasoft + core correction, Zval =  6.0
     Generated by new atomic code, or converted to UPF format
     Using radial grid of  907 points,  6 beta functions with: 
                l(1) =   0
                l(2) =   0
                l(3) =   1
                l(4) =   1
                l(5) =   2
                l(6) =   2
     Q(r) pseudized with  8 coefficients,  rinner =    1.300   1.300   1.300
                                                       1.300   1.300

     atomic species   valence    mass     pseudopotential
     Sr               10.00    87.62000     Sr( 1.00)
     Cu               11.00    63.54600     Cu( 1.00)
     Sn               14.00   118.71000     Sn( 1.00)
     S                 6.00    32.06500     S ( 1.00)

     No symmetry found



   Cartesian axes

     site n.     atom                  positions (alat units)
         1        Sr     tau(   1) = (  -0.1405753   0.2434834   0.2046717  )
         2        Sr     tau(   2) = (   0.3594247   0.2434834   0.2046717  )
         3        Sr     tau(   3) = (  -0.3905753   0.6764960   0.2046717  )
         4        Sr     tau(   4) = (   0.1094247   0.6764960   0.2046717  )
         5        Sr     tau(   5) = (   0.1094247   0.1895292   0.6140139  )
         6        Sr     tau(   6) = (   0.6094247   0.1895292   0.6140139  )
         7        Sr     tau(   7) = (  -0.1405753   0.6225418   0.6140139  )
         8        Sr     tau(   8) = (   0.3594247   0.6225418   0.6140139  )
         9        Sr     tau(   9) = (   0.2811505   0.0000000   1.0233574  )
        10        Sr     tau(  10) = (   0.7811505   0.0000000   1.0233574  )
        11        Sr     tau(  11) = (   0.0311505   0.4330126   1.0233574  )
        12        Sr     tau(  12) = (   0.5311505   0.4330126   1.0233574  )
        13        Cu     tau(  13) = (  -0.1226788   0.2753211   0.5061747  )
        14        Cu     tau(  14) = (   0.3773212   0.2753211   0.5061747  )
        15        Cu     tau(  15) = (  -0.3726788   0.7083337   0.5061747  )
        16        Cu     tau(  16) = (   0.1273212   0.7083337   0.5061747  )
        17        Cu     tau(  17) = (   0.0729045   0.1891087   0.9155169  )
        18        Cu     tau(  18) = (   0.5729045   0.1891087   0.9155169  )
        19        Cu     tau(  19) = (  -0.1770956   0.6221213   0.9155169  )
        20        Cu     tau(  20) = (   0.3229044   0.6221213   0.9155169  )
        21        Cu     tau(  21) = (   0.0497750   0.4015949   0.0968325  )
        22        Cu     tau(  22) = (   0.5497750   0.4015949   0.0968325  )
        23        Cu     tau(  23) = (  -0.2002251   0.8346075   0.0968325  )
        24        Cu     tau(  24) = (   0.2997749   0.8346075   0.0968325  )
        25        Cu     tau(  25) = (   0.2997745   0.0314177   0.7218532  )
        26        Cu     tau(  26) = (   0.7997745   0.0314177   0.7218532  )
        27        Cu     tau(  27) = (   0.0497745   0.4644302   0.7218532  )
        28        Cu     tau(  28) = (   0.5497745   0.4644302   0.7218532  )
        29        Cu     tau(  29) = (   0.1273207   0.1576915   0.3125110  )
        30        Cu     tau(  30) = (   0.6273207   0.1576915   0.3125110  )
        31        Cu     tau(  31) = (  -0.1226793   0.5907041   0.3125110  )
        32        Cu     tau(  32) = (   0.3773207   0.5907041   0.3125110  )
        33        Cu     tau(  33) = (   0.3229040   0.2439039   1.1311954  )
        34        Cu     tau(  34) = (   0.8229040   0.2439039   1.1311954  )
        35        Cu     tau(  35) = (   0.0729039   0.6769164   1.1311954  )
        36        Cu     tau(  36) = (   0.5729039   0.6769164   1.1311954  )
        37        Sn     tau(  37) = (  -0.1762580   0.3052877   0.8186857  )
        38        Sn     tau(  38) = (   0.3237420   0.3052877   0.8186857  )
        39        Sn     tau(  39) = (  -0.4262581   0.7383003   0.8186857  )
        40        Sn     tau(  40) = (   0.0737419   0.7383003   0.8186857  )
        41        Sn     tau(  41) = (   0.0737420   0.1277249   0.0000000  )
        42        Sn     tau(  42) = (   0.5737420   0.1277249   0.0000000  )
        43        Sn     tau(  43) = (  -0.1762581   0.5607374   0.0000000  )
        44        Sn     tau(  44) = (   0.3237419   0.5607374   0.0000000  )
        45        Sn     tau(  45) = (   0.3525160   0.0000000   0.4093422  )
        46        Sn     tau(  46) = (   0.8525160   0.0000000   0.4093422  )
        47        Sn     tau(  47) = (   0.1025160   0.4330126   0.4093422  )
        48        Sn     tau(  48) = (   0.6025160   0.4330126   0.4093422  )
        49        S      tau(  49) = (  -0.0963231   0.2103164   0.9646178  )
        50        S      tau(  50) = (   0.4011797   0.2103164   0.9671149  )
        51        S      tau(  51) = (  -0.3488203   0.6433290   0.9671149  )
        52        S      tau(  52) = (   0.1511797   0.6433290   0.9671149  )
        53        S      tau(  53) = (   0.1172707   0.2422736   0.1484293  )
        54        S      tau(  54) = (   0.6172707   0.2422736   0.1484293  )
        55        S      tau(  55) = (  -0.1327293   0.6752862   0.1484293  )
        56        S      tau(  56) = (   0.3672707   0.6752862   0.1484293  )
        57        S      tau(  57) = (  -0.0184505   0.4134352   0.5577727  )
        58        S      tau(  58) = (   0.4815495   0.4134352   0.5577727  )
        59        S      tau(  59) = (  -0.2684506   0.8464478   0.5577727  )
        60        S      tau(  60) = (   0.2315494   0.8464478   0.5577727  )
        61        S      tau(  61) = (   0.2315495   0.0195774   0.2609129  )
        62        S      tau(  62) = (   0.7315495   0.0195774   0.2609129  )
        63        S      tau(  63) = (  -0.0184505   0.4525899   0.2609129  )
        64        S      tau(  64) = (   0.4815495   0.4525899   0.2609129  )
        65        S      tau(  65) = (   0.1511797   0.2226962   1.0795986  )
        66        S      tau(  66) = (   0.6511797   0.2226962   1.0795986  )
        67        S      tau(  67) = (  -0.0988203   0.6557088   1.0795986  )
        68        S      tau(  68) = (   0.4011797   0.6557088   1.0795986  )
        69        S      tau(  69) = (   0.3672707   0.1907390   0.6702552  )
        70        S      tau(  70) = (   0.8672707   0.1907390   0.6702552  )
        71        S      tau(  71) = (   0.1172707   0.6237516   0.6702552  )
        72        S      tau(  72) = (   0.6172707   0.6237516   0.6702552  )
        73        S      tau(  73) = (  -0.0296498   0.1532012   0.4035914  )
        74        S      tau(  74) = (   0.4703502   0.1532012   0.4035914  )
        75        S      tau(  75) = (  -0.2796498   0.5862137   0.4035914  )
        76        S      tau(  76) = (   0.2203502   0.5862137   0.4035914  )
        77        S      tau(  77) = (   0.1321490   0.3307341   0.8129336  )
        78        S      tau(  78) = (   0.6321490   0.3307341   0.8129336  )
        79        S      tau(  79) = (  -0.1178511   0.7637467   0.8129336  )
        80        S      tau(  80) = (   0.3821489   0.7637467   0.8129336  )
        81        S      tau(  81) = (  -0.1024985   0.3820894   1.2222770  )
        82        S      tau(  82) = (   0.3975015   0.3820894   1.2222770  )
        83        S      tau(  83) = (  -0.3524986   0.8151020   1.2222770  )
        84        S      tau(  84) = (   0.1475014   0.8151020   1.2222770  )
        85        S      tau(  85) = (   0.1475010   0.0509231   0.8244365  )
        86        S      tau(  86) = (   0.6475010   0.0509231   0.8244365  )
        87        S      tau(  87) = (  -0.1024990   0.4839357   0.8244365  )
        88        S      tau(  88) = (   0.3975010   0.4839357   0.8244365  )
        89        S      tau(  89) = (   0.2203497   0.2798114   0.4150943  )
        90        S      tau(  90) = (   0.7203497   0.2798114   0.4150943  )
        91        S      tau(  91) = (  -0.0296503   0.7128240   0.4150943  )
        92        S      tau(  92) = (   0.4703497   0.7128240   0.4150943  )
        93        S      tau(  93) = (   0.3821485   0.1022784   0.0057509  )
        94        S      tau(  94) = (   0.8821485   0.1022784   0.0057509  )
        95        S      tau(  95) = (   0.1321485   0.5352910   0.0057509  )
        96        S      tau(  96) = (   0.6321485   0.5352910   0.0057509  )

     number of k points=    14
                       cart. coord. in units 2pi/alat
        k(    1) = (   0.0000000   0.0000000   0.0000000), wk =   0.0740741
        k(    2) = (   0.0000000   0.0000000   0.2714379), wk =   0.1481481
        k(    3) = (   0.0000000   0.3849003   0.0000000), wk =   0.1481481
        k(    4) = (   0.0000000   0.3849003   0.2714379), wk =   0.1481481
        k(    5) = (   0.3333333   0.5773505   0.0000000), wk =   0.1481481
        k(    6) = (   0.3333333   0.5773505   0.2714379), wk =   0.1481481
        k(    7) = (  -0.3333333   0.1924501   0.0000000), wk =   0.1481481
        k(    8) = (   0.3333333   0.1924502   0.0000000), wk =   0.1481481
        k(    9) = (   0.0000000  -0.3849003   0.2714379), wk =   0.1481481
        k(   10) = (  -0.3333333   0.1924501   0.2714379), wk =   0.1481481
        k(   11) = (   0.3333333   0.1924502   0.2714379), wk =   0.1481481
        k(   12) = (  -0.3333333  -0.1924502   0.2714379), wk =   0.1481481
        k(   13) = (   0.3333333  -0.1924501   0.2714379), wk =   0.1481481
        k(   14) = (  -0.3333333  -0.5773505   0.2714379), wk =   0.1481481

     Dense  grid:  2619931 G-vectors     FFT dimensions: ( 180, 180, 216)

     Smooth grid:   926125 G-vectors     FFT dimensions: ( 120, 120, 150)

     Estimated max dynamical RAM per process >       1.07 GB

     Estimated total dynamical RAM >      33.54 GB

     Initial potential from superposition of free atoms

     starting charge     827.5884, renormalised to     840.0000

     negative rho (up, down):  7.777E-01 0.000E+00
     Starting wfcs are  672 randomized atomic wfcs
     Checking if some PAW data can be deallocated... 

     total cpu time spent up to now is       42.2 secs

     Self-consistent Calculation

     iteration #  1     ecut=    60.00 Ry     beta= 0.30
     Davidson diagonalization with overlap
     ethr =  1.00E-02,  avg # of iterations =  2.0

     negative rho (up, down):  7.747E-01 0.000E+00

     total cpu time spent up to now is      114.2 secs

     total energy              =   -9070.29615360 Ry
     estimated scf accuracy    <      21.96742170 Ry

     iteration #  2     ecut=    60.00 Ry     beta= 0.30
     Davidson diagonalization with overlap
     ethr =  2.62E-03,  avg # of iterations =  4.8

     negative rho (up, down):  7.752E-01 0.000E+00

     total cpu time spent up to now is      198.7 secs

     total energy              =   -9076.61845089 Ry
     estimated scf accuracy    <       8.16414866 Ry

     iteration #  3     ecut=    60.00 Ry     beta= 0.30
     Davidson diagonalization with overlap
     ethr =  9.72E-04,  avg # of iterations =  2.0

     negative rho (up, down):  7.804E-01 0.000E+00

     total cpu time spent up to now is      265.9 secs

     total energy              =   -9076.49025102 Ry
     estimated scf accuracy    <       1.61983428 Ry

     iteration #  4     ecut=    60.00 Ry     beta= 0.30
     Davidson diagonalization with overlap
     ethr =  1.93E-04,  avg # of iterations =  6.6

     negative rho (up, down):  7.829E-01 0.000E+00

     total cpu time spent up to now is      364.2 secs

     total energy              =   -9076.69926118 Ry
     estimated scf accuracy    <       2.08344139 Ry

     iteration #  5     ecut=    60.00 Ry     beta= 0.30
     Davidson diagonalization with overlap
     ethr =  1.93E-04,  avg # of iterations =  5.2

     negative rho (up, down):  7.881E-01 0.000E+00

     total cpu time spent up to now is      442.4 secs

     total energy              =   -9077.13831140 Ry
     estimated scf accuracy    <       0.14470918 Ry

     iteration #  6     ecut=    60.00 Ry     beta= 0.30
     Davidson diagonalization with overlap
     ethr =  1.72E-05,  avg # of iterations =  7.0

     negative rho (up, down):  7.902E-01 0.000E+00

     total cpu time spent up to now is      525.4 secs

     total energy              =   -9077.18359717 Ry
     estimated scf accuracy    <       0.01625444 Ry

     iteration #  7     ecut=    60.00 Ry     beta= 0.30
     Davidson diagonalization with overlap
     ethr =  1.94E-06,  avg # of iterations =  5.4

     negative rho (up, down):  7.908E-01 0.000E+00

     total cpu time spent up to now is      612.9 secs

     total energy              =   -9077.18828523 Ry
     estimated scf accuracy    <       0.00567446 Ry

     iteration #  8     ecut=    60.00 Ry     beta= 0.30
     Davidson diagonalization with overlap
     ethr =  6.76E-07,  avg # of iterations =  6.0

     negative rho (up, down):  7.912E-01 0.000E+00

     total cpu time spent up to now is      725.0 secs

     total energy              =   -9077.17840202 Ry
     estimated scf accuracy    <       0.05441934 Ry

     iteration #  9     ecut=    60.00 Ry     beta= 0.30
     Davidson diagonalization with overlap
     ethr =  6.76E-07,  avg # of iterations =  7.2

     negative rho (up, down):  7.911E-01 0.000E+00

     total cpu time spent up to now is      838.5 secs

     total energy              =   -9077.18728647 Ry
     estimated scf accuracy    <       0.00116582 Ry

     iteration # 10     ecut=    60.00 Ry     beta= 0.30
     Davidson diagonalization with overlap
     ethr =  1.39E-07,  avg # of iterations =  4.4

     negative rho (up, down):  7.907E-01 0.000E+00

     total cpu time spent up to now is      907.0 secs

     total energy              =   -9077.18706453 Ry
     estimated scf accuracy    <       0.00061414 Ry

     iteration # 11     ecut=    60.00 Ry     beta= 0.30
     Davidson diagonalization with overlap
     ethr =  7.31E-08,  avg # of iterations =  5.2

     negative rho (up, down):  7.905E-01 0.000E+00

     total cpu time spent up to now is      995.0 secs

     total energy              =   -9077.18725413 Ry
     estimated scf accuracy    <       0.00018554 Ry

     iteration # 12     ecut=    60.00 Ry     beta= 0.30
     Davidson diagonalization with overlap
     ethr =  2.21E-08,  avg # of iterations =  3.6

     negative rho (up, down):  7.904E-01 0.000E+00

     total cpu time spent up to now is     1076.9 secs

     total energy              =   -9077.18726638 Ry
     estimated scf accuracy    <       0.00005502 Ry

     iteration # 13     ecut=    60.00 Ry     beta= 0.30
     Davidson diagonalization with overlap
     ethr =  6.55E-09,  avg # of iterations =  5.6

     negative rho (up, down):  7.903E-01 0.000E+00

     total cpu time spent up to now is     1173.8 secs

     total energy              =   -9077.18727978 Ry
     estimated scf accuracy    <       0.00001759 Ry

     iteration # 14     ecut=    60.00 Ry     beta= 0.30
     Davidson diagonalization with overlap
     ethr =  2.09E-09,  avg # of iterations =  5.4

     negative rho (up, down):  7.903E-01 0.000E+00

     total cpu time spent up to now is     1262.3 secs

     total energy              =   -9077.18728358 Ry
     estimated scf accuracy    <       0.00000457 Ry

     iteration # 15     ecut=    60.00 Ry     beta= 0.30
     Davidson diagonalization with overlap
     ethr =  5.44E-10,  avg # of iterations =  2.5

     negative rho (up, down):  7.902E-01 0.000E+00

     total cpu time spent up to now is     1342.0 secs

     total energy              =   -9077.18728396 Ry
     estimated scf accuracy    <       0.00000137 Ry

     iteration # 16     ecut=    60.00 Ry     beta= 0.30
     Davidson diagonalization with overlap
     ethr =  1.63E-10,  avg # of iterations =  6.9

     negative rho (up, down):  7.902E-01 0.000E+00

     total cpu time spent up to now is     1446.6 secs

     total energy              =   -9077.18728456 Ry
     estimated scf accuracy    <       0.00000067 Ry

     iteration # 17     ecut=    60.00 Ry     beta= 0.30
     Davidson diagonalization with overlap
     ethr =  7.99E-11,  avg # of iterations =  3.1

     negative rho (up, down):  7.902E-01 0.000E+00

     total cpu time spent up to now is     1522.8 secs

     total energy              =   -9077.18728457 Ry
     estimated scf accuracy    <       0.00000022 Ry

     iteration # 18     ecut=    60.00 Ry     beta= 0.30
     Davidson diagonalization with overlap
     ethr =  2.59E-11,  avg # of iterations =  5.5

     negative rho (up, down):  7.902E-01 0.000E+00

     total cpu time spent up to now is     1615.4 secs

     total energy              =   -9077.18728464 Ry
     estimated scf accuracy    <       0.00000001 Ry

     iteration # 19     ecut=    60.00 Ry     beta= 0.30
     Davidson diagonalization with overlap
     ethr =  1.67E-12,  avg # of iterations =  6.8

     negative rho (up, down):  7.902E-01 0.000E+00

     total cpu time spent up to now is     1732.6 secs

     total energy              =   -9077.18728466 Ry
     estimated scf accuracy    <          7.8E-09 Ry

     iteration # 20     ecut=    60.00 Ry     beta= 0.30
     Davidson diagonalization with overlap
     ethr =  9.25E-13,  avg # of iterations =  3.9

     negative rho (up, down):  7.902E-01 0.000E+00

     total cpu time spent up to now is     1814.9 secs

     total energy              =   -9077.18728466 Ry
     estimated scf accuracy    <          1.9E-09 Ry

     iteration # 21     ecut=    60.00 Ry     beta= 0.30
     Davidson diagonalization with overlap
     ethr =  2.27E-13,  avg # of iterations =  7.2

     negative rho (up, down):  7.902E-01 0.000E+00

     total cpu time spent up to now is     1932.1 secs

     total energy              =   -9077.18728466 Ry
     estimated scf accuracy    <          3.2E-09 Ry

     iteration # 22     ecut=    60.00 Ry     beta= 0.30
     Davidson diagonalization with overlap
     ethr =  2.27E-13,  avg # of iterations =  5.6

     negative rho (up, down):  7.902E-01 0.000E+00

     total cpu time spent up to now is     2018.4 secs

     End of self-consistent calculation

          k = 0.0000 0.0000 0.0000 (115723 PWs)   bands (ev):

   -28.2866 -28.2767 -28.2762 -28.2760 -28.2759 -28.2759 -28.2757 -28.2747
   -28.2742 -28.2736 -28.2730 -28.2720 -14.9274 -14.9245 -14.9239 -14.9234
   -14.9223 -14.9223 -14.9220 -14.9220 -14.9216 -14.9215 -14.9213 -14.9208
   -14.9204 -14.9187 -14.9179 -14.9175 -14.9164 -14.9163 -14.9162 -14.9161
   -14.9158 -14.9157 -14.9147 -14.9144 -14.9096 -14.9066 -14.9060 -14.9054
   -14.9043 -14.9043 -14.9041 -14.9040 -14.9037 -14.9037 -14.9027 -14.9018
   -14.8695 -14.8664 -14.8658 -14.8653 -14.8641 -14.8641 -14.8639 -14.8638
   -14.8636 -14.8635 -14.8627 -14.8626 -14.8239 -14.8212 -14.8205 -14.8201
   -14.8189 -14.8189 -14.8188 -14.8186 -14.8184 -14.8183 -14.8172 -14.8148
   -10.3454 -10.3384 -10.3381 -10.3377 -10.3371 -10.3356 -10.3352 -10.3348
   -10.3343 -10.3310 -10.3300 -10.3240 -10.3128 -10.3095 -10.3083 -10.3057
   -10.3038 -10.3020 -10.3012 -10.3004 -10.2939 -10.2919 -10.2917 -10.2822
   -10.2752 -10.2710 -10.2692 -10.2673 -10.2648 -10.2648 -10.2629 -10.2618
   -10.2616 -10.2588 -10.2577 -10.2540  -6.8634  -6.5562  -6.5548  -6.4184
    -6.4174  -6.4159  -6.3012  -6.2992  -6.2985  -6.2206  -6.2185  -6.2174
    -5.9906  -5.9898  -5.9886  -5.8503  -5.8495  -5.8482  -5.7991  -5.7957
    -5.7953  -5.7366  -5.7364  -5.6208  -5.6185  -5.6167  -5.6140  -5.6134
    -5.6120  -5.6007  -5.5604  -5.5587  -5.5579  -5.5459  -5.5452  -5.5432
    -5.5187  -5.5159  -5.4323  -5.4299  -5.4281  -5.4270  -5.3736  -5.3715
    -5.3483  -5.3457  -5.3429  -5.2512  -0.6134  -0.6108  -0.6100  -0.3893
    -0.3887  -0.3877  -0.3509  -0.3161  -0.3158  -0.3136  -0.3029  -0.3007
     1.3840   1.3848   1.3878   1.5914   1.5935   1.6564   1.7147   1.7163
     1.7175   1.8053   1.8062   1.8101   2.0200   2.0409   2.0433   2.0822
     2.0849   2.0862   2.2453   2.2482   2.2483   2.3085   2.3108   2.3994
     2.4041   2.4062   2.4594   2.4612   2.4617   2.5476   2.5498   2.6611
     2.6633   2.6649   2.7830   2.7843   2.7850   2.8712   2.8734   2.9240
     2.9256   2.9284   2.9528   2.9538   2.9563   3.0266   3.0279   3.0287
     3.0434   3.0459   3.0466   3.1646   3.2121   3.2148   3.2168   3.2273
     3.2276   3.2572   3.2577   3.2591   3.3742   3.3778   3.3784   3.3931
     3.3972   3.4235   3.4274   3.4292   3.4354   3.4363   3.4386   3.4667
     3.4759   3.4785   3.4908   3.4938   3.4952   3.4958   3.5134   3.5187
     3.5830   3.5856   3.5869   3.6252   3.6272   3.6284   3.6894   3.6902
     3.6908   3.6913   3.6928   3.7073   3.7944   3.7955   3.8244   3.8259
     3.8296   3.9635   4.0182   4.0216   4.0238   4.0355   4.0366   4.0403
     4.1220   4.1261   4.1262   4.1275   4.1712   4.1739   4.1757   4.2013
     4.2075   4.2101   4.2115   4.2424   4.2444   4.2489   4.2797   4.2827
     4.4228   4.4235   4.4263   4.5144   4.5189   4.5193   4.5343   4.5367
     4.6187   4.6198   4.6218   4.8546   5.1243   5.1536   5.1555   5.1576
     5.1727   5.1746   5.1756   5.1785   5.1798   5.2216   5.2263   5.2275
     5.2285   5.2297   5.2308   5.2504   5.2524   5.2542   5.2648   5.2665
     5.2692   5.2766   5.2797   5.2801   5.3090   5.3119   5.3121   5.3129
     5.3151   5.3252   5.3375   5.3380   5.3397   5.3745   5.3759   5.3782
     5.4378   5.4394   5.4709   5.4715   5.4723   5.4752   5.4765   5.4781
     5.4799   5.4992   5.4996   5.6005   5.6016   5.6022   5.6171   5.6193
     5.6198   5.6274   5.6469   5.6477   5.6485   5.6588   5.6605   5.6610
     5.7248   5.7267   5.7448   5.7828   5.7828   5.7852   5.8204   5.8214
     5.8230   5.9029   5.9037   5.9050   5.9267   5.9282   5.9293   5.9961
     5.9967   6.0260   6.0264   6.0270   6.1500   6.1510   6.1519   6.1526
     6.2598   6.2623   6.2625   6.2634   6.2637   6.2650   6.2895   6.2913
     6.3347   6.3350   6.3362   6.3635   6.3639   6.3649   6.3887   6.3896
     6.3903   6.5530   6.5706   6.5713   6.5724   6.6375   6.6384   6.6391
     6.7472   6.7478   6.7490   6.7655   6.7665   6.7779   6.7816   6.7834
     6.8081   6.9650   7.1801   7.1811

          k = 0.0000 0.0000 0.2714 (115879 PWs)   bands (ev):

   -28.2866 -28.2767 -28.2762 -28.2760 -28.2759 -28.2759 -28.2757 -28.2747
   -28.2742 -28.2736 -28.2730 -28.2720 -14.9274 -14.9245 -14.9239 -14.9234
   -14.9223 -14.9223 -14.9220 -14.9220 -14.9216 -14.9215 -14.9213 -14.9208
   -14.9204 -14.9187 -14.9179 -14.9175 -14.9164 -14.9163 -14.9162 -14.9161
   -14.9158 -14.9157 -14.9147 -14.9144 -14.9096 -14.9066 -14.9060 -14.9054
   -14.9043 -14.9043 -14.9041 -14.9040 -14.9037 -14.9037 -14.9027 -14.9018
   -14.8695 -14.8664 -14.8658 -14.8653 -14.8641 -14.8641 -14.8639 -14.8638
   -14.8636 -14.8635 -14.8627 -14.8626 -14.8239 -14.8212 -14.8205 -14.8201
   -14.8189 -14.8189 -14.8188 -14.8186 -14.8184 -14.8183 -14.8172 -14.8148
   -10.3457 -10.3392 -10.3391 -10.3382 -10.3376 -10.3360 -10.3344 -10.3336
   -10.3332 -10.3318 -10.3279 -10.3250 -10.3140 -10.3098 -10.3081 -10.3065
   -10.3033 -10.3017 -10.3013 -10.2951 -10.2937 -10.2932 -10.2922 -10.2846
   -10.2748 -10.2704 -10.2686 -10.2676 -10.2654 -10.2654 -10.2627 -10.2615
   -10.2613 -10.2585 -10.2576 -10.2552  -6.8242  -6.7137  -6.4111  -6.4094
    -6.4083  -6.4072  -6.3058  -6.3039  -6.3029  -6.2329  -6.2307  -6.2297
    -5.9926  -5.9912  -5.9907  -5.8531  -5.8354  -5.8345  -5.8337  -5.7767
    -5.7730  -5.7722  -5.6584  -5.6559  -5.6536  -5.6517  -5.6130  -5.6123
    -5.6118  -5.6107  -5.5570  -5.5532  -5.5520  -5.5512  -5.5458  -5.5446
    -5.5434  -5.4544  -5.4358  -5.4343  -5.4336  -5.4326  -5.3750  -5.3460
    -5.3400  -5.3379  -5.3351  -5.2815  -0.6056  -0.6029  -0.6022  -0.4131
    -0.4124  -0.4105  -0.3484  -0.3329  -0.3013  -0.3010  -0.2994  -0.2751
     1.4085   1.4090   1.4122   1.5706   1.6142   1.6174   1.6185   1.6212
     1.6575   1.9336   1.9354   1.9380   2.0060   2.0469   2.0505   2.0532
     2.0548   2.0691   2.2732   2.2765   2.2770   2.3045   2.3866   2.3893
     2.3903   2.3911   2.4130   2.4163   2.4175   2.4567   2.6216   2.6230
     2.6241   2.6674   2.7194   2.7914   2.7984   2.7990   2.7996   2.8714
     2.8726   2.8740   2.9743   2.9761   2.9771   3.0446   3.0464   3.0485
     3.1060   3.1066   3.1078   3.1755   3.1977   3.2013   3.2047   3.2068
     3.2718   3.2751   3.2759   3.2833   3.3734   3.3816   3.3844   3.3853
     3.4162   3.4202   3.4210   3.4398   3.4405   3.4419   3.4474   3.4494
     3.4502   3.4771   3.4966   3.5139   3.5186   3.5202   3.5370   3.5459
     3.5485   3.5509   3.5528   3.6377   3.6438   3.6453   3.6461   3.6525
     3.6803   3.6808   3.6830   3.7725   3.8300   3.8743   3.8769   3.8814
     3.9077   3.9218   3.9934   3.9961   3.9979   4.0549   4.0564   4.0606
     4.0744   4.1163   4.1183   4.1195   4.1462   4.1491   4.1513   4.1650
     4.1712   4.1724   4.1732   4.2107   4.2491   4.2515   4.2547   4.2672
     4.4202   4.4215   4.4233   4.4829   4.5565   4.5595   4.5610   4.6034
     4.6055   4.6067   4.6756   4.8052   5.1352   5.1465   5.1534   5.1548
     5.1566   5.1642   5.1861   5.1875   5.1884   5.2148   5.2169   5.2175
     5.2188   5.2474   5.2479   5.2497   5.2576   5.2594   5.2601   5.2626
     5.2752   5.2769   5.2779   5.2793   5.3278   5.3301   5.3304   5.3333
     5.3339   5.3368   5.3416   5.3433   5.3439   5.3652   5.3723   5.3749
     5.3777   5.3904   5.4025   5.4195   5.4207   5.4226   5.5265   5.5323
     5.5335   5.5340   5.5823   5.5882   5.5886   5.5894   5.5908   5.6201
     5.6205   5.6210   5.6517   5.6528   5.6539   5.6612   5.6810   5.6825
     5.6836   5.7546   5.7555   5.7575   5.7912   5.7991   5.8174   5.8180
     5.8192   5.8710   5.8829   5.8838   5.8846   5.9884   5.9892   5.9900
     6.0420   6.0429   6.0433   6.0970   6.0983   6.0991   6.1753   6.1904
     6.1924   6.1931   6.2378   6.2685   6.2695   6.2698   6.3257   6.3260
     6.3275   6.3586   6.3606   6.3709   6.3713   6.3744   6.3958   6.4281
     6.4298   6.4305   6.4817   6.6406   6.6414   6.6423   6.6430   6.6437
     6.6443   6.6707   6.7070   6.7088   6.7109   6.7514   6.7533   6.7544
     6.9412   7.0057   7.0945   7.1702

          k = 0.0000 0.3849 0.0000 (115797 PWs)   bands (ev):

   -28.2866 -28.2767 -28.2762 -28.2760 -28.2759 -28.2759 -28.2757 -28.2747
   -28.2742 -28.2736 -28.2730 -28.2720 -14.9274 -14.9245 -14.9239 -14.9234
   -14.9223 -14.9222 -14.9220 -14.9219 -14.9216 -14.9216 -14.9213 -14.9208
   -14.9205 -14.9187 -14.9179 -14.9175 -14.9164 -14.9163 -14.9162 -14.9161
   -14.9158 -14.9157 -14.9147 -14.9145 -14.9096 -14.9066 -14.9060 -14.9055
   -14.9043 -14.9043 -14.9041 -14.9040 -14.9037 -14.9037 -14.9027 -14.9018
   -14.8695 -14.8664 -14.8658 -14.8653 -14.8641 -14.8641 -14.8639 -14.8638
   -14.8636 -14.8635 -14.8627 -14.8626 -14.8239 -14.8212 -14.8205 -14.8201
   -14.8189 -14.8189 -14.8188 -14.8186 -14.8184 -14.8183 -14.8172 -14.8148
   -10.3447 -10.3380 -10.3374 -10.3365 -10.3360 -10.3353 -10.3346 -10.3340
   -10.3326 -10.3319 -10.3307 -10.3262 -10.3115 -10.3073 -10.3064 -10.3046
   -10.3036 -10.3017 -10.3016 -10.3008 -10.2961 -10.2938 -10.2903 -10.2851
   -10.2748 -10.2700 -10.2682 -10.2675 -10.2666 -10.2640 -10.2634 -10.2631
   -10.2612 -10.2600 -10.2593 -10.2557  -6.7882  -6.5904  -6.5006  -6.4979
    -6.4386  -6.4374  -6.3667  -6.3488  -6.2859  -6.2847  -6.2497  -6.2479
    -5.9132  -5.9102  -5.8198  -5.8190  -5.8180  -5.7773  -5.7690  -5.7671
    -5.7317  -5.7235  -5.7221  -5.6908  -5.6890  -5.6468  -5.6387  -5.6374
    -5.6292  -5.5942  -5.5855  -5.5840  -5.5681  -5.5279  -5.5195  -5.5182
    -5.5171  -5.5041  -5.4627  -5.4522  -5.4372  -5.4349  -5.4222  -5.4147
    -5.3482  -5.3462  -5.3148  -5.2709  -0.5726  -0.5690  -0.5615  -0.4351
    -0.4047  -0.4029  -0.3773  -0.3378  -0.3372  -0.3366  -0.3130  -0.3043
     1.4195   1.4871   1.4886   1.5006   1.6399   1.6520   1.6894   1.7233
     1.7261   1.8294   1.8742   1.8787   1.9527   1.9554   1.9563   2.0289
     2.1157   2.2072   2.2275   2.2298   2.3373   2.3632   2.3864   2.3871
     2.3936   2.4082   2.4489   2.5374   2.5391   2.6122   2.6139   2.6170
     2.6569   2.7351   2.8131   2.8138   2.8223   2.8407   2.8427   2.8452
     2.8536   2.8845   2.9079   2.9098   2.9153   2.9618   2.9625   3.0044
     3.0504   3.0560   3.0582   3.1252   3.1487   3.1758   3.2049   3.2116
     3.2125   3.2346   3.2561   3.2628   3.2711   3.3234   3.3273   3.3318
     3.3401   3.3736   3.3908   3.3953   3.4321   3.4392   3.4421   3.4487
     3.4933   3.4983   3.5005   3.5096   3.5115   3.5140   3.5225   3.5387
     3.5612   3.6048   3.6057   3.6120   3.6358   3.6468   3.6791   3.6812
     3.6945   3.7030   3.7054   3.7100   3.7778   3.7833   3.8489   3.8601
     3.8964   3.9733   3.9765   3.9788   3.9806   4.0303   4.0379   4.0408
     4.0934   4.1111   4.1187   4.1233   4.1273   4.1605   4.1667   4.1783
     4.2487   4.2666   4.2685   4.2830   4.3010   4.3214   4.3269   4.3681
     4.3772   4.4162   4.4180   4.4836   4.5138   4.5257   4.5279   4.5295
     4.5877   4.5917   4.6272   4.7478   5.1427   5.1438   5.1479   5.1551
     5.1604   5.1614   5.1699   5.1746   5.2132   5.2178   5.2208   5.2225
     5.2284   5.2374   5.2477   5.2495   5.2512   5.2614   5.2668   5.2713
     5.2737   5.2897   5.3036   5.3058   5.3146   5.3193   5.3273   5.3286
     5.3368   5.3503   5.3520   5.3546   5.3582   5.3661   5.4126   5.4156
     5.4336   5.4516   5.4605   5.4647   5.4861   5.4937   5.4997   5.5003
     5.5032   5.5136   5.5283   5.5441   5.5563   5.5575   5.5612   5.6029
     5.6040   5.6298   5.6310   5.6329   5.6685   5.6782   5.6957   5.6961
     5.6977   5.7181   5.7298   5.7568   5.7752   5.7763   5.8088   5.8195
     5.8206   5.8639   5.8760   5.8764   5.9502   5.9525   5.9652   5.9655
     5.9906   6.0068   6.0076   6.0208   6.1388   6.1396   6.1451   6.1619
     6.2253   6.2290   6.2305   6.2506   6.2703   6.2876   6.2905   6.3001
     6.3616   6.3637   6.3781   6.3904   6.3916   6.4414   6.4857   6.4874
     6.5244   6.5377   6.5392   6.5756   6.6049   6.6511   6.6839   6.6923
     6.6939   6.7303   6.7370   6.7387   6.7620   6.7775   6.7934   6.8123
     6.8134   6.9033   6.9096   7.0800

          k = 0.0000 0.3849 0.2714 (115773 PWs)   bands (ev):

   -28.2866 -28.2767 -28.2762 -28.2760 -28.2759 -28.2759 -28.2757 -28.2747
   -28.2742 -28.2736 -28.2730 -28.2720 -14.9274 -14.9245 -14.9239 -14.9234
   -14.9223 -14.9222 -14.9220 -14.9219 -14.9216 -14.9216 -14.9213 -14.9208
   -14.9205 -14.9187 -14.9179 -14.9175 -14.9164 -14.9163 -14.9162 -14.9161
   -14.9158 -14.9157 -14.9147 -14.9145 -14.9096 -14.9066 -14.9060 -14.9055
   -14.9043 -14.9043 -14.9041 -14.9040 -14.9037 -14.9037 -14.9027 -14.9018
   -14.8695 -14.8664 -14.8658 -14.8653 -14.8641 -14.8641 -14.8639 -14.8638
   -14.8636 -14.8635 -14.8627 -14.8626 -14.8239 -14.8212 -14.8205 -14.8201
   -14.8189 -14.8189 -14.8188 -14.8186 -14.8184 -14.8183 -14.8172 -14.8148
   -10.3450 -10.3387 -10.3380 -10.3372 -10.3362 -10.3359 -10.3339 -10.3334
   -10.3320 -10.3313 -10.3294 -10.3269 -10.3128 -10.3083 -10.3069 -10.3054
   -10.3028 -10.3010 -10.3001 -10.2975 -10.2959 -10.2937 -10.2906 -10.2875
   -10.2748 -10.2700 -10.2682 -10.2670 -10.2665 -10.2642 -10.2635 -10.2628
   -10.2609 -10.2599 -10.2592 -10.2570  -6.7512  -6.6471  -6.5613  -6.4723
    -6.4228  -6.4216  -6.3648  -6.3299  -6.3283  -6.2595  -6.2252  -6.2247
    -5.9067  -5.9043  -5.8224  -5.8211  -5.8089  -5.8081  -5.7921  -5.7612
    -5.7594  -5.7314  -5.7111  -5.7089  -5.6720  -5.6341  -5.6284  -5.6278
    -5.6272  -5.6077  -5.6007  -5.5991  -5.5690  -5.5283  -5.5229  -5.5220
    -5.5208  -5.4963  -5.4682  -5.4328  -5.4293  -5.4271  -5.4226  -5.3634
    -5.3478  -5.3457  -5.3238  -5.3004  -0.5606  -0.5587  -0.5567  -0.4364
    -0.4344  -0.4246  -0.3939  -0.3739  -0.3188  -0.3178  -0.2997  -0.2799
     1.4341   1.4855   1.4859   1.4874   1.6258   1.6417   1.7726   1.7737
     1.7825   1.7908   1.7979   1.8030   1.9165   1.9921   1.9961   2.0787
     2.1552   2.1997   2.2108   2.2458   2.2480   2.3577   2.3930   2.3945
     2.3973   2.4488   2.5114   2.5127   2.5452   2.5902   2.5923   2.6076
     2.6436   2.7120   2.7620   2.7686   2.7693   2.7898   2.8092   2.8112
     2.8388   2.8745   2.9151   2.9159   2.9190   2.9817   3.0231   3.0243
     3.0682   3.1044   3.1086   3.1326   3.1706   3.1921   3.1934   3.1950
     3.2013   3.2321   3.2599   3.2666   3.2778   3.3174   3.3191   3.3227
     3.3249   3.3840   3.3897   3.4114   3.4450   3.4463   3.4647   3.4700
     3.4709   3.4729   3.4752   3.4777   3.5317   3.5357   3.5376   3.5919
     3.6101   3.6122   3.6151   3.6334   3.6410   3.6481   3.6589   3.6603
     3.6675   3.7110   3.7113   3.7137   3.8345   3.8401   3.8801   3.8887
     3.9047   3.9495   3.9516   3.9750   3.9826   4.0203   4.0474   4.0495
     4.0503   4.0668   4.1077   4.1145   4.1208   4.1318   4.1353   4.1477
     4.1913   4.2555   4.2664   4.2689   4.2886   4.2905   4.2940   4.3854
     4.3969   4.4370   4.4393   4.4673   4.5240   4.5259   4.5338   4.5933
     4.6083   4.6112   4.6224   4.7211   5.1493   5.1511   5.1546   5.1573
     5.1723   5.1757   5.1771   5.1833   5.1907   5.1975   5.2010   5.2057
     5.2099   5.2335   5.2352   5.2370   5.2545   5.2643   5.2651   5.2677
     5.2795   5.2979   5.3081   5.3122   5.3141   5.3288   5.3368   5.3380
     5.3574   5.3594   5.3607   5.3641   5.3799   5.3927   5.4052   5.4090
     5.4138   5.4320   5.4347   5.4449   5.4458   5.4930   5.5014   5.5036
     5.5098   5.5164   5.5541   5.5603   5.5742   5.5755   5.6028   5.6107
     5.6120   5.6191   5.6245   5.6266   5.6434   5.6701   5.6821   5.7140
     5.7151   5.7181   5.7338   5.7723   5.7732   5.7744   5.8026   5.8037
     5.8102   5.8590   5.8755   5.8762   5.8786   5.9151   5.9592   5.9598
     6.0341   6.0346   6.0353   6.0600   6.0788   6.0791   6.1736   6.2074
     6.2122   6.2140   6.2660   6.2667   6.2703   6.2774   6.2858   6.3490
     6.3505   6.3664   6.3724   6.4155   6.4248   6.4262   6.4268   6.4716
     6.4978   6.4990   6.5452   6.5602   6.5950   6.5972   6.6668   6.6677
     6.6770   6.7192   6.7360   6.7372   6.7483   6.8132   6.8147   6.8448
     6.8673   6.9278   6.9377   7.0515

          k = 0.3333 0.5774 0.0000 (115752 PWs)   bands (ev):

   -28.2866 -28.2767 -28.2762 -28.2760 -28.2759 -28.2759 -28.2757 -28.2747
   -28.2742 -28.2736 -28.2730 -28.2720 -14.9274 -14.9245 -14.9239 -14.9234
   -14.9222 -14.9222 -14.9220 -14.9219 -14.9216 -14.9216 -14.9213 -14.9207
   -14.9205 -14.9187 -14.9179 -14.9175 -14.9164 -14.9163 -14.9162 -14.9161
   -14.9158 -14.9157 -14.9146 -14.9145 -14.9096 -14.9066 -14.9060 -14.9055
   -14.9043 -14.9043 -14.9041 -14.9040 -14.9037 -14.9037 -14.9027 -14.9018
   -14.8695 -14.8664 -14.8658 -14.8653 -14.8641 -14.8641 -14.8639 -14.8638
   -14.8636 -14.8635 -14.8627 -14.8626 -14.8239 -14.8212 -14.8205 -14.8201
   -14.8189 -14.8189 -14.8187 -14.8187 -14.8184 -14.8183 -14.8172 -14.8148
   -10.3446 -10.3382 -10.3363 -10.3356 -10.3352 -10.3350 -10.3346 -10.3342
   -10.3327 -10.3307 -10.3301 -10.3288 -10.3112 -10.3065 -10.3052 -10.3041
   -10.3030 -10.3019 -10.3015 -10.3000 -10.2992 -10.2911 -10.2900 -10.2886
   -10.2747 -10.2691 -10.2673 -10.2669 -10.2659 -10.2653 -10.2648 -10.2638
   -10.2628 -10.2594 -10.2589 -10.2574  -6.6515  -6.6502  -6.6500  -6.4029
    -6.3995  -6.3989  -6.3983  -6.3979  -6.3976  -6.2938  -6.2919  -6.1933
    -5.8650  -5.8511  -5.8504  -5.7502  -5.7486  -5.7469  -5.7338  -5.7313
    -5.7309  -5.7091  -5.7073  -5.6955  -5.6941  -5.6931  -5.6852  -5.6845
    -5.6833  -5.6457  -5.5417  -5.5411  -5.5397  -5.5305  -5.5287  -5.5276
    -5.5117  -5.4733  -5.4715  -5.4706  -5.4681  -5.4662  -5.4647  -5.3981
    -5.3953  -5.3030  -5.3014  -5.3007  -0.5436  -0.5148  -0.5146  -0.5131
    -0.3970  -0.3945  -0.3917  -0.3901  -0.3894  -0.3112  -0.3093  -0.3084
     1.4838   1.4840   1.4851   1.6736   1.6755   1.6773   1.6857   1.6873
     1.6902   1.7328   1.7347   1.7992   2.0792   2.0817   2.0824   2.0830
     2.0849   2.1429   2.1448   2.1454   2.2546   2.3964   2.3970   2.3978
     2.4925   2.4942   2.4960   2.5626   2.5642   2.5647   2.5965   2.5981
     2.7718   2.7744   2.7761   2.8350   2.8382   2.8409   2.8440   2.8457
     2.8498   2.8522   2.8532   2.8541   2.8682   3.0077   3.0104   3.0120
     3.0242   3.0262   3.0279   3.0616   3.1331   3.1345   3.1363   3.1963
     3.1974   3.1999   3.2581   3.2599   3.2611   3.2699   3.2715   3.3622
     3.3679   3.3718   3.3730   3.3743   3.4246   3.4259   3.4288   3.4824
     3.4887   3.4966   3.5031   3.5037   3.5265   3.5302   3.5310   3.5465
     3.5484   3.5781   3.5803   3.5817   3.6482   3.6509   3.6534   3.7192
     3.7212   3.7238   3.7274   3.7311   3.7579   3.8003   3.8017   3.8054
     3.9580   3.9595   3.9618   3.9872   3.9885   4.0296   4.0299   4.0321
     4.0831   4.0849   4.0863   4.1414   4.1510   4.1517   4.1536   4.2834
     4.2870   4.2946   4.3163   4.3176   4.3199   4.3211   4.3222   4.3230
     4.3839   4.3870   4.3882   4.4964   4.5131   4.5148   4.5184   4.5211
     4.5223   4.6512   4.6547   4.6558   5.1373   5.1429   5.1444   5.1457
     5.1726   5.1737   5.1870   5.1886   5.1894   5.1964   5.1971   5.1995
     5.2462   5.2474   5.2484   5.2644   5.2666   5.2674   5.2976   5.2985
     5.2994   5.3008   5.3030   5.3042   5.3136   5.3185   5.3193   5.3218
     5.3394   5.3410   5.3428   5.4010   5.4039   5.4045   5.4086   5.4093
     5.4541   5.4556   5.4572   5.4578   5.4835   5.4840   5.4847   5.4887
     5.4902   5.5344   5.5362   5.5370   5.5636   5.5649   5.5659   5.5707
     5.5712   5.5721   5.6415   5.6724   5.6729   5.6942   5.6953   5.6964
     5.7071   5.7078   5.7087   5.7801   5.7810   5.7812   5.7989   5.8000
     5.8014   5.8241   5.8252   5.8444   5.9301   5.9313   5.9336   6.0458
     6.0471   6.0475   6.0484   6.0494   6.1378   6.1394   6.1399   6.1592
     6.2184   6.2194   6.2205   6.2592   6.2600   6.2616   6.2842   6.2854
     6.3744   6.4092   6.4108   6.4125   6.4163   6.4173   6.4229   6.4517
     6.4524   6.4539   6.6142   6.6155   6.6162   6.6754   6.6766   6.6777
     6.7255   6.7404   6.7417   6.8057   6.8066   6.8077   6.8092   6.8109
     6.8122   6.9387   6.9395   6.9400

          k = 0.3333 0.5774 0.2714 (115827 PWs)   bands (ev):

   -28.2866 -28.2767 -28.2762 -28.2760 -28.2759 -28.2759 -28.2757 -28.2747
   -28.2742 -28.2736 -28.2730 -28.2720 -14.9274 -14.9245 -14.9239 -14.9234
   -14.9222 -14.9222 -14.9220 -14.9219 -14.9216 -14.9216 -14.9213 -14.9207
   -14.9205 -14.9187 -14.9179 -14.9175 -14.9164 -14.9163 -14.9162 -14.9161
   -14.9158 -14.9157 -14.9146 -14.9145 -14.9096 -14.9066 -14.9060 -14.9055
   -14.9043 -14.9043 -14.9041 -14.9040 -14.9037 -14.9037 -14.9027 -14.9018
   -14.8695 -14.8664 -14.8658 -14.8653 -14.8641 -14.8641 -14.8639 -14.8638
   -14.8636 -14.8635 -14.8627 -14.8626 -14.8239 -14.8212 -14.8205 -14.8201
   -14.8189 -14.8189 -14.8187 -14.8187 -14.8184 -14.8183 -14.8172 -14.8148
   -10.3448 -10.3386 -10.3377 -10.3368 -10.3359 -10.3347 -10.3335 -10.3328
   -10.3317 -10.3306 -10.3303 -10.3287 -10.3120 -10.3078 -10.3071 -10.3052
   -10.3026 -10.3003 -10.2987 -10.2972 -10.2963 -10.2929 -10.2915 -10.2904
   -10.2747 -10.2692 -10.2680 -10.2666 -10.2658 -10.2650 -10.2639 -10.2632
   -10.2623 -10.2601 -10.2597 -10.2581  -6.6195  -6.6181  -6.6179  -6.5261
    -6.5247  -6.5243  -6.3087  -6.2915  -6.2891  -6.2888  -6.2585  -6.2145
    -5.8746  -5.8574  -5.8451  -5.7811  -5.7793  -5.7774  -5.7432  -5.7417
    -5.7403  -5.7157  -5.6894  -5.6877  -5.6868  -5.6742  -5.6717  -5.6711
    -5.6703  -5.6447  -5.5564  -5.5562  -5.5552  -5.5265  -5.5246  -5.5233
    -5.5047  -5.5036  -5.5022  -5.5015  -5.4585  -5.3993  -5.3978  -5.3968
    -5.3580  -5.3245  -5.3223  -5.3210  -0.5195  -0.5060  -0.5056  -0.5042
    -0.4609  -0.4180  -0.4165  -0.4161  -0.3546  -0.2939  -0.2927  -0.2917
     1.4816   1.4823   1.4834   1.6375   1.6386   1.6410   1.6894   1.7744
     1.7762   1.7769   1.7803   1.7933   1.9800   1.9813   1.9827   2.0551
     2.1708   2.1921   2.1932   2.1941   2.2464   2.3957   2.3978   2.3989
     2.4871   2.4890   2.4904   2.5576   2.5863   2.5881   2.5894   2.5921
     2.6790   2.7344   2.7371   2.7385   2.8222   2.8241   2.8248   2.8285
     2.9011   2.9026   2.9038   2.9242   2.9355   2.9513   2.9557   2.9584
     3.0592   3.0606   3.0617   3.0865   3.0892   3.0896   3.1262   3.1800
     3.2439   3.2449   3.2471   3.2704   3.2715   3.2722   3.3202   3.3247
     3.3285   3.3293   3.3732   3.4077   3.4207   3.4637   3.4655   3.4670
     3.4917   3.4951   3.5002   3.5006   3.5336   3.5369   3.5381   3.5405
     3.5606   3.6148   3.6170   3.6191   3.6536   3.6548   3.6582   3.6953
     3.6981   3.7011   3.7200   3.7460   3.8214   3.8407   3.8421   3.8455
     3.9382   3.9394   3.9412   3.9428   4.0289   4.0303   4.0308   4.0413
     4.0672   4.0684   4.0697   4.1093   4.1140   4.1147   4.1163   4.1689
     4.2710   4.2729   4.2744   4.2912   4.3143   4.3596   4.3612   4.3633
     4.4148   4.4172   4.4185   4.4894   4.4938   4.4951   4.5072   4.5123
     4.5641   4.6636   4.6676   4.6681   5.1482   5.1560   5.1575   5.1582
     5.1587   5.1817   5.1830   5.1842   5.1979   5.1990   5.2000   5.2113
     5.2249   5.2253   5.2273   5.2497   5.2527   5.2538   5.2573   5.2681
     5.3000   5.3020   5.3030   5.3099   5.3287   5.3297   5.3315   5.3673
     5.3683   5.3696   5.3750   5.3939   5.3967   5.4077   5.4092   5.4110
     5.4334   5.4336   5.4349   5.4390   5.4840   5.4850   5.4861   5.4907
     5.5389   5.5402   5.5404   5.5449   5.5658   5.5670   5.5674   5.6055
     5.6063   5.6072   5.6384   5.6398   5.6727   5.6734   5.6741   5.7028
     5.7039   5.7050   5.7172   5.7585   5.7599   5.7612   5.8013   5.8082
     5.8212   5.8242   5.8247   5.8252   5.8903   5.8909   5.8930   6.0571
     6.0600   6.0608   6.0624   6.0770   6.1200   6.1206   6.1212   6.1354
     6.1954   6.2378   6.2383   6.2394   6.2851   6.3018   6.3024   6.3031
     6.3067   6.3845   6.3863   6.3872   6.4501   6.4671   6.4688   6.4698
     6.4908   6.4928   6.5584   6.5598   6.5608   6.6461   6.6852   6.6855
     6.6864   6.7606   6.7779   6.7784   6.7788   6.7930   6.8535   6.8552
     6.8558   6.9356   6.9365   6.9367

          k =-0.3333 0.1925 0.0000 (115797 PWs)   bands (ev):

   -28.2866 -28.2767 -28.2762 -28.2760 -28.2759 -28.2759 -28.2757 -28.2747
   -28.2742 -28.2736 -28.2730 -28.2720 -14.9274 -14.9245 -14.9239 -14.9234
   -14.9223 -14.9222 -14.9220 -14.9219 -14.9216 -14.9216 -14.9213 -14.9207
   -14.9205 -14.9187 -14.9179 -14.9175 -14.9164 -14.9163 -14.9162 -14.9161
   -14.9158 -14.9157 -14.9146 -14.9145 -14.9096 -14.9066 -14.9060 -14.9055
   -14.9043 -14.9043 -14.9041 -14.9040 -14.9037 -14.9037 -14.9027 -14.9018
   -14.8695 -14.8664 -14.8658 -14.8653 -14.8641 -14.8641 -14.8639 -14.8638
   -14.8636 -14.8635 -14.8627 -14.8626 -14.8239 -14.8212 -14.8205 -14.8201
   -14.8189 -14.8189 -14.8187 -14.8187 -14.8184 -14.8183 -14.8172 -14.8148
   -10.3449 -10.3381 -10.3376 -10.3371 -10.3361 -10.3348 -10.3339 -10.3337
   -10.3325 -10.3318 -10.3310 -10.3263 -10.3116 -10.3075 -10.3061 -10.3052
   -10.3031 -10.3022 -10.3017 -10.3006 -10.2946 -10.2939 -10.2909 -10.2852
   -10.2747 -10.2699 -10.2684 -10.2678 -10.2667 -10.2640 -10.2623 -10.2617
   -10.2615 -10.2608 -10.2598 -10.2562  -6.7881  -6.5898  -6.5001  -6.4983
    -6.4395  -6.4385  -6.3654  -6.3497  -6.2867  -6.2843  -6.2493  -6.2480
    -5.9100  -5.9100  -5.8210  -5.8181  -5.8173  -5.7770  -5.7685  -5.7675
    -5.7314  -5.7237  -5.7227  -5.6910  -5.6895  -5.6498  -5.6390  -5.6376
    -5.6298  -5.5964  -5.5846  -5.5836  -5.5670  -5.5275  -5.5193  -5.5178
    -5.5163  -5.5048  -5.4614  -5.4516  -5.4365  -5.4352  -5.4228  -5.4144
    -5.3504  -5.3482  -5.3121  -5.2702  -0.5706  -0.5702  -0.5625  -0.4359
    -0.4033  -0.4029  -0.3769  -0.3391  -0.3386  -0.3380  -0.3112  -0.3027
     1.4189   1.4871   1.4877   1.5012   1.6392   1.6528   1.6893   1.7236
     1.7244   1.8281   1.8766   1.8788   1.9547   1.9561   1.9574   2.0281
     2.1151   2.2065   2.2284   2.2309   2.3396   2.3638   2.3855   2.3863
     2.3936   2.4089   2.4497   2.5352   2.5387   2.6112   2.6134   2.6163
     2.6574   2.7330   2.8112   2.8133   2.8213   2.8412   2.8419   2.8448
     2.8529   2.8847   2.9078   2.9106   2.9158   2.9619   2.9636   3.0033
     3.0484   3.0569   3.0577   3.1239   3.1470   3.1756   3.2052   3.2116
     3.2138   3.2322   3.2612   3.2614   3.2681   3.3221   3.3302   3.3313
     3.3405   3.3743   3.3960   3.3963   3.4316   3.4405   3.4422   3.4492
     3.4912   3.4985   3.5020   3.5062   3.5110   3.5151   3.5214   3.5441
     3.5619   3.6057   3.6064   3.6103   3.6354   3.6455   3.6791   3.6824
     3.6953   3.7014   3.7042   3.7105   3.7791   3.7827   3.8488   3.8591
     3.8958   3.9744   3.9756   3.9790   3.9815   4.0300   4.0389   4.0398
     4.0908   4.1103   4.1215   4.1222   4.1267   4.1638   4.1654   4.1777
     4.2488   4.2658   4.2680   4.2827   4.3024   4.3221   4.3248   4.3682
     4.3791   4.4144   4.4169   4.4833   4.5181   4.5253   4.5280   4.5309
     4.5910   4.5919   4.6228   4.7459   5.1420   5.1453   5.1477   5.1557
     5.1596   5.1612   5.1701   5.1749   5.2145   5.2170   5.2208   5.2218
     5.2279   5.2378   5.2478   5.2493   5.2518   5.2616   5.2688   5.2717
     5.2725   5.2899   5.3041   5.3051   5.3147   5.3199   5.3262   5.3296
     5.3359   5.3500   5.3530   5.3536   5.3577   5.3668   5.4129   5.4156
     5.4332   5.4519   5.4611   5.4626   5.4848   5.4934   5.4995   5.5013
     5.5029   5.5121   5.5278   5.5444   5.5557   5.5576   5.5616   5.6040
     5.6042   5.6297   5.6319   5.6329   5.6683   5.6777   5.6947   5.6967
     5.6976   5.7185   5.7304   5.7567   5.7755   5.7766   5.8093   5.8197
     5.8200   5.8646   5.8758   5.8769   5.9505   5.9526   5.9649   5.9663
     5.9907   6.0062   6.0074   6.0205   6.1391   6.1403   6.1445   6.1610
     6.2255   6.2295   6.2308   6.2525   6.2699   6.2894   6.2905   6.2993
     6.3616   6.3621   6.3779   6.3901   6.3909   6.4412   6.4852   6.4868
     6.5248   6.5376   6.5382   6.5756   6.6047   6.6510   6.6840   6.6926
     6.6933   6.7298   6.7371   6.7382   6.7627   6.7786   6.7928   6.8104
     6.8125   6.9049   6.9095   7.0813

          k = 0.3333 0.1925 0.0000 (115797 PWs)   bands (ev):

   -28.2866 -28.2767 -28.2762 -28.2760 -28.2759 -28.2759 -28.2757 -28.2747
   -28.2742 -28.2736 -28.2730 -28.2720 -14.9274 -14.9245 -14.9238 -14.9234
   -14.9223 -14.9222 -14.9220 -14.9219 -14.9216 -14.9216 -14.9213 -14.9207
   -14.9205 -14.9187 -14.9179 -14.9175 -14.9164 -14.9163 -14.9162 -14.9161
   -14.9158 -14.9157 -14.9146 -14.9145 -14.9096 -14.9066 -14.9060 -14.9055
   -14.9043 -14.9043 -14.9041 -14.9040 -14.9037 -14.9037 -14.9027 -14.9018
   -14.8695 -14.8664 -14.8658 -14.8653 -14.8641 -14.8641 -14.8639 -14.8638
   -14.8636 -14.8635 -14.8627 -14.8626 -14.8239 -14.8212 -14.8205 -14.8201
   -14.8189 -14.8189 -14.8187 -14.8187 -14.8184 -14.8183 -14.8172 -14.8148
   -10.3450 -10.3379 -10.3374 -10.3365 -10.3357 -10.3355 -10.3344 -10.3338
   -10.3329 -10.3318 -10.3309 -10.3262 -10.3117 -10.3071 -10.3066 -10.3046
   -10.3032 -10.3022 -10.3016 -10.3005 -10.2953 -10.2942 -10.2906 -10.2850
   -10.2750 -10.2696 -10.2684 -10.2671 -10.2659 -10.2650 -10.2630 -10.2626
   -10.2623 -10.2602 -10.2590 -10.2556  -6.7882  -6.5902  -6.4997  -6.4989
    -6.4390  -6.4376  -6.3660  -6.3497  -6.2857  -6.2844  -6.2498  -6.2479
    -5.9117  -5.9102  -5.8206  -5.8185  -5.8176  -5.7779  -5.7688  -5.7670
    -5.7317  -5.7241  -5.7229  -5.6906  -5.6892  -5.6469  -5.6380  -5.6369
    -5.6291  -5.5959  -5.5853  -5.5839  -5.5684  -5.5280  -5.5188  -5.5185
    -5.5160  -5.5044  -5.4628  -5.4508  -5.4375  -5.4365  -5.4212  -5.4153
    -5.3494  -5.3465  -5.3134  -5.2705  -0.5718  -0.5702  -0.5617  -0.4355
    -0.4045  -0.4038  -0.3773  -0.3380  -0.3371  -0.3352  -0.3131  -0.3037
     1.4185   1.4866   1.4895   1.5011   1.6416   1.6532   1.6883   1.7220
     1.7252   1.8273   1.8760   1.8779   1.9545   1.9558   1.9567   2.0278
     2.1148   2.2071   2.2296   2.2305   2.3385   2.3635   2.3840   2.3872
     2.3921   2.4100   2.4498   2.5352   2.5388   2.6110   2.6140   2.6177
     2.6568   2.7347   2.8119   2.8144   2.8210   2.8381   2.8422   2.8440
     2.8549   2.8861   2.9074   2.9093   2.9153   2.9617   2.9633   3.0044
     3.0524   3.0568   3.0574   3.1235   3.1491   3.1760   3.2044   3.2100
     3.2125   3.2339   3.2610   3.2623   3.2688   3.3240   3.3307   3.3315
     3.3389   3.3723   3.3953   3.3960   3.4323   3.4412   3.4453   3.4496
     3.4905   3.4982   3.4995   3.5082   3.5120   3.5138   3.5209   3.5426
     3.5607   3.6041   3.6055   3.6126   3.6329   3.6470   3.6788   3.6805
     3.6935   3.7027   3.7052   3.7109   3.7775   3.7802   3.8500   3.8631
     3.8958   3.9743   3.9753   3.9792   3.9806   4.0294   4.0385   4.0413
     4.0940   4.1111   4.1208   4.1225   4.1268   4.1627   4.1638   4.1784
     4.2472   4.2656   4.2675   4.2816   4.3035   4.3232   4.3238   4.3678
     4.3773   4.4150   4.4181   4.4818   4.5176   4.5269   4.5280   4.5297
     4.5890   4.5917   4.6269   4.7477   5.1424   5.1451   5.1469   5.1531
     5.1589   5.1626   5.1701   5.1756   5.2150   5.2191   5.2199   5.2220
     5.2285   5.2374   5.2483   5.2496   5.2505   5.2616   5.2669   5.2713
     5.2738   5.2893   5.3034   5.3056   5.3138   5.3191   5.3265   5.3291
     5.3388   5.3483   5.3525   5.3541   5.3578   5.3652   5.4139   5.4156
     5.4343   5.4509   5.4606   5.4621   5.4853   5.4948   5.5009   5.5022
     5.5034   5.5131   5.5276   5.5444   5.5564   5.5573   5.5612   5.6022
     5.6043   5.6306   5.6314   5.6332   5.6688   5.6794   5.6958   5.6966
     5.6975   5.7171   5.7299   5.7563   5.7754   5.7758   5.8088   5.8190
     5.8196   5.8640   5.8759   5.8771   5.9508   5.9525   5.9652   5.9659
     5.9906   6.0063   6.0084   6.0209   6.1390   6.1397   6.1456   6.1611
     6.2252   6.2294   6.2305   6.2518   6.2709   6.2882   6.2895   6.2997
     6.3610   6.3624   6.3771   6.3898   6.3903   6.4424   6.4853   6.4875
     6.5245   6.5379   6.5383   6.5762   6.6045   6.6503   6.6839   6.6922
     6.6941   6.7304   6.7370   6.7389   6.7627   6.7775   6.7932   6.8112
     6.8136   6.9043   6.9093   7.0809

          k = 0.0000-0.3849 0.2714 (115773 PWs)   bands (ev):

   -28.2866 -28.2767 -28.2762 -28.2760 -28.2759 -28.2759 -28.2757 -28.2747
   -28.2742 -28.2736 -28.2730 -28.2720 -14.9274 -14.9245 -14.9239 -14.9234
   -14.9223 -14.9222 -14.9220 -14.9219 -14.9216 -14.9216 -14.9213 -14.9208
   -14.9205 -14.9187 -14.9179 -14.9175 -14.9164 -14.9163 -14.9162 -14.9161
   -14.9158 -14.9157 -14.9147 -14.9145 -14.9096 -14.9066 -14.9060 -14.9055
   -14.9043 -14.9043 -14.9041 -14.9040 -14.9037 -14.9037 -14.9027 -14.9018
   -14.8695 -14.8664 -14.8658 -14.8653 -14.8641 -14.8641 -14.8639 -14.8638
   -14.8636 -14.8635 -14.8627 -14.8626 -14.8239 -14.8212 -14.8205 -14.8201
   -14.8189 -14.8189 -14.8188 -14.8186 -14.8184 -14.8183 -14.8172 -14.8148
   -10.3450 -10.3388 -10.3380 -10.3371 -10.3361 -10.3358 -10.3340 -10.3336
   -10.3323 -10.3309 -10.3293 -10.3270 -10.3127 -10.3090 -10.3061 -10.3049
   -10.3032 -10.3024 -10.2990 -10.2964 -10.2956 -10.2937 -10.2927 -10.2867
   -10.2746 -10.2696 -10.2680 -10.2676 -10.2673 -10.2640 -10.2630 -10.2625
   -10.2609 -10.2601 -10.2598 -10.2567  -6.7514  -6.6469  -6.5621  -6.4689
    -6.4193  -6.4185  -6.3645  -6.3417  -6.3399  -6.2662  -6.2117  -6.2107
    -5.9156  -5.9129  -5.8246  -5.8211  -5.8185  -5.8171  -5.7662  -5.7640
    -5.7533  -5.7326  -5.6838  -5.6821  -5.6808  -5.6634  -5.6426  -5.6409
    -5.6372  -5.6070  -5.5863  -5.5855  -5.5727  -5.5300  -5.5278  -5.5266
    -5.5168  -5.4866  -5.4653  -5.4395  -5.4380  -5.4354  -5.3986  -5.3706
    -5.3442  -5.3420  -5.3339  -5.2965  -0.5639  -0.5602  -0.5509  -0.4329
    -0.4296  -0.4273  -0.4114  -0.3609  -0.3219  -0.3212  -0.2906  -0.2844
     1.4055   1.4942   1.4953   1.5148   1.6126   1.7106   1.7137   1.7223
     1.7377   1.7745   1.8438   1.8465   1.9672   1.9880   2.0177   2.0216
     2.1293   2.1990   2.2082   2.2104   2.2850   2.3321   2.3948   2.4264
     2.4279   2.5192   2.5283   2.5300   2.5570   2.5580   2.5593   2.5600
     2.5987   2.6785   2.7639   2.7660   2.8243   2.8255   2.8259   2.8304
     2.8507   2.8534   2.8952   2.8959   2.9056   3.0082   3.0176   3.0186
     3.0771   3.0795   3.1173   3.1196   3.1340   3.1793   3.1820   3.1884
     3.2140   3.2459   3.2674   3.2794   3.2877   3.2960   3.3298   3.3319
     3.3702   3.3764   3.3782   3.3792   3.4453   3.4478   3.4488   3.4773
     3.4796   3.4815   3.5064   3.5131   3.5317   3.5354   3.5370   3.5586
     3.5865   3.5875   3.6118   3.6316   3.6407   3.6445   3.6831   3.6842
     3.6873   3.6966   3.7040   3.7063   3.8355   3.8409   3.8792   3.8796
     3.9418   3.9446   3.9478   3.9485   3.9724   4.0328   4.0542   4.0560
     4.0600   4.0630   4.0974   4.1031   4.1206   4.1253   4.1308   4.1346
     4.2246   4.2411   4.2683   4.2704   4.2903   4.2946   4.3118   4.3652
     4.3919   4.4338   4.4360   4.4796   4.5185   4.5445   4.5455   4.5830
     4.5934   4.5969   4.6317   4.7294   5.1467   5.1476   5.1540   5.1644
     5.1679   5.1687   5.1704   5.1737   5.1996   5.2050   5.2126   5.2169
     5.2198   5.2291   5.2410   5.2425   5.2606   5.2634   5.2651   5.2658
     5.2672   5.2736   5.3101   5.3119   5.3188   5.3335   5.3458   5.3486
     5.3599   5.3630   5.3638   5.3687   5.3701   5.3810   5.3877   5.3901
     5.4101   5.4333   5.4476   5.4504   5.4536   5.4697   5.4969   5.4982
     5.5174   5.5250   5.5561   5.5578   5.5679   5.5710   5.6020   5.6031
     5.6083   5.6206   5.6316   5.6491   5.6519   5.6608   5.6750   5.7084
     5.7095   5.7395   5.7600   5.7610   5.7713   5.7846   5.8052   5.8063
     5.8148   5.8404   5.8674   5.8685   5.8758   5.8939   5.9693   5.9699
     6.0201   6.0248   6.0258   6.1011   6.1026   6.1119   6.1596   6.1885
     6.2020   6.2035   6.2039   6.2617   6.2642   6.2877   6.3180   6.3431
     6.3549   6.3692   6.3712   6.4139   6.4192   6.4210   6.4523   6.4819
     6.4826   6.5069   6.5578   6.5672   6.6071   6.6077   6.6473   6.6664
     6.6683   6.7369   6.7390   6.7395   6.7483   6.8040   6.8057   6.8511
     6.8650   6.9185   6.9460   7.0378

          k =-0.3333 0.1925 0.2714 (115773 PWs)   bands (ev):

   -28.2866 -28.2767 -28.2762 -28.2760 -28.2759 -28.2759 -28.2757 -28.2747
   -28.2742 -28.2736 -28.2730 -28.2720 -14.9274 -14.9245 -14.9239 -14.9234
   -14.9223 -14.9222 -14.9220 -14.9219 -14.9216 -14.9216 -14.9213 -14.9207
   -14.9205 -14.9187 -14.9179 -14.9175 -14.9164 -14.9163 -14.9162 -14.9161
   -14.9158 -14.9157 -14.9146 -14.9145 -14.9096 -14.9066 -14.9060 -14.9055
   -14.9043 -14.9043 -14.9040 -14.9040 -14.9037 -14.9037 -14.9027 -14.9018
   -14.8695 -14.8664 -14.8658 -14.8653 -14.8641 -14.8641 -14.8639 -14.8638
   -14.8636 -14.8635 -14.8627 -14.8626 -14.8239 -14.8212 -14.8205 -14.8201
   -14.8189 -14.8189 -14.8187 -14.8187 -14.8184 -14.8183 -14.8172 -14.8148
   -10.3451 -10.3389 -10.3383 -10.3375 -10.3370 -10.3343 -10.3339 -10.3329
   -10.3323 -10.3311 -10.3292 -10.3274 -10.3126 -10.3088 -10.3060 -10.3056
   -10.3037 -10.3031 -10.2973 -10.2959 -10.2948 -10.2942 -10.2931 -10.2873
   -10.2746 -10.2695 -10.2685 -10.2677 -10.2672 -10.2632 -10.2622 -10.2617
   -10.2610 -10.2608 -10.2598 -10.2576  -6.7513  -6.6468  -6.5611  -6.4691
    -6.4205  -6.4198  -6.3645  -6.3416  -6.3396  -6.2659  -6.2120  -6.2103
    -5.9127  -5.9126  -5.8243  -5.8222  -5.8175  -5.8168  -5.7653  -5.7641
    -5.7528  -5.7343  -5.6848  -5.6821  -5.6816  -5.6624  -5.6431  -5.6420
    -5.6393  -5.6079  -5.5866  -5.5843  -5.5720  -5.5308  -5.5276  -5.5266
    -5.5153  -5.4855  -5.4658  -5.4391  -5.4370  -5.4359  -5.4003  -5.3705
    -5.3462  -5.3441  -5.3300  -5.2958  -0.5616  -0.5612  -0.5524  -0.4341
    -0.4289  -0.4281  -0.4098  -0.3605  -0.3228  -0.3223  -0.2895  -0.2835
     1.4051   1.4937   1.4946   1.5157   1.6132   1.7113   1.7129   1.7216
     1.7377   1.7738   1.8444   1.8464   1.9659   1.9864   2.0223   2.0246
     2.1296   2.1983   2.2072   2.2095   2.2858   2.3348   2.3972   2.4262
     2.4274   2.5179   2.5282   2.5302   2.5544   2.5577   2.5587   2.5596
     2.5992   2.6785   2.7641   2.7648   2.8213   2.8248   2.8252   2.8308
     2.8492   2.8534   2.8949   2.8970   2.9055   3.0066   3.0179   3.0200
     3.0743   3.0798   3.1180   3.1193   3.1328   3.1812   3.1827   3.1882
     3.2113   3.2458   3.2648   3.2846   3.2862   3.2944   3.3297   3.3313
     3.3745   3.3773   3.3798   3.3804   3.4448   3.4475   3.4509   3.4743
     3.4790   3.4810   3.5064   3.5201   3.5298   3.5348   3.5375   3.5591
     3.5858   3.5889   3.6127   3.6307   3.6385   3.6447   3.6803   3.6846
     3.6883   3.6969   3.7047   3.7085   3.8362   3.8400   3.8781   3.8804
     3.9406   3.9458   3.9466   3.9495   3.9723   4.0318   4.0530   4.0568
     4.0610   4.0615   4.1009   4.1020   4.1229   4.1240   4.1306   4.1339
     4.2221   4.2401   4.2670   4.2698   4.2902   4.2935   4.3135   4.3675
     4.3929   4.4334   4.4340   4.4813   4.5223   4.5419   4.5452   4.5860
     4.5962   4.5972   4.6277   4.7265   5.1468   5.1490   5.1545   5.1647
     5.1677   5.1684   5.1705   5.1739   5.1996   5.2048   5.2115   5.2169
     5.2204   5.2298   5.2404   5.2418   5.2599   5.2639   5.2648   5.2651
     5.2675   5.2741   5.3095   5.3105   5.3192   5.3341   5.3460   5.3486
     5.3608   5.3626   5.3642   5.3679   5.3708   5.3817   5.3885   5.3912
     5.4097   5.4333   5.4482   5.4511   5.4526   5.4691   5.4965   5.4980
     5.5167   5.5247   5.5559   5.5577   5.5690   5.5697   5.6019   5.6032
     5.6070   5.6207   5.6303   5.6507   5.6516   5.6610   5.6748   5.7086
     5.7097   5.7397   5.7606   5.7619   5.7709   5.7846   5.8052   5.8059
     5.8153   5.8401   5.8670   5.8684   5.8757   5.8957   5.9688   5.9696
     6.0193   6.0252   6.0261   6.1016   6.1022   6.1112   6.1595   6.1879
     6.2028   6.2038   6.2050   6.2635   6.2639   6.2868   6.3194   6.3424
     6.3559   6.3695   6.3700   6.4138   6.4185   6.4198   6.4517   6.4818
     6.4822   6.5076   6.5584   6.5660   6.6065   6.6076   6.6475   6.6661
     6.6673   6.7374   6.7383   6.7403   6.7485   6.8025   6.8048   6.8505
     6.8672   6.9184   6.9461   7.0396

          k = 0.3333 0.1925 0.2714 (115773 PWs)   bands (ev):

   -28.2866 -28.2767 -28.2762 -28.2760 -28.2759 -28.2759 -28.2757 -28.2747
   -28.2742 -28.2736 -28.2730 -28.2720 -14.9274 -14.9245 -14.9238 -14.9234
   -14.9223 -14.9222 -14.9220 -14.9219 -14.9216 -14.9216 -14.9213 -14.9207
   -14.9205 -14.9187 -14.9179 -14.9175 -14.9164 -14.9163 -14.9162 -14.9161
   -14.9158 -14.9157 -14.9146 -14.9145 -14.9096 -14.9066 -14.9060 -14.9055
   -14.9043 -14.9043 -14.9041 -14.9040 -14.9037 -14.9037 -14.9027 -14.9018
   -14.8695 -14.8664 -14.8658 -14.8653 -14.8641 -14.8641 -14.8639 -14.8638
   -14.8636 -14.8635 -14.8627 -14.8626 -14.8239 -14.8212 -14.8205 -14.8201
   -14.8189 -14.8189 -14.8187 -14.8187 -14.8184 -14.8183 -14.8172 -14.8148
   -10.3453 -10.3388 -10.3382 -10.3373 -10.3358 -10.3354 -10.3338 -10.3330
   -10.3326 -10.3314 -10.3295 -10.3268 -10.3127 -10.3084 -10.3076 -10.3045
   -10.3027 -10.3024 -10.2986 -10.2960 -10.2953 -10.2948 -10.2927 -10.2867
   -10.2749 -10.2692 -10.2680 -10.2673 -10.2666 -10.2649 -10.2626 -10.2622
   -10.2617 -10.2606 -10.2593 -10.2566  -6.7513  -6.6471  -6.5619  -6.4689
    -6.4202  -6.4184  -6.3643  -6.3407  -6.3403  -6.2665  -6.2120  -6.2103
    -5.9142  -5.9129  -5.8248  -5.8217  -5.8183  -5.8171  -5.7660  -5.7640
    -5.7539  -5.7330  -5.6835  -5.6821  -5.6810  -5.6639  -5.6416  -5.6403
    -5.6365  -5.6082  -5.5870  -5.5855  -5.5730  -5.5306  -5.5270  -5.5263
    -5.5166  -5.4864  -5.4649  -5.4394  -5.4383  -5.4371  -5.3985  -5.3703
    -5.3453  -5.3425  -5.3318  -5.2963  -0.5632  -0.5616  -0.5512  -0.4331
    -0.4290  -0.4274  -0.4114  -0.3614  -0.3219  -0.3201  -0.2906  -0.2839
     1.4052   1.4934   1.4962   1.5158   1.6121   1.7104   1.7123   1.7227
     1.7384   1.7743   1.8442   1.8468   1.9657   1.9850   2.0211   2.0223
     2.1293   2.1996   2.2085   2.2105   2.2850   2.3337   2.3960   2.4246
     2.4277   2.5195   2.5293   2.5296   2.5533   2.5582   2.5593   2.5604
     2.5995   2.6785   2.7624   2.7648   2.8210   2.8251   2.8270   2.8294
     2.8506   2.8549   2.8952   2.8966   2.9058   3.0076   3.0176   3.0196
     3.0773   3.0786   3.1168   3.1190   3.1333   3.1792   3.1808   3.1883
     3.2135   3.2465   3.2665   3.2859   3.2863   3.2946   3.3305   3.3327
     3.3741   3.3767   3.3792   3.3795   3.4458   3.4483   3.4500   3.4747
     3.4801   3.4810   3.5040   3.5188   3.5307   3.5348   3.5363   3.5578
     3.5855   3.5884   3.6090   3.6319   3.6413   3.6465   3.6828   3.6852
     3.6876   3.6950   3.7038   3.7049   3.8351   3.8380   3.8799   3.8829
     3.9418   3.9460   3.9465   3.9483   3.9729   4.0322   4.0543   4.0553
     4.0601   4.0629   4.1003   4.1020   4.1226   4.1232   4.1300   4.1344
     4.2225   4.2405   4.2684   4.2709   4.2892   4.2923   4.3139   4.3670
     4.3901   4.4328   4.4360   4.4800   4.5209   4.5438   4.5465   4.5839
     4.5944   4.5970   4.6314   4.7290   5.1458   5.1488   5.1520   5.1639
     5.1678   5.1697   5.1706   5.1729   5.1999   5.2045   5.2134   5.2181
     5.2198   5.2292   5.2407   5.2426   5.2599   5.2622   5.2650   5.2659
     5.2682   5.2742   5.3092   5.3119   5.3190   5.3349   5.3461   5.3472
     5.3600   5.3628   5.3638   5.3680   5.3698   5.3804   5.3886   5.3909
     5.4115   5.4326   5.4471   5.4508   5.4527   5.4697   5.4968   5.4992
     5.5181   5.5244   5.5559   5.5579   5.5688   5.5694   5.6021   5.6032
     5.6083   5.6207   5.6324   5.6500   5.6511   5.6610   5.6751   5.7087
     5.7097   5.7399   5.7599   5.7604   5.7712   5.7844   5.8047   5.8058
     5.8148   5.8406   5.8678   5.8685   5.8758   5.8946   5.9692   5.9702
     6.0194   6.0245   6.0266   6.1008   6.1023   6.1120   6.1601   6.1881
     6.2027   6.2037   6.2042   6.2620   6.2634   6.2880   6.3183   6.3429
     6.3554   6.3689   6.3699   6.4133   6.4187   6.4207   6.4517   6.4815
     6.4827   6.5081   6.5586   6.5656   6.6063   6.6077   6.6471   6.6665
     6.6686   6.7373   6.7386   6.7403   6.7485   6.8024   6.8056   6.8513
     6.8660   6.9181   6.9460   7.0387

          k =-0.3333-0.1925 0.2714 (115773 PWs)   bands (ev):

   -28.2866 -28.2767 -28.2762 -28.2760 -28.2759 -28.2759 -28.2757 -28.2747
   -28.2742 -28.2736 -28.2730 -28.2720 -14.9274 -14.9245 -14.9238 -14.9234
   -14.9223 -14.9222 -14.9220 -14.9219 -14.9216 -14.9216 -14.9213 -14.9207
   -14.9205 -14.9187 -14.9179 -14.9175 -14.9164 -14.9163 -14.9162 -14.9161
   -14.9158 -14.9157 -14.9146 -14.9145 -14.9096 -14.9066 -14.9060 -14.9055
   -14.9043 -14.9043 -14.9041 -14.9040 -14.9037 -14.9037 -14.9027 -14.9018
   -14.8695 -14.8664 -14.8658 -14.8653 -14.8641 -14.8641 -14.8639 -14.8638
   -14.8636 -14.8635 -14.8627 -14.8626 -14.8239 -14.8212 -14.8205 -14.8201
   -14.8189 -14.8189 -14.8187 -14.8187 -14.8184 -14.8183 -14.8172 -14.8148
   -10.3453 -10.3387 -10.3383 -10.3372 -10.3361 -10.3351 -10.3338 -10.3330
   -10.3326 -10.3317 -10.3294 -10.3268 -10.3128 -10.3087 -10.3065 -10.3057
   -10.3023 -10.3009 -10.2999 -10.2969 -10.2960 -10.2944 -10.2909 -10.2873
   -10.2749 -10.2688 -10.2687 -10.2674 -10.2659 -10.2651 -10.2627 -10.2624
   -10.2620 -10.2605 -10.2586 -10.2570  -6.7512  -6.6470  -6.5609  -6.4727
    -6.4235  -6.4217  -6.3649  -6.3294  -6.3284  -6.2596  -6.2255  -6.2242
    -5.9056  -5.9042  -5.8240  -5.8208  -5.8086  -5.8071  -5.7914  -5.7618
    -5.7592  -5.7326  -5.7111  -5.7088  -5.6716  -5.6349  -5.6288  -5.6275
    -5.6262  -5.6085  -5.6005  -5.5995  -5.5693  -5.5288  -5.5221  -5.5218
    -5.5209  -5.4958  -5.4682  -5.4329  -5.4298  -5.4284  -5.4211  -5.3634
    -5.3490  -5.3460  -5.3226  -5.2998  -0.5605  -0.5585  -0.5578  -0.4362
    -0.4342  -0.4251  -0.3943  -0.3737  -0.3185  -0.3170  -0.2994  -0.2797
     1.4335   1.4846   1.4865   1.4888   1.6267   1.6421   1.7697   1.7742
     1.7818   1.7903   1.8000   1.8003   1.9153   1.9957   1.9966   2.0774
     2.1553   2.1987   2.2110   2.2474   2.2495   2.3599   2.3919   2.3944
     2.3983   2.4488   2.5098   2.5125   2.5472   2.5869   2.5920   2.6074
     2.6437   2.7119   2.7610   2.7678   2.7692   2.7884   2.8072   2.8105
     2.8373   2.8759   2.9153   2.9168   2.9196   2.9812   3.0231   3.0254
     3.0701   3.1058   3.1066   3.1321   3.1708   3.1899   3.1937   3.1949
     3.1997   3.2324   3.2648   3.2659   3.2767   3.3173   3.3214   3.3231
     3.3240   3.3897   3.3901   3.4097   3.4458   3.4470   3.4629   3.4697
     3.4717   3.4733   3.4755   3.4770   3.5312   3.5348   3.5373   3.5932
     3.6086   3.6125   3.6146   3.6323   3.6410   3.6491   3.6578   3.6601
     3.6674   3.7102   3.7113   3.7158   3.8351   3.8367   3.8827   3.8899
     3.9036   3.9496   3.9506   3.9739   3.9832   4.0204   4.0481   4.0493
     4.0523   4.0659   4.1105   4.1113   4.1193   4.1331   4.1347   4.1488
     4.1909   4.2534   4.2655   4.2683   4.2892   4.2907   4.2952   4.3861
     4.3967   4.4361   4.4389   4.4669   4.5236   4.5257   4.5352   4.5948
     4.6092   4.6115   4.6225   4.7206   5.1506   5.1514   5.1544   5.1559
     5.1701   5.1754   5.1774   5.1844   5.1905   5.1978   5.2020   5.2077
     5.2086   5.2333   5.2355   5.2371   5.2541   5.2632   5.2661   5.2676
     5.2787   5.2983   5.3077   5.3120   5.3150   5.3300   5.3352   5.3371
     5.3573   5.3587   5.3609   5.3644   5.3808   5.3923   5.4067   5.4081
     5.4139   5.4324   5.4339   5.4454   5.4463   5.4916   5.5022   5.5037
     5.5092   5.5162   5.5538   5.5607   5.5744   5.5757   5.6036   5.6111
     5.6126   5.6194   5.6248   5.6258   5.6435   5.6708   5.6824   5.7139
     5.7148   5.7180   5.7343   5.7714   5.7733   5.7739   5.8019   5.8032
     5.8107   5.8588   5.8751   5.8765   5.8786   5.9152   5.9595   5.9600
     6.0341   6.0356   6.0363   6.0601   6.0786   6.0795   6.1731   6.2065
     6.2121   6.2137   6.2662   6.2667   6.2697   6.2772   6.2868   6.3481
     6.3494   6.3655   6.3736   6.4166   6.4246   6.4256   6.4277   6.4703
     6.4981   6.4992   6.5465   6.5591   6.5958   6.5959   6.6666   6.6673
     6.6767   6.7193   6.7356   6.7369   6.7478   6.8129   6.8146   6.8449
     6.8689   6.9287   6.9372   7.0523

          k = 0.3333-0.1925 0.2714 (115773 PWs)   bands (ev):

   -28.2866 -28.2767 -28.2762 -28.2760 -28.2759 -28.2759 -28.2757 -28.2747
   -28.2742 -28.2736 -28.2730 -28.2720 -14.9274 -14.9245 -14.9239 -14.9234
   -14.9223 -14.9222 -14.9220 -14.9219 -14.9216 -14.9216 -14.9213 -14.9207
   -14.9205 -14.9187 -14.9179 -14.9175 -14.9164 -14.9163 -14.9162 -14.9161
   -14.9158 -14.9157 -14.9146 -14.9145 -14.9096 -14.9066 -14.9060 -14.9055
   -14.9043 -14.9043 -14.9040 -14.9040 -14.9037 -14.9037 -14.9027 -14.9018
   -14.8695 -14.8664 -14.8658 -14.8653 -14.8641 -14.8641 -14.8639 -14.8638
   -14.8636 -14.8635 -14.8627 -14.8626 -14.8239 -14.8212 -14.8205 -14.8201
   -14.8189 -14.8189 -14.8187 -14.8187 -14.8184 -14.8183 -14.8172 -14.8148
   -10.3451 -10.3387 -10.3383 -10.3377 -10.3372 -10.3340 -10.3335 -10.3330
   -10.3322 -10.3316 -10.3296 -10.3270 -10.3127 -10.3087 -10.3070 -10.3055
   -10.3024 -10.3010 -10.3003 -10.2962 -10.2957 -10.2938 -10.2916 -10.2875
   -10.2745 -10.2698 -10.2684 -10.2672 -10.2667 -10.2643 -10.2620 -10.2619
   -10.2612 -10.2606 -10.2596 -10.2576  -6.7510  -6.6472  -6.5605  -6.4722
    -6.4239  -6.4229  -6.3647  -6.3300  -6.3279  -6.2596  -6.2257  -6.2241
    -5.9042  -5.9039  -5.8239  -5.8210  -5.8076  -5.8064  -5.7920  -5.7604
    -5.7594  -5.7324  -5.7119  -5.7096  -5.6713  -5.6374  -5.6300  -5.6277
    -5.6274  -5.6089  -5.6001  -5.5989  -5.5686  -5.5289  -5.5226  -5.5214
    -5.5190  -5.4976  -5.4664  -5.4317  -5.4280  -5.4277  -5.4234  -5.3645
    -5.3500  -5.3478  -5.3206  -5.2994  -0.5610  -0.5579  -0.5570  -0.4360
    -0.4354  -0.4258  -0.3927  -0.3731  -0.3194  -0.3191  -0.2985  -0.2791
     1.4336   1.4851   1.4856   1.4876   1.6250   1.6427   1.7719   1.7735
     1.7824   1.7900   1.8003   1.8022   1.9156   1.9960   1.9983   2.0766
     2.1553   2.2007   2.2096   2.2460   2.2483   2.3609   2.3929   2.3937
     2.3995   2.4469   2.5086   2.5132   2.5465   2.5902   2.5905   2.6092
     2.6423   2.7104   2.7610   2.7685   2.7687   2.7901   2.8075   2.8103
     2.8398   2.8736   2.9147   2.9162   2.9177   2.9815   3.0235   3.0248
     3.0652   3.1073   3.1085   3.1298   3.1713   3.1916   3.1934   3.1942
     3.2013   3.2320   3.2628   3.2657   3.2758   3.3169   3.3218   3.3225
     3.3240   3.3902   3.3905   3.4095   3.4445   3.4464   3.4644   3.4696
     3.4714   3.4736   3.4766   3.4784   3.5301   3.5352   3.5366   3.5895
     3.6109   3.6129   3.6149   3.6331   3.6448   3.6463   3.6596   3.6610
     3.6714   3.7078   3.7116   3.7147   3.8358   3.8390   3.8791   3.8888
     3.9046   3.9504   3.9522   3.9754   3.9824   4.0188   4.0456   4.0495
     4.0500   4.0663   4.1116   4.1125   4.1200   4.1334   4.1343   4.1480
     4.1905   4.2540   4.2665   4.2688   4.2874   4.2901   4.2946   4.3879
     4.3987   4.4365   4.4378   4.4683   4.5224   4.5250   4.5369   4.5967
     4.6104   4.6116   4.6183   4.7179   5.1492   5.1512   5.1545   5.1585
     5.1724   5.1753   5.1765   5.1836   5.1908   5.1981   5.2010   5.2073
     5.2091   5.2331   5.2354   5.2372   5.2549   5.2644   5.2651   5.2673
     5.2807   5.2980   5.3077   5.3113   5.3133   5.3284   5.3367   5.3399
     5.3578   5.3589   5.3609   5.3637   5.3806   5.3935   5.4069   5.4077
     5.4120   5.4310   5.4336   5.4439   5.4459   5.4927   5.5016   5.5032
     5.5100   5.5166   5.5547   5.5599   5.5743   5.5753   5.6011   5.6111
     5.6121   5.6190   5.6254   5.6265   5.6434   5.6697   5.6825   5.7148
     5.7157   5.7177   5.7345   5.7728   5.7732   5.7748   5.8022   5.8027
     5.8105   5.8590   5.8752   5.8766   5.8795   5.9149   5.9590   5.9596
     6.0334   6.0352   6.0360   6.0594   6.0788   6.0797   6.1732   6.2068
     6.2137   6.2141   6.2668   6.2675   6.2687   6.2784   6.2868   6.3481
     6.3500   6.3648   6.3728   6.4161   6.4247   6.4249   6.4284   6.4709
     6.4975   6.4991   6.5461   6.5589   6.5946   6.5964   6.6667   6.6679
     6.6772   6.7202   6.7352   6.7368   6.7474   6.8118   6.8137   6.8443
     6.8699   6.9289   6.9368   7.0530

          k =-0.3333-0.5774 0.2714 (115827 PWs)   bands (ev):

   -28.2866 -28.2767 -28.2762 -28.2760 -28.2759 -28.2759 -28.2757 -28.2747
   -28.2742 -28.2736 -28.2730 -28.2720 -14.9274 -14.9245 -14.9239 -14.9234
   -14.9222 -14.9222 -14.9220 -14.9219 -14.9216 -14.9216 -14.9213 -14.9207
   -14.9205 -14.9187 -14.9179 -14.9175 -14.9164 -14.9163 -14.9162 -14.9161
   -14.9158 -14.9157 -14.9146 -14.9145 -14.9096 -14.9066 -14.9060 -14.9055
   -14.9043 -14.9043 -14.9041 -14.9040 -14.9037 -14.9037 -14.9027 -14.9018
   -14.8695 -14.8664 -14.8658 -14.8653 -14.8641 -14.8641 -14.8639 -14.8638
   -14.8636 -14.8635 -14.8627 -14.8626 -14.8239 -14.8212 -14.8205 -14.8201
   -14.8189 -14.8189 -14.8187 -14.8187 -14.8184 -14.8183 -14.8172 -14.8148
   -10.3449 -10.3386 -10.3376 -10.3368 -10.3359 -10.3346 -10.3335 -10.3328
   -10.3318 -10.3306 -10.3302 -10.3287 -10.3120 -10.3079 -10.3070 -10.3051
   -10.3024 -10.3003 -10.2990 -10.2972 -10.2964 -10.2923 -10.2919 -10.2904
   -10.2747 -10.2692 -10.2680 -10.2665 -10.2660 -10.2650 -10.2638 -10.2632
   -10.2624 -10.2600 -10.2596 -10.2582  -6.6195  -6.6180  -6.6179  -6.5260
    -6.5248  -6.5244  -6.3091  -6.2914  -6.2891  -6.2888  -6.2577  -6.2152
    -5.8746  -5.8578  -5.8445  -5.7808  -5.7791  -5.7772  -5.7440  -5.7421
    -5.7403  -5.7154  -5.6894  -5.6878  -5.6868  -5.6744  -5.6720  -5.6716
    -5.6699  -5.6434  -5.5568  -5.5560  -5.5553  -5.5257  -5.5244  -5.5236
    -5.5053  -5.5034  -5.5024  -5.5019  -5.4588  -5.3987  -5.3977  -5.3970
    -5.3579  -5.3237  -5.3224  -5.3218  -0.5201  -0.5061  -0.5054  -0.5041
    -0.4600  -0.4179  -0.4169  -0.4161  -0.3550  -0.2939  -0.2924  -0.2918
     1.4821   1.4824   1.4831   1.6373   1.6388   1.6402   1.6898   1.7737
     1.7764   1.7766   1.7799   1.7938   1.9804   1.9816   1.9835   2.0555
     2.1700   2.1920   2.1932   2.1940   2.2470   2.3960   2.3975   2.3982
     2.4880   2.4890   2.4906   2.5573   2.5861   2.5880   2.5896   2.5923
     2.6782   2.7354   2.7372   2.7381   2.8211   2.8236   2.8248   2.8276
     2.8972   2.9030   2.9040   2.9243   2.9367   2.9549   2.9560   2.9578
     3.0584   3.0603   3.0625   3.0876   3.0893   3.0902   3.1261   3.1807
     3.2435   3.2446   3.2464   3.2693   3.2714   3.2728   3.3208   3.3265
     3.3277   3.3290   3.3736   3.4079   3.4188   3.4610   3.4657   3.4674
     3.4909   3.4964   3.4998   3.5011   3.5359   3.5369   3.5380   3.5421
     3.5594   3.6140   3.6166   3.6186   3.6525   3.6552   3.6578   3.6954
     3.6985   3.7017   3.7220   3.7448   3.8219   3.8404   3.8412   3.8446
     3.9384   3.9402   3.9412   3.9437   4.0292   4.0304   4.0314   4.0405
     4.0671   4.0677   4.0689   4.1092   4.1137   4.1148   4.1170   4.1677
     4.2717   4.2736   4.2752   4.2896   4.3174   4.3601   4.3610   4.3626
     4.4125   4.4176   4.4178   4.4910   4.4930   4.4954   4.5074   4.5120
     4.5639   4.6642   4.6672   4.6683   5.1484   5.1548   5.1574   5.1580
     5.1594   5.1823   5.1834   5.1845   5.1963   5.1984   5.1994   5.2110
     5.2239   5.2248   5.2264   5.2505   5.2520   5.2548   5.2589   5.2702
     5.3005   5.3022   5.3039   5.3097   5.3277   5.3296   5.3309   5.3675
     5.3686   5.3712   5.3747   5.3932   5.3959   5.4089   5.4098   5.4113
     5.4327   5.4335   5.4345   5.4380   5.4839   5.4851   5.4860   5.4926
     5.5375   5.5391   5.5398   5.5444   5.5669   5.5674   5.5682   5.6054
     5.6061   5.6069   5.6384   5.6399   5.6721   5.6726   5.6736   5.7036
     5.7045   5.7051   5.7175   5.7585   5.7603   5.7611   5.8017   5.8084
     5.8209   5.8238   5.8250   5.8255   5.8897   5.8913   5.8922   6.0566
     6.0605   6.0610   6.0617   6.0772   6.1199   6.1206   6.1216   6.1352
     6.1963   6.2377   6.2382   6.2387   6.2845   6.3016   6.3030   6.3034
     6.3072   6.3846   6.3857   6.3883   6.4506   6.4669   6.4684   6.4692
     6.4915   6.4922   6.5589   6.5599   6.5611   6.6456   6.6845   6.6858
     6.6866   6.7607   6.7769   6.7782   6.7797   6.7928   6.8542   6.8550
     6.8558   6.9355   6.9363   6.9370

     highest occupied level (ev):     7.1811

!    total energy              =   -9077.18728466 Ry
     estimated scf accuracy    <          4.0E-10 Ry

     The total energy is the sum of the following terms:
     one-electron contribution =   -2776.71090881 Ry
     hartree contribution      =    2020.11132302 Ry
     xc contribution           =   -2269.39061002 Ry
     ewald contribution        =   -3895.40045349 Ry
     one-center paw contrib.   =   -2155.79663537 Ry

     convergence has been achieved in  22 iterations

     negative rho (up, down):  7.902E-01 0.000E+00

     Forces acting on atoms (cartesian axes, Ry/au):

     atom    1 type  1   force =    -0.00014782    0.00025696    0.00010066
     atom    2 type  1   force =    -0.00015713    0.00028655    0.00005751
     atom    3 type  1   force =    -0.00016679    0.00025795    0.00004103
     atom    4 type  1   force =    -0.00014487    0.00025554    0.00004063
     atom    5 type  1   force =    -0.00024279   -0.00025202    0.00003188
     atom    6 type  1   force =    -0.00004956   -0.00029561   -0.00003800
     atom    7 type  1   force =    -0.00013927   -0.00029439    0.00008375
     atom    8 type  1   force =    -0.00017598   -0.00025221    0.00000641
     atom    9 type  1   force =     0.00033375   -0.00005697   -0.00009570
     atom   10 type  1   force =     0.00063434    0.00034181   -0.00018851
     atom   11 type  1   force =     0.00036086    0.00001921   -0.00020747
     atom   12 type  1   force =     0.00029651    0.00007396   -0.00005557
     atom   13 type  2   force =     0.00017512   -0.00045817    0.00029419
     atom   14 type  2   force =     0.00019797   -0.00038952    0.00020057
     atom   15 type  2   force =     0.00020761   -0.00038094    0.00018397
     atom   16 type  2   force =     0.00021553   -0.00037410    0.00019111
     atom   17 type  2   force =     0.00552879   -0.00037197   -0.00185902
     atom   18 type  2   force =     0.00019419    0.00033632    0.00012659
     atom   19 type  2   force =     0.00021976    0.00036243    0.00019658
     atom   20 type  2   force =     0.00023528    0.00038306    0.00017185
     atom   21 type  2   force =    -0.00038593    0.00002730    0.00019840
     atom   22 type  2   force =    -0.00042832    0.00002372    0.00020460
     atom   23 type  2   force =    -0.00044538    0.00000390    0.00019802
     atom   24 type  2   force =    -0.00047631   -0.00000765    0.00016573
     atom   25 type  2   force =    -0.00048364   -0.00005577   -0.00014374
     atom   26 type  2   force =    -0.00042344    0.00001133   -0.00018301
     atom   27 type  2   force =    -0.00043267   -0.00009823   -0.00017651
     atom   28 type  2   force =    -0.00046505    0.00002157   -0.00018838
     atom   29 type  2   force =     0.00018090    0.00037323   -0.00017485
     atom   30 type  2   force =     0.00021127    0.00040033   -0.00017161
     atom   31 type  2   force =     0.00020397    0.00039618   -0.00017272
     atom   32 type  2   force =     0.00019859    0.00038821   -0.00017683
     atom   33 type  2   force =     0.00022522   -0.00036454   -0.00017676
     atom   34 type  2   force =     0.00126920   -0.00112205   -0.00270341
     atom   35 type  2   force =     0.00023178   -0.00036787   -0.00018934
     atom   36 type  2   force =     0.00023983   -0.00037493   -0.00020161
     atom   37 type  3   force =    -0.00045095    0.00106531   -0.00295869
     atom   38 type  3   force =    -0.00000119   -0.00029551   -0.00020690
     atom   39 type  3   force =     0.00027802   -0.00042474    0.00002887
     atom   40 type  3   force =     0.00016227   -0.00052809   -0.00002196
     atom   41 type  3   force =     0.00024208    0.00047232    0.00005834
     atom   42 type  3   force =     0.00039456    0.00020877    0.00040005
     atom   43 type  3   force =     0.00025109    0.00062594   -0.00014093
     atom   44 type  3   force =     0.00025245    0.00050599    0.00000910
     atom   45 type  3   force =    -0.00054535   -0.00001072    0.00004750
     atom   46 type  3   force =    -0.00051606    0.00005875    0.00007114
     atom   47 type  3   force =    -0.00055900   -0.00000754    0.00008772
     atom   48 type  3   force =    -0.00049803   -0.00003978   -0.00000971
     atom   49 type  4   force =    -0.00967759   -0.00097256    0.01136581
     atom   50 type  4   force =     0.00034414   -0.00012017    0.00006537
     atom   51 type  4   force =     0.00036607   -0.00011201    0.00002325
     atom   52 type  4   force =     0.00040783   -0.00004361    0.00003941
     atom   53 type  4   force =    -0.00009378    0.00034571   -0.00006748
     atom   54 type  4   force =    -0.00012493    0.00034370   -0.00003615
     atom   55 type  4   force =    -0.00009671    0.00031148    0.00001882
     atom   56 type  4   force =    -0.00008533    0.00036483    0.00000543
     atom   57 type  4   force =    -0.00024956   -0.00026832   -0.00005943
     atom   58 type  4   force =    -0.00024473   -0.00025766    0.00004067
     atom   59 type  4   force =    -0.00023408   -0.00025594   -0.00001860
     atom   60 type  4   force =    -0.00027081   -0.00029762   -0.00001572
     atom   61 type  4   force =    -0.00025630    0.00025680   -0.00006565
     atom   62 type  4   force =    -0.00027243    0.00025331   -0.00006041
     atom   63 type  4   force =    -0.00030383    0.00026123   -0.00008351
     atom   64 type  4   force =    -0.00028859    0.00025837   -0.00002974
     atom   65 type  4   force =     0.00088791    0.00012284    0.00026588
     atom   66 type  4   force =     0.00214675    0.00043149   -0.00103211
     atom   67 type  4   force =     0.00033628    0.00011886   -0.00001327
     atom   68 type  4   force =     0.00034521    0.00014165   -0.00001363
     atom   69 type  4   force =    -0.00004125   -0.00035691   -0.00000008
     atom   70 type  4   force =    -0.00029461   -0.00010862   -0.00077060
     atom   71 type  4   force =    -0.00008024   -0.00034329   -0.00000704
     atom   72 type  4   force =    -0.00008900   -0.00032321   -0.00001749
     atom   73 type  4   force =     0.00004152    0.00013236   -0.00036152
     atom   74 type  4   force =     0.00001105    0.00015647   -0.00026558
     atom   75 type  4   force =     0.00000821    0.00016194   -0.00026052
     atom   76 type  4   force =     0.00001164    0.00015166   -0.00027292
     atom   77 type  4   force =     0.00114299    0.00034406   -0.00069211
     atom   78 type  4   force =    -0.00009184   -0.00018343    0.00000501
     atom   79 type  4   force =    -0.00006226    0.00001681   -0.00024728
     atom   80 type  4   force =    -0.00018872   -0.00005757   -0.00023291
     atom   81 type  4   force =     0.00003136   -0.00077221   -0.00083582
     atom   82 type  4   force =     0.00013162   -0.00011467   -0.00026153
     atom   83 type  4   force =     0.00015521   -0.00006349   -0.00025727
     atom   84 type  4   force =     0.00013897   -0.00008689   -0.00031193
     atom   85 type  4   force =     0.00080851   -0.00029283   -0.00004179
     atom   86 type  4   force =     0.00020077    0.00014230    0.00032234
     atom   87 type  4   force =    -0.00001378    0.00024721    0.00007597
     atom   88 type  4   force =     0.00026703    0.00009699    0.00027436
     atom   89 type  4   force =     0.00002806   -0.00016100    0.00021091
     atom   90 type  4   force =    -0.00001681   -0.00012081    0.00019053
     atom   91 type  4   force =     0.00002379   -0.00015963    0.00022388
     atom   92 type  4   force =     0.00002216   -0.00017305    0.00023241
     atom   93 type  4   force =    -0.00002402    0.00011202    0.00017841
     atom   94 type  4   force =    -0.00009273    0.00040373   -0.00047308
     atom   95 type  4   force =    -0.00012826    0.00007792    0.00025757
     atom   96 type  4   force =    -0.00014027    0.00005843    0.00025413

     Total force =     0.017454     Total SCF correction =     0.000041
     Message from routine punch:
     Nothing written, as per user request (disk_io='none')

     init_run     :     39.59s CPU     41.87s WALL (       1 calls)
     electrons    :   1885.35s CPU   1976.26s WALL (       1 calls)
     forces       :     19.10s CPU     19.47s WALL (       1 calls)

     Called by init_run:
     wfcinit      :     36.14s CPU     38.20s WALL (       1 calls)
     potinit      :      1.06s CPU      1.10s WALL (       1 calls)
     hinit0       :      1.06s CPU      1.08s WALL (       1 calls)

     Called by electrons:
     c_bands      :   1668.83s CPU   1742.17s WALL (      22 calls)
     sum_band     :    189.42s CPU    203.58s WALL (      22 calls)
     v_of_rho     :      3.57s CPU      3.94s WALL (      23 calls)
     newd         :     18.38s CPU     21.42s WALL (      23 calls)
     PAW_pot      :      5.24s CPU      5.26s WALL (      23 calls)
     mix_rho      :      0.64s CPU      0.68s WALL (      22 calls)

     Called by c_bands:
     init_us_2    :     18.40s CPU     18.57s WALL (     322 calls)
     cegterg      :   1617.17s CPU   1690.11s WALL (     154 calls)

     Called by *egterg:
     cdiaghg      :     81.09s CPU     83.39s WALL (     966 calls)
     h_psi        :    877.73s CPU    940.16s WALL (     973 calls)
     s_psi        :    208.18s CPU    209.54s WALL (     973 calls)
     g_psi        :      2.85s CPU      2.88s WALL (     812 calls)

     Called by h_psi:
     h_psi:calbec :    216.91s CPU    219.11s WALL (     973 calls)
     vloc_psi     :    449.07s CPU    506.03s WALL (     973 calls)
     add_vuspsi   :    208.71s CPU    210.09s WALL (     973 calls)

     General routines
     calbec       :    301.82s CPU    304.85s WALL (    1155 calls)
     fft          :      7.18s CPU      7.60s WALL (     308 calls)
     ffts         :      0.78s CPU      0.80s WALL (      45 calls)
     fftw         :    423.32s CPU    478.42s WALL (  445816 calls)
     interpolate  :      0.90s CPU      0.94s WALL (      23 calls)

     Parallel routines

     PWSCF        :  32m24.30s CPU  33m58.23s WALL


   This run was terminated on:   3:45:40  21Aug2026            

=------------------------------------------------------------------------------=
   JOB DONE.
=------------------------------------------------------------------------------=
