
     Program PWSCF v.7.5 starts on  3Jul2026 at  2: 3:49 
        Git branch: develop
        Last git commit: ea9b1b3d7915154c244e4a71786faaa0fdafa55c
        Last git commit date: Mon Mar 16 14:03:30 2026 +0000
        Last git commit subject: Merge branch 'dev_td_porting' into 'develop'

     This program is part of the open-source Quantum ESPRESSO suite
     for quantum simulation of materials; please cite
         "P. Giannozzi et al., J. Phys.:Condens. Matter 21 395502 (2009);
         "P. Giannozzi et al., J. Phys.:Condens. Matter 29 465901 (2017);
         "P. Giannozzi et al., J. Chem. Phys. 152 154105 (2020);
          URL http://www.quantum-espresso.org", 
     in publications or presentations arising from this work. More details at
     http://www.quantum-espresso.org/quote

     Parallel version (MPI), running on    12 processors

     MPI processes distributed on     1 nodes
     0 MiB available memory on the printing compute node when the environment starts

     Reading input from /Users/kaede/research/Waterloo Holger thermoelectric materials/thermo_candidates/Rb2Cu2SnS4/qe/00_relax/Rb2Cu2SnS4.relax.in

     Current dimensions of program PWSCF are:
     Max number of different atomic species (ntypx) = 10
     Max number of k-points (npk) =  40000
     Max angular momentum in pseudopotentials (lmaxx) =  4
     file Cu.paw.z_11.ld1.psl.v1.0.0-low.upf: wavefunction(s)  4S 3D renormalized

     Exact exchange band parallelism type set to band_pairs

     Message from routine setup:
     using ibrav=0 with symmetry is DISCOURAGED, use correct ibrav instead

     K-points division:     npool     =       2
     R & G space division:  proc/nbgrp/npool/nimage =       6
     Subspace diagonalization in iterative solution of the eigenvalue problem:
     a serial algorithm will be used


     Parallelization info
     --------------------
     sticks:   dense  smooth     PW     G-vecs:    dense   smooth      PW
     Min        3063    1532    443               163833    57894    8995
     Max        3064    1533    444               163835    57895    8996
     Sum       18383    9197   2661               983005   347367   53975

     Using Slab Decomposition



     bravais-lattice index     =            0
     lattice parameter (alat)  =      17.9341  a.u.
     unit-cell volume          =    3012.5252 (a.u.)^3
     number of atoms/cell      =           18
     number of atomic types    =            4
     number of electrons       =       156.00
     number of Kohn-Sham states=           78
     kinetic-energy cutoff     =      90.0000  Ry
     charge density cutoff     =     720.0000  Ry
     scf convergence threshold =      1.0E-08
     mixing beta               =       0.3000
     number of iterations used =            8  plain     mixing
     energy convergence thresh.=      1.0E-05
     force convergence thresh. =      1.0E-03
     press convergence thresh. =      5.0E-01
     Exchange-correlation= SLA  PW   PBE  PBE
                           (   1   4   3   4   0   0   0)
     nstep                     =          100


     celldm(1)=  17.934128  celldm(2)=   0.000000  celldm(3)=   0.000000
     celldm(4)=   0.000000  celldm(5)=   0.000000  celldm(6)=   0.000000

     crystal axes: (cart. coord. in units of alat)
               a(1) = (   0.972506   0.000000  -0.232877 )  
               a(2) = (  -0.131538   0.537029  -0.833245 )  
               a(3) = (   0.000000   0.000000   1.000000 )  

     reciprocal axes: (cart. coord. in units 2 pi/alat)
               b(1) = (  1.028271  0.251861 -0.000000 )  
               b(2) = ( -0.000000  1.862098  0.000000 )  
               b(3) = (  0.239461  1.610237  1.000000 )  


     PseudoPot. # 1 for Cu read from file:
     /Users/kaede/scientific-tools/pseudopotentials/SSSP/1.3.0/PBE/precision/Cu.paw.z_11.ld1.psl.v1.0.0-low.upf
     MD5 check sum: 619f40885d92a09a85a8b37550532d0c
     Pseudo is Projector augmented-wave + core cor, Zval = 11.0
     Generated using &quot;atomic&quot; code by A. Dal Corso  v.6.3MaX
     Shape of augmentation charge: PSQ
     Using radial grid of 1199 points,  6 beta functions with: 
                l(1) =   0
                l(2) =   0
                l(3) =   1
                l(4) =   1
                l(5) =   2
                l(6) =   2
     Q(r) pseudized with 0 coefficients 


     PseudoPot. # 2 for Rb read from file:
     /Users/kaede/scientific-tools/pseudopotentials/SSSP/1.3.0/PBE/precision/Rb_ONCV_PBE-1.0.oncvpsp.upf
     MD5 check sum: 55a5172d6bfbce6759a58e35d43f6aa9
     Pseudo is Norm-conserving, Zval =  9.0
     Generated using ONCVPSP code by D. R. Hamann
     Using radial grid of 2308 points,  6 beta functions with: 
                l(1) =   0
                l(2) =   0
                l(3) =   1
                l(4) =   1
                l(5) =   2
                l(6) =   2

     PseudoPot. # 3 for S  read from file:
     /Users/kaede/scientific-tools/pseudopotentials/SSSP/1.3.0/PBE/precision/s_pbe_v1.4.uspp.F.UPF
     MD5 check sum: 88d86576ff6df21479756cfb9bdac1df
     Pseudo is Ultrasoft + core correction, Zval =  6.0
     Generated by new atomic code, or converted to UPF format
     Using radial grid of  907 points,  6 beta functions with: 
                l(1) =   0
                l(2) =   0
                l(3) =   1
                l(4) =   1
                l(5) =   2
                l(6) =   2
     Q(r) pseudized with  8 coefficients,  rinner =    1.300   1.300   1.300
                                                       1.300   1.300

     PseudoPot. # 4 for Sn read from file:
     /Users/kaede/scientific-tools/pseudopotentials/SSSP/1.3.0/PBE/precision/Sn_pbe_v1.uspp.F.UPF
     MD5 check sum: 4cf58ce39ec5d5d420df3dd08604eb00
     Pseudo is Ultrasoft + core correction, Zval = 14.0
     Generated by new atomic code, or converted to UPF format
     Using radial grid of  891 points,  6 beta functions with: 
                l(1) =   0
                l(2) =   0
                l(3) =   1
                l(4) =   1
                l(5) =   2
                l(6) =   2
     Q(r) pseudized with  6 coefficients,  rinner =    1.200   1.200   1.200
                                                       1.200   1.200

     atomic species   valence    mass     pseudopotential
     Cu               11.00    63.54600     Cu( 1.00)
     Rb                9.00    85.46780     Rb( 1.00)
     S                 6.00    32.06500     S ( 1.00)
     Sn               14.00   118.71000     Sn( 1.00)

      2 Sym. Ops., with inversion, found


                                    s                        frac. trans.

      isym =  1     identity                                     

 cryst.   s( 1) = (     1          0          0      )
                  (     0          1          0      )
                  (     0          0          1      )

 cart.    s( 1) = (  1.0000000 -0.0000000  0.0000000 )
                  (  0.0000000  1.0000000  0.0000000 )
                  (  0.0000000  0.0000000  1.0000000 )


      isym =  2     inversion                                    

 cryst.   s( 2) = (    -1          0          0      )
                  (     0         -1          0      )
                  (     0          0         -1      )

 cart.    s( 2) = ( -1.0000000  0.0000000  0.0000000 )
                  (  0.0000000 -1.0000000  0.0000000 )
                  ( -0.0000000 -0.0000000 -1.0000000 )


   Cartesian axes

     site n.     atom                  positions (alat units)
         1        Rb     tau(   1) = (   0.0251088   0.3911465   0.2168349  )
         2        Rb     tau(   2) = (   0.8158597   0.1458822  -0.2829575  )
         3        Rb     tau(   3) = (   0.3353014   0.1226321   0.3262616  )
         4        Rb     tau(   4) = (   0.5056670   0.4143966  -0.3923843  )
         5        Cu     tau(   5) = (  -0.0747879   0.4027716  -0.3561089  )
         6        Cu     tau(   6) = (   0.9157564   0.1342572   0.2899862  )
         7        Cu     tau(   7) = (   0.3637345   0.4027716  -0.0101979  )
         8        Cu     tau(   8) = (   0.4772340   0.1342572  -0.0559248  )
         9        Sn     tau(   9) = (   0.2102421   0.1342572  -0.2665307  )
        10        Sn     tau(  10) = (   0.6307264   0.4027716  -0.7995920  )
        11        S      tau(  11) = (  -0.1047294   0.4936352  -0.1316011  )
        12        S      tau(  12) = (   0.9456979   0.0433935   0.0654784  )
        13        S      tau(  13) = (   0.2235010   0.2032369  -0.0189694  )
        14        S      tau(  14) = (   0.6174675   0.3337918  -0.0471533  )
        15        S      tau(  15) = (   0.4540847   0.0652775   0.6887123  )
        16        S      tau(  16) = (   0.3868838   0.4717513  -0.7548350  )
        17        S      tau(  17) = (   0.1365746   0.3119079  -0.4375099  )
        18        S      tau(  18) = (   0.7043939   0.2251208   0.3713873  )

   Crystallographic axes

     site n.     atom                  positions (cryst. coord.)
         1        Rb     tau(   1) = (  0.1243330  0.7283530  0.8526860  )
         2        Rb     tau(   2) = (  0.8756670  0.2716470  0.1473140  )
         3        Rb     tau(   3) = (  0.3756670  0.2283530  0.6040200  )
         4        Rb     tau(   4) = (  0.6243330  0.7716470  0.3959800  )
         5        Cu     tau(   5) = (  0.0245400  0.7500000  0.2745400  )
         6        Cu     tau(   6) = (  0.9754600  0.2500000  0.7254600  )
         7        Cu     tau(   7) = (  0.4754600  0.7500000  0.7254600  )
         8        Cu     tau(   8) = (  0.5245400  0.2500000  0.2745400  )
         9        Sn     tau(   9) = (  0.2500000  0.2500000 -0.0000000  )
        10        Sn     tau(  10) = (  0.7500000  0.7500000  0.0000000  )
        11        S      tau(  11) = (  0.0166370  0.9191970  0.6381900  )
        12        S      tau(  12) = (  0.9833630  0.0808030  0.3618100  )
        13        S      tau(  13) = (  0.2810070  0.3784470  0.3618100  )
        14        S      tau(  14) = (  0.7189930  0.6215530  0.6381900  )
        15        S      tau(  15) = (  0.4833630  0.1215530  0.9025600  )
        16        S      tau(  16) = (  0.5166370  0.8784470  0.0974400  )
        17        S      tau(  17) = (  0.2189930  0.5808030  0.0974400  )
        18        S      tau(  18) = (  0.7810070  0.4191970  0.9025600  )

     number of k points=    20
                       cart. coord. in units 2pi/alat
        k(    1) = (   0.0000000   0.0000000   0.0000000), wk =   0.0625000
        k(    2) = (   0.0598652   0.4025593   0.2500000), wk =   0.1250000
        k(    3) = (  -0.1197305  -0.8051185  -0.5000000), wk =   0.0625000
        k(    4) = (   0.0000000   0.4655244   0.0000000), wk =   0.1250000
        k(    5) = (   0.0598652   0.8680837   0.2500000), wk =   0.1250000
        k(    6) = (  -0.1197305  -0.3395941  -0.5000000), wk =   0.1250000
        k(    7) = (  -0.0598652   0.0629652  -0.2500000), wk =   0.1250000
        k(    8) = (   0.0000000  -0.9310489   0.0000000), wk =   0.0625000
        k(    9) = (   0.0598652  -0.5284896   0.2500000), wk =   0.1250000
        k(   10) = (  -0.1197305  -1.7361674  -0.5000000), wk =   0.0625000
        k(   11) = (  -0.5141356  -0.1259303   0.0000000), wk =   0.0625000
        k(   12) = (  -0.4542703   0.2766290   0.2500000), wk =   0.1250000
        k(   13) = (  -0.6338660  -0.9310488  -0.5000000), wk =   0.0625000
        k(   14) = (  -0.5141356   0.3395941   0.0000000), wk =   0.1250000
        k(   15) = (  -0.4542703   0.7421534   0.2500000), wk =   0.1250000
        k(   16) = (  -0.6338660  -0.4655244  -0.5000000), wk =   0.1250000
        k(   17) = (  -0.5740008  -0.0629651  -0.2500000), wk =   0.1250000
        k(   18) = (  -0.5141356  -1.0569791   0.0000000), wk =   0.0625000
        k(   19) = (  -0.4542703  -0.6544199   0.2500000), wk =   0.1250000
        k(   20) = (  -0.6338660  -1.8620977  -0.5000000), wk =   0.0625000

                       cryst. coord.
        k(    1) = (   0.0000000   0.0000000   0.0000000), wk =   0.0625000
        k(    2) = (  -0.0000000   0.0000000   0.2500000), wk =   0.1250000
        k(    3) = (   0.0000000  -0.0000000  -0.5000000), wk =   0.0625000
        k(    4) = (   0.0000000   0.2500000   0.0000000), wk =   0.1250000
        k(    5) = (  -0.0000000   0.2500000   0.2500000), wk =   0.1250000
        k(    6) = (   0.0000000   0.2500000  -0.5000000), wk =   0.1250000
        k(    7) = (   0.0000000   0.2500000  -0.2500000), wk =   0.1250000
        k(    8) = (   0.0000000  -0.5000000   0.0000000), wk =   0.0625000
        k(    9) = (  -0.0000000  -0.5000000   0.2500000), wk =   0.1250000
        k(   10) = (   0.0000000  -0.5000000  -0.5000000), wk =   0.0625000
        k(   11) = (  -0.5000000  -0.0000000   0.0000000), wk =   0.0625000
        k(   12) = (  -0.5000000   0.0000000   0.2500000), wk =   0.1250000
        k(   13) = (  -0.5000000  -0.0000000  -0.5000000), wk =   0.0625000
        k(   14) = (  -0.5000000   0.2500000   0.0000000), wk =   0.1250000
        k(   15) = (  -0.5000000   0.2500000   0.2500000), wk =   0.1250000
        k(   16) = (  -0.5000000   0.2500000  -0.5000000), wk =   0.1250000
        k(   17) = (  -0.5000000   0.2500000  -0.2500000), wk =   0.1250000
        k(   18) = (  -0.5000000  -0.5000000   0.0000000), wk =   0.0625000
        k(   19) = (  -0.5000000  -0.5000000   0.2500000), wk =   0.1250000
        k(   20) = (  -0.5000000  -0.5000000  -0.5000000), wk =   0.0625000

     Dense  grid:   983005 G-vectors     FFT dimensions: ( 160, 160, 160)

     Smooth grid:   347367 G-vectors     FFT dimensions: ( 120, 120, 120)

     Dynamical RAM for                 wfc:       8.62 MB

     Dynamical RAM for     wfc (w. buffer):       8.62 MB

     Dynamical RAM for           str. fact:      10.00 MB

     Dynamical RAM for           local pot:       0.00 MB

     Dynamical RAM for          nlocal pot:      35.79 MB

     Dynamical RAM for                qrad:      17.22 MB

     Dynamical RAM for          rho,v,vnew:      23.32 MB

     Dynamical RAM for               rhoin:       7.77 MB

     Dynamical RAM for            rho*nmix:      40.00 MB

     Dynamical RAM for           G-vectors:       9.82 MB

     Dynamical RAM for          h,s,v(r/c):       1.11 MB

     Dynamical RAM for          <psi|beta>:       0.39 MB

     Dynamical RAM for                 psi:      17.23 MB

     Dynamical RAM for                hpsi:      17.23 MB

     Dynamical RAM for                spsi:      17.23 MB

     Dynamical RAM for      wfcinit/wfcrot:      17.37 MB

     Dynamical RAM for           addusdens:     243.74 MB

     Dynamical RAM for          addusforce:     261.27 MB

     Dynamical RAM for         addusstress:     251.87 MB

     Estimated static dynamical RAM per process >     151.40 MB

     Estimated max dynamical RAM per process >     452.67 MB

     Estimated total dynamical RAM >       5.07 GB

     Initial potential from superposition of free atoms

     starting charge     153.8996, renormalised to     156.0000
     Starting wfcs are  106 randomized atomic wfcs
     Checking if some PAW data can be deallocated... 
       PAW data deallocated on   10 nodes for type:  1

     total cpu time spent up to now is        8.0 secs

     Self-consistent Calculation

     iteration #  1     ecut=    90.00 Ry     beta= 0.30
     Davidson diagonalization with overlap

---- Real-time Memory Report at c_bands before calling an iterative solver
             0 MiB given to the printing process from OS
             0 MiB allocation reported by mallinfo(arena+hblkhd)
             0 MiB available memory on the node where the printing process lives
------------------
     ethr =  1.00E-02,  avg # of iterations =  2.0

     total cpu time spent up to now is       23.8 secs

     total energy              =   -1567.61010148 Ry
     estimated scf accuracy    <       2.33076901 Ry

     iteration #  2     ecut=    90.00 Ry     beta= 0.30
     Davidson diagonalization with overlap

---- Real-time Memory Report at c_bands before calling an iterative solver
             0 MiB given to the printing process from OS
             0 MiB allocation reported by mallinfo(arena+hblkhd)
             0 MiB available memory on the node where the printing process lives
------------------
     ethr =  1.49E-03,  avg # of iterations =  5.1

     total cpu time spent up to now is       43.2 secs

     total energy              =   -1568.17091369 Ry
     estimated scf accuracy    <       0.72449982 Ry

     iteration #  3     ecut=    90.00 Ry     beta= 0.30
     Davidson diagonalization with overlap

---- Real-time Memory Report at c_bands before calling an iterative solver
             0 MiB given to the printing process from OS
             0 MiB allocation reported by mallinfo(arena+hblkhd)
             0 MiB available memory on the node where the printing process lives
------------------
     ethr =  4.64E-04,  avg # of iterations =  2.0

     total cpu time spent up to now is       60.1 secs

     total energy              =   -1568.18469577 Ry
     estimated scf accuracy    <       0.12335408 Ry

     iteration #  4     ecut=    90.00 Ry     beta= 0.30
     Davidson diagonalization with overlap

---- Real-time Memory Report at c_bands before calling an iterative solver
             0 MiB given to the printing process from OS
             0 MiB allocation reported by mallinfo(arena+hblkhd)
             0 MiB available memory on the node where the printing process lives
------------------
     ethr =  7.91E-05,  avg # of iterations =  6.2

     total cpu time spent up to now is       83.8 secs

     total energy              =   -1568.20773659 Ry
     estimated scf accuracy    <       0.19186892 Ry

     iteration #  5     ecut=    90.00 Ry     beta= 0.30
     Davidson diagonalization with overlap

---- Real-time Memory Report at c_bands before calling an iterative solver
             0 MiB given to the printing process from OS
             0 MiB allocation reported by mallinfo(arena+hblkhd)
             0 MiB available memory on the node where the printing process lives
------------------
     ethr =  7.91E-05,  avg # of iterations =  4.0

     total cpu time spent up to now is      102.6 secs

     total energy              =   -1568.23504848 Ry
     estimated scf accuracy    <       0.00814700 Ry

     iteration #  6     ecut=    90.00 Ry     beta= 0.30
     Davidson diagonalization with overlap

---- Real-time Memory Report at c_bands before calling an iterative solver
             0 MiB given to the printing process from OS
             0 MiB allocation reported by mallinfo(arena+hblkhd)
             0 MiB available memory on the node where the printing process lives
------------------
     ethr =  5.22E-06,  avg # of iterations =  4.8

     total cpu time spent up to now is      124.5 secs

     total energy              =   -1568.23697246 Ry
     estimated scf accuracy    <       0.00250425 Ry

     iteration #  7     ecut=    90.00 Ry     beta= 0.30
     Davidson diagonalization with overlap

---- Real-time Memory Report at c_bands before calling an iterative solver
             0 MiB given to the printing process from OS
             0 MiB allocation reported by mallinfo(arena+hblkhd)
             0 MiB available memory on the node where the printing process lives
------------------
     ethr =  1.61E-06,  avg # of iterations =  6.4

     total cpu time spent up to now is      149.3 secs

     total energy              =   -1568.23579305 Ry
     estimated scf accuracy    <       0.01294331 Ry

     iteration #  8     ecut=    90.00 Ry     beta= 0.30
     Davidson diagonalization with overlap

---- Real-time Memory Report at c_bands before calling an iterative solver
             0 MiB given to the printing process from OS
             0 MiB allocation reported by mallinfo(arena+hblkhd)
             0 MiB available memory on the node where the printing process lives
------------------
     ethr =  1.61E-06,  avg # of iterations =  4.5

     total cpu time spent up to now is      172.2 secs

     total energy              =   -1568.23767635 Ry
     estimated scf accuracy    <       0.00018072 Ry

     iteration #  9     ecut=    90.00 Ry     beta= 0.30
     Davidson diagonalization with overlap

---- Real-time Memory Report at c_bands before calling an iterative solver
             0 MiB given to the printing process from OS
             0 MiB allocation reported by mallinfo(arena+hblkhd)
             0 MiB available memory on the node where the printing process lives
------------------
     ethr =  1.16E-07,  avg # of iterations =  5.9

     total cpu time spent up to now is      195.7 secs

     total energy              =   -1568.23770683 Ry
     estimated scf accuracy    <       0.00014127 Ry

     iteration # 10     ecut=    90.00 Ry     beta= 0.30
     Davidson diagonalization with overlap

---- Real-time Memory Report at c_bands before calling an iterative solver
             0 MiB given to the printing process from OS
             0 MiB allocation reported by mallinfo(arena+hblkhd)
             0 MiB available memory on the node where the printing process lives
------------------
     ethr =  9.06E-08,  avg # of iterations =  2.1

     total cpu time spent up to now is      215.0 secs

     total energy              =   -1568.23773331 Ry
     estimated scf accuracy    <       0.00000947 Ry

     iteration # 11     ecut=    90.00 Ry     beta= 0.30
     Davidson diagonalization with overlap

---- Real-time Memory Report at c_bands before calling an iterative solver
             0 MiB given to the printing process from OS
             0 MiB allocation reported by mallinfo(arena+hblkhd)
             0 MiB available memory on the node where the printing process lives
------------------
     ethr =  6.07E-09,  avg # of iterations =  6.5

     total cpu time spent up to now is      241.5 secs

     total energy              =   -1568.23774008 Ry
     estimated scf accuracy    <       0.00000537 Ry

     iteration # 12     ecut=    90.00 Ry     beta= 0.30
     Davidson diagonalization with overlap

---- Real-time Memory Report at c_bands before calling an iterative solver
             0 MiB given to the printing process from OS
             0 MiB allocation reported by mallinfo(arena+hblkhd)
             0 MiB available memory on the node where the printing process lives
------------------
     ethr =  3.44E-09,  avg # of iterations =  2.0

     total cpu time spent up to now is      258.4 secs

     total energy              =   -1568.23774053 Ry
     estimated scf accuracy    <       0.00000253 Ry

     iteration # 13     ecut=    90.00 Ry     beta= 0.30
     Davidson diagonalization with overlap

---- Real-time Memory Report at c_bands before calling an iterative solver
             0 MiB given to the printing process from OS
             0 MiB allocation reported by mallinfo(arena+hblkhd)
             0 MiB available memory on the node where the printing process lives
------------------
     ethr =  1.62E-09,  avg # of iterations =  5.3

     total cpu time spent up to now is      280.7 secs

     total energy              =   -1568.23774194 Ry
     estimated scf accuracy    <       0.00000110 Ry

     iteration # 14     ecut=    90.00 Ry     beta= 0.30
     Davidson diagonalization with overlap

---- Real-time Memory Report at c_bands before calling an iterative solver
             0 MiB given to the printing process from OS
             0 MiB allocation reported by mallinfo(arena+hblkhd)
             0 MiB available memory on the node where the printing process lives
------------------
     ethr =  7.08E-10,  avg # of iterations =  2.1

     total cpu time spent up to now is      299.8 secs

     total energy              =   -1568.23774201 Ry
     estimated scf accuracy    <       0.00000087 Ry

     iteration # 15     ecut=    90.00 Ry     beta= 0.30
     Davidson diagonalization with overlap

---- Real-time Memory Report at c_bands before calling an iterative solver
             0 MiB given to the printing process from OS
             0 MiB allocation reported by mallinfo(arena+hblkhd)
             0 MiB available memory on the node where the printing process lives
------------------
     ethr =  5.59E-10,  avg # of iterations =  3.5

     total cpu time spent up to now is      319.1 secs

     total energy              =   -1568.23774228 Ry
     estimated scf accuracy    <       0.00000003 Ry

     iteration # 16     ecut=    90.00 Ry     beta= 0.30
     Davidson diagonalization with overlap

---- Real-time Memory Report at c_bands before calling an iterative solver
             0 MiB given to the printing process from OS
             0 MiB allocation reported by mallinfo(arena+hblkhd)
             0 MiB available memory on the node where the printing process lives
------------------
     ethr =  1.69E-11,  avg # of iterations =  6.0

     total cpu time spent up to now is      348.2 secs

     total energy              =   -1568.23774236 Ry
     estimated scf accuracy    <       0.00000007 Ry

     iteration # 17     ecut=    90.00 Ry     beta= 0.30
     Davidson diagonalization with overlap

---- Real-time Memory Report at c_bands before calling an iterative solver
             0 MiB given to the printing process from OS
             0 MiB allocation reported by mallinfo(arena+hblkhd)
             0 MiB available memory on the node where the printing process lives
------------------
     ethr =  1.69E-11,  avg # of iterations =  4.0

     total cpu time spent up to now is      369.1 secs

     End of self-consistent calculation

          k = 0.0000 0.0000 0.0000 ( 43377 PWs)   bands (ev):

   -20.7051 -20.6795 -20.6756 -20.6503 -15.6636 -15.6635 -15.6542 -15.6541
   -15.6484 -15.6483 -15.5878 -15.5878 -15.5731 -15.5728  -7.2337  -6.9046
    -6.5748  -6.2543  -6.0858  -6.0825  -6.0822  -5.8506  -5.0699  -4.9930
    -4.8284  -4.8231  -4.7669  -4.7537  -4.7136  -4.7133  -4.6714  -4.6448
    -4.6432  -4.5689  -1.0173  -0.8119   1.5630   1.6591   1.8867   2.0277
     2.0987   2.1727   2.2134   2.5481   2.8984   3.0175   3.1432   3.1871
     3.3157   3.3226   3.4148   3.4220   3.4418   3.4711   3.5922   3.6973
     3.8230   3.8396   4.5708   4.6172   4.8391   4.8455   4.8515   4.9500
     4.9693   5.1920   5.2833   5.3119   5.3478   5.4123   5.5171   5.6131
     5.7136   5.8963   6.0315   6.1867   6.2272   6.2870

     occupation numbers 
     1.0000   1.0000   1.0000   1.0000   1.0000   1.0000   1.0000   1.0000
     1.0000   1.0000   1.0000   1.0000   1.0000   1.0000   1.0000   1.0000
     1.0000   1.0000   1.0000   1.0000   1.0000   1.0000   1.0000   1.0000
     1.0000   1.0000   1.0000   1.0000   1.0000   1.0000   1.0000   1.0000
     1.0000   1.0000   1.0000   1.0000   1.0000   1.0000   1.0000   1.0000
     1.0000   1.0000   1.0000   1.0000   1.0000   1.0000   1.0000   1.0000
     1.0000   1.0000   1.0000   1.0000   1.0000   1.0000   1.0000   1.0000
     1.0000   1.0000   1.0000   1.0000   1.0000   1.0000   1.0000   1.0000
     1.0000   1.0000   1.0000   1.0000   1.0000   1.0000   1.0000   1.0000
     1.0000   1.0000   1.0000   1.0000   1.0000   1.0000

          k = 0.0599 0.4026 0.2500 ( 43439 PWs)   bands (ev):

   -20.6961 -20.6852 -20.6692 -20.6586 -15.6636 -15.6635 -15.6544 -15.6543
   -15.6485 -15.6484 -15.5876 -15.5876 -15.5730 -15.5729  -7.1348  -6.9365
    -6.3833  -6.2399  -6.2049  -6.1741  -6.1450  -5.9627  -4.9907  -4.9071
    -4.8284  -4.7862  -4.7641  -4.7549  -4.7425  -4.7417  -4.7115  -4.6505
    -4.6393  -4.6275  -0.9601  -0.8074   1.3649   1.5388   1.6669   1.9761
     2.0729   2.2342   2.4640   2.6393   2.7045   2.9884   3.0834   3.2345
     3.2797   3.3127   3.3239   3.4106   3.4187   3.5498   3.7077   3.7478
     3.7882   3.8540   4.6783   4.7349   4.8211   4.8735   4.9259   4.9861
     5.0109   5.1194   5.2159   5.2492   5.2646   5.4254   5.7225   5.7716
     5.8218   5.9426   6.0355   6.1133   6.1706   6.2831

     occupation numbers 
     1.0000   1.0000   1.0000   1.0000   1.0000   1.0000   1.0000   1.0000
     1.0000   1.0000   1.0000   1.0000   1.0000   1.0000   1.0000   1.0000
     1.0000   1.0000   1.0000   1.0000   1.0000   1.0000   1.0000   1.0000
     1.0000   1.0000   1.0000   1.0000   1.0000   1.0000   1.0000   1.0000
     1.0000   1.0000   1.0000   1.0000   1.0000   1.0000   1.0000   1.0000
     1.0000   1.0000   1.0000   1.0000   1.0000   1.0000   1.0000   1.0000
     1.0000   1.0000   1.0000   1.0000   1.0000   1.0000   1.0000   1.0000
     1.0000   1.0000   1.0000   1.0000   1.0000   1.0000   1.0000   1.0000
     1.0000   1.0000   1.0000   1.0000   1.0000   1.0000   1.0000   1.0000
     1.0000   1.0000   1.0000   1.0000   1.0000   1.0000

          k =-0.1197-0.8051-0.5000 ( 43366 PWs)   bands (ev):

   -20.6832 -20.6831 -20.6708 -20.6707 -15.6636 -15.6636 -15.6545 -15.6545
   -15.6486 -15.6486 -15.5874 -15.5874 -15.5729 -15.5729  -7.0061  -6.9184
    -6.4048  -6.2890  -6.2606  -6.2180  -6.0938  -6.0320  -4.9119  -4.9012
    -4.8844  -4.8031  -4.7890  -4.7740  -4.7601  -4.7490  -4.6730  -4.6648
    -4.6417  -4.6198  -0.8911  -0.8084   1.2679   1.4261   1.5433   1.7787
     2.1655   2.3517   2.4365   2.4427   2.7806   3.0014   3.0802   3.2514
     3.2527   3.3339   3.3656   3.3907   3.4252   3.5796   3.7031   3.7466
     3.8317   3.8469   4.7646   4.8355   4.8499   4.8912   4.9958   5.0159
     5.0572   5.0793   5.1574   5.2058   5.2231   5.3468   5.7785   5.9487
     5.9744   6.0296   6.0952   6.1337   6.1674   6.2013

     occupation numbers 
     1.0000   1.0000   1.0000   1.0000   1.0000   1.0000   1.0000   1.0000
     1.0000   1.0000   1.0000   1.0000   1.0000   1.0000   1.0000   1.0000
     1.0000   1.0000   1.0000   1.0000   1.0000   1.0000   1.0000   1.0000
     1.0000   1.0000   1.0000   1.0000   1.0000   1.0000   1.0000   1.0000
     1.0000   1.0000   1.0000   1.0000   1.0000   1.0000   1.0000   1.0000
     1.0000   1.0000   1.0000   1.0000   1.0000   1.0000   1.0000   1.0000
     1.0000   1.0000   1.0000   1.0000   1.0000   1.0000   1.0000   1.0000
     1.0000   1.0000   1.0000   1.0000   1.0000   1.0000   1.0000   1.0000
     1.0000   1.0000   1.0000   1.0000   1.0000   1.0000   1.0000   1.0000
     1.0000   1.0000   1.0000   1.0000   1.0000   1.0000

          k = 0.0000 0.4655 0.0000 ( 43455 PWs)   bands (ev):

   -20.6976 -20.6795 -20.6749 -20.6571 -15.6636 -15.6635 -15.6544 -15.6543
   -15.6485 -15.6484 -15.5876 -15.5876 -15.5730 -15.5728  -7.1594  -6.8752
    -6.4865  -6.2080  -6.1886  -6.1583  -6.1308  -5.9698  -5.0162  -4.8947
    -4.8269  -4.8164  -4.7531  -4.7355  -4.7322  -4.7263  -4.7070  -4.6552
    -4.6528  -4.6319  -0.9691  -0.7993   1.3412   1.5122   1.7562   2.0179
     2.0551   2.1962   2.4158   2.6181   2.6806   3.0888   3.0937   3.1618
     3.3033   3.3371   3.3655   3.3766   3.4556   3.5020   3.6488   3.7499
     3.8416   3.8462   4.6840   4.7280   4.8019   4.8888   4.9381   4.9818
     5.0075   5.1398   5.1740   5.2612   5.2706   5.4358   5.6965   5.8401
     5.8493   5.9540   6.0140   6.1053   6.1333   6.2161

     occupation numbers 
     1.0000   1.0000   1.0000   1.0000   1.0000   1.0000   1.0000   1.0000
     1.0000   1.0000   1.0000   1.0000   1.0000   1.0000   1.0000   1.0000
     1.0000   1.0000   1.0000   1.0000   1.0000   1.0000   1.0000   1.0000
     1.0000   1.0000   1.0000   1.0000   1.0000   1.0000   1.0000   1.0000
     1.0000   1.0000   1.0000   1.0000   1.0000   1.0000   1.0000   1.0000
     1.0000   1.0000   1.0000   1.0000   1.0000   1.0000   1.0000   1.0000
     1.0000   1.0000   1.0000   1.0000   1.0000   1.0000   1.0000   1.0000
     1.0000   1.0000   1.0000   1.0000   1.0000   1.0000   1.0000   1.0000
     1.0000   1.0000   1.0000   1.0000   1.0000   1.0000   1.0000   1.0000
     1.0000   1.0000   1.0000   1.0000   1.0000   1.0000

          k = 0.0599 0.8681 0.2500 ( 43432 PWs)   bands (ev):

   -20.6832 -20.6831 -20.6708 -20.6707 -15.6636 -15.6636 -15.6545 -15.6545
   -15.6486 -15.6486 -15.5874 -15.5874 -15.5729 -15.5729  -6.9946  -6.9348
    -6.4068  -6.3153  -6.2290  -6.1669  -6.1142  -6.0612  -4.9133  -4.9081
    -4.8600  -4.8230  -4.7966  -4.7811  -4.7512  -4.7356  -4.7044  -4.6812
    -4.6116  -4.6054  -0.8800  -0.8214   1.2374   1.3671   1.7036   1.8449
     2.1570   2.2906   2.3408   2.3644   2.8904   3.0069   3.1273   3.2047
     3.2565   3.2949   3.3142   3.3583   3.4684   3.5980   3.7325   3.7677
     3.8069   3.8589   4.7799   4.8286   4.8459   4.8863   4.9869   5.0117
     5.0234   5.0533   5.1915   5.2282   5.2605   5.3321   5.8242   5.9397
     5.9899   6.0290   6.0717   6.1341   6.1620   6.2236

     occupation numbers 
     1.0000   1.0000   1.0000   1.0000   1.0000   1.0000   1.0000   1.0000
     1.0000   1.0000   1.0000   1.0000   1.0000   1.0000   1.0000   1.0000
     1.0000   1.0000   1.0000   1.0000   1.0000   1.0000   1.0000   1.0000
     1.0000   1.0000   1.0000   1.0000   1.0000   1.0000   1.0000   1.0000
     1.0000   1.0000   1.0000   1.0000   1.0000   1.0000   1.0000   1.0000
     1.0000   1.0000   1.0000   1.0000   1.0000   1.0000   1.0000   1.0000
     1.0000   1.0000   1.0000   1.0000   1.0000   1.0000   1.0000   1.0000
     1.0000   1.0000   1.0000   1.0000   1.0000   1.0000   1.0000   1.0000
     1.0000   1.0000   1.0000   1.0000   1.0000   1.0000   1.0000   1.0000
     1.0000   1.0000   1.0000   1.0000   1.0000   1.0000

          k =-0.1197-0.3396-0.5000 ( 43424 PWs)   bands (ev):

   -20.6917 -20.6917 -20.6629 -20.6629 -15.6636 -15.6636 -15.6543 -15.6543
   -15.6485 -15.6485 -15.5876 -15.5876 -15.5729 -15.5729  -7.0687  -7.0570
    -6.3402  -6.2647  -6.1821  -6.1468  -6.0894  -5.9852  -4.9550  -4.9380
    -4.8184  -4.8047  -4.7984  -4.7689  -4.7560  -4.7506  -4.6976  -4.6788
    -4.6216  -4.6177  -0.9090  -0.8633   1.4796   1.5440   1.6469   1.7897
     2.2301   2.3274   2.4380   2.4892   2.8172   2.9451   3.0377   3.1678
     3.2366   3.2738   3.3413   3.4317   3.4543   3.6258   3.7408   3.7753
     3.7950   3.8295   4.6823   4.7209   4.8372   4.8544   4.9334   4.9616
     5.0616   5.0761   5.2328   5.2569   5.3007   5.3612   5.7064   5.7617
     5.8444   5.9371   6.0284   6.0484   6.2604   6.3063

     occupation numbers 
     1.0000   1.0000   1.0000   1.0000   1.0000   1.0000   1.0000   1.0000
     1.0000   1.0000   1.0000   1.0000   1.0000   1.0000   1.0000   1.0000
     1.0000   1.0000   1.0000   1.0000   1.0000   1.0000   1.0000   1.0000
     1.0000   1.0000   1.0000   1.0000   1.0000   1.0000   1.0000   1.0000
     1.0000   1.0000   1.0000   1.0000   1.0000   1.0000   1.0000   1.0000
     1.0000   1.0000   1.0000   1.0000   1.0000   1.0000   1.0000   1.0000
     1.0000   1.0000   1.0000   1.0000   1.0000   1.0000   1.0000   1.0000
     1.0000   1.0000   1.0000   1.0000   1.0000   1.0000   1.0000   1.0000
     1.0000   1.0000   1.0000   1.0000   1.0000   1.0000   1.0000   1.0000
     1.0000   1.0000   1.0000   1.0000   1.0000   1.0000

          k =-0.0599 0.0630-0.2500 ( 43427 PWs)   bands (ev):

   -20.7030 -20.6882 -20.6670 -20.6524 -15.6636 -15.6635 -15.6542 -15.6541
   -15.6484 -15.6483 -15.5878 -15.5878 -15.5730 -15.5728  -7.2134  -7.0090
    -6.4559  -6.2192  -6.1410  -6.1092  -6.0262  -5.8691  -5.0374  -4.9840
    -4.8811  -4.8403  -4.7710  -4.7301  -4.7143  -4.7087  -4.6692  -4.6525
    -4.6469  -4.5924  -0.9921  -0.8433   1.5924   1.7275   1.8383   2.0116
     2.0570   2.1047   2.3214   2.7299   2.8523   2.9136   3.0422   3.2107
     3.2452   3.2681   3.3962   3.4150   3.5691   3.5915   3.6121   3.6972
     3.7831   3.8321   4.5727   4.6077   4.8413   4.8484   4.8808   4.9507
     4.9653   5.0991   5.3043   5.3508   5.3821   5.3983   5.4801   5.5869
     5.7607   5.9039   6.0482   6.0769   6.1940   6.2479

     occupation numbers 
     1.0000   1.0000   1.0000   1.0000   1.0000   1.0000   1.0000   1.0000
     1.0000   1.0000   1.0000   1.0000   1.0000   1.0000   1.0000   1.0000
     1.0000   1.0000   1.0000   1.0000   1.0000   1.0000   1.0000   1.0000
     1.0000   1.0000   1.0000   1.0000   1.0000   1.0000   1.0000   1.0000
     1.0000   1.0000   1.0000   1.0000   1.0000   1.0000   1.0000   1.0000
     1.0000   1.0000   1.0000   1.0000   1.0000   1.0000   1.0000   1.0000
     1.0000   1.0000   1.0000   1.0000   1.0000   1.0000   1.0000   1.0000
     1.0000   1.0000   1.0000   1.0000   1.0000   1.0000   1.0000   1.0000
     1.0000   1.0000   1.0000   1.0000   1.0000   1.0000   1.0000   1.0000
     1.0000   1.0000   1.0000   1.0000   1.0000   1.0000

          k = 0.0000-0.9310 0.0000 ( 43450 PWs)   bands (ev):

   -20.6832 -20.6831 -20.6708 -20.6707 -15.6636 -15.6636 -15.6545 -15.6545
   -15.6486 -15.6486 -15.5874 -15.5874 -15.5729 -15.5729  -6.9669  -6.9669
    -6.3741  -6.3738  -6.1511  -6.1511  -6.1188  -6.1185  -4.9175  -4.9174
    -4.8403  -4.8402  -4.7899  -4.7899  -4.7334  -4.7333  -4.7104  -4.7104
    -4.5950  -4.5949  -0.8517  -0.8517   1.2691   1.2692   1.9682   1.9682
     2.0636   2.0639   2.3078   2.3078   3.0341   3.0342   3.1366   3.1368
     3.2327   3.2331   3.3200   3.3202   3.5574   3.5575   3.7721   3.7724
     3.8280   3.8281   4.8103   4.8106   4.8600   4.8603   4.9859   4.9861
     5.0240   5.0243   5.2461   5.2463   5.2905   5.2906   5.9092   5.9096
     5.9841   5.9845   6.1165   6.1169   6.1995   6.1997

     occupation numbers 
     1.0000   1.0000   1.0000   1.0000   1.0000   1.0000   1.0000   1.0000
     1.0000   1.0000   1.0000   1.0000   1.0000   1.0000   1.0000   1.0000
     1.0000   1.0000   1.0000   1.0000   1.0000   1.0000   1.0000   1.0000
     1.0000   1.0000   1.0000   1.0000   1.0000   1.0000   1.0000   1.0000
     1.0000   1.0000   1.0000   1.0000   1.0000   1.0000   1.0000   1.0000
     1.0000   1.0000   1.0000   1.0000   1.0000   1.0000   1.0000   1.0000
     1.0000   1.0000   1.0000   1.0000   1.0000   1.0000   1.0000   1.0000
     1.0000   1.0000   1.0000   1.0000   1.0000   1.0000   1.0000   1.0000
     1.0000   1.0000   1.0000   1.0000   1.0000   1.0000   1.0000   1.0000
     1.0000   1.0000   1.0000   1.0000   1.0000   1.0000

          k = 0.0599-0.5285 0.2500 ( 43437 PWs)   bands (ev):

   -20.6961 -20.6852 -20.6692 -20.6586 -15.6636 -15.6635 -15.6544 -15.6543
   -15.6485 -15.6485 -15.5876 -15.5876 -15.5730 -15.5728  -7.1373  -6.9617
    -6.4458  -6.1989  -6.1733  -6.1469  -6.0629  -6.0034  -4.9910  -4.9143
    -4.8378  -4.8249  -4.7644  -4.7545  -4.7453  -4.7400  -4.7153  -4.6669
    -4.6324  -4.6217  -0.9316  -0.8415   1.4429   1.5033   1.7315   1.8639
     2.1506   2.2945   2.4040   2.6057   2.6673   3.0387   3.0690   3.1248
     3.2567   3.3154   3.3543   3.4145   3.4512   3.5824   3.7255   3.7331
     3.8199   3.8701   4.6936   4.7079   4.8048   4.8847   4.9435   4.9663
     5.0284   5.1052   5.2027   5.2643   5.3085   5.3731   5.6926   5.7989
     5.8878   5.9300   6.0159   6.0431   6.2292   6.2518

     occupation numbers 
     1.0000   1.0000   1.0000   1.0000   1.0000   1.0000   1.0000   1.0000
     1.0000   1.0000   1.0000   1.0000   1.0000   1.0000   1.0000   1.0000
     1.0000   1.0000   1.0000   1.0000   1.0000   1.0000   1.0000   1.0000
     1.0000   1.0000   1.0000   1.0000   1.0000   1.0000   1.0000   1.0000
     1.0000   1.0000   1.0000   1.0000   1.0000   1.0000   1.0000   1.0000
     1.0000   1.0000   1.0000   1.0000   1.0000   1.0000   1.0000   1.0000
     1.0000   1.0000   1.0000   1.0000   1.0000   1.0000   1.0000   1.0000
     1.0000   1.0000   1.0000   1.0000   1.0000   1.0000   1.0000   1.0000
     1.0000   1.0000   1.0000   1.0000   1.0000   1.0000   1.0000   1.0000
     1.0000   1.0000   1.0000   1.0000   1.0000   1.0000

          k =-0.1197-1.7362-0.5000 ( 43432 PWs)   bands (ev):

   -20.6970 -20.6970 -20.6583 -20.6582 -15.6636 -15.6636 -15.6541 -15.6541
   -15.6483 -15.6483 -15.5878 -15.5878 -15.5729 -15.5729  -7.1407  -7.1405
    -6.2818  -6.2816  -6.1513  -6.1509  -5.9347  -5.9344  -4.9798  -4.9797
    -4.9077  -4.9077  -4.7368  -4.7368  -4.7128  -4.7127  -4.6678  -4.6677
    -4.6290  -4.6290  -0.9209  -0.9209   1.7117   1.7121   1.8450   1.8451
     2.0958   2.0958   2.5846   2.5848   2.9001   2.9003   3.0246   3.0249
     3.2439   3.2441   3.4241   3.4244   3.6224   3.6228   3.7079   3.7081
     3.7718   3.7721   4.5860   4.5867   4.8453   4.8461   4.9565   4.9571
     4.9742   4.9746   5.3575   5.3582   5.3686   5.3693   5.5194   5.5198
     5.8408   5.8414   6.0617   6.0623   6.1860   6.1865

     occupation numbers 
     1.0000   1.0000   1.0000   1.0000   1.0000   1.0000   1.0000   1.0000
     1.0000   1.0000   1.0000   1.0000   1.0000   1.0000   1.0000   1.0000
     1.0000   1.0000   1.0000   1.0000   1.0000   1.0000   1.0000   1.0000
     1.0000   1.0000   1.0000   1.0000   1.0000   1.0000   1.0000   1.0000
     1.0000   1.0000   1.0000   1.0000   1.0000   1.0000   1.0000   1.0000
     1.0000   1.0000   1.0000   1.0000   1.0000   1.0000   1.0000   1.0000
     1.0000   1.0000   1.0000   1.0000   1.0000   1.0000   1.0000   1.0000
     1.0000   1.0000   1.0000   1.0000   1.0000   1.0000   1.0000   1.0000
     1.0000   1.0000   1.0000   1.0000   1.0000   1.0000   1.0000   1.0000
     1.0000   1.0000   1.0000   1.0000   1.0000   1.0000

          k =-0.5141-0.1259 0.0000 ( 43432 PWs)   bands (ev):

   -20.6970 -20.6970 -20.6583 -20.6582 -15.6636 -15.6636 -15.6541 -15.6541
   -15.6483 -15.6483 -15.5878 -15.5878 -15.5729 -15.5729  -7.1407  -7.1405
    -6.2817  -6.2816  -6.1513  -6.1510  -5.9347  -5.9344  -4.9798  -4.9797
    -4.9077  -4.9077  -4.7368  -4.7368  -4.7128  -4.7127  -4.6678  -4.6677
    -4.6290  -4.6290  -0.9209  -0.9209   1.7116   1.7121   1.8450   1.8451
     2.0958   2.0959   2.5846   2.5847   2.9000   2.9003   3.0245   3.0249
     3.2440   3.2442   3.4241   3.4244   3.6224   3.6226   3.7079   3.7081
     3.7718   3.7721   4.5860   4.5867   4.8453   4.8461   4.9565   4.9571
     4.9742   4.9745   5.3576   5.3583   5.3685   5.3691   5.5194   5.5199
     5.8409   5.8416   6.0615   6.0619   6.1860   6.1865

     occupation numbers 
     1.0000   1.0000   1.0000   1.0000   1.0000   1.0000   1.0000   1.0000
     1.0000   1.0000   1.0000   1.0000   1.0000   1.0000   1.0000   1.0000
     1.0000   1.0000   1.0000   1.0000   1.0000   1.0000   1.0000   1.0000
     1.0000   1.0000   1.0000   1.0000   1.0000   1.0000   1.0000   1.0000
     1.0000   1.0000   1.0000   1.0000   1.0000   1.0000   1.0000   1.0000
     1.0000   1.0000   1.0000   1.0000   1.0000   1.0000   1.0000   1.0000
     1.0000   1.0000   1.0000   1.0000   1.0000   1.0000   1.0000   1.0000
     1.0000   1.0000   1.0000   1.0000   1.0000   1.0000   1.0000   1.0000
     1.0000   1.0000   1.0000   1.0000   1.0000   1.0000   1.0000   1.0000
     1.0000   1.0000   1.0000   1.0000   1.0000   1.0000

          k =-0.4543 0.2766 0.2500 ( 43437 PWs)   bands (ev):

   -20.6961 -20.6852 -20.6692 -20.6586 -15.6636 -15.6635 -15.6544 -15.6543
   -15.6485 -15.6485 -15.5876 -15.5876 -15.5730 -15.5728  -7.1373  -6.9617
    -6.4459  -6.1990  -6.1735  -6.1468  -6.0627  -6.0035  -4.9910  -4.9143
    -4.8378  -4.8250  -4.7644  -4.7545  -4.7453  -4.7400  -4.7153  -4.6669
    -4.6324  -4.6217  -0.9316  -0.8415   1.4429   1.5033   1.7314   1.8640
     2.1506   2.2945   2.4039   2.6058   2.6673   3.0387   3.0691   3.1246
     3.2565   3.3154   3.3545   3.4143   3.4512   3.5822   3.7257   3.7331
     3.8201   3.8699   4.6943   4.7072   4.8048   4.8848   4.9433   4.9663
     5.0284   5.1052   5.2027   5.2645   5.3084   5.3729   5.6926   5.7992
     5.8879   5.9299   6.0157   6.0428   6.2291   6.2522

     occupation numbers 
     1.0000   1.0000   1.0000   1.0000   1.0000   1.0000   1.0000   1.0000
     1.0000   1.0000   1.0000   1.0000   1.0000   1.0000   1.0000   1.0000
     1.0000   1.0000   1.0000   1.0000   1.0000   1.0000   1.0000   1.0000
     1.0000   1.0000   1.0000   1.0000   1.0000   1.0000   1.0000   1.0000
     1.0000   1.0000   1.0000   1.0000   1.0000   1.0000   1.0000   1.0000
     1.0000   1.0000   1.0000   1.0000   1.0000   1.0000   1.0000   1.0000
     1.0000   1.0000   1.0000   1.0000   1.0000   1.0000   1.0000   1.0000
     1.0000   1.0000   1.0000   1.0000   1.0000   1.0000   1.0000   1.0000
     1.0000   1.0000   1.0000   1.0000   1.0000   1.0000   1.0000   1.0000
     1.0000   1.0000   1.0000   1.0000   1.0000   1.0000

          k =-0.6339-0.9310-0.5000 ( 43450 PWs)   bands (ev):

   -20.6832 -20.6831 -20.6708 -20.6707 -15.6636 -15.6636 -15.6545 -15.6545
   -15.6486 -15.6486 -15.5874 -15.5874 -15.5729 -15.5729  -6.9669  -6.9669
    -6.3742  -6.3741  -6.1507  -6.1506  -6.1190  -6.1189  -4.9175  -4.9174
    -4.8402  -4.8402  -4.7900  -4.7899  -4.7334  -4.7333  -4.7104  -4.7104
    -4.5950  -4.5949  -0.8518  -0.8517   1.2691   1.2692   1.9682   1.9682
     2.0637   2.0639   2.3078   2.3078   3.0344   3.0345   3.1364   3.1366
     3.2326   3.2329   3.3200   3.3202   3.5574   3.5574   3.7722   3.7725
     3.8279   3.8281   4.8103   4.8105   4.8602   4.8605   4.9858   4.9859
     5.0240   5.0243   5.2461   5.2463   5.2905   5.2906   5.9089   5.9093
     5.9844   5.9849   6.1163   6.1166   6.1996   6.1999

     occupation numbers 
     1.0000   1.0000   1.0000   1.0000   1.0000   1.0000   1.0000   1.0000
     1.0000   1.0000   1.0000   1.0000   1.0000   1.0000   1.0000   1.0000
     1.0000   1.0000   1.0000   1.0000   1.0000   1.0000   1.0000   1.0000
     1.0000   1.0000   1.0000   1.0000   1.0000   1.0000   1.0000   1.0000
     1.0000   1.0000   1.0000   1.0000   1.0000   1.0000   1.0000   1.0000
     1.0000   1.0000   1.0000   1.0000   1.0000   1.0000   1.0000   1.0000
     1.0000   1.0000   1.0000   1.0000   1.0000   1.0000   1.0000   1.0000
     1.0000   1.0000   1.0000   1.0000   1.0000   1.0000   1.0000   1.0000
     1.0000   1.0000   1.0000   1.0000   1.0000   1.0000   1.0000   1.0000
     1.0000   1.0000   1.0000   1.0000   1.0000   1.0000

          k =-0.5141 0.3396 0.0000 ( 43424 PWs)   bands (ev):

   -20.6917 -20.6917 -20.6629 -20.6629 -15.6636 -15.6636 -15.6543 -15.6543
   -15.6485 -15.6485 -15.5876 -15.5876 -15.5729 -15.5729  -7.0687  -7.0570
    -6.3403  -6.2646  -6.1822  -6.1468  -6.0893  -5.9853  -4.9551  -4.9379
    -4.8184  -4.8047  -4.7984  -4.7689  -4.7560  -4.7506  -4.6976  -4.6788
    -4.6216  -4.6177  -0.9090  -0.8633   1.4796   1.5439   1.6469   1.7897
     2.2301   2.3274   2.4379   2.4893   2.8172   2.9451   3.0378   3.1678
     3.2366   3.2736   3.3414   3.4318   3.4542   3.6258   3.7409   3.7755
     3.7948   3.8294   4.6823   4.7209   4.8372   4.8544   4.9334   4.9616
     5.0615   5.0761   5.2329   5.2569   5.3006   5.3612   5.7065   5.7618
     5.8444   5.9372   6.0282   6.0482   6.2604   6.3064

     occupation numbers 
     1.0000   1.0000   1.0000   1.0000   1.0000   1.0000   1.0000   1.0000
     1.0000   1.0000   1.0000   1.0000   1.0000   1.0000   1.0000   1.0000
     1.0000   1.0000   1.0000   1.0000   1.0000   1.0000   1.0000   1.0000
     1.0000   1.0000   1.0000   1.0000   1.0000   1.0000   1.0000   1.0000
     1.0000   1.0000   1.0000   1.0000   1.0000   1.0000   1.0000   1.0000
     1.0000   1.0000   1.0000   1.0000   1.0000   1.0000   1.0000   1.0000
     1.0000   1.0000   1.0000   1.0000   1.0000   1.0000   1.0000   1.0000
     1.0000   1.0000   1.0000   1.0000   1.0000   1.0000   1.0000   1.0000
     1.0000   1.0000   1.0000   1.0000   1.0000   1.0000   1.0000   1.0000
     1.0000   1.0000   1.0000   1.0000   1.0000   1.0000

          k =-0.4543 0.7422 0.2500 ( 43432 PWs)   bands (ev):

   -20.6832 -20.6831 -20.6708 -20.6707 -15.6636 -15.6636 -15.6545 -15.6545
   -15.6486 -15.6486 -15.5874 -15.5874 -15.5729 -15.5729  -6.9946  -6.9348
    -6.4070  -6.3154  -6.2289  -6.1666  -6.1142  -6.0613  -4.9133  -4.9080
    -4.8600  -4.8230  -4.7966  -4.7810  -4.7512  -4.7356  -4.7045  -4.6812
    -4.6117  -4.6054  -0.8800  -0.8214   1.2374   1.3671   1.7037   1.8449
     2.1570   2.2906   2.3408   2.3644   2.8905   3.0070   3.1274   3.2046
     3.2566   3.2946   3.3141   3.3584   3.4683   3.5980   3.7327   3.7677
     3.8068   3.8589   4.7799   4.8285   4.8461   4.8864   4.9868   5.0117
     5.0233   5.0533   5.1914   5.2283   5.2605   5.3321   5.8242   5.9395
     5.9903   6.0291   6.0716   6.1338   6.1621   6.2237

     occupation numbers 
     1.0000   1.0000   1.0000   1.0000   1.0000   1.0000   1.0000   1.0000
     1.0000   1.0000   1.0000   1.0000   1.0000   1.0000   1.0000   1.0000
     1.0000   1.0000   1.0000   1.0000   1.0000   1.0000   1.0000   1.0000
     1.0000   1.0000   1.0000   1.0000   1.0000   1.0000   1.0000   1.0000
     1.0000   1.0000   1.0000   1.0000   1.0000   1.0000   1.0000   1.0000
     1.0000   1.0000   1.0000   1.0000   1.0000   1.0000   1.0000   1.0000
     1.0000   1.0000   1.0000   1.0000   1.0000   1.0000   1.0000   1.0000
     1.0000   1.0000   1.0000   1.0000   1.0000   1.0000   1.0000   1.0000
     1.0000   1.0000   1.0000   1.0000   1.0000   1.0000   1.0000   1.0000
     1.0000   1.0000   1.0000   1.0000   1.0000   1.0000

          k =-0.6339-0.4655-0.5000 ( 43453 PWs)   bands (ev):

   -20.6976 -20.6795 -20.6749 -20.6571 -15.6636 -15.6635 -15.6544 -15.6543
   -15.6485 -15.6485 -15.5876 -15.5876 -15.5730 -15.5728  -7.1682  -6.9240
    -6.5473  -6.1686  -6.1241  -6.0638  -6.0607  -6.0154  -5.0123  -4.9177
    -4.8659  -4.8518  -4.7619  -4.7575  -4.7382  -4.7334  -4.6945  -4.6725
    -4.6527  -4.6213  -0.9323  -0.8464   1.4596   1.4766   1.8537   1.9391
     2.0650   2.3031   2.3444   2.6065   2.6532   2.9702   3.0779   3.1424
     3.2502   3.2726   3.3473   3.4165   3.4831   3.6440   3.6785   3.7180
     3.7974   3.9836   4.6797   4.7127   4.7765   4.9126   4.9519   4.9675
     5.0323   5.1014   5.1682   5.2743   5.3398   5.3571   5.6567   5.7951
     5.8585   6.0163   6.0334   6.0783   6.1412   6.2291

     occupation numbers 
     1.0000   1.0000   1.0000   1.0000   1.0000   1.0000   1.0000   1.0000
     1.0000   1.0000   1.0000   1.0000   1.0000   1.0000   1.0000   1.0000
     1.0000   1.0000   1.0000   1.0000   1.0000   1.0000   1.0000   1.0000
     1.0000   1.0000   1.0000   1.0000   1.0000   1.0000   1.0000   1.0000
     1.0000   1.0000   1.0000   1.0000   1.0000   1.0000   1.0000   1.0000
     1.0000   1.0000   1.0000   1.0000   1.0000   1.0000   1.0000   1.0000
     1.0000   1.0000   1.0000   1.0000   1.0000   1.0000   1.0000   1.0000
     1.0000   1.0000   1.0000   1.0000   1.0000   1.0000   1.0000   1.0000
     1.0000   1.0000   1.0000   1.0000   1.0000   1.0000   1.0000   1.0000
     1.0000   1.0000   1.0000   1.0000   1.0000   1.0000

          k =-0.5740-0.0630-0.2500 ( 43489 PWs)   bands (ev):

   -20.7029 -20.6882 -20.6670 -20.6524 -15.6636 -15.6635 -15.6542 -15.6541
   -15.6484 -15.6483 -15.5878 -15.5878 -15.5730 -15.5728  -7.2507  -7.0059
    -6.4827  -6.1374  -6.1098  -6.1070  -5.9623  -5.9158  -5.0322  -4.9898
    -4.8798  -4.8604  -4.7688  -4.7569  -4.7126  -4.7055  -4.6719  -4.6559
    -4.6473  -4.6402  -0.9769  -0.8750   1.6593   1.7053   1.8232   2.0210
     2.0718   2.1697   2.5164   2.6960   2.7308   2.8415   3.0132   3.1674
     3.2105   3.2948   3.3390   3.4598   3.4788   3.6069   3.6206   3.7298
     3.7400   4.0502   4.5712   4.5973   4.8391   4.8530   4.8932   4.9337
     5.0001   5.0787   5.2995   5.3449   5.3860   5.4166   5.4198   5.5870
     5.6653   5.9578   6.0232   6.0988   6.1886   6.2276

     occupation numbers 
     1.0000   1.0000   1.0000   1.0000   1.0000   1.0000   1.0000   1.0000
     1.0000   1.0000   1.0000   1.0000   1.0000   1.0000   1.0000   1.0000
     1.0000   1.0000   1.0000   1.0000   1.0000   1.0000   1.0000   1.0000
     1.0000   1.0000   1.0000   1.0000   1.0000   1.0000   1.0000   1.0000
     1.0000   1.0000   1.0000   1.0000   1.0000   1.0000   1.0000   1.0000
     1.0000   1.0000   1.0000   1.0000   1.0000   1.0000   1.0000   1.0000
     1.0000   1.0000   1.0000   1.0000   1.0000   1.0000   1.0000   1.0000
     1.0000   1.0000   1.0000   1.0000   1.0000   1.0000   1.0000   1.0000
     1.0000   1.0000   1.0000   1.0000   1.0000   1.0000   1.0000   1.0000
     1.0000   1.0000   1.0000   1.0000   1.0000   1.0000

          k =-0.5141-1.0570 0.0000 ( 43366 PWs)   bands (ev):

   -20.6832 -20.6831 -20.6708 -20.6707 -15.6636 -15.6636 -15.6545 -15.6545
   -15.6486 -15.6486 -15.5874 -15.5874 -15.5729 -15.5729  -7.0061  -6.9185
    -6.4049  -6.2891  -6.2604  -6.2178  -6.0938  -6.0322  -4.9119  -4.9012
    -4.8844  -4.8031  -4.7891  -4.7739  -4.7600  -4.7490  -4.6730  -4.6648
    -4.6418  -4.6198  -0.8911  -0.8084   1.2679   1.4261   1.5433   1.7788
     2.1655   2.3517   2.4366   2.4426   2.7806   3.0014   3.0802   3.2513
     3.2528   3.3339   3.3657   3.3906   3.4251   3.5797   3.7033   3.7465
     3.8315   3.8470   4.7646   4.8355   4.8498   4.8912   4.9958   5.0160
     5.0571   5.0793   5.1574   5.2058   5.2231   5.3468   5.7784   5.9488
     5.9745   6.0297   6.0951   6.1336   6.1674   6.2014

     occupation numbers 
     1.0000   1.0000   1.0000   1.0000   1.0000   1.0000   1.0000   1.0000
     1.0000   1.0000   1.0000   1.0000   1.0000   1.0000   1.0000   1.0000
     1.0000   1.0000   1.0000   1.0000   1.0000   1.0000   1.0000   1.0000
     1.0000   1.0000   1.0000   1.0000   1.0000   1.0000   1.0000   1.0000
     1.0000   1.0000   1.0000   1.0000   1.0000   1.0000   1.0000   1.0000
     1.0000   1.0000   1.0000   1.0000   1.0000   1.0000   1.0000   1.0000
     1.0000   1.0000   1.0000   1.0000   1.0000   1.0000   1.0000   1.0000
     1.0000   1.0000   1.0000   1.0000   1.0000   1.0000   1.0000   1.0000
     1.0000   1.0000   1.0000   1.0000   1.0000   1.0000   1.0000   1.0000
     1.0000   1.0000   1.0000   1.0000   1.0000   1.0000

          k =-0.4543-0.6544 0.2500 ( 43437 PWs)   bands (ev):

   -20.6960 -20.6853 -20.6692 -20.6586 -15.6636 -15.6635 -15.6543 -15.6543
   -15.6485 -15.6485 -15.5876 -15.5876 -15.5730 -15.5728  -7.1398  -6.9842
    -6.4870  -6.1720  -6.1120  -6.0995  -6.0941  -5.9870  -4.9929  -4.9275
    -4.8636  -4.8391  -4.7717  -4.7496  -4.7471  -4.7319  -4.7236  -4.6810
    -4.6320  -4.6169  -0.9033  -0.8747   1.4636   1.5319   1.7740   1.8301
     2.1855   2.3139   2.4068   2.5705   2.6276   2.9543   3.1436   3.1670
     3.1871   3.2700   3.3519   3.3627   3.4788   3.6406   3.7121   3.7615
     3.7915   3.9559   4.6724   4.7220   4.7900   4.8990   4.9490   4.9675
     5.0428   5.0873   5.1898   5.2762   5.3224   5.3537   5.6553   5.7836
     5.8346   5.9834   6.0382   6.0610   6.2132   6.2755

     occupation numbers 
     1.0000   1.0000   1.0000   1.0000   1.0000   1.0000   1.0000   1.0000
     1.0000   1.0000   1.0000   1.0000   1.0000   1.0000   1.0000   1.0000
     1.0000   1.0000   1.0000   1.0000   1.0000   1.0000   1.0000   1.0000
     1.0000   1.0000   1.0000   1.0000   1.0000   1.0000   1.0000   1.0000
     1.0000   1.0000   1.0000   1.0000   1.0000   1.0000   1.0000   1.0000
     1.0000   1.0000   1.0000   1.0000   1.0000   1.0000   1.0000   1.0000
     1.0000   1.0000   1.0000   1.0000   1.0000   1.0000   1.0000   1.0000
     1.0000   1.0000   1.0000   1.0000   1.0000   1.0000   1.0000   1.0000
     1.0000   1.0000   1.0000   1.0000   1.0000   1.0000   1.0000   1.0000
     1.0000   1.0000   1.0000   1.0000   1.0000   1.0000

          k =-0.6339-1.8621-0.5000 ( 43494 PWs)   bands (ev):

   -20.7050 -20.6795 -20.6756 -20.6503 -15.6637 -15.6635 -15.6542 -15.6541
   -15.6484 -15.6483 -15.5878 -15.5878 -15.5731 -15.5728  -7.2929  -6.9261
    -6.5912  -6.1194  -6.0410  -6.0276  -6.0246  -5.9041  -5.0628  -5.0000
    -4.8259  -4.8211  -4.8144  -4.7999  -4.7019  -4.7000  -4.6850  -4.6752
    -4.6456  -4.6435  -1.0061  -0.8558   1.6469   1.6669   1.8873   2.0739
     2.1275   2.2134   2.5006   2.5933   2.7945   2.8610   2.8900   3.1197
     3.2053   3.3125   3.3707   3.4512   3.4952   3.5499   3.6193   3.7350
     3.7463   4.1661   4.5652   4.5957   4.8365   4.8498   4.8644   4.9260
     5.0272   5.1633   5.2748   5.2908   5.3482   5.4331   5.4442   5.5899
     5.6061   5.9498   6.0693   6.0817   6.2136   6.2384

     occupation numbers 
     1.0000   1.0000   1.0000   1.0000   1.0000   1.0000   1.0000   1.0000
     1.0000   1.0000   1.0000   1.0000   1.0000   1.0000   1.0000   1.0000
     1.0000   1.0000   1.0000   1.0000   1.0000   1.0000   1.0000   1.0000
     1.0000   1.0000   1.0000   1.0000   1.0000   1.0000   1.0000   1.0000
     1.0000   1.0000   1.0000   1.0000   1.0000   1.0000   1.0000   1.0000
     1.0000   1.0000   1.0000   1.0000   1.0000   1.0000   1.0000   1.0000
     1.0000   1.0000   1.0000   1.0000   1.0000   1.0000   1.0000   1.0000
     1.0000   1.0000   1.0000   1.0000   1.0000   1.0000   1.0000   1.0000
     1.0000   1.0000   1.0000   1.0000   1.0000   1.0000   1.0000   1.0000
     1.0000   1.0000   1.0000   1.0000   1.0000   1.0000

     highest occupied level (ev):     6.3064

!    total energy              =   -1568.23774242 Ry
     estimated scf accuracy    <          8.4E-09 Ry

     The total energy is the sum of the following terms:
     one-electron contribution =    -580.32972754 Ry
     hartree contribution      =     398.95783989 Ry
     xc contribution           =    -371.74039042 Ry
     ewald contribution        =    -655.86398196 Ry
     one-center paw contrib.   =    -359.26148238 Ry
      -> PAW hartree energy AE =       0.00000000 Ry
      -> PAW hartree energy PS =       0.00000000 Ry
      -> PAW xc energy AE      =       0.00000000 Ry
      -> PAW xc energy PS      =       0.00000000 Ry
      -> total E_H with PAW    =     398.95783989 Ry
      -> total E_XC with PAW   =    -371.74039042 Ry

     convergence has been achieved in  17 iterations

     Forces acting on atoms (cartesian axes, Ry/au):

     atom    1 type  2   force =     0.00007681    0.00013047    0.00011213
     atom    2 type  2   force =    -0.00007681   -0.00013047   -0.00011213
     atom    3 type  2   force =    -0.00012588    0.00011412   -0.00003854
     atom    4 type  2   force =     0.00012588   -0.00011412    0.00003854
     atom    5 type  1   force =     0.00006705    0.00002080    0.00003509
     atom    6 type  1   force =    -0.00006705   -0.00002080   -0.00003509
     atom    7 type  1   force =    -0.00008925    0.00001126   -0.00003056
     atom    8 type  1   force =     0.00008925   -0.00001126    0.00003056
     atom    9 type  4   force =     0.00000221   -0.00000684   -0.00000955
     atom   10 type  4   force =    -0.00000221    0.00000684    0.00000955
     atom   11 type  3   force =    -0.00109173   -0.00087946   -0.00111452
     atom   12 type  3   force =     0.00109173    0.00087946    0.00111452
     atom   13 type  3   force =     0.00091044    0.00079785    0.00132224
     atom   14 type  3   force =    -0.00091044   -0.00079785   -0.00132224
     atom   15 type  3   force =     0.00146284   -0.00078263    0.00056650
     atom   16 type  3   force =    -0.00146284    0.00078263   -0.00056650
     atom   17 type  3   force =    -0.00131137    0.00088506   -0.00079932
     atom   18 type  3   force =     0.00131137   -0.00088506    0.00079932
     The non-local contrib.  to forces
     atom    1 type  2   force =    -0.00041264   -0.00535668   -0.00300617
     atom    2 type  2   force =     0.00041264    0.00535668    0.00300617
     atom    3 type  2   force =     0.00300858   -0.00534701   -0.00031572
     atom    4 type  2   force =    -0.00300858    0.00534701    0.00031572
     atom    5 type  1   force =    -0.07055661    0.00008732   -0.05551575
     atom    6 type  1   force =     0.07055661   -0.00008732    0.05551575
     atom    7 type  1   force =     0.07043301    0.00016691    0.05561880
     atom    8 type  1   force =    -0.07043301   -0.00016691   -0.05561880
     atom    9 type  4   force =    -0.00001824   -0.00008612   -0.00009336
     atom   10 type  4   force =     0.00001824    0.00008612    0.00009336
     atom   11 type  3   force =     0.12269824    0.12913645   -0.12965624
     atom   12 type  3   force =    -0.12269824   -0.12913645    0.12965624
     atom   13 type  3   force =     0.12246278    0.02735336   -0.18100765
     atom   14 type  3   force =    -0.12246278   -0.02735336    0.18100765
     atom   15 type  3   force =    -0.14767585   -0.02730567    0.16126834
     atom   16 type  3   force =     0.14767585    0.02730567   -0.16126834
     atom   17 type  3   force =    -0.09760032   -0.12908938    0.14940914
     atom   18 type  3   force =     0.09760032    0.12908938   -0.14940914
     The ionic contribution  to forces
     atom    1 type  2   force =    -0.75128671   -0.44580083   -0.81718218
     atom    2 type  2   force =     0.75128671    0.44580083    0.81718218
     atom    3 type  2   force =     0.96967222   -0.44580092    0.54032779
     atom    4 type  2   force =    -0.96967222    0.44580092   -0.54032779
     atom    5 type  1   force =     2.95095533   -0.00000006    2.32774454
     atom    6 type  1   force =    -2.95095533    0.00000006   -2.32774454
     atom    7 type  1   force =    -2.95095683   -0.00000031   -2.32774437
     atom    8 type  1   force =     2.95095683    0.00000031    2.32774437
     atom    9 type  4   force =    -0.00000094   -0.00000023    0.00000011
     atom   10 type  4   force =     0.00000094    0.00000023   -0.00000011
     atom   11 type  3   force =    -3.30408429   -4.82112245    7.44551972
     atom   12 type  3   force =     3.30408429    4.82112245   -7.44551972
     atom   13 type  3   force =    -7.19146898   -1.88116550    5.86002996
     atom   14 type  3   force =     7.19146898    1.88116550   -5.86002996
     atom   15 type  3   force =     4.02418661    1.88116605   -8.35841517
     atom   16 type  3   force =    -4.02418661   -1.88116605    8.35841517
     atom   17 type  3   force =     6.47136807    4.82112225   -4.94713467
     atom   18 type  3   force =    -6.47136807   -4.82112225    4.94713467
     The local contribution  to forces
     atom    1 type  2   force =     0.75182205    0.45129097    0.82028485
     atom    2 type  2   force =    -0.75182205   -0.45129097   -0.82028485
     atom    3 type  2   force =    -0.97280310    0.45126503   -0.54009957
     atom    4 type  2   force =     0.97280310   -0.45126503    0.54009957
     atom    5 type  1   force =    -2.88194968   -0.00004356   -2.27343431
     atom    6 type  1   force =     2.88194968    0.00004356    2.27343431
     atom    7 type  1   force =     2.88203791   -0.00012229    2.27337159
     atom    8 type  1   force =    -2.88203791    0.00012229   -2.27337159
     atom    9 type  4   force =     0.00008985    0.00007656    0.00013607
     atom   10 type  4   force =    -0.00008985   -0.00007656   -0.00013607
     atom   11 type  3   force =     3.18682649    4.69799210   -7.32412829
     atom   12 type  3   force =    -3.18682649   -4.69799210    7.32412829
     atom   13 type  3   force =     7.07672786    1.85621433   -5.68734814
     atom   14 type  3   force =    -7.07672786   -1.85621433    5.68734814
     atom   15 type  3   force =    -3.88285335   -1.85624488    8.20658610
     atom   16 type  3   force =     3.88285335    1.85624488   -8.20658610
     atom   17 type  3   force =    -6.38051664   -4.69803110    4.80493804
     atom   18 type  3   force =     6.38051664    4.69803110   -4.80493804
     The core correction contribution to forces
     atom    1 type  2   force =     0.00000000    0.00000000    0.00000000
     atom    2 type  2   force =     0.00000000    0.00000000    0.00000000
     atom    3 type  2   force =     0.00000000    0.00000000    0.00000000
     atom    4 type  2   force =     0.00000000    0.00000000    0.00000000
     atom    5 type  1   force =     0.00163286   -0.00002337    0.00125279
     atom    6 type  1   force =    -0.00163286    0.00002337   -0.00125279
     atom    7 type  1   force =    -0.00159417   -0.00003274   -0.00127011
     atom    8 type  1   force =     0.00159417    0.00003274    0.00127011
     atom    9 type  4   force =    -0.00000191    0.00000313    0.00000014
     atom   10 type  4   force =     0.00000191   -0.00000313   -0.00000014
     atom   11 type  3   force =    -0.00655117   -0.00690907    0.00717870
     atom   12 type  3   force =     0.00655117    0.00690907   -0.00717870
     atom   13 type  3   force =    -0.00675947   -0.00158740    0.00968893
     atom   14 type  3   force =     0.00675947    0.00158740   -0.00968893
     atom   15 type  3   force =     0.00785733    0.00158474   -0.00883135
     atom   16 type  3   force =    -0.00785733   -0.00158474    0.00883135
     atom   17 type  3   force =     0.00546013    0.00690647   -0.00803680
     atom   18 type  3   force =    -0.00546013   -0.00690647    0.00803680
     The Hubbard contrib.    to forces
     atom    1 type  2   force =     0.00000000    0.00000000    0.00000000
     atom    2 type  2   force =     0.00000000    0.00000000    0.00000000
     atom    3 type  2   force =     0.00000000    0.00000000    0.00000000
     atom    4 type  2   force =     0.00000000    0.00000000    0.00000000
     atom    5 type  1   force =     0.00000000    0.00000000    0.00000000
     atom    6 type  1   force =     0.00000000    0.00000000    0.00000000
     atom    7 type  1   force =     0.00000000    0.00000000    0.00000000
     atom    8 type  1   force =     0.00000000    0.00000000    0.00000000
     atom    9 type  4   force =     0.00000000    0.00000000    0.00000000
     atom   10 type  4   force =     0.00000000    0.00000000    0.00000000
     atom   11 type  3   force =     0.00000000    0.00000000    0.00000000
     atom   12 type  3   force =     0.00000000    0.00000000    0.00000000
     atom   13 type  3   force =     0.00000000    0.00000000    0.00000000
     atom   14 type  3   force =     0.00000000    0.00000000    0.00000000
     atom   15 type  3   force =     0.00000000    0.00000000    0.00000000
     atom   16 type  3   force =     0.00000000    0.00000000    0.00000000
     atom   17 type  3   force =     0.00000000    0.00000000    0.00000000
     atom   18 type  3   force =     0.00000000    0.00000000    0.00000000
     The SCF correction term to forces
     atom    1 type  2   force =    -0.00004590   -0.00000299    0.00001563
     atom    2 type  2   force =     0.00004590    0.00000299   -0.00001563
     atom    3 type  2   force =    -0.00000357   -0.00000299    0.00004896
     atom    4 type  2   force =     0.00000357    0.00000299   -0.00004896
     atom    5 type  1   force =    -0.00001486    0.00000046   -0.00001217
     atom    6 type  1   force =     0.00001486   -0.00000046    0.00001217
     atom    7 type  1   force =    -0.00000917   -0.00000030   -0.00000647
     atom    8 type  1   force =     0.00000917    0.00000030    0.00000647
     atom    9 type  4   force =    -0.00006655   -0.00000019   -0.00005250
     atom   10 type  4   force =     0.00006655    0.00000019    0.00005250
     atom   11 type  3   force =     0.00001900    0.00002352   -0.00002841
     atom   12 type  3   force =    -0.00001900   -0.00002352    0.00002841
     atom   13 type  3   force =    -0.00005175   -0.00001694   -0.00004086
     atom   14 type  3   force =     0.00005175    0.00001694    0.00004086
     atom   15 type  3   force =    -0.00005189    0.00001713   -0.00004142
     atom   16 type  3   force =     0.00005189   -0.00001713    0.00004142
     atom   17 type  3   force =    -0.00002262   -0.00002319    0.00002497
     atom   18 type  3   force =     0.00002262    0.00002319   -0.00002497

     Total force =     0.005043     Total SCF correction =     0.000224


     Computing stress (Cartesian axis) and pressure

          total   stress  (Ry/bohr**3)                   (kbar)     P=        2.76
   0.00002064   0.00000039   0.00000216            3.04        0.06        0.32
   0.00000039   0.00001651  -0.00000023            0.06        2.43       -0.03
   0.00000216  -0.00000023   0.00001919            0.32       -0.03        2.82

     kinetic stress (kbar)   7813.18     -4.41    -22.31
                               -4.41   7856.32      5.66
                              -22.31      5.66   7823.45

     local   stress (kbar)  -2098.07   3604.09  -6683.28
                             3604.09  -6037.74  -4569.10
                            -6683.28  -4569.10   1103.33

     nonloc. stress (kbar)   2094.56      0.42     -2.15
                                0.42   2095.73     -0.50
                               -2.15     -0.50   2095.44

     hartree stress (kbar)   6344.39  -1720.64   3135.91
                            -1720.64   8294.81   2181.33
                             3135.91   2181.33   4842.37

     exc-cor stress (kbar)   5916.63     -0.23      0.11
                               -0.23   5917.29      0.29
                                0.11      0.29   5916.57

     corecor stress (kbar)  -9314.35      0.29     -0.34
                                0.29  -9314.89     -0.38
                               -0.34     -0.38  -9314.15

     ewald   stress (kbar) -10753.31  -1879.46   3572.39
                            -1879.46  -8809.08   2382.65
                             3572.39   2382.65 -12464.21

     hubbard stress (kbar)      0.00      0.00      0.00
                                0.00      0.00      0.00
                                0.00      0.00      0.00

     DFT-D   stress (kbar)      0.00      0.00      0.00
                                0.00      0.00      0.00
                                0.00      0.00      0.00

     XDM     stress (kbar)      0.00      0.00      0.00
                                0.00      0.00      0.00
                                0.00      0.00      0.00

     dft-nl  stress (kbar)      0.00      0.00      0.00
                                0.00      0.00      0.00
                                0.00      0.00      0.00

     TS-vdW  stress (kbar)      0.00      0.00      0.00
                                0.00      0.00      0.00
                                0.00      0.00      0.00

     MDB     stress (kbar)      0.00      0.00      0.00
                                0.00      0.00      0.00
                                0.00      0.00      0.00

     3D-RISM stress (kbar)      0.00      0.00      0.00
                                0.00      0.00      0.00
                                0.00      0.00      0.00


     BFGS Geometry Optimization
     Energy error            =      1.1E-04 Ry
     Gradient error          =      1.5E-03 Ry/Bohr
     Cell gradient error     =      3.0E+00 kbar

     number of scf cycles    =   1
     number of bfgs steps    =   0

     enthalpy           new  =   -1568.2377424171 Ry

     new trust radius        =       0.0056954645 bohr
     new conv_thr            =       0.0000000100 Ry

     new unit-cell volume =   3016.77004 a.u.^3 (   447.03920 Ang^3 )
     density =      4.04882 g/cm^3

CELL_PARAMETERS (angstrom)
   9.234048418   0.000103447  -2.210643984
  -1.249357003   5.098718671  -7.911666907
   0.000512360  -0.000055609   9.494884858

ATOMIC_POSITIONS (crystal)
Rb               0.1243392363        0.7283665463        0.8527049920
Rb               0.8756607637        0.2716334537        0.1472950080
Rb               0.3756613853        0.2283648486        0.6040264161
Rb               0.6243386147        0.7716351514        0.3959735839
Cu               0.0245441366        0.7500021592        0.2745447192
Cu               0.9754558634        0.2499978408        0.7254552808
Cu               0.4754550410        0.7500011696        0.7254581158
Cu               0.5245449590        0.2499988304        0.2745418842
Sn               0.2500000307        0.2499992894       -0.0000011173
Sn               0.7499999693        0.7500007106        0.0000011173
S                0.0165620538        0.9191056863        0.6380343146
S                0.9834379462        0.0808943137        0.3619656854
S                0.2810704058        0.3785298403        0.3619675195
S                0.7189295942        0.6214701597        0.6380324805
S                0.4834358824        0.1214717394        0.9025408506
S                0.5165641176        0.8785282606        0.0974591494
S                0.2189302409        0.5808948953        0.0974573866
S                0.7810697591        0.4191051047        0.9025426134



     Writing config-only to output data dir ./tmp/relax/Rb2Cu2SnS4_relax.save/ :
     XML data file
     NEW-OLD atomic charge density approx. for the potential
     New effective cutoffs (rho, wfc):  719.37   89.92

     total cpu time spent up to now is      383.4 secs

     Self-consistent Calculation

     iteration #  1     ecut=    90.00 Ry     beta= 0.30
     Davidson diagonalization with overlap

---- Real-time Memory Report at c_bands before calling an iterative solver
             0 MiB given to the printing process from OS
             0 MiB allocation reported by mallinfo(arena+hblkhd)
             0 MiB available memory on the node where the printing process lives
------------------
     ethr =  1.00E-06,  avg # of iterations =  2.0

     Threshold (ethr) on eigenvalues was too large:
     Diagonalizing with lowered threshold

     Davidson diagonalization with overlap

---- Real-time Memory Report at c_bands before calling an iterative solver
             0 MiB given to the printing process from OS
             0 MiB allocation reported by mallinfo(arena+hblkhd)
             0 MiB available memory on the node where the printing process lives
------------------
     ethr =  3.00E-09,  avg # of iterations =  7.8

     total cpu time spent up to now is      441.4 secs

     total energy              =   -1568.23782499 Ry
     estimated scf accuracy    <       0.00000139 Ry

     iteration #  2     ecut=    90.00 Ry     beta= 0.30
     Davidson diagonalization with overlap

---- Real-time Memory Report at c_bands before calling an iterative solver
             0 MiB given to the printing process from OS
             0 MiB allocation reported by mallinfo(arena+hblkhd)
             0 MiB available memory on the node where the printing process lives
------------------
     ethr =  8.88E-10,  avg # of iterations =  5.7

     total cpu time spent up to now is      463.4 secs

     total energy              =   -1568.23782937 Ry
     estimated scf accuracy    <       0.00000060 Ry

     iteration #  3     ecut=    90.00 Ry     beta= 0.30
     Davidson diagonalization with overlap

---- Real-time Memory Report at c_bands before calling an iterative solver
             0 MiB given to the printing process from OS
             0 MiB allocation reported by mallinfo(arena+hblkhd)
             0 MiB available memory on the node where the printing process lives
------------------
     ethr =  3.87E-10,  avg # of iterations =  2.1

     total cpu time spent up to now is      481.9 secs

     total energy              =   -1568.23783116 Ry
     estimated scf accuracy    <       0.00000012 Ry

     iteration #  4     ecut=    90.00 Ry     beta= 0.30
     Davidson diagonalization with overlap

---- Real-time Memory Report at c_bands before calling an iterative solver
             0 MiB given to the printing process from OS
             0 MiB allocation reported by mallinfo(arena+hblkhd)
             0 MiB available memory on the node where the printing process lives
------------------
     ethr =  7.85E-11,  avg # of iterations =  4.5

     total cpu time spent up to now is      505.2 secs

     total energy              =   -1568.23783220 Ry
     estimated scf accuracy    <       0.00000007 Ry

     iteration #  5     ecut=    90.00 Ry     beta= 0.30
     Davidson diagonalization with overlap

---- Real-time Memory Report at c_bands before calling an iterative solver
             0 MiB given to the printing process from OS
             0 MiB allocation reported by mallinfo(arena+hblkhd)
             0 MiB available memory on the node where the printing process lives
------------------
     ethr =  4.35E-11,  avg # of iterations =  4.0

     total cpu time spent up to now is      526.9 secs

     total energy              =   -1568.23783274 Ry
     estimated scf accuracy    <       0.00000002 Ry

     iteration #  6     ecut=    90.00 Ry     beta= 0.30
     Davidson diagonalization with overlap

---- Real-time Memory Report at c_bands before calling an iterative solver
             0 MiB given to the printing process from OS
             0 MiB allocation reported by mallinfo(arena+hblkhd)
             0 MiB available memory on the node where the printing process lives
------------------
     ethr =  1.04E-11,  avg # of iterations =  4.4

     total cpu time spent up to now is      547.9 secs

     End of self-consistent calculation

          k = 0.0000 0.0000 0.0000 ( 43377 PWs)   bands (ev):

   -20.7210 -20.6956 -20.6917 -20.6666 -15.6775 -15.6774 -15.6684 -15.6682
   -15.6627 -15.6627 -15.6028 -15.6028 -15.5878 -15.5876  -7.2397  -6.9104
    -6.5847  -6.2646  -6.0963  -6.0938  -6.0929  -5.8624  -5.0846  -5.0078
    -4.8440  -4.8386  -4.7829  -4.7696  -4.7295  -4.7292  -4.6872  -4.6612
    -4.6597  -4.5850  -1.0287  -0.8248   1.5530   1.6498   1.8761   2.0192
     2.0907   2.1625   2.2045   2.5377   2.8869   3.0071   3.1316   3.1758
     3.3044   3.3107   3.4039   3.4105   3.4296   3.4595   3.5804   3.6848
     3.8107   3.8270   4.5585   4.6051   4.8262   4.8318   4.8385   4.9373
     4.9567   5.1787   5.2701   5.2984   5.3344   5.3984   5.5031   5.5990
     5.6999   5.8824   6.0174   6.1730   6.2130   6.2723

     occupation numbers 
     1.0000   1.0000   1.0000   1.0000   1.0000   1.0000   1.0000   1.0000
     1.0000   1.0000   1.0000   1.0000   1.0000   1.0000   1.0000   1.0000
     1.0000   1.0000   1.0000   1.0000   1.0000   1.0000   1.0000   1.0000
     1.0000   1.0000   1.0000   1.0000   1.0000   1.0000   1.0000   1.0000
     1.0000   1.0000   1.0000   1.0000   1.0000   1.0000   1.0000   1.0000
     1.0000   1.0000   1.0000   1.0000   1.0000   1.0000   1.0000   1.0000
     1.0000   1.0000   1.0000   1.0000   1.0000   1.0000   1.0000   1.0000
     1.0000   1.0000   1.0000   1.0000   1.0000   1.0000   1.0000   1.0000
     1.0000   1.0000   1.0000   1.0000   1.0000   1.0000   1.0000   1.0000
     1.0000   1.0000   1.0000   1.0000   1.0000   1.0000

          k = 0.0598 0.4024 0.2499 ( 43439 PWs)   bands (ev):

   -20.7121 -20.7013 -20.6853 -20.6748 -15.6775 -15.6775 -15.6685 -15.6684
   -15.6629 -15.6628 -15.6026 -15.6026 -15.5877 -15.5876  -7.1409  -6.9426
    -6.3933  -6.2503  -6.2155  -6.1846  -6.1559  -5.9741  -5.0057  -4.9221
    -4.8438  -4.8018  -4.7799  -4.7706  -4.7583  -4.7576  -4.7272  -4.6664
    -4.6557  -4.6441  -0.9720  -0.8203   1.3564   1.5299   1.6570   1.9665
     2.0636   2.2251   2.4532   2.6296   2.6941   2.9770   3.0717   3.2234
     3.2683   3.3007   3.3124   3.3992   3.4071   3.5376   3.6955   3.7351
     3.7758   3.8416   4.6661   4.7226   4.8084   4.8607   4.9128   4.9728
     4.9977   5.1059   5.2024   5.2360   5.2513   5.4115   5.7088   5.7576
     5.8078   5.9284   6.0213   6.0993   6.1562   6.2688

     occupation numbers 
     1.0000   1.0000   1.0000   1.0000   1.0000   1.0000   1.0000   1.0000
     1.0000   1.0000   1.0000   1.0000   1.0000   1.0000   1.0000   1.0000
     1.0000   1.0000   1.0000   1.0000   1.0000   1.0000   1.0000   1.0000
     1.0000   1.0000   1.0000   1.0000   1.0000   1.0000   1.0000   1.0000
     1.0000   1.0000   1.0000   1.0000   1.0000   1.0000   1.0000   1.0000
     1.0000   1.0000   1.0000   1.0000   1.0000   1.0000   1.0000   1.0000
     1.0000   1.0000   1.0000   1.0000   1.0000   1.0000   1.0000   1.0000
     1.0000   1.0000   1.0000   1.0000   1.0000   1.0000   1.0000   1.0000
     1.0000   1.0000   1.0000   1.0000   1.0000   1.0000   1.0000   1.0000
     1.0000   1.0000   1.0000   1.0000   1.0000   1.0000

          k =-0.1196-0.8048-0.4998 ( 43366 PWs)   bands (ev):

   -20.6992 -20.6992 -20.6869 -20.6868 -15.6775 -15.6775 -15.6687 -15.6687
   -15.6630 -15.6629 -15.6024 -15.6023 -15.5876 -15.5876  -7.0123  -6.9244
    -6.4150  -6.2995  -6.2710  -6.2288  -6.1046  -6.0432  -4.9270  -4.9161
    -4.8997  -4.8188  -4.8044  -4.7896  -4.7757  -4.7647  -4.6891  -4.6809
    -4.6581  -4.6362  -0.9036  -0.8212   1.2596   1.4175   1.5343   1.7690
     2.1558   2.3422   2.4260   2.4322   2.7700   2.9908   3.0688   3.2396
     3.2408   3.3219   3.3540   3.3789   3.4134   3.5676   3.6908   3.7343
     3.8192   3.8344   4.7523   4.8230   4.8374   4.8786   4.9824   5.0030
     5.0435   5.0661   5.1441   5.1923   5.2101   5.3334   5.7648   5.9347
     5.9604   6.0151   6.0811   6.1191   6.1529   6.1867

     occupation numbers 
     1.0000   1.0000   1.0000   1.0000   1.0000   1.0000   1.0000   1.0000
     1.0000   1.0000   1.0000   1.0000   1.0000   1.0000   1.0000   1.0000
     1.0000   1.0000   1.0000   1.0000   1.0000   1.0000   1.0000   1.0000
     1.0000   1.0000   1.0000   1.0000   1.0000   1.0000   1.0000   1.0000
     1.0000   1.0000   1.0000   1.0000   1.0000   1.0000   1.0000   1.0000
     1.0000   1.0000   1.0000   1.0000   1.0000   1.0000   1.0000   1.0000
     1.0000   1.0000   1.0000   1.0000   1.0000   1.0000   1.0000   1.0000
     1.0000   1.0000   1.0000   1.0000   1.0000   1.0000   1.0000   1.0000
     1.0000   1.0000   1.0000   1.0000   1.0000   1.0000   1.0000   1.0000
     1.0000   1.0000   1.0000   1.0000   1.0000   1.0000

          k =-0.0000 0.4653 0.0000 ( 43455 PWs)   bands (ev):

   -20.7136 -20.6955 -20.6910 -20.6734 -15.6775 -15.6774 -15.6685 -15.6684
   -15.6629 -15.6628 -15.6026 -15.6026 -15.5877 -15.5876  -7.1655  -6.8811
    -6.4966  -6.2184  -6.1991  -6.1694  -6.1415  -5.9812  -5.0311  -4.9097
    -4.8423  -4.8319  -4.7688  -4.7514  -4.7483  -4.7419  -4.7229  -4.6714
    -4.6692  -4.6480  -0.9809  -0.8122   1.3327   1.5033   1.7457   2.0090
     2.0459   2.1871   2.4048   2.6075   2.6710   3.0773   3.0820   3.1508
     3.2917   3.3257   3.3542   3.3646   3.4436   3.4900   3.6371   3.7372
     3.8290   3.8339   4.6718   4.7158   4.7893   4.8761   4.9245   4.9689
     4.9944   5.1266   5.1604   5.2480   5.2574   5.4219   5.6829   5.8258
     5.8351   5.9397   6.0001   6.0911   6.1192   6.2019

     occupation numbers 
     1.0000   1.0000   1.0000   1.0000   1.0000   1.0000   1.0000   1.0000
     1.0000   1.0000   1.0000   1.0000   1.0000   1.0000   1.0000   1.0000
     1.0000   1.0000   1.0000   1.0000   1.0000   1.0000   1.0000   1.0000
     1.0000   1.0000   1.0000   1.0000   1.0000   1.0000   1.0000   1.0000
     1.0000   1.0000   1.0000   1.0000   1.0000   1.0000   1.0000   1.0000
     1.0000   1.0000   1.0000   1.0000   1.0000   1.0000   1.0000   1.0000
     1.0000   1.0000   1.0000   1.0000   1.0000   1.0000   1.0000   1.0000
     1.0000   1.0000   1.0000   1.0000   1.0000   1.0000   1.0000   1.0000
     1.0000   1.0000   1.0000   1.0000   1.0000   1.0000   1.0000   1.0000
     1.0000   1.0000   1.0000   1.0000   1.0000   1.0000

          k = 0.0598 0.8677 0.2499 ( 43432 PWs)   bands (ev):

   -20.6992 -20.6992 -20.6869 -20.6868 -15.6775 -15.6775 -15.6687 -15.6687
   -15.6630 -15.6629 -15.6024 -15.6023 -15.5876 -15.5876  -7.0008  -6.9408
    -6.4169  -6.3258  -6.2396  -6.1777  -6.1251  -6.0722  -4.9283  -4.9232
    -4.8754  -4.8386  -4.8120  -4.7966  -4.7669  -4.7514  -4.7203  -4.6971
    -4.6282  -4.6219  -0.8926  -0.8341   1.2291   1.3585   1.6944   1.8353
     2.1469   2.2798   2.3311   2.3555   2.8794   2.9959   3.1157   3.1930
     3.2447   3.2833   3.3027   3.3466   3.4564   3.5858   3.7201   3.7554
     3.7943   3.8465   4.7676   4.8162   4.8335   4.8737   4.9735   4.9988
     5.0099   5.0403   5.1781   5.2149   5.2470   5.3186   5.8104   5.9257
     5.9757   6.0148   6.0575   6.1199   6.1473   6.2089

     occupation numbers 
     1.0000   1.0000   1.0000   1.0000   1.0000   1.0000   1.0000   1.0000
     1.0000   1.0000   1.0000   1.0000   1.0000   1.0000   1.0000   1.0000
     1.0000   1.0000   1.0000   1.0000   1.0000   1.0000   1.0000   1.0000
     1.0000   1.0000   1.0000   1.0000   1.0000   1.0000   1.0000   1.0000
     1.0000   1.0000   1.0000   1.0000   1.0000   1.0000   1.0000   1.0000
     1.0000   1.0000   1.0000   1.0000   1.0000   1.0000   1.0000   1.0000
     1.0000   1.0000   1.0000   1.0000   1.0000   1.0000   1.0000   1.0000
     1.0000   1.0000   1.0000   1.0000   1.0000   1.0000   1.0000   1.0000
     1.0000   1.0000   1.0000   1.0000   1.0000   1.0000   1.0000   1.0000
     1.0000   1.0000   1.0000   1.0000   1.0000   1.0000

          k =-0.1196-0.3395-0.4998 ( 43424 PWs)   bands (ev):

   -20.7077 -20.7077 -20.6791 -20.6790 -15.6775 -15.6775 -15.6685 -15.6685
   -15.6628 -15.6628 -15.6026 -15.6026 -15.5877 -15.5876  -7.0748  -7.0631
    -6.3503  -6.2749  -6.1927  -6.1574  -6.1005  -5.9966  -4.9699  -4.9531
    -4.8339  -4.8204  -4.8140  -4.7845  -4.7717  -4.7663  -4.7134  -4.6946
    -4.6381  -4.6342  -0.9213  -0.8757   1.4707   1.5351   1.6375   1.7800
     2.2203   2.3171   2.4284   2.4799   2.8061   2.9340   3.0262   3.1562
     3.2253   3.2623   3.3299   3.4203   3.4424   3.6135   3.7283   3.7629
     3.7826   3.8172   4.6701   4.7086   4.8246   4.8416   4.9203   4.9484
     5.0482   5.0626   5.2195   5.2435   5.2873   5.3476   5.6926   5.7479
     5.8303   5.9229   6.0142   6.0344   6.2459   6.2918

     occupation numbers 
     1.0000   1.0000   1.0000   1.0000   1.0000   1.0000   1.0000   1.0000
     1.0000   1.0000   1.0000   1.0000   1.0000   1.0000   1.0000   1.0000
     1.0000   1.0000   1.0000   1.0000   1.0000   1.0000   1.0000   1.0000
     1.0000   1.0000   1.0000   1.0000   1.0000   1.0000   1.0000   1.0000
     1.0000   1.0000   1.0000   1.0000   1.0000   1.0000   1.0000   1.0000
     1.0000   1.0000   1.0000   1.0000   1.0000   1.0000   1.0000   1.0000
     1.0000   1.0000   1.0000   1.0000   1.0000   1.0000   1.0000   1.0000
     1.0000   1.0000   1.0000   1.0000   1.0000   1.0000   1.0000   1.0000
     1.0000   1.0000   1.0000   1.0000   1.0000   1.0000   1.0000   1.0000
     1.0000   1.0000   1.0000   1.0000   1.0000   1.0000

          k =-0.0598 0.0629-0.2499 ( 43427 PWs)   bands (ev):

   -20.7189 -20.7042 -20.6831 -20.6686 -15.6775 -15.6774 -15.6683 -15.6682
   -15.6627 -15.6627 -15.6028 -15.6028 -15.5878 -15.5876  -7.2194  -7.0151
    -6.4656  -6.2297  -6.1515  -6.1200  -6.0374  -5.8808  -5.0522  -4.9988
    -4.8964  -4.8559  -4.7868  -4.7461  -4.7302  -4.7246  -4.6850  -4.6690
    -4.6633  -4.6085  -1.0037  -0.8559   1.5825   1.7178   1.8278   2.0017
     2.0483   2.0965   2.3122   2.7192   2.8419   2.9026   3.0310   3.1991
     3.2340   3.2563   3.3843   3.4039   3.5573   3.5795   3.6001   3.6846
     3.7709   3.8196   4.5605   4.5956   4.8284   4.8354   4.8671   4.9380
     4.9527   5.0856   5.2910   5.3374   5.3686   5.3845   5.4662   5.5729
     5.7468   5.8897   6.0341   6.0629   6.1800   6.2334

     occupation numbers 
     1.0000   1.0000   1.0000   1.0000   1.0000   1.0000   1.0000   1.0000
     1.0000   1.0000   1.0000   1.0000   1.0000   1.0000   1.0000   1.0000
     1.0000   1.0000   1.0000   1.0000   1.0000   1.0000   1.0000   1.0000
     1.0000   1.0000   1.0000   1.0000   1.0000   1.0000   1.0000   1.0000
     1.0000   1.0000   1.0000   1.0000   1.0000   1.0000   1.0000   1.0000
     1.0000   1.0000   1.0000   1.0000   1.0000   1.0000   1.0000   1.0000
     1.0000   1.0000   1.0000   1.0000   1.0000   1.0000   1.0000   1.0000
     1.0000   1.0000   1.0000   1.0000   1.0000   1.0000   1.0000   1.0000
     1.0000   1.0000   1.0000   1.0000   1.0000   1.0000   1.0000   1.0000
     1.0000   1.0000   1.0000   1.0000   1.0000   1.0000

          k = 0.0000-0.9307-0.0000 ( 43450 PWs)   bands (ev):

   -20.6992 -20.6992 -20.6869 -20.6868 -15.6775 -15.6775 -15.6687 -15.6687
   -15.6630 -15.6629 -15.6023 -15.6023 -15.5876 -15.5876  -6.9730  -6.9730
    -6.3844  -6.3840  -6.1620  -6.1620  -6.1296  -6.1293  -4.9325  -4.9325
    -4.8558  -4.8557  -4.8055  -4.8054  -4.7491  -4.7491  -4.7261  -4.7261
    -4.6116  -4.6115  -0.8644  -0.8644   1.2607   1.2608   1.9590   1.9591
     2.0525   2.0528   2.2990   2.2990   3.0225   3.0227   3.1251   3.1253
     3.2214   3.2218   3.3082   3.3084   3.5452   3.5453   3.7596   3.7599
     3.8157   3.8159   4.7979   4.7982   4.8475   4.8478   4.9726   4.9728
     5.0110   5.0113   5.2327   5.2329   5.2769   5.2770   5.8952   5.8956
     5.9700   5.9704   6.1023   6.1026   6.1848   6.1850

     occupation numbers 
     1.0000   1.0000   1.0000   1.0000   1.0000   1.0000   1.0000   1.0000
     1.0000   1.0000   1.0000   1.0000   1.0000   1.0000   1.0000   1.0000
     1.0000   1.0000   1.0000   1.0000   1.0000   1.0000   1.0000   1.0000
     1.0000   1.0000   1.0000   1.0000   1.0000   1.0000   1.0000   1.0000
     1.0000   1.0000   1.0000   1.0000   1.0000   1.0000   1.0000   1.0000
     1.0000   1.0000   1.0000   1.0000   1.0000   1.0000   1.0000   1.0000
     1.0000   1.0000   1.0000   1.0000   1.0000   1.0000   1.0000   1.0000
     1.0000   1.0000   1.0000   1.0000   1.0000   1.0000   1.0000   1.0000
     1.0000   1.0000   1.0000   1.0000   1.0000   1.0000   1.0000   1.0000
     1.0000   1.0000   1.0000   1.0000   1.0000   1.0000

          k = 0.0598-0.5283 0.2499 ( 43437 PWs)   bands (ev):

   -20.7120 -20.7013 -20.6853 -20.6748 -15.6775 -15.6774 -15.6685 -15.6684
   -15.6628 -15.6628 -15.6026 -15.6026 -15.5877 -15.5876  -7.1434  -6.9678
    -6.4558  -6.2094  -6.1839  -6.1577  -6.0740  -6.0146  -5.0060  -4.9293
    -4.8532  -4.8403  -4.7801  -4.7703  -4.7611  -4.7560  -4.7311  -4.6829
    -4.6489  -4.6382  -0.9436  -0.8542   1.4342   1.4943   1.7215   1.8545
     2.1409   2.2854   2.3936   2.5961   2.6564   3.0274   3.0576   3.1133
     3.2453   3.3038   3.3429   3.4029   3.4394   3.5702   3.7130   3.7208
     3.8076   3.8575   4.6813   4.6957   4.7922   4.8718   4.9302   4.9531
     5.0152   5.0918   5.1892   5.2511   5.2951   5.3594   5.6789   5.7849
     5.8735   5.9157   6.0019   6.0291   6.2148   6.2374

     occupation numbers 
     1.0000   1.0000   1.0000   1.0000   1.0000   1.0000   1.0000   1.0000
     1.0000   1.0000   1.0000   1.0000   1.0000   1.0000   1.0000   1.0000
     1.0000   1.0000   1.0000   1.0000   1.0000   1.0000   1.0000   1.0000
     1.0000   1.0000   1.0000   1.0000   1.0000   1.0000   1.0000   1.0000
     1.0000   1.0000   1.0000   1.0000   1.0000   1.0000   1.0000   1.0000
     1.0000   1.0000   1.0000   1.0000   1.0000   1.0000   1.0000   1.0000
     1.0000   1.0000   1.0000   1.0000   1.0000   1.0000   1.0000   1.0000
     1.0000   1.0000   1.0000   1.0000   1.0000   1.0000   1.0000   1.0000
     1.0000   1.0000   1.0000   1.0000   1.0000   1.0000   1.0000   1.0000
     1.0000   1.0000   1.0000   1.0000   1.0000   1.0000

          k =-0.1196-1.7355-0.4998 ( 43432 PWs)   bands (ev):

   -20.7130 -20.7130 -20.6745 -20.6744 -15.6775 -15.6775 -15.6683 -15.6683
   -15.6627 -15.6627 -15.6028 -15.6028 -15.5877 -15.5877  -7.1468  -7.1466
    -6.2919  -6.2916  -6.1620  -6.1616  -5.9462  -5.9458  -4.9947  -4.9946
    -4.9230  -4.9230  -4.7528  -4.7527  -4.7286  -4.7286  -4.6839  -4.6838
    -4.6452  -4.6451  -0.9330  -0.9330   1.7015   1.7021   1.8351   1.8352
     2.0874   2.0874   2.5749   2.5751   2.8889   2.8891   3.0136   3.0140
     3.2322   3.2324   3.4126   3.4130   3.6102   3.6106   3.6956   3.6958
     3.7596   3.7599   4.5738   4.5746   4.8324   4.8333   4.9438   4.9446
     4.9605   4.9610   5.3439   5.3448   5.3549   5.3558   5.5055   5.5060
     5.8265   5.8273   6.0475   6.0483   6.1718   6.1724

     occupation numbers 
     1.0000   1.0000   1.0000   1.0000   1.0000   1.0000   1.0000   1.0000
     1.0000   1.0000   1.0000   1.0000   1.0000   1.0000   1.0000   1.0000
     1.0000   1.0000   1.0000   1.0000   1.0000   1.0000   1.0000   1.0000
     1.0000   1.0000   1.0000   1.0000   1.0000   1.0000   1.0000   1.0000
     1.0000   1.0000   1.0000   1.0000   1.0000   1.0000   1.0000   1.0000
     1.0000   1.0000   1.0000   1.0000   1.0000   1.0000   1.0000   1.0000
     1.0000   1.0000   1.0000   1.0000   1.0000   1.0000   1.0000   1.0000
     1.0000   1.0000   1.0000   1.0000   1.0000   1.0000   1.0000   1.0000
     1.0000   1.0000   1.0000   1.0000   1.0000   1.0000   1.0000   1.0000
     1.0000   1.0000   1.0000   1.0000   1.0000   1.0000

          k =-0.5139-0.1259 0.0000 ( 43432 PWs)   bands (ev):

   -20.7130 -20.7130 -20.6745 -20.6744 -15.6775 -15.6775 -15.6683 -15.6683
   -15.6627 -15.6627 -15.6028 -15.6028 -15.5877 -15.5877  -7.1468  -7.1466
    -6.2918  -6.2916  -6.1620  -6.1616  -5.9462  -5.9458  -4.9947  -4.9946
    -4.9230  -4.9230  -4.7527  -4.7527  -4.7286  -4.7286  -4.6839  -4.6838
    -4.6452  -4.6451  -0.9330  -0.9330   1.7015   1.7020   1.8351   1.8352
     2.0874   2.0874   2.5750   2.5751   2.8888   2.8891   3.0135   3.0140
     3.2323   3.2325   3.4127   3.4130   3.6102   3.6104   3.6956   3.6959
     3.7595   3.7599   4.5738   4.5746   4.8323   4.8333   4.9438   4.9446
     4.9605   4.9609   5.3440   5.3449   5.3548   5.3556   5.5055   5.5061
     5.8267   5.8275   6.0474   6.0479   6.1718   6.1725

     occupation numbers 
     1.0000   1.0000   1.0000   1.0000   1.0000   1.0000   1.0000   1.0000
     1.0000   1.0000   1.0000   1.0000   1.0000   1.0000   1.0000   1.0000
     1.0000   1.0000   1.0000   1.0000   1.0000   1.0000   1.0000   1.0000
     1.0000   1.0000   1.0000   1.0000   1.0000   1.0000   1.0000   1.0000
     1.0000   1.0000   1.0000   1.0000   1.0000   1.0000   1.0000   1.0000
     1.0000   1.0000   1.0000   1.0000   1.0000   1.0000   1.0000   1.0000
     1.0000   1.0000   1.0000   1.0000   1.0000   1.0000   1.0000   1.0000
     1.0000   1.0000   1.0000   1.0000   1.0000   1.0000   1.0000   1.0000
     1.0000   1.0000   1.0000   1.0000   1.0000   1.0000   1.0000   1.0000
     1.0000   1.0000   1.0000   1.0000   1.0000   1.0000

          k =-0.4541 0.2765 0.2499 ( 43437 PWs)   bands (ev):

   -20.7120 -20.7013 -20.6853 -20.6748 -15.6775 -15.6774 -15.6685 -15.6684
   -15.6628 -15.6628 -15.6026 -15.6026 -15.5877 -15.5876  -7.1434  -6.9678
    -6.4558  -6.2094  -6.1842  -6.1575  -6.0738  -6.0148  -5.0060  -4.9293
    -4.8532  -4.8403  -4.7801  -4.7703  -4.7611  -4.7559  -4.7310  -4.6829
    -4.6489  -4.6382  -0.9436  -0.8542   1.4342   1.4943   1.7215   1.8546
     2.1409   2.2853   2.3935   2.5961   2.6565   3.0275   3.0577   3.1130
     3.2451   3.3038   3.3432   3.4027   3.4394   3.5700   3.7132   3.7209
     3.8078   3.8572   4.6822   4.6949   4.7923   4.8720   4.9300   4.9531
     5.0152   5.0918   5.1892   5.2513   5.2950   5.3592   5.6790   5.7851
     5.8737   5.9156   6.0018   6.0287   6.2147   6.2378

     occupation numbers 
     1.0000   1.0000   1.0000   1.0000   1.0000   1.0000   1.0000   1.0000
     1.0000   1.0000   1.0000   1.0000   1.0000   1.0000   1.0000   1.0000
     1.0000   1.0000   1.0000   1.0000   1.0000   1.0000   1.0000   1.0000
     1.0000   1.0000   1.0000   1.0000   1.0000   1.0000   1.0000   1.0000
     1.0000   1.0000   1.0000   1.0000   1.0000   1.0000   1.0000   1.0000
     1.0000   1.0000   1.0000   1.0000   1.0000   1.0000   1.0000   1.0000
     1.0000   1.0000   1.0000   1.0000   1.0000   1.0000   1.0000   1.0000
     1.0000   1.0000   1.0000   1.0000   1.0000   1.0000   1.0000   1.0000
     1.0000   1.0000   1.0000   1.0000   1.0000   1.0000   1.0000   1.0000
     1.0000   1.0000   1.0000   1.0000   1.0000   1.0000

          k =-0.6335-0.9307-0.4997 ( 43450 PWs)   bands (ev):

   -20.6992 -20.6992 -20.6869 -20.6868 -15.6775 -15.6775 -15.6687 -15.6687
   -15.6630 -15.6629 -15.6023 -15.6023 -15.5876 -15.5876  -6.9730  -6.9729
    -6.3845  -6.3844  -6.1615  -6.1614  -6.1298  -6.1297  -4.9326  -4.9325
    -4.8558  -4.8557  -4.8055  -4.8055  -4.7492  -4.7491  -4.7261  -4.7261
    -4.6116  -4.6115  -0.8644  -0.8644   1.2607   1.2608   1.9590   1.9590
     2.0526   2.0528   2.2989   2.2990   3.0229   3.0230   3.1248   3.1250
     3.2213   3.2216   3.3082   3.3085   3.5452   3.5453   3.7597   3.7600
     3.8156   3.8158   4.7979   4.7981   4.8477   4.8481   4.9724   4.9726
     5.0110   5.0113   5.2327   5.2329   5.2769   5.2771   5.8948   5.8952
     5.9704   5.9708   6.1021   6.1023   6.1849   6.1852

     occupation numbers 
     1.0000   1.0000   1.0000   1.0000   1.0000   1.0000   1.0000   1.0000
     1.0000   1.0000   1.0000   1.0000   1.0000   1.0000   1.0000   1.0000
     1.0000   1.0000   1.0000   1.0000   1.0000   1.0000   1.0000   1.0000
     1.0000   1.0000   1.0000   1.0000   1.0000   1.0000   1.0000   1.0000
     1.0000   1.0000   1.0000   1.0000   1.0000   1.0000   1.0000   1.0000
     1.0000   1.0000   1.0000   1.0000   1.0000   1.0000   1.0000   1.0000
     1.0000   1.0000   1.0000   1.0000   1.0000   1.0000   1.0000   1.0000
     1.0000   1.0000   1.0000   1.0000   1.0000   1.0000   1.0000   1.0000
     1.0000   1.0000   1.0000   1.0000   1.0000   1.0000   1.0000   1.0000
     1.0000   1.0000   1.0000   1.0000   1.0000   1.0000

          k =-0.5139 0.3395 0.0000 ( 43424 PWs)   bands (ev):

   -20.7077 -20.7077 -20.6791 -20.6790 -15.6775 -15.6775 -15.6685 -15.6685
   -15.6628 -15.6628 -15.6026 -15.6026 -15.5877 -15.5876  -7.0748  -7.0631
    -6.3504  -6.2747  -6.1928  -6.1574  -6.1004  -5.9967  -4.9700  -4.9530
    -4.8339  -4.8204  -4.8140  -4.7845  -4.7717  -4.7663  -4.7134  -4.6946
    -4.6381  -4.6342  -0.9213  -0.8757   1.4708   1.5350   1.6375   1.7800
     2.2204   2.3171   2.4283   2.4799   2.8062   2.9340   3.0263   3.1562
     3.2253   3.2621   3.3300   3.4203   3.4423   3.6134   3.7284   3.7632
     3.7824   3.8171   4.6701   4.7086   4.8246   4.8416   4.9203   4.9484
     5.0481   5.0627   5.2196   5.2435   5.2872   5.3476   5.6927   5.7480
     5.8303   5.9231   6.0139   6.0343   6.2459   6.2919

     occupation numbers 
     1.0000   1.0000   1.0000   1.0000   1.0000   1.0000   1.0000   1.0000
     1.0000   1.0000   1.0000   1.0000   1.0000   1.0000   1.0000   1.0000
     1.0000   1.0000   1.0000   1.0000   1.0000   1.0000   1.0000   1.0000
     1.0000   1.0000   1.0000   1.0000   1.0000   1.0000   1.0000   1.0000
     1.0000   1.0000   1.0000   1.0000   1.0000   1.0000   1.0000   1.0000
     1.0000   1.0000   1.0000   1.0000   1.0000   1.0000   1.0000   1.0000
     1.0000   1.0000   1.0000   1.0000   1.0000   1.0000   1.0000   1.0000
     1.0000   1.0000   1.0000   1.0000   1.0000   1.0000   1.0000   1.0000
     1.0000   1.0000   1.0000   1.0000   1.0000   1.0000   1.0000   1.0000
     1.0000   1.0000   1.0000   1.0000   1.0000   1.0000

          k =-0.4541 0.7419 0.2499 ( 43432 PWs)   bands (ev):

   -20.6992 -20.6992 -20.6869 -20.6868 -15.6775 -15.6775 -15.6687 -15.6687
   -15.6630 -15.6629 -15.6024 -15.6023 -15.5876 -15.5876  -7.0007  -6.9408
    -6.4172  -6.3259  -6.2394  -6.1774  -6.1250  -6.0724  -4.9284  -4.9231
    -4.8754  -4.8385  -4.8121  -4.7966  -4.7669  -4.7514  -4.7203  -4.6971
    -4.6282  -4.6219  -0.8926  -0.8341   1.2291   1.3585   1.6944   1.8353
     2.1469   2.2797   2.3311   2.3555   2.8794   2.9961   3.1158   3.1929
     3.2449   3.2829   3.3027   3.3466   3.4563   3.5858   3.7203   3.7555
     3.7942   3.8465   4.7676   4.8160   4.8337   4.8738   4.9734   4.9988
     5.0098   5.0402   5.1781   5.2150   5.2471   5.3187   5.8103   5.9255
     5.9761   6.0149   6.0574   6.1195   6.1475   6.2090

     occupation numbers 
     1.0000   1.0000   1.0000   1.0000   1.0000   1.0000   1.0000   1.0000
     1.0000   1.0000   1.0000   1.0000   1.0000   1.0000   1.0000   1.0000
     1.0000   1.0000   1.0000   1.0000   1.0000   1.0000   1.0000   1.0000
     1.0000   1.0000   1.0000   1.0000   1.0000   1.0000   1.0000   1.0000
     1.0000   1.0000   1.0000   1.0000   1.0000   1.0000   1.0000   1.0000
     1.0000   1.0000   1.0000   1.0000   1.0000   1.0000   1.0000   1.0000
     1.0000   1.0000   1.0000   1.0000   1.0000   1.0000   1.0000   1.0000
     1.0000   1.0000   1.0000   1.0000   1.0000   1.0000   1.0000   1.0000
     1.0000   1.0000   1.0000   1.0000   1.0000   1.0000   1.0000   1.0000
     1.0000   1.0000   1.0000   1.0000   1.0000   1.0000

          k =-0.6335-0.4653-0.4997 ( 43453 PWs)   bands (ev):

   -20.7136 -20.6956 -20.6910 -20.6734 -15.6775 -15.6774 -15.6685 -15.6684
   -15.6629 -15.6628 -15.6026 -15.6026 -15.5877 -15.5876  -7.1742  -6.9300
    -6.5573  -6.1792  -6.1348  -6.0751  -6.0716  -6.0264  -5.0272  -4.9326
    -4.8811  -4.8670  -4.7775  -4.7728  -4.7541  -4.7495  -4.7105  -4.6885
    -4.6692  -4.6377  -0.9443  -0.8592   1.4505   1.4677   1.8434   1.9297
     2.0560   2.2928   2.3350   2.5956   2.6429   2.9594   3.0666   3.1309
     3.2386   3.2612   3.3359   3.4046   3.4714   3.6324   3.6660   3.7053
     3.7852   3.9706   4.6676   4.7003   4.7641   4.8998   4.9382   4.9544
     5.0193   5.0883   5.1546   5.2613   5.3263   5.3434   5.6430   5.7810
     5.8443   6.0017   6.0196   6.0641   6.1269   6.2147

     occupation numbers 
     1.0000   1.0000   1.0000   1.0000   1.0000   1.0000   1.0000   1.0000
     1.0000   1.0000   1.0000   1.0000   1.0000   1.0000   1.0000   1.0000
     1.0000   1.0000   1.0000   1.0000   1.0000   1.0000   1.0000   1.0000
     1.0000   1.0000   1.0000   1.0000   1.0000   1.0000   1.0000   1.0000
     1.0000   1.0000   1.0000   1.0000   1.0000   1.0000   1.0000   1.0000
     1.0000   1.0000   1.0000   1.0000   1.0000   1.0000   1.0000   1.0000
     1.0000   1.0000   1.0000   1.0000   1.0000   1.0000   1.0000   1.0000
     1.0000   1.0000   1.0000   1.0000   1.0000   1.0000   1.0000   1.0000
     1.0000   1.0000   1.0000   1.0000   1.0000   1.0000   1.0000   1.0000
     1.0000   1.0000   1.0000   1.0000   1.0000   1.0000

          k =-0.5737-0.0629-0.2498 ( 43489 PWs)   bands (ev):

   -20.7189 -20.7043 -20.6831 -20.6686 -15.6775 -15.6774 -15.6683 -15.6683
   -15.6627 -15.6627 -15.6028 -15.6028 -15.5878 -15.5876  -7.2566  -7.0120
    -6.4924  -6.1480  -6.1207  -6.1176  -5.9737  -5.9273  -5.0470  -5.0046
    -4.8951  -4.8760  -4.7846  -4.7728  -4.7284  -4.7214  -4.6876  -4.6721
    -4.6634  -4.6567  -0.9886  -0.8874   1.6493   1.6958   1.8126   2.0109
     2.0632   2.1611   2.5068   2.6862   2.7197   2.8307   3.0019   3.1559
     3.1994   3.2832   3.3275   3.4485   3.4672   3.5949   3.6087   3.7171
     3.7278   4.0369   4.5591   4.5849   4.8261   4.8400   4.8794   4.9210
     4.9875   5.0651   5.2862   5.3315   5.3724   5.4028   5.4062   5.5730
     5.6516   5.9434   6.0087   6.0848   6.1748   6.2133

     occupation numbers 
     1.0000   1.0000   1.0000   1.0000   1.0000   1.0000   1.0000   1.0000
     1.0000   1.0000   1.0000   1.0000   1.0000   1.0000   1.0000   1.0000
     1.0000   1.0000   1.0000   1.0000   1.0000   1.0000   1.0000   1.0000
     1.0000   1.0000   1.0000   1.0000   1.0000   1.0000   1.0000   1.0000
     1.0000   1.0000   1.0000   1.0000   1.0000   1.0000   1.0000   1.0000
     1.0000   1.0000   1.0000   1.0000   1.0000   1.0000   1.0000   1.0000
     1.0000   1.0000   1.0000   1.0000   1.0000   1.0000   1.0000   1.0000
     1.0000   1.0000   1.0000   1.0000   1.0000   1.0000   1.0000   1.0000
     1.0000   1.0000   1.0000   1.0000   1.0000   1.0000   1.0000   1.0000
     1.0000   1.0000   1.0000   1.0000   1.0000   1.0000

          k =-0.5139-1.0565 0.0000 ( 43366 PWs)   bands (ev):

   -20.6992 -20.6992 -20.6869 -20.6869 -15.6775 -15.6775 -15.6687 -15.6687
   -15.6630 -15.6629 -15.6024 -15.6023 -15.5876 -15.5876  -7.0122  -6.9245
    -6.4151  -6.2995  -6.2708  -6.2286  -6.1045  -6.0434  -4.9270  -4.9162
    -4.8997  -4.8187  -4.8045  -4.7895  -4.7756  -4.7648  -4.6891  -4.6809
    -4.6581  -4.6362  -0.9036  -0.8212   1.2596   1.4175   1.5343   1.7690
     2.1559   2.3421   2.4261   2.4321   2.7700   2.9909   3.0688   3.2395
     3.2408   3.3219   3.3540   3.3789   3.4133   3.5676   3.6909   3.7343
     3.8190   3.8345   4.7523   4.8230   4.8374   4.8787   4.9824   5.0031
     5.0435   5.0660   5.1441   5.1924   5.2101   5.3334   5.7647   5.9347
     5.9606   6.0152   6.0809   6.1190   6.1528   6.1868

     occupation numbers 
     1.0000   1.0000   1.0000   1.0000   1.0000   1.0000   1.0000   1.0000
     1.0000   1.0000   1.0000   1.0000   1.0000   1.0000   1.0000   1.0000
     1.0000   1.0000   1.0000   1.0000   1.0000   1.0000   1.0000   1.0000
     1.0000   1.0000   1.0000   1.0000   1.0000   1.0000   1.0000   1.0000
     1.0000   1.0000   1.0000   1.0000   1.0000   1.0000   1.0000   1.0000
     1.0000   1.0000   1.0000   1.0000   1.0000   1.0000   1.0000   1.0000
     1.0000   1.0000   1.0000   1.0000   1.0000   1.0000   1.0000   1.0000
     1.0000   1.0000   1.0000   1.0000   1.0000   1.0000   1.0000   1.0000
     1.0000   1.0000   1.0000   1.0000   1.0000   1.0000   1.0000   1.0000
     1.0000   1.0000   1.0000   1.0000   1.0000   1.0000

          k =-0.4540-0.6541 0.2499 ( 43437 PWs)   bands (ev):

   -20.7120 -20.7013 -20.6854 -20.6748 -15.6775 -15.6774 -15.6685 -15.6685
   -15.6628 -15.6628 -15.6026 -15.6026 -15.5877 -15.5876  -7.1458  -6.9903
    -6.4969  -6.1826  -6.1225  -6.1107  -6.1050  -5.9982  -5.0079  -4.9424
    -4.8788  -4.8545  -4.7872  -4.7656  -4.7627  -4.7476  -4.7396  -4.6968
    -4.6484  -4.6334  -0.9155  -0.8873   1.4545   1.5230   1.7648   1.8200
     2.1758   2.3040   2.3975   2.5606   2.6165   2.9432   3.1322   3.1555
     3.1756   3.2584   3.3405   3.3512   3.4673   3.6284   3.6995   3.7492
     3.7793   3.9431   4.6603   4.7098   4.7775   4.8861   4.9359   4.9540
     5.0296   5.0740   5.1763   5.2631   5.3088   5.3401   5.6416   5.7696
     5.8205   5.9693   6.0244   6.0464   6.1988   6.2610

     occupation numbers 
     1.0000   1.0000   1.0000   1.0000   1.0000   1.0000   1.0000   1.0000
     1.0000   1.0000   1.0000   1.0000   1.0000   1.0000   1.0000   1.0000
     1.0000   1.0000   1.0000   1.0000   1.0000   1.0000   1.0000   1.0000
     1.0000   1.0000   1.0000   1.0000   1.0000   1.0000   1.0000   1.0000
     1.0000   1.0000   1.0000   1.0000   1.0000   1.0000   1.0000   1.0000
     1.0000   1.0000   1.0000   1.0000   1.0000   1.0000   1.0000   1.0000
     1.0000   1.0000   1.0000   1.0000   1.0000   1.0000   1.0000   1.0000
     1.0000   1.0000   1.0000   1.0000   1.0000   1.0000   1.0000   1.0000
     1.0000   1.0000   1.0000   1.0000   1.0000   1.0000   1.0000   1.0000
     1.0000   1.0000   1.0000   1.0000   1.0000   1.0000

          k =-0.6335-1.8613-0.4997 ( 43494 PWs)   bands (ev):

   -20.7209 -20.6956 -20.6917 -20.6666 -15.6776 -15.6774 -15.6683 -15.6682
   -15.6627 -15.6627 -15.6028 -15.6028 -15.5878 -15.5875  -7.2988  -6.9319
    -6.6011  -6.1301  -6.0518  -6.0393  -6.0352  -5.9156  -5.0776  -5.0148
    -4.8415  -4.8367  -4.8301  -4.8157  -4.7179  -4.7160  -4.7006  -4.6908
    -4.6620  -4.6600  -1.0177  -0.8685   1.6368   1.6574   1.8764   2.0654
     2.1171   2.2047   2.4910   2.5826   2.7835   2.8516   2.8789   3.1079
     3.1937   3.3009   3.3602   3.4399   3.4835   3.5375   3.6077   3.7223
     3.7342   4.1526   4.5531   4.5832   4.8236   4.8361   4.8513   4.9133
     5.0145   5.1497   5.2616   5.2773   5.3349   5.4194   5.4302   5.5763
     5.5920   5.9354   6.0547   6.0676   6.1999   6.2240

     occupation numbers 
     1.0000   1.0000   1.0000   1.0000   1.0000   1.0000   1.0000   1.0000
     1.0000   1.0000   1.0000   1.0000   1.0000   1.0000   1.0000   1.0000
     1.0000   1.0000   1.0000   1.0000   1.0000   1.0000   1.0000   1.0000
     1.0000   1.0000   1.0000   1.0000   1.0000   1.0000   1.0000   1.0000
     1.0000   1.0000   1.0000   1.0000   1.0000   1.0000   1.0000   1.0000
     1.0000   1.0000   1.0000   1.0000   1.0000   1.0000   1.0000   1.0000
     1.0000   1.0000   1.0000   1.0000   1.0000   1.0000   1.0000   1.0000
     1.0000   1.0000   1.0000   1.0000   1.0000   1.0000   1.0000   1.0000
     1.0000   1.0000   1.0000   1.0000   1.0000   1.0000   1.0000   1.0000
     1.0000   1.0000   1.0000   1.0000   1.0000   1.0000

     highest occupied level (ev):     6.2919

!    total energy              =   -1568.23783323 Ry
     estimated scf accuracy    <          8.3E-09 Ry

     The total energy is the sum of the following terms:
     one-electron contribution =    -580.80000672 Ry
     hartree contribution      =     399.10996277 Ry
     xc contribution           =    -371.72871847 Ry
     ewald contribution        =    -655.55784448 Ry
     one-center paw contrib.   =    -359.26122634 Ry
      -> PAW hartree energy AE =       0.00000000 Ry
      -> PAW hartree energy PS =       0.00000000 Ry
      -> PAW xc energy AE      =       0.00000000 Ry
      -> PAW xc energy PS      =       0.00000000 Ry
      -> total E_H with PAW    =     399.10996277 Ry
      -> total E_XC with PAW   =    -371.72871847 Ry

     convergence has been achieved in   6 iterations

     Forces acting on atoms (cartesian axes, Ry/au):

     atom    1 type  2   force =     0.00006129    0.00015476    0.00011164
     atom    2 type  2   force =    -0.00006129   -0.00015476   -0.00011164
     atom    3 type  2   force =    -0.00012189    0.00013895   -0.00002449
     atom    4 type  2   force =     0.00012189   -0.00013895    0.00002449
     atom    5 type  1   force =     0.00004710    0.00001893    0.00001664
     atom    6 type  1   force =    -0.00004710   -0.00001893   -0.00001664
     atom    7 type  1   force =    -0.00006285    0.00001006   -0.00001021
     atom    8 type  1   force =     0.00006285   -0.00001006    0.00001021
     atom    9 type  4   force =     0.00000945   -0.00000588    0.00000539
     atom   10 type  4   force =    -0.00000945    0.00000588   -0.00000539
     atom   11 type  3   force =    -0.00064063   -0.00037055   -0.00115613
     atom   12 type  3   force =     0.00064063    0.00037055    0.00115613
     atom   13 type  3   force =     0.00101220    0.00063879    0.00066515
     atom   14 type  3   force =    -0.00101220   -0.00063879   -0.00066515
     atom   15 type  3   force =     0.00085136   -0.00062451    0.00081673
     atom   16 type  3   force =    -0.00085136    0.00062451   -0.00081673
     atom   17 type  3   force =    -0.00125433    0.00038103   -0.00035592
     atom   18 type  3   force =     0.00125433   -0.00038103    0.00035592
     The non-local contrib.  to forces
     atom    1 type  2   force =    -0.00049780   -0.00529911   -0.00304304
     atom    2 type  2   force =     0.00049780    0.00529911    0.00304304
     atom    3 type  2   force =     0.00306486   -0.00528975   -0.00024136
     atom    4 type  2   force =    -0.00306486    0.00528975    0.00024136
     atom    5 type  1   force =    -0.07067862    0.00006936   -0.05560867
     atom    6 type  1   force =     0.07067862   -0.00006936    0.05560867
     atom    7 type  1   force =     0.07057436    0.00016518    0.05572499
     atom    8 type  1   force =    -0.07057436   -0.00016518   -0.05572499
     atom    9 type  4   force =    -0.00001070   -0.00009588   -0.00008024
     atom   10 type  4   force =     0.00001070    0.00009588    0.00008024
     atom   11 type  3   force =     0.12297417    0.12939561   -0.12945845
     atom   12 type  3   force =    -0.12297417   -0.12939561    0.12945845
     atom   13 type  3   force =     0.12230830    0.02717283   -0.18136172
     atom   14 type  3   force =    -0.12230830   -0.02717283    0.18136172
     atom   15 type  3   force =    -0.14805262   -0.02712668    0.16120729
     atom   16 type  3   force =     0.14805262    0.02712668   -0.16120729
     atom   17 type  3   force =    -0.09734354   -0.12934320    0.14962576
     atom   18 type  3   force =     0.09734354    0.12934320   -0.14962576
     The ionic contribution  to forces
     atom    1 type  2   force =    -0.75471356   -0.44406310   -0.81896450
     atom    2 type  2   force =     0.75471356    0.44406310    0.81896450
     atom    3 type  2   force =     0.97216229   -0.44403948    0.54314021
     atom    4 type  2   force =    -0.97216229    0.44403948   -0.54314021
     atom    5 type  1   force =     2.94649185   -0.00036724    2.32394083
     atom    6 type  1   force =    -2.94649185    0.00036724   -2.32394083
     atom    7 type  1   force =    -2.94617056   -0.00042399   -2.32398574
     atom    8 type  1   force =     2.94617056    0.00042399    2.32398574
     atom    9 type  4   force =    -0.00000019   -0.00008587    0.00026230
     atom   10 type  4   force =     0.00000019    0.00008587   -0.00026230
     atom   11 type  3   force =    -3.29590705   -4.81114587    7.44489373
     atom   12 type  3   force =     3.29590705    4.81114587   -7.44489373
     atom   13 type  3   force =    -7.18913194   -1.88465003    5.84769482
     atom   14 type  3   force =     7.18913194    1.88465003   -5.84769482
     atom   15 type  3   force =     4.01278468    1.88465028   -8.35346374
     atom   16 type  3   force =    -4.01278468   -1.88465028    8.35346374
     atom   17 type  3   force =     6.47225944    4.81113035   -4.93912538
     atom   18 type  3   force =    -6.47225944   -4.81113035    4.93912538
     The local contribution  to forces
     atom    1 type  2   force =     0.75527711    0.44952651    0.82209999
     atom    2 type  2   force =    -0.75527711   -0.44952651   -0.82209999
     atom    3 type  2   force =    -0.97533136    0.44947792   -0.54293226
     atom    4 type  2   force =     0.97533136   -0.44947792    0.54293226
     atom    5 type  1   force =    -2.87741017    0.00033827   -2.26957708
     atom    6 type  1   force =     2.87741017   -0.00033827    2.26957708
     atom    7 type  1   force =     2.87715522    0.00030074    2.26954225
     atom    8 type  1   force =    -2.87715522   -0.00030074   -2.26954225
     atom    9 type  4   force =     0.00006488    0.00016839   -0.00014338
     atom   10 type  4   force =    -0.00006488   -0.00016839    0.00014338
     atom   11 type  3   force =     3.17887035    4.68830382   -7.32372265
     atom   12 type  3   force =    -3.17887035   -4.68830382    7.32372265
     atom   13 type  3   force =     7.07459182    1.85968739   -5.67538210
     atom   14 type  3   force =    -7.07459182   -1.85968739    5.67538210
     atom   15 type  3   force =    -3.87176288   -1.85971682    8.20190730
     atom   16 type  3   force =     3.87176288    1.85971682   -8.20190730
     atom   17 type  3   force =    -6.38157810   -4.68832732    4.79719527
     atom   18 type  3   force =     6.38157810    4.68832732   -4.79719527
     The core correction contribution to forces
     atom    1 type  2   force =     0.00000000    0.00000000    0.00000000
     atom    2 type  2   force =     0.00000000    0.00000000    0.00000000
     atom    3 type  2   force =     0.00000000    0.00000000    0.00000000
     atom    4 type  2   force =     0.00000000    0.00000000    0.00000000
     atom    5 type  1   force =     0.00166409   -0.00002119    0.00127730
     atom    6 type  1   force =    -0.00166409    0.00002119   -0.00127730
     atom    7 type  1   force =    -0.00162707   -0.00003221   -0.00129573
     atom    8 type  1   force =     0.00162707    0.00003221    0.00129573
     atom    9 type  4   force =    -0.00000128    0.00000414   -0.00000052
     atom   10 type  4   force =     0.00000128   -0.00000414    0.00000052
     atom   11 type  3   force =    -0.00656982   -0.00692705    0.00716748
     atom   12 type  3   force =     0.00656982    0.00692705   -0.00716748
     atom   13 type  3   force =    -0.00675121   -0.00157610    0.00971322
     atom   14 type  3   force =     0.00675121    0.00157610   -0.00971322
     atom   15 type  3   force =     0.00788266    0.00157353   -0.00882934
     atom   16 type  3   force =    -0.00788266   -0.00157353    0.00882934
     atom   17 type  3   force =     0.00544492    0.00692412   -0.00805197
     atom   18 type  3   force =    -0.00544492   -0.00692412    0.00805197
     The Hubbard contrib.    to forces
     atom    1 type  2   force =     0.00000000    0.00000000    0.00000000
     atom    2 type  2   force =     0.00000000    0.00000000    0.00000000
     atom    3 type  2   force =     0.00000000    0.00000000    0.00000000
     atom    4 type  2   force =     0.00000000    0.00000000    0.00000000
     atom    5 type  1   force =     0.00000000    0.00000000    0.00000000
     atom    6 type  1   force =     0.00000000    0.00000000    0.00000000
     atom    7 type  1   force =     0.00000000    0.00000000    0.00000000
     atom    8 type  1   force =     0.00000000    0.00000000    0.00000000
     atom    9 type  4   force =     0.00000000    0.00000000    0.00000000
     atom   10 type  4   force =     0.00000000    0.00000000    0.00000000
     atom   11 type  3   force =     0.00000000    0.00000000    0.00000000
     atom   12 type  3   force =     0.00000000    0.00000000    0.00000000
     atom   13 type  3   force =     0.00000000    0.00000000    0.00000000
     atom   14 type  3   force =     0.00000000    0.00000000    0.00000000
     atom   15 type  3   force =     0.00000000    0.00000000    0.00000000
     atom   16 type  3   force =     0.00000000    0.00000000    0.00000000
     atom   17 type  3   force =     0.00000000    0.00000000    0.00000000
     atom   18 type  3   force =     0.00000000    0.00000000    0.00000000
     The SCF correction term to forces
     atom    1 type  2   force =    -0.00000446   -0.00000954    0.00001919
     atom    2 type  2   force =     0.00000446    0.00000954   -0.00001919
     atom    3 type  2   force =    -0.00001767   -0.00000973    0.00000892
     atom    4 type  2   force =     0.00001767    0.00000973   -0.00000892
     atom    5 type  1   force =    -0.00002004   -0.00000027   -0.00001573
     atom    6 type  1   force =     0.00002004    0.00000027    0.00001573
     atom    7 type  1   force =     0.00000520    0.00000035    0.00000402
     atom    8 type  1   force =    -0.00000520   -0.00000035   -0.00000402
     atom    9 type  4   force =    -0.00004326    0.00000335   -0.00003278
     atom   10 type  4   force =     0.00004326   -0.00000335    0.00003278
     atom   11 type  3   force =    -0.00000828    0.00000294   -0.00003624
     atom   12 type  3   force =     0.00000828   -0.00000294    0.00003624
     atom   13 type  3   force =    -0.00000477    0.00000471    0.00000093
     atom   14 type  3   force =     0.00000477   -0.00000471   -0.00000093
     atom   15 type  3   force =    -0.00000048   -0.00000482   -0.00000478
     atom   16 type  3   force =     0.00000048    0.00000482    0.00000478
     atom   17 type  3   force =    -0.00003706   -0.00000292    0.00000040
     atom   18 type  3   force =     0.00003706    0.00000292   -0.00000040

     Total force =     0.003865     Total SCF correction =     0.000122


     Computing stress (Cartesian axis) and pressure

          total   stress  (Ry/bohr**3)                   (kbar)     P=        1.90
   0.00001447   0.00000028   0.00000191            2.13        0.04        0.28
   0.00000028   0.00001106  -0.00000013            0.04        1.63       -0.02
   0.00000191  -0.00000013   0.00001317            0.28       -0.02        1.94

     kinetic stress (kbar)   7801.49     -4.42    -22.26
                               -4.42   7844.59      5.67
                              -22.26      5.67   7811.74

     local   stress (kbar)  -2098.41   3597.87  -6664.56
                             3597.87  -6040.27  -4561.12
                            -6664.56  -4561.12   1094.06

     nonloc. stress (kbar)   2091.15      0.41     -2.17
                                0.41   2092.37     -0.49
                               -2.17     -0.49   2092.04

     hartree stress (kbar)   6336.35  -1717.71   3127.69
                            -1717.71   8287.02   2177.60
                             3127.69   2177.60   4838.21

     exc-cor stress (kbar)   5908.45     -0.23      0.10
                               -0.23   5909.11      0.29
                                0.10      0.29   5908.39

     corecor stress (kbar)  -9301.21      0.30     -0.34
                                0.30  -9301.76     -0.38
                               -0.34     -0.38  -9301.01

     ewald   stress (kbar) -10735.68  -1876.17   3561.82
                            -1876.17  -8789.43   2378.40
                             3561.82   2378.40 -12441.49

     hubbard stress (kbar)      0.00      0.00      0.00
                                0.00      0.00      0.00
                                0.00      0.00      0.00

     DFT-D   stress (kbar)      0.00      0.00      0.00
                                0.00      0.00      0.00
                                0.00      0.00      0.00

     XDM     stress (kbar)      0.00      0.00      0.00
                                0.00      0.00      0.00
                                0.00      0.00      0.00

     dft-nl  stress (kbar)      0.00      0.00      0.00
                                0.00      0.00      0.00
                                0.00      0.00      0.00

     TS-vdW  stress (kbar)      0.00      0.00      0.00
                                0.00      0.00      0.00
                                0.00      0.00      0.00

     MDB     stress (kbar)      0.00      0.00      0.00
                                0.00      0.00      0.00
                                0.00      0.00      0.00

     3D-RISM stress (kbar)      0.00      0.00      0.00
                                0.00      0.00      0.00
                                0.00      0.00      0.00

     Energy error            =      9.1E-05 Ry
     Gradient error          =      1.3E-03 Ry/Bohr
     Cell gradient error     =      2.1E+00 kbar

     number of scf cycles    =   2
     number of bfgs steps    =   1

     enthalpy           old  =   -1568.2377424171 Ry
     enthalpy           new  =   -1568.2378332344 Ry

     CASE: enthalpy          _new < enthalpy          _old

     new trust radius        =       0.0062661210 bohr
     new conv_thr            =       0.0000000001 Ry

     new unit-cell volume =   3021.34114 a.u.^3 (   447.71656 Ang^3 )
     density =      4.04269 g/cm^3

CELL_PARAMETERS (angstrom)
   9.239108477   0.000214581  -2.211104667
  -1.250589692   5.100955610  -7.915861191
   0.001210287  -0.000103237   9.499777658

ATOMIC_POSITIONS (crystal)
Rb               0.1243479773        0.7283909125        0.8527368510
Rb               0.8756520227        0.2716090875        0.1472631490
Rb               0.3756536362        0.2283867004        0.6040406680
Rb               0.6243463638        0.7716132996        0.3959593320
Cu               0.0245487666        0.7500051805        0.2745498163
Cu               0.9754512334        0.2499948195        0.7254501837
Cu               0.4754496267        0.7500027772        0.7254572331
Cu               0.5245503733        0.2499972228        0.2745427669
Sn               0.2500006987        0.2499983487       -0.0000013528
Sn               0.7499993013        0.7500016513        0.0000013528
S                0.0164952838        0.9190426302        0.6378678377
S                0.9835047162        0.0809573698        0.3621321623
S                0.2811725791        0.3786325717        0.3621365610
S                0.7188274209        0.6213674283        0.6378634390
S                0.4834997458        0.1213712845        0.9025405397
S                0.5165002542        0.8786287155        0.0974594603
S                0.2188287559        0.5809595722        0.0974553142
S                0.7811712441        0.4190404278        0.9025446858



     Writing config-only to output data dir ./tmp/relax/Rb2Cu2SnS4_relax.save/ :
     XML data file
     NEW-OLD atomic charge density approx. for the potential
     New effective cutoffs (rho, wfc):  718.74   89.85

     total cpu time spent up to now is      562.2 secs

     Self-consistent Calculation

     iteration #  1     ecut=    90.00 Ry     beta= 0.30
     Davidson diagonalization with overlap

---- Real-time Memory Report at c_bands before calling an iterative solver
             0 MiB given to the printing process from OS
             0 MiB allocation reported by mallinfo(arena+hblkhd)
             0 MiB available memory on the node where the printing process lives
------------------
     ethr =  1.00E-06,  avg # of iterations =  2.0

     Threshold (ethr) on eigenvalues was too large:
     Diagonalizing with lowered threshold

     Davidson diagonalization with overlap

---- Real-time Memory Report at c_bands before calling an iterative solver
             0 MiB given to the printing process from OS
             0 MiB allocation reported by mallinfo(arena+hblkhd)
             0 MiB available memory on the node where the printing process lives
------------------
     ethr =  3.35E-09,  avg # of iterations =  8.1

     total cpu time spent up to now is      621.3 secs

     total energy              =   -1568.23789530 Ry
     estimated scf accuracy    <       0.00000292 Ry

     iteration #  2     ecut=    90.00 Ry     beta= 0.30
     Davidson diagonalization with overlap

---- Real-time Memory Report at c_bands before calling an iterative solver
             0 MiB given to the printing process from OS
             0 MiB allocation reported by mallinfo(arena+hblkhd)
             0 MiB available memory on the node where the printing process lives
------------------
     ethr =  1.87E-09,  avg # of iterations =  5.4

     total cpu time spent up to now is      642.4 secs

     total energy              =   -1568.23790057 Ry
     estimated scf accuracy    <       0.00000110 Ry

     iteration #  3     ecut=    90.00 Ry     beta= 0.30
     Davidson diagonalization with overlap

---- Real-time Memory Report at c_bands before calling an iterative solver
             0 MiB given to the printing process from OS
             0 MiB allocation reported by mallinfo(arena+hblkhd)
             0 MiB available memory on the node where the printing process lives
------------------
     ethr =  7.05E-10,  avg # of iterations =  2.5

     total cpu time spent up to now is      660.5 secs

     total energy              =   -1568.23790274 Ry
     estimated scf accuracy    <       0.00000018 Ry

     iteration #  4     ecut=    90.00 Ry     beta= 0.30
     Davidson diagonalization with overlap

---- Real-time Memory Report at c_bands before calling an iterative solver
             0 MiB given to the printing process from OS
             0 MiB allocation reported by mallinfo(arena+hblkhd)
             0 MiB available memory on the node where the printing process lives
------------------
     ethr =  1.13E-10,  avg # of iterations =  5.0

     total cpu time spent up to now is      682.8 secs

     total energy              =   -1568.23790388 Ry
     estimated scf accuracy    <       0.00000010 Ry

     iteration #  5     ecut=    90.00 Ry     beta= 0.30
     Davidson diagonalization with overlap

---- Real-time Memory Report at c_bands before calling an iterative solver
             0 MiB given to the printing process from OS
             0 MiB allocation reported by mallinfo(arena+hblkhd)
             0 MiB available memory on the node where the printing process lives
------------------
     ethr =  6.22E-11,  avg # of iterations =  5.6

     total cpu time spent up to now is      705.6 secs

     total energy              =   -1568.23790451 Ry
     estimated scf accuracy    <       0.00000005 Ry

     iteration #  6     ecut=    90.00 Ry     beta= 0.30
     Davidson diagonalization with overlap

---- Real-time Memory Report at c_bands before calling an iterative solver
             0 MiB given to the printing process from OS
             0 MiB allocation reported by mallinfo(arena+hblkhd)
             0 MiB available memory on the node where the printing process lives
------------------
     ethr =  3.22E-11,  avg # of iterations =  3.1

     total cpu time spent up to now is      725.0 secs

     total energy              =   -1568.23790481 Ry
     estimated scf accuracy    <          6.6E-09 Ry

     iteration #  7     ecut=    90.00 Ry     beta= 0.30
     Davidson diagonalization with overlap

---- Real-time Memory Report at c_bands before calling an iterative solver
             0 MiB given to the printing process from OS
             0 MiB allocation reported by mallinfo(arena+hblkhd)
             0 MiB available memory on the node where the printing process lives
------------------
     ethr =  4.24E-12,  avg # of iterations =  4.8

     total cpu time spent up to now is      747.8 secs

     total energy              =   -1568.23790495 Ry
     estimated scf accuracy    <          3.3E-09 Ry

     iteration #  8     ecut=    90.00 Ry     beta= 0.30
     Davidson diagonalization with overlap

---- Real-time Memory Report at c_bands before calling an iterative solver
             0 MiB given to the printing process from OS
             0 MiB allocation reported by mallinfo(arena+hblkhd)
             0 MiB available memory on the node where the printing process lives
------------------
     ethr =  2.12E-12,  avg # of iterations =  2.9

     total cpu time spent up to now is      767.1 secs

     total energy              =   -1568.23790502 Ry
     estimated scf accuracy    <          1.6E-09 Ry

     iteration #  9     ecut=    90.00 Ry     beta= 0.30
     Davidson diagonalization with overlap

---- Real-time Memory Report at c_bands before calling an iterative solver
             0 MiB given to the printing process from OS
             0 MiB allocation reported by mallinfo(arena+hblkhd)
             0 MiB available memory on the node where the printing process lives
------------------
     ethr =  1.01E-12,  avg # of iterations =  5.2

     total cpu time spent up to now is      788.5 secs

     total energy              =   -1568.23790506 Ry
     estimated scf accuracy    <          2.5E-10 Ry

     iteration # 10     ecut=    90.00 Ry     beta= 0.30
     Davidson diagonalization with overlap

---- Real-time Memory Report at c_bands before calling an iterative solver
             0 MiB given to the printing process from OS
             0 MiB allocation reported by mallinfo(arena+hblkhd)
             0 MiB available memory on the node where the printing process lives
------------------
     ethr =  1.61E-13,  avg # of iterations =  3.7

     total cpu time spent up to now is      807.6 secs

     End of self-consistent calculation

          k = 0.0000 0.0000 0.0000 ( 43377 PWs)   bands (ev):

   -20.7384 -20.7132 -20.7094 -20.6844 -15.6921 -15.6920 -15.6831 -15.6830
   -15.6778 -15.6777 -15.6184 -15.6184 -15.6032 -15.6029  -7.2466  -6.9171
    -6.5960  -6.2756  -6.1075  -6.1060  -6.1046  -5.8751  -5.1008  -5.0239
    -4.8610  -4.8556  -4.8005  -4.7871  -4.7468  -4.7466  -4.7045  -4.6791
    -4.6778  -4.6028  -1.0412  -0.8386   1.5421   1.6392   1.8644   2.0094
     2.0818   2.1506   2.1947   2.5258   2.8745   2.9954   3.1192   3.1632
     3.2917   3.2984   3.3917   3.3979   3.4159   3.4469   3.5673   3.6711
     3.7970   3.8135   4.5452   4.5920   4.8121   4.8167   4.8243   4.9233
     4.9428   5.1639   5.2558   5.2837   5.3202   5.3836   5.4880   5.5837
     5.6859   5.8682   6.0023   6.1588   6.1983   6.2570

     occupation numbers 
     1.0000   1.0000   1.0000   1.0000   1.0000   1.0000   1.0000   1.0000
     1.0000   1.0000   1.0000   1.0000   1.0000   1.0000   1.0000   1.0000
     1.0000   1.0000   1.0000   1.0000   1.0000   1.0000   1.0000   1.0000
     1.0000   1.0000   1.0000   1.0000   1.0000   1.0000   1.0000   1.0000
     1.0000   1.0000   1.0000   1.0000   1.0000   1.0000   1.0000   1.0000
     1.0000   1.0000   1.0000   1.0000   1.0000   1.0000   1.0000   1.0000
     1.0000   1.0000   1.0000   1.0000   1.0000   1.0000   1.0000   1.0000
     1.0000   1.0000   1.0000   1.0000   1.0000   1.0000   1.0000   1.0000
     1.0000   1.0000   1.0000   1.0000   1.0000   1.0000   1.0000   1.0000
     1.0000   1.0000   1.0000   1.0000   1.0000   1.0000

          k = 0.0598 0.4022 0.2497 ( 43439 PWs)   bands (ev):

   -20.7296 -20.7189 -20.7030 -20.6926 -15.6921 -15.6920 -15.6833 -15.6832
   -15.6779 -15.6778 -15.6182 -15.6182 -15.6031 -15.6030  -7.1480  -6.9496
    -6.4045  -6.2616  -6.2268  -6.1959  -6.1677  -5.9865  -5.0222  -4.9386
    -4.8607  -4.8190  -4.7972  -4.7877  -4.7755  -4.7751  -4.7444  -4.6838
    -4.6737  -4.6622  -0.9850  -0.8341   1.3466   1.5198   1.6462   1.9556
     2.0533   2.2148   2.4408   2.6186   2.6825   2.9644   3.0590   3.2112
     3.2560   3.2879   3.2997   3.3867   3.3943   3.5242   3.6821   3.7211
     3.7622   3.8278   4.6530   4.7093   4.7946   4.8468   4.8984   4.9585
     4.9833   5.0913   5.1879   5.2220   5.2372   5.3967   5.6941   5.7426
     5.7932   5.9132   6.0066   6.0845   6.1411   6.2537

     occupation numbers 
     1.0000   1.0000   1.0000   1.0000   1.0000   1.0000   1.0000   1.0000
     1.0000   1.0000   1.0000   1.0000   1.0000   1.0000   1.0000   1.0000
     1.0000   1.0000   1.0000   1.0000   1.0000   1.0000   1.0000   1.0000
     1.0000   1.0000   1.0000   1.0000   1.0000   1.0000   1.0000   1.0000
     1.0000   1.0000   1.0000   1.0000   1.0000   1.0000   1.0000   1.0000
     1.0000   1.0000   1.0000   1.0000   1.0000   1.0000   1.0000   1.0000
     1.0000   1.0000   1.0000   1.0000   1.0000   1.0000   1.0000   1.0000
     1.0000   1.0000   1.0000   1.0000   1.0000   1.0000   1.0000   1.0000
     1.0000   1.0000   1.0000   1.0000   1.0000   1.0000   1.0000   1.0000
     1.0000   1.0000   1.0000   1.0000   1.0000   1.0000

          k =-0.1195-0.8044-0.4995 ( 43366 PWs)   bands (ev):

   -20.7168 -20.7168 -20.7046 -20.7045 -15.6920 -15.6920 -15.6834 -15.6834
   -15.6780 -15.6780 -15.6180 -15.6180 -15.6030 -15.6030  -7.0192  -6.9314
    -6.4262  -6.3106  -6.2827  -6.2404  -6.1163  -6.0553  -4.9436  -4.9326
    -4.9165  -4.8360  -4.8213  -4.8066  -4.7928  -4.7819  -4.7068  -4.6985
    -4.6760  -4.6541  -0.9171  -0.8350   1.2501   1.4076   1.5243   1.7581
     2.1452   2.3315   2.4139   2.4201   2.7586   2.9792   3.0566   3.2269
     3.2276   3.3087   3.3410   3.3660   3.4004   3.5544   3.6770   3.7208
     3.8052   3.8205   4.7391   4.8095   4.8240   4.8650   4.9678   4.9891
     5.0287   5.0519   5.1297   5.1778   5.1964   5.3193   5.7503   5.9199
     5.9457   5.9998   6.0663   6.1038   6.1374   6.1714

     occupation numbers 
     1.0000   1.0000   1.0000   1.0000   1.0000   1.0000   1.0000   1.0000
     1.0000   1.0000   1.0000   1.0000   1.0000   1.0000   1.0000   1.0000
     1.0000   1.0000   1.0000   1.0000   1.0000   1.0000   1.0000   1.0000
     1.0000   1.0000   1.0000   1.0000   1.0000   1.0000   1.0000   1.0000
     1.0000   1.0000   1.0000   1.0000   1.0000   1.0000   1.0000   1.0000
     1.0000   1.0000   1.0000   1.0000   1.0000   1.0000   1.0000   1.0000
     1.0000   1.0000   1.0000   1.0000   1.0000   1.0000   1.0000   1.0000
     1.0000   1.0000   1.0000   1.0000   1.0000   1.0000   1.0000   1.0000
     1.0000   1.0000   1.0000   1.0000   1.0000   1.0000   1.0000   1.0000
     1.0000   1.0000   1.0000   1.0000   1.0000   1.0000

          k =-0.0000 0.4651 0.0000 ( 43455 PWs)   bands (ev):

   -20.7311 -20.7132 -20.7087 -20.6911 -15.6921 -15.6920 -15.6833 -15.6832
   -15.6779 -15.6778 -15.6182 -15.6182 -15.6031 -15.6030  -7.1725  -6.8879
    -6.5079  -6.2296  -6.2105  -6.1813  -6.1531  -5.9936  -5.0475  -4.9262
    -4.8591  -4.8489  -4.7860  -4.7688  -4.7659  -4.7590  -4.7404  -4.6891
    -4.6872  -4.6657  -0.9938  -0.8261   1.3229   1.4933   1.7342   1.9990
     2.0356   2.1768   2.3922   2.5956   2.6603   3.0646   3.0692   3.1390
     3.2791   3.3133   3.3418   3.3514   3.4303   3.4770   3.6239   3.7231
     3.8152   3.8201   4.6586   4.7025   4.7756   4.8622   4.9095   4.9548
     4.9801   5.1123   5.1455   5.2340   5.2433   5.4070   5.6682   5.8106
     5.8203   5.9249   5.9853   6.0762   6.1042   6.1871

     occupation numbers 
     1.0000   1.0000   1.0000   1.0000   1.0000   1.0000   1.0000   1.0000
     1.0000   1.0000   1.0000   1.0000   1.0000   1.0000   1.0000   1.0000
     1.0000   1.0000   1.0000   1.0000   1.0000   1.0000   1.0000   1.0000
     1.0000   1.0000   1.0000   1.0000   1.0000   1.0000   1.0000   1.0000
     1.0000   1.0000   1.0000   1.0000   1.0000   1.0000   1.0000   1.0000
     1.0000   1.0000   1.0000   1.0000   1.0000   1.0000   1.0000   1.0000
     1.0000   1.0000   1.0000   1.0000   1.0000   1.0000   1.0000   1.0000
     1.0000   1.0000   1.0000   1.0000   1.0000   1.0000   1.0000   1.0000
     1.0000   1.0000   1.0000   1.0000   1.0000   1.0000   1.0000   1.0000
     1.0000   1.0000   1.0000   1.0000   1.0000   1.0000

          k = 0.0598 0.8674 0.2498 ( 43432 PWs)   bands (ev):

   -20.7168 -20.7168 -20.7046 -20.7045 -15.6920 -15.6920 -15.6834 -15.6834
   -15.6780 -15.6780 -15.6180 -15.6180 -15.6030 -15.6030  -7.0077  -6.9478
    -6.4281  -6.3372  -6.2510  -6.1894  -6.1368  -6.0841  -4.9449  -4.9398
    -4.8922  -4.8556  -4.8289  -4.8136  -4.7841  -4.7687  -4.7377  -4.7146
    -4.6463  -4.6400  -0.9061  -0.8478   1.2197   1.3487   1.6840   1.8243
     2.1357   2.2675   2.3201   2.3455   2.8674   2.9839   3.1032   3.1801
     3.2319   3.2704   3.2901   3.3336   3.4432   3.5725   3.7063   3.7419
     3.7804   3.8327   4.7543   4.8027   4.8201   4.8601   4.9590   4.9847
     4.9953   5.0262   5.1637   5.2007   5.2327   5.3044   5.7958   5.9109
     5.9606   6.0000   6.0425   6.1049   6.1320   6.1934

     occupation numbers 
     1.0000   1.0000   1.0000   1.0000   1.0000   1.0000   1.0000   1.0000
     1.0000   1.0000   1.0000   1.0000   1.0000   1.0000   1.0000   1.0000
     1.0000   1.0000   1.0000   1.0000   1.0000   1.0000   1.0000   1.0000
     1.0000   1.0000   1.0000   1.0000   1.0000   1.0000   1.0000   1.0000
     1.0000   1.0000   1.0000   1.0000   1.0000   1.0000   1.0000   1.0000
     1.0000   1.0000   1.0000   1.0000   1.0000   1.0000   1.0000   1.0000
     1.0000   1.0000   1.0000   1.0000   1.0000   1.0000   1.0000   1.0000
     1.0000   1.0000   1.0000   1.0000   1.0000   1.0000   1.0000   1.0000
     1.0000   1.0000   1.0000   1.0000   1.0000   1.0000   1.0000   1.0000
     1.0000   1.0000   1.0000   1.0000   1.0000   1.0000

          k =-0.1195-0.3393-0.4995 ( 43424 PWs)   bands (ev):

   -20.7253 -20.7252 -20.6968 -20.6968 -15.6920 -15.6920 -15.6833 -15.6833
   -15.6779 -15.6779 -15.6182 -15.6182 -15.6030 -15.6030  -7.0819  -7.0702
    -6.3614  -6.2862  -6.2040  -6.1688  -6.1125  -6.0089  -4.9864  -4.9696
    -4.8508  -4.8375  -4.8311  -4.8017  -4.7889  -4.7835  -4.7307  -4.7120
    -4.6562  -4.6523  -0.9346  -0.8893   1.4606   1.5249   1.6271   1.7692
     2.2095   2.3055   2.4176   2.4693   2.7938   2.9215   3.0138   3.1437
     3.2129   3.2497   3.3174   3.4078   3.4295   3.6000   3.7145   3.7492
     3.7689   3.8035   4.6570   4.6954   4.8108   4.8277   4.9061   4.9340
     5.0336   5.0479   5.2052   5.2291   5.2730   5.3331   5.6779   5.7330
     5.8156   5.9079   5.9993   6.0198   6.2308   6.2766

     occupation numbers 
     1.0000   1.0000   1.0000   1.0000   1.0000   1.0000   1.0000   1.0000
     1.0000   1.0000   1.0000   1.0000   1.0000   1.0000   1.0000   1.0000
     1.0000   1.0000   1.0000   1.0000   1.0000   1.0000   1.0000   1.0000
     1.0000   1.0000   1.0000   1.0000   1.0000   1.0000   1.0000   1.0000
     1.0000   1.0000   1.0000   1.0000   1.0000   1.0000   1.0000   1.0000
     1.0000   1.0000   1.0000   1.0000   1.0000   1.0000   1.0000   1.0000
     1.0000   1.0000   1.0000   1.0000   1.0000   1.0000   1.0000   1.0000
     1.0000   1.0000   1.0000   1.0000   1.0000   1.0000   1.0000   1.0000
     1.0000   1.0000   1.0000   1.0000   1.0000   1.0000   1.0000   1.0000
     1.0000   1.0000   1.0000   1.0000   1.0000   1.0000

          k =-0.0598 0.0629-0.2497 ( 43427 PWs)   bands (ev):

   -20.7364 -20.7218 -20.7008 -20.6864 -15.6921 -15.6920 -15.6831 -15.6830
   -15.6778 -15.6777 -15.6184 -15.6184 -15.6031 -15.6030  -7.2264  -7.0222
    -6.4766  -6.2408  -6.1631  -6.1316  -6.0494  -5.8934  -5.0685  -5.0150
    -4.9132  -4.8731  -4.8040  -4.7636  -4.7476  -4.7420  -4.7024  -4.6870
    -4.6813  -4.6262  -1.0164  -0.8696   1.5719   1.7066   1.8165   1.9903
     2.0384   2.0874   2.3021   2.7070   2.8306   2.8906   3.0190   3.1863
     3.2213   3.2431   3.3717   3.3918   3.5443   3.5665   3.5870   3.6709
     3.7573   3.8061   4.5472   4.5825   4.8143   4.8213   4.8519   4.9241
     4.9388   5.0706   5.2766   5.3231   5.3539   5.3698   5.4514   5.5577
     5.7326   5.8752   6.0190   6.0482   6.1654   6.2183

     occupation numbers 
     1.0000   1.0000   1.0000   1.0000   1.0000   1.0000   1.0000   1.0000
     1.0000   1.0000   1.0000   1.0000   1.0000   1.0000   1.0000   1.0000
     1.0000   1.0000   1.0000   1.0000   1.0000   1.0000   1.0000   1.0000
     1.0000   1.0000   1.0000   1.0000   1.0000   1.0000   1.0000   1.0000
     1.0000   1.0000   1.0000   1.0000   1.0000   1.0000   1.0000   1.0000
     1.0000   1.0000   1.0000   1.0000   1.0000   1.0000   1.0000   1.0000
     1.0000   1.0000   1.0000   1.0000   1.0000   1.0000   1.0000   1.0000
     1.0000   1.0000   1.0000   1.0000   1.0000   1.0000   1.0000   1.0000
     1.0000   1.0000   1.0000   1.0000   1.0000   1.0000   1.0000   1.0000
     1.0000   1.0000   1.0000   1.0000   1.0000   1.0000

          k = 0.0000-0.9303-0.0000 ( 43450 PWs)   bands (ev):

   -20.7168 -20.7168 -20.7046 -20.7045 -15.6920 -15.6920 -15.6834 -15.6834
   -15.6780 -15.6780 -15.6180 -15.6180 -15.6030 -15.6030  -6.9800  -6.9800
    -6.3956  -6.3952  -6.1737  -6.1737  -6.1414  -6.1410  -4.9491  -4.9490
    -4.8728  -4.8727  -4.8224  -4.8224  -4.7664  -4.7664  -4.7434  -4.7434
    -4.6298  -4.6297  -0.8780  -0.8780   1.2512   1.2513   1.9487   1.9488
     2.0399   2.0403   2.2891   2.2892   3.0099   3.0100   3.1123   3.1126
     3.2090   3.2095   3.2954   3.2956   3.5319   3.5320   3.7456   3.7459
     3.8020   3.8022   4.7845   4.7848   4.8341   4.8344   4.9581   4.9583
     4.9970   4.9972   5.2185   5.2187   5.2624   5.2625   5.8804   5.8808
     5.9552   5.9555   6.0874   6.0877   6.1694   6.1695

     occupation numbers 
     1.0000   1.0000   1.0000   1.0000   1.0000   1.0000   1.0000   1.0000
     1.0000   1.0000   1.0000   1.0000   1.0000   1.0000   1.0000   1.0000
     1.0000   1.0000   1.0000   1.0000   1.0000   1.0000   1.0000   1.0000
     1.0000   1.0000   1.0000   1.0000   1.0000   1.0000   1.0000   1.0000
     1.0000   1.0000   1.0000   1.0000   1.0000   1.0000   1.0000   1.0000
     1.0000   1.0000   1.0000   1.0000   1.0000   1.0000   1.0000   1.0000
     1.0000   1.0000   1.0000   1.0000   1.0000   1.0000   1.0000   1.0000
     1.0000   1.0000   1.0000   1.0000   1.0000   1.0000   1.0000   1.0000
     1.0000   1.0000   1.0000   1.0000   1.0000   1.0000   1.0000   1.0000
     1.0000   1.0000   1.0000   1.0000   1.0000   1.0000

          k = 0.0598-0.5280 0.2497 ( 43437 PWs)   bands (ev):

   -20.7296 -20.7189 -20.7030 -20.6926 -15.6921 -15.6920 -15.6833 -15.6832
   -15.6779 -15.6778 -15.6182 -15.6182 -15.6031 -15.6030  -7.1504  -6.9748
    -6.4668  -6.2208  -6.1952  -6.1692  -6.0861  -6.0269  -5.0224  -4.9458
    -4.8700  -4.8572  -4.7973  -4.7875  -4.7783  -4.7734  -4.7483  -4.7004
    -4.6669  -4.6562  -0.9568  -0.8679   1.4242   1.4842   1.7106   1.8441
     2.1300   2.2752   2.3819   2.5851   2.6442   3.0151   3.0452   3.1008
     3.2327   3.2909   3.3304   3.3902   3.4265   3.5570   3.6992   3.7072
     3.7939   3.8437   4.6682   4.6826   4.7785   4.8578   4.9158   4.9387
     5.0008   5.0773   5.1746   5.2370   5.2808   5.3448   5.6642   5.7700
     5.8586   5.9008   5.9872   6.0143   6.1997   6.2223

     occupation numbers 
     1.0000   1.0000   1.0000   1.0000   1.0000   1.0000   1.0000   1.0000
     1.0000   1.0000   1.0000   1.0000   1.0000   1.0000   1.0000   1.0000
     1.0000   1.0000   1.0000   1.0000   1.0000   1.0000   1.0000   1.0000
     1.0000   1.0000   1.0000   1.0000   1.0000   1.0000   1.0000   1.0000
     1.0000   1.0000   1.0000   1.0000   1.0000   1.0000   1.0000   1.0000
     1.0000   1.0000   1.0000   1.0000   1.0000   1.0000   1.0000   1.0000
     1.0000   1.0000   1.0000   1.0000   1.0000   1.0000   1.0000   1.0000
     1.0000   1.0000   1.0000   1.0000   1.0000   1.0000   1.0000   1.0000
     1.0000   1.0000   1.0000   1.0000   1.0000   1.0000   1.0000   1.0000
     1.0000   1.0000   1.0000   1.0000   1.0000   1.0000

          k =-0.1195-1.7347-0.4995 ( 43432 PWs)   bands (ev):

   -20.7305 -20.7305 -20.6922 -20.6922 -15.6920 -15.6920 -15.6831 -15.6831
   -15.6777 -15.6777 -15.6184 -15.6184 -15.6031 -15.6031  -7.1539  -7.1536
    -6.3030  -6.3028  -6.1734  -6.1730  -5.9586  -5.9582  -5.0110  -5.0109
    -4.9398  -4.9398  -4.7702  -4.7702  -4.7460  -4.7459  -4.7016  -4.7015
    -4.6629  -4.6628  -0.9463  -0.9462   1.6907   1.6912   1.8235   1.8236
     2.0779   2.0779   2.5642   2.5645   2.8770   2.8773   3.0011   3.0015
     3.2191   3.2193   3.4002   3.4006   3.5969   3.5972   3.6820   3.6823
     3.7462   3.7466   4.5607   4.5616   4.8183   4.8192   4.9298   4.9306
     4.9454   4.9459   5.3294   5.3303   5.3404   5.3413   5.4905   5.4910
     5.8120   5.8127   6.0327   6.0334   6.1571   6.1576

     occupation numbers 
     1.0000   1.0000   1.0000   1.0000   1.0000   1.0000   1.0000   1.0000
     1.0000   1.0000   1.0000   1.0000   1.0000   1.0000   1.0000   1.0000
     1.0000   1.0000   1.0000   1.0000   1.0000   1.0000   1.0000   1.0000
     1.0000   1.0000   1.0000   1.0000   1.0000   1.0000   1.0000   1.0000
     1.0000   1.0000   1.0000   1.0000   1.0000   1.0000   1.0000   1.0000
     1.0000   1.0000   1.0000   1.0000   1.0000   1.0000   1.0000   1.0000
     1.0000   1.0000   1.0000   1.0000   1.0000   1.0000   1.0000   1.0000
     1.0000   1.0000   1.0000   1.0000   1.0000   1.0000   1.0000   1.0000
     1.0000   1.0000   1.0000   1.0000   1.0000   1.0000   1.0000   1.0000
     1.0000   1.0000   1.0000   1.0000   1.0000   1.0000

          k =-0.5136-0.1258 0.0001 ( 43432 PWs)   bands (ev):

   -20.7305 -20.7305 -20.6922 -20.6922 -15.6920 -15.6920 -15.6831 -15.6831
   -15.6777 -15.6777 -15.6184 -15.6184 -15.6031 -15.6031  -7.1539  -7.1536
    -6.3030  -6.3028  -6.1734  -6.1731  -5.9586  -5.9582  -5.0110  -5.0109
    -4.9398  -4.9398  -4.7702  -4.7702  -4.7460  -4.7459  -4.7016  -4.7015
    -4.6629  -4.6628  -0.9462  -0.9462   1.6907   1.6912   1.8235   1.8236
     2.0779   2.0779   2.5643   2.5644   2.8770   2.8772   3.0011   3.0015
     3.2192   3.2194   3.4003   3.4006   3.5969   3.5971   3.6820   3.6823
     3.7462   3.7466   4.5607   4.5616   4.8183   4.8192   4.9298   4.9306
     4.9454   4.9459   5.3295   5.3304   5.3403   5.3411   5.4906   5.4911
     5.8121   5.8129   6.0326   6.0331   6.1570   6.1577

     occupation numbers 
     1.0000   1.0000   1.0000   1.0000   1.0000   1.0000   1.0000   1.0000
     1.0000   1.0000   1.0000   1.0000   1.0000   1.0000   1.0000   1.0000
     1.0000   1.0000   1.0000   1.0000   1.0000   1.0000   1.0000   1.0000
     1.0000   1.0000   1.0000   1.0000   1.0000   1.0000   1.0000   1.0000
     1.0000   1.0000   1.0000   1.0000   1.0000   1.0000   1.0000   1.0000
     1.0000   1.0000   1.0000   1.0000   1.0000   1.0000   1.0000   1.0000
     1.0000   1.0000   1.0000   1.0000   1.0000   1.0000   1.0000   1.0000
     1.0000   1.0000   1.0000   1.0000   1.0000   1.0000   1.0000   1.0000
     1.0000   1.0000   1.0000   1.0000   1.0000   1.0000   1.0000   1.0000
     1.0000   1.0000   1.0000   1.0000   1.0000   1.0000

          k =-0.4538 0.2764 0.2498 ( 43437 PWs)   bands (ev):

   -20.7296 -20.7189 -20.7030 -20.6926 -15.6921 -15.6920 -15.6833 -15.6832
   -15.6779 -15.6778 -15.6182 -15.6182 -15.6031 -15.6030  -7.1504  -6.9748
    -6.4668  -6.2208  -6.1955  -6.1690  -6.0859  -6.0270  -5.0224  -4.9458
    -4.8700  -4.8572  -4.7973  -4.7875  -4.7783  -4.7734  -4.7482  -4.7004
    -4.6669  -4.6562  -0.9568  -0.8679   1.4241   1.4842   1.7106   1.8441
     2.1300   2.2751   2.3818   2.5852   2.6443   3.0152   3.0453   3.1005
     3.2325   3.2910   3.3307   3.3900   3.4265   3.5567   3.6994   3.7073
     3.7941   3.8434   4.6690   4.6817   4.7786   4.8580   4.9155   4.9387
     5.0008   5.0773   5.1746   5.2372   5.2808   5.3446   5.6642   5.7701
     5.8587   5.9007   5.9871   6.0139   6.1996   6.2227

     occupation numbers 
     1.0000   1.0000   1.0000   1.0000   1.0000   1.0000   1.0000   1.0000
     1.0000   1.0000   1.0000   1.0000   1.0000   1.0000   1.0000   1.0000
     1.0000   1.0000   1.0000   1.0000   1.0000   1.0000   1.0000   1.0000
     1.0000   1.0000   1.0000   1.0000   1.0000   1.0000   1.0000   1.0000
     1.0000   1.0000   1.0000   1.0000   1.0000   1.0000   1.0000   1.0000
     1.0000   1.0000   1.0000   1.0000   1.0000   1.0000   1.0000   1.0000
     1.0000   1.0000   1.0000   1.0000   1.0000   1.0000   1.0000   1.0000
     1.0000   1.0000   1.0000   1.0000   1.0000   1.0000   1.0000   1.0000
     1.0000   1.0000   1.0000   1.0000   1.0000   1.0000   1.0000   1.0000
     1.0000   1.0000   1.0000   1.0000   1.0000   1.0000

          k =-0.6331-0.9303-0.4994 ( 43450 PWs)   bands (ev):

   -20.7168 -20.7168 -20.7046 -20.7045 -15.6920 -15.6920 -15.6834 -15.6834
   -15.6780 -15.6780 -15.6180 -15.6180 -15.6030 -15.6030  -6.9800  -6.9799
    -6.3957  -6.3956  -6.1732  -6.1731  -6.1415  -6.1415  -4.9491  -4.9490
    -4.8728  -4.8727  -4.8224  -4.8224  -4.7664  -4.7664  -4.7434  -4.7433
    -4.6298  -4.6298  -0.8780  -0.8780   1.2512   1.2513   1.9487   1.9488
     2.0399   2.0403   2.2891   2.2892   3.0102   3.0104   3.1121   3.1123
     3.2089   3.2093   3.2954   3.2956   3.5318   3.5320   3.7458   3.7461
     3.8019   3.8022   4.7844   4.7847   4.8343   4.8347   4.9579   4.9581
     4.9970   4.9972   5.2185   5.2187   5.2625   5.2626   5.8800   5.8803
     5.9556   5.9560   6.0872   6.0874   6.1695   6.1697

     occupation numbers 
     1.0000   1.0000   1.0000   1.0000   1.0000   1.0000   1.0000   1.0000
     1.0000   1.0000   1.0000   1.0000   1.0000   1.0000   1.0000   1.0000
     1.0000   1.0000   1.0000   1.0000   1.0000   1.0000   1.0000   1.0000
     1.0000   1.0000   1.0000   1.0000   1.0000   1.0000   1.0000   1.0000
     1.0000   1.0000   1.0000   1.0000   1.0000   1.0000   1.0000   1.0000
     1.0000   1.0000   1.0000   1.0000   1.0000   1.0000   1.0000   1.0000
     1.0000   1.0000   1.0000   1.0000   1.0000   1.0000   1.0000   1.0000
     1.0000   1.0000   1.0000   1.0000   1.0000   1.0000   1.0000   1.0000
     1.0000   1.0000   1.0000   1.0000   1.0000   1.0000   1.0000   1.0000
     1.0000   1.0000   1.0000   1.0000   1.0000   1.0000

          k =-0.5136 0.3393 0.0001 ( 43424 PWs)   bands (ev):

   -20.7253 -20.7252 -20.6968 -20.6968 -15.6920 -15.6920 -15.6833 -15.6833
   -15.6779 -15.6779 -15.6182 -15.6182 -15.6030 -15.6030  -7.0819  -7.0702
    -6.3615  -6.2860  -6.2041  -6.1689  -6.1124  -6.0090  -4.9864  -4.9695
    -4.8508  -4.8375  -4.8312  -4.8017  -4.7889  -4.7835  -4.7307  -4.7119
    -4.6562  -4.6523  -0.9346  -0.8893   1.4606   1.5248   1.6271   1.7693
     2.2096   2.3055   2.4175   2.4693   2.7938   2.9215   3.0139   3.1437
     3.2129   3.2494   3.3176   3.4078   3.4294   3.5999   3.7146   3.7495
     3.7687   3.8034   4.6570   4.6954   4.8108   4.8277   4.9061   4.9340
     5.0335   5.0480   5.2053   5.2291   5.2729   5.3331   5.6779   5.7331
     5.8156   5.9081   5.9991   6.0197   6.2307   6.2767

     occupation numbers 
     1.0000   1.0000   1.0000   1.0000   1.0000   1.0000   1.0000   1.0000
     1.0000   1.0000   1.0000   1.0000   1.0000   1.0000   1.0000   1.0000
     1.0000   1.0000   1.0000   1.0000   1.0000   1.0000   1.0000   1.0000
     1.0000   1.0000   1.0000   1.0000   1.0000   1.0000   1.0000   1.0000
     1.0000   1.0000   1.0000   1.0000   1.0000   1.0000   1.0000   1.0000
     1.0000   1.0000   1.0000   1.0000   1.0000   1.0000   1.0000   1.0000
     1.0000   1.0000   1.0000   1.0000   1.0000   1.0000   1.0000   1.0000
     1.0000   1.0000   1.0000   1.0000   1.0000   1.0000   1.0000   1.0000
     1.0000   1.0000   1.0000   1.0000   1.0000   1.0000   1.0000   1.0000
     1.0000   1.0000   1.0000   1.0000   1.0000   1.0000

          k =-0.4538 0.7415 0.2498 ( 43432 PWs)   bands (ev):

   -20.7168 -20.7168 -20.7046 -20.7045 -15.6920 -15.6920 -15.6834 -15.6834
   -15.6780 -15.6780 -15.6180 -15.6180 -15.6030 -15.6030  -7.0077  -6.9478
    -6.4283  -6.3373  -6.2508  -6.1892  -6.1367  -6.0843  -4.9449  -4.9397
    -4.8922  -4.8556  -4.8289  -4.8136  -4.7841  -4.7687  -4.7377  -4.7146
    -4.6463  -4.6400  -0.9061  -0.8478   1.2198   1.3487   1.6840   1.8244
     2.1357   2.2674   2.3200   2.3455   2.8675   2.9840   3.1032   3.1800
     3.2320   3.2700   3.2901   3.3337   3.4432   3.5725   3.7065   3.7419
     3.7803   3.8326   4.7543   4.8026   4.8203   4.8603   4.9589   4.9847
     4.9952   5.0262   5.1637   5.2008   5.2327   5.3045   5.7957   5.9107
     5.9611   6.0001   6.0424   6.1045   6.1322   6.1935

     occupation numbers 
     1.0000   1.0000   1.0000   1.0000   1.0000   1.0000   1.0000   1.0000
     1.0000   1.0000   1.0000   1.0000   1.0000   1.0000   1.0000   1.0000
     1.0000   1.0000   1.0000   1.0000   1.0000   1.0000   1.0000   1.0000
     1.0000   1.0000   1.0000   1.0000   1.0000   1.0000   1.0000   1.0000
     1.0000   1.0000   1.0000   1.0000   1.0000   1.0000   1.0000   1.0000
     1.0000   1.0000   1.0000   1.0000   1.0000   1.0000   1.0000   1.0000
     1.0000   1.0000   1.0000   1.0000   1.0000   1.0000   1.0000   1.0000
     1.0000   1.0000   1.0000   1.0000   1.0000   1.0000   1.0000   1.0000
     1.0000   1.0000   1.0000   1.0000   1.0000   1.0000   1.0000   1.0000
     1.0000   1.0000   1.0000   1.0000   1.0000   1.0000

          k =-0.6331-0.4651-0.4994 ( 43453 PWs)   bands (ev):

   -20.7311 -20.7132 -20.7087 -20.6911 -15.6921 -15.6920 -15.6833 -15.6832
   -15.6779 -15.6778 -15.6182 -15.6182 -15.6031 -15.6029  -7.1812  -6.9368
    -6.5684  -6.1905  -6.1465  -6.0875  -6.0833  -6.0384  -5.0436  -4.9490
    -4.8979  -4.8837  -4.7947  -4.7896  -4.7714  -4.7671  -4.7280  -4.7061
    -4.6872  -4.6556  -0.9575  -0.8729   1.4405   1.4574   1.8319   1.9192
     2.0459   2.2812   2.3246   2.5837   2.6314   2.9479   3.0542   3.1183
     3.2257   3.2485   3.3232   3.3915   3.4586   3.6194   3.6524   3.6913
     3.7716   3.9566   4.6546   4.6871   4.7505   4.8858   4.9231   4.9402
     5.0051   5.0741   5.1397   5.2472   5.3120   5.3289   5.6282   5.7664
     5.8290   5.9866   6.0051   6.0490   6.1121   6.1997

     occupation numbers 
     1.0000   1.0000   1.0000   1.0000   1.0000   1.0000   1.0000   1.0000
     1.0000   1.0000   1.0000   1.0000   1.0000   1.0000   1.0000   1.0000
     1.0000   1.0000   1.0000   1.0000   1.0000   1.0000   1.0000   1.0000
     1.0000   1.0000   1.0000   1.0000   1.0000   1.0000   1.0000   1.0000
     1.0000   1.0000   1.0000   1.0000   1.0000   1.0000   1.0000   1.0000
     1.0000   1.0000   1.0000   1.0000   1.0000   1.0000   1.0000   1.0000
     1.0000   1.0000   1.0000   1.0000   1.0000   1.0000   1.0000   1.0000
     1.0000   1.0000   1.0000   1.0000   1.0000   1.0000   1.0000   1.0000
     1.0000   1.0000   1.0000   1.0000   1.0000   1.0000   1.0000   1.0000
     1.0000   1.0000   1.0000   1.0000   1.0000   1.0000

          k =-0.5733-0.0629-0.2497 ( 43489 PWs)   bands (ev):

   -20.7363 -20.7218 -20.7008 -20.6864 -15.6921 -15.6920 -15.6831 -15.6830
   -15.6778 -15.6777 -15.6184 -15.6184 -15.6031 -15.6030  -7.2635  -7.0191
    -6.5033  -6.1594  -6.1323  -6.1293  -5.9859  -5.9398  -5.0633  -5.0208
    -4.9119  -4.8930  -4.8018  -4.7903  -4.7457  -4.7389  -4.7049  -4.6898
    -4.6809  -4.6747  -1.0016  -0.9009   1.6384   1.6847   1.8010   1.9991
     2.0536   2.1515   2.4961   2.6757   2.7073   2.8190   2.9900   3.1430
     3.1869   3.2700   3.3151   3.4360   3.4546   3.5815   3.5957   3.7032
     3.7142   4.0229   4.5462   4.5717   4.8120   4.8258   4.8642   4.9071
     4.9735   5.0501   5.2718   5.3173   5.3576   5.3879   5.3915   5.5578
     5.6375   5.9282   5.9939   6.0701   6.1604   6.1983

     occupation numbers 
     1.0000   1.0000   1.0000   1.0000   1.0000   1.0000   1.0000   1.0000
     1.0000   1.0000   1.0000   1.0000   1.0000   1.0000   1.0000   1.0000
     1.0000   1.0000   1.0000   1.0000   1.0000   1.0000   1.0000   1.0000
     1.0000   1.0000   1.0000   1.0000   1.0000   1.0000   1.0000   1.0000
     1.0000   1.0000   1.0000   1.0000   1.0000   1.0000   1.0000   1.0000
     1.0000   1.0000   1.0000   1.0000   1.0000   1.0000   1.0000   1.0000
     1.0000   1.0000   1.0000   1.0000   1.0000   1.0000   1.0000   1.0000
     1.0000   1.0000   1.0000   1.0000   1.0000   1.0000   1.0000   1.0000
     1.0000   1.0000   1.0000   1.0000   1.0000   1.0000   1.0000   1.0000
     1.0000   1.0000   1.0000   1.0000   1.0000   1.0000

          k =-0.5136-1.0561 0.0001 ( 43366 PWs)   bands (ev):

   -20.7168 -20.7168 -20.7046 -20.7045 -15.6920 -15.6920 -15.6834 -15.6834
   -15.6780 -15.6780 -15.6180 -15.6180 -15.6030 -15.6030  -7.0192  -6.9315
    -6.4263  -6.3107  -6.2825  -6.2403  -6.1162  -6.0555  -4.9436  -4.9326
    -4.9164  -4.8359  -4.8214  -4.8066  -4.7927  -4.7820  -4.7068  -4.6985
    -4.6760  -4.6541  -0.9171  -0.8350   1.2502   1.4076   1.5243   1.7581
     2.1452   2.3314   2.4140   2.4201   2.7586   2.9792   3.0566   3.2268
     3.2276   3.3087   3.3411   3.3659   3.4003   3.5545   3.6772   3.7207
     3.8050   3.8206   4.7391   4.8095   4.8240   4.8651   4.9678   4.9892
     5.0287   5.0518   5.1297   5.1778   5.1963   5.3194   5.7502   5.9200
     5.9459   5.9999   6.0661   6.1036   6.1374   6.1715

     occupation numbers 
     1.0000   1.0000   1.0000   1.0000   1.0000   1.0000   1.0000   1.0000
     1.0000   1.0000   1.0000   1.0000   1.0000   1.0000   1.0000   1.0000
     1.0000   1.0000   1.0000   1.0000   1.0000   1.0000   1.0000   1.0000
     1.0000   1.0000   1.0000   1.0000   1.0000   1.0000   1.0000   1.0000
     1.0000   1.0000   1.0000   1.0000   1.0000   1.0000   1.0000   1.0000
     1.0000   1.0000   1.0000   1.0000   1.0000   1.0000   1.0000   1.0000
     1.0000   1.0000   1.0000   1.0000   1.0000   1.0000   1.0000   1.0000
     1.0000   1.0000   1.0000   1.0000   1.0000   1.0000   1.0000   1.0000
     1.0000   1.0000   1.0000   1.0000   1.0000   1.0000   1.0000   1.0000
     1.0000   1.0000   1.0000   1.0000   1.0000   1.0000

          k =-0.4538-0.6539 0.2498 ( 43437 PWs)   bands (ev):

   -20.7295 -20.7189 -20.7030 -20.6926 -15.6921 -15.6920 -15.6833 -15.6832
   -15.6779 -15.6779 -15.6182 -15.6182 -15.6031 -15.6030  -7.1528  -6.9973
    -6.5078  -6.1939  -6.1342  -6.1227  -6.1167  -6.0105  -5.0242  -4.9589
    -4.8956  -4.8713  -4.8042  -4.7831  -4.7799  -4.7648  -4.7572  -4.7141
    -4.6665  -4.6514  -0.9289  -0.9009   1.4444   1.5126   1.7545   1.8089
     2.1647   2.2930   2.3871   2.5496   2.6041   2.9313   3.1202   3.1430
     3.1626   3.2455   3.3278   3.3384   3.4546   3.6151   3.6855   3.7356
     3.7657   3.9292   4.6473   4.6965   4.7640   4.8720   4.9217   4.9393
     5.0151   5.0596   5.1617   5.2489   5.2944   5.3257   5.6268   5.7550
     5.8054   5.9544   6.0099   6.0313   6.1837   6.2459

     occupation numbers 
     1.0000   1.0000   1.0000   1.0000   1.0000   1.0000   1.0000   1.0000
     1.0000   1.0000   1.0000   1.0000   1.0000   1.0000   1.0000   1.0000
     1.0000   1.0000   1.0000   1.0000   1.0000   1.0000   1.0000   1.0000
     1.0000   1.0000   1.0000   1.0000   1.0000   1.0000   1.0000   1.0000
     1.0000   1.0000   1.0000   1.0000   1.0000   1.0000   1.0000   1.0000
     1.0000   1.0000   1.0000   1.0000   1.0000   1.0000   1.0000   1.0000
     1.0000   1.0000   1.0000   1.0000   1.0000   1.0000   1.0000   1.0000
     1.0000   1.0000   1.0000   1.0000   1.0000   1.0000   1.0000   1.0000
     1.0000   1.0000   1.0000   1.0000   1.0000   1.0000   1.0000   1.0000
     1.0000   1.0000   1.0000   1.0000   1.0000   1.0000

          k =-0.6331-1.8605-0.4994 ( 43494 PWs)   bands (ev):

   -20.7384 -20.7132 -20.7094 -20.6844 -15.6921 -15.6920 -15.6831 -15.6830
   -15.6778 -15.6777 -15.6184 -15.6184 -15.6032 -15.6029  -7.3056  -6.9386
    -6.6122  -6.1415  -6.0637  -6.0520  -6.0465  -5.9282  -5.0937  -5.0309
    -4.8586  -4.8536  -4.8473  -4.8330  -4.7353  -4.7335  -4.7178  -4.7078
    -4.6799  -4.6782  -1.0305  -0.8821   1.6260   1.6463   1.8646   2.0559
     2.1050   2.1950   2.4802   2.5704   2.7718   2.8419   2.8672   3.0945
     3.1810   3.2878   3.3486   3.4275   3.4708   3.5236   3.5949   3.7083
     3.7206   4.1382   4.5402   4.5698   4.8095   4.8210   4.8371   4.8994
     5.0005   5.1347   5.2472   5.2627   5.3208   5.4047   5.4152   5.5625
     5.5767   5.9200   6.0397   6.0530   6.1857   6.2090

     occupation numbers 
     1.0000   1.0000   1.0000   1.0000   1.0000   1.0000   1.0000   1.0000
     1.0000   1.0000   1.0000   1.0000   1.0000   1.0000   1.0000   1.0000
     1.0000   1.0000   1.0000   1.0000   1.0000   1.0000   1.0000   1.0000
     1.0000   1.0000   1.0000   1.0000   1.0000   1.0000   1.0000   1.0000
     1.0000   1.0000   1.0000   1.0000   1.0000   1.0000   1.0000   1.0000
     1.0000   1.0000   1.0000   1.0000   1.0000   1.0000   1.0000   1.0000
     1.0000   1.0000   1.0000   1.0000   1.0000   1.0000   1.0000   1.0000
     1.0000   1.0000   1.0000   1.0000   1.0000   1.0000   1.0000   1.0000
     1.0000   1.0000   1.0000   1.0000   1.0000   1.0000   1.0000   1.0000
     1.0000   1.0000   1.0000   1.0000   1.0000   1.0000

     highest occupied level (ev):     6.2767

!    total energy              =   -1568.23790509 Ry
     estimated scf accuracy    <          1.7E-11 Ry

     The total energy is the sum of the following terms:
     one-electron contribution =    -581.40440848 Ry
     hartree contribution      =     399.32488264 Ry
     xc contribution           =    -371.71766414 Ry
     ewald contribution        =    -655.17956360 Ry
     one-center paw contrib.   =    -359.26115151 Ry
      -> PAW hartree energy AE =       0.00000000 Ry
      -> PAW hartree energy PS =       0.00000000 Ry
      -> PAW xc energy AE      =       0.00000000 Ry
      -> PAW xc energy PS      =       0.00000000 Ry
      -> total E_H with PAW    =     399.32488264 Ry
      -> total E_XC with PAW   =    -371.71766414 Ry

     convergence has been achieved in  10 iterations

     Forces acting on atoms (cartesian axes, Ry/au):

     atom    1 type  2   force =     0.00004858    0.00016779    0.00010924
     atom    2 type  2   force =    -0.00004858   -0.00016779   -0.00010924
     atom    3 type  2   force =    -0.00011648    0.00015316   -0.00001376
     atom    4 type  2   force =     0.00011648   -0.00015316    0.00001376
     atom    5 type  1   force =     0.00003262    0.00001662    0.00000201
     atom    6 type  1   force =    -0.00003262   -0.00001662   -0.00000201
     atom    7 type  1   force =    -0.00003688    0.00000694    0.00000954
     atom    8 type  1   force =     0.00003688   -0.00000694   -0.00000954
     atom    9 type  4   force =     0.00002387   -0.00001120    0.00002041
     atom   10 type  4   force =    -0.00002387    0.00001120   -0.00002041
     atom   11 type  3   force =    -0.00021685    0.00011410   -0.00114399
     atom   12 type  3   force =     0.00021685   -0.00011410    0.00114399
     atom   13 type  3   force =     0.00106759    0.00045815    0.00005452
     atom   14 type  3   force =    -0.00106759   -0.00045815   -0.00005452
     atom   15 type  3   force =     0.00027254   -0.00044465    0.00101152
     atom   16 type  3   force =    -0.00027254    0.00044465   -0.00101152
     atom   17 type  3   force =    -0.00115286   -0.00009937    0.00004837
     atom   18 type  3   force =     0.00115286    0.00009937   -0.00004837
     The non-local contrib.  to forces
     atom    1 type  2   force =    -0.00060008   -0.00523801   -0.00309272
     atom    2 type  2   force =     0.00060008    0.00523801    0.00309272
     atom    3 type  2   force =     0.00313728   -0.00522893   -0.00015367
     atom    4 type  2   force =    -0.00313728    0.00522893    0.00015367
     atom    5 type  1   force =    -0.07077153    0.00004560   -0.05567238
     atom    6 type  1   force =     0.07077153   -0.00004560    0.05567238
     atom    7 type  1   force =     0.07069330    0.00016014    0.05580880
     atom    8 type  1   force =    -0.07069330   -0.00016014   -0.05580880
     atom    9 type  4   force =     0.00000298   -0.00010874   -0.00006281
     atom   10 type  4   force =    -0.00000298    0.00010874    0.00006281
     atom   11 type  3   force =     0.12322176    0.12960201   -0.12914672
     atom   12 type  3   force =    -0.12322176   -0.12960201    0.12914672
     atom   13 type  3   force =     0.12205393    0.02695927   -0.18165701
     atom   14 type  3   force =    -0.12205393   -0.02695927    0.18165701
     atom   15 type  3   force =    -0.14839386   -0.02691457    0.16103901
     atom   16 type  3   force =     0.14839386    0.02691457   -0.16103901
     atom   17 type  3   force =    -0.09698282   -0.12954278    0.14978855
     atom   18 type  3   force =     0.09698282    0.12954278   -0.14978855
     The ionic contribution  to forces
     atom    1 type  2   force =    -0.75889953   -0.44257694   -0.82140098
     atom    2 type  2   force =     0.75889953    0.44257694    0.82140098
     atom    3 type  2   force =     0.97546220   -0.44249821    0.54652250
     atom    4 type  2   force =    -0.97546220    0.44249821   -0.54652250
     atom    5 type  1   force =     2.94227911   -0.00082807    2.32024395
     atom    6 type  1   force =    -2.94227911    0.00082807   -2.32024395
     atom    7 type  1   force =    -2.94161119   -0.00101093   -2.32040164
     atom    8 type  1   force =     2.94161119    0.00101093    2.32040164
     atom    9 type  4   force =    -0.00023956   -0.00018164    0.00037525
     atom   10 type  4   force =     0.00023956    0.00018164   -0.00037525
     atom   11 type  3   force =    -3.28732469   -4.80154602    7.44662722
     atom   12 type  3   force =     3.28732469    4.80154602   -7.44662722
     atom   13 type  3   force =    -7.18901643   -1.88893462    5.83546383
     atom   14 type  3   force =     7.18901643    1.88893462   -5.83546383
     atom   15 type  3   force =     4.00092412    1.88893933   -8.35079418
     atom   16 type  3   force =    -4.00092412   -1.88893933    8.35079418
     atom   17 type  3   force =     6.47545942    4.80144098   -4.93129694
     atom   18 type  3   force =    -6.47545942   -4.80144098    4.93129694
     The local contribution  to forces
     atom    1 type  2   force =     0.75954743    0.44798423    0.82460151
     atom    2 type  2   force =    -0.75954743   -0.44798423   -0.82460151
     atom    3 type  2   force =    -0.97871432    0.44788175   -0.54638211
     atom    4 type  2   force =     0.97871432   -0.44788175    0.54638211
     atom    5 type  1   force =    -2.87316783    0.00081751   -2.26586924
     atom    6 type  1   force =     2.87316783   -0.00081751    2.26586924
     atom    7 type  1   force =     2.87253954    0.00088912    2.26592243
     atom    8 type  1   force =    -2.87253954   -0.00088912   -2.26592243
     atom    9 type  4   force =     0.00026351    0.00027278   -0.00028940
     atom   10 type  4   force =    -0.00026351   -0.00027278    0.00028940
     atom   11 type  3   force =     3.17047420    4.67900017   -7.32577028
     atom   12 type  3   force =    -3.17047420   -4.67900017    7.32577028
     atom   13 type  3   force =     7.07476593    1.86399540   -5.66348714
     atom   14 type  3   force =    -7.07476593   -1.86399540    5.66348714
     atom   15 type  3   force =    -3.86016466   -1.86402881    8.19958663
     atom   16 type  3   force =     3.86016466    1.86402881   -8.19958663
     atom   17 type  3   force =    -6.38504907   -4.67893625    4.78962113
     atom   18 type  3   force =     6.38504907    4.67893625   -4.78962113
     The core correction contribution to forces
     atom    1 type  2   force =     0.00000000    0.00000000    0.00000000
     atom    2 type  2   force =     0.00000000    0.00000000    0.00000000
     atom    3 type  2   force =     0.00000000    0.00000000    0.00000000
     atom    4 type  2   force =     0.00000000    0.00000000    0.00000000
     atom    5 type  1   force =     0.00169367   -0.00001845    0.00130025
     atom    6 type  1   force =    -0.00169367    0.00001845   -0.00130025
     atom    7 type  1   force =    -0.00165854   -0.00003141   -0.00132007
     atom    8 type  1   force =     0.00165854    0.00003141    0.00132007
     atom    9 type  4   force =    -0.00000040    0.00000534   -0.00000087
     atom   10 type  4   force =     0.00000040   -0.00000534    0.00000087
     atom   11 type  3   force =    -0.00658714   -0.00694232    0.00714934
     atom   12 type  3   force =     0.00658714    0.00694232   -0.00714934
     atom   13 type  3   force =    -0.00673697   -0.00156258    0.00973456
     atom   14 type  3   force =     0.00673697    0.00156258   -0.00973456
     atom   15 type  3   force =     0.00790641    0.00156008   -0.00882102
     atom   16 type  3   force =    -0.00790641   -0.00156008    0.00882102
     atom   17 type  3   force =     0.00542330    0.00693896   -0.00806425
     atom   18 type  3   force =    -0.00542330   -0.00693896    0.00806425
     The Hubbard contrib.    to forces
     atom    1 type  2   force =     0.00000000    0.00000000    0.00000000
     atom    2 type  2   force =     0.00000000    0.00000000    0.00000000
     atom    3 type  2   force =     0.00000000    0.00000000    0.00000000
     atom    4 type  2   force =     0.00000000    0.00000000    0.00000000
     atom    5 type  1   force =     0.00000000    0.00000000    0.00000000
     atom    6 type  1   force =     0.00000000    0.00000000    0.00000000
     atom    7 type  1   force =     0.00000000    0.00000000    0.00000000
     atom    8 type  1   force =     0.00000000    0.00000000    0.00000000
     atom    9 type  4   force =     0.00000000    0.00000000    0.00000000
     atom   10 type  4   force =     0.00000000    0.00000000    0.00000000
     atom   11 type  3   force =     0.00000000    0.00000000    0.00000000
     atom   12 type  3   force =     0.00000000    0.00000000    0.00000000
     atom   13 type  3   force =     0.00000000    0.00000000    0.00000000
     atom   14 type  3   force =     0.00000000    0.00000000    0.00000000
     atom   15 type  3   force =     0.00000000    0.00000000    0.00000000
     atom   16 type  3   force =     0.00000000    0.00000000    0.00000000
     atom   17 type  3   force =     0.00000000    0.00000000    0.00000000
     atom   18 type  3   force =     0.00000000    0.00000000    0.00000000
     The SCF correction term to forces
     atom    1 type  2   force =     0.00000076   -0.00000148    0.00000144
     atom    2 type  2   force =    -0.00000076    0.00000148   -0.00000144
     atom    3 type  2   force =    -0.00000164   -0.00000146   -0.00000048
     atom    4 type  2   force =     0.00000164    0.00000146    0.00000048
     atom    5 type  1   force =    -0.00000079    0.00000003   -0.00000057
     atom    6 type  1   force =     0.00000079   -0.00000003    0.00000057
     atom    7 type  1   force =     0.00000001    0.00000002    0.00000003
     atom    8 type  1   force =    -0.00000001   -0.00000002   -0.00000003
     atom    9 type  4   force =    -0.00000266    0.00000106   -0.00000177
     atom   10 type  4   force =     0.00000266   -0.00000106    0.00000177
     atom   11 type  3   force =    -0.00000097    0.00000026   -0.00000355
     atom   12 type  3   force =     0.00000097   -0.00000026    0.00000355
     atom   13 type  3   force =     0.00000113    0.00000069    0.00000028
     atom   14 type  3   force =    -0.00000113   -0.00000069   -0.00000028
     atom   15 type  3   force =     0.00000053   -0.00000068    0.00000107
     atom   16 type  3   force =    -0.00000053    0.00000068   -0.00000107
     atom   17 type  3   force =    -0.00000370   -0.00000028   -0.00000012
     atom   18 type  3   force =     0.00000370    0.00000028    0.00000012

     Total force =     0.003299     Total SCF correction =     0.000010


     Computing stress (Cartesian axis) and pressure

          total   stress  (Ry/bohr**3)                   (kbar)     P=        1.25
   0.00000982   0.00000019   0.00000159            1.44        0.03        0.23
   0.00000019   0.00000707  -0.00000006            0.03        1.04       -0.01
   0.00000159  -0.00000006   0.00000870            0.23       -0.01        1.28

     kinetic stress (kbar)   7788.95     -4.40    -22.28
                               -4.40   7832.03      5.65
                              -22.28      5.65   7799.20

     local   stress (kbar)  -2100.25   3593.36  -6648.48
                             3593.36  -6046.71  -4555.31
                            -6648.48  -4555.31   1084.56

     nonloc. stress (kbar)   2087.73      0.40     -2.19
                                0.40   2088.99     -0.48
                               -2.19     -0.48   2088.62

     hartree stress (kbar)   6328.46  -1715.52   3120.59
                            -1715.52   8280.48   2174.81
                             3120.59   2174.81   4833.66

     exc-cor stress (kbar)   5899.65     -0.23      0.10
                               -0.23   5900.31      0.30
                                0.10      0.30   5899.59

     corecor stress (kbar)  -9287.11      0.30     -0.34
                                0.30  -9287.67     -0.38
                               -0.34     -0.38  -9286.91

     ewald   stress (kbar) -10715.98  -1873.87   3552.82
                            -1873.87  -8766.38   2375.41
                             3552.82   2375.41 -12417.46

     hubbard stress (kbar)      0.00      0.00      0.00
                                0.00      0.00      0.00
                                0.00      0.00      0.00

     DFT-D   stress (kbar)      0.00      0.00      0.00
                                0.00      0.00      0.00
                                0.00      0.00      0.00

     XDM     stress (kbar)      0.00      0.00      0.00
                                0.00      0.00      0.00
                                0.00      0.00      0.00

     dft-nl  stress (kbar)      0.00      0.00      0.00
                                0.00      0.00      0.00
                                0.00      0.00      0.00

     TS-vdW  stress (kbar)      0.00      0.00      0.00
                                0.00      0.00      0.00
                                0.00      0.00      0.00

     MDB     stress (kbar)      0.00      0.00      0.00
                                0.00      0.00      0.00
                                0.00      0.00      0.00

     3D-RISM stress (kbar)      0.00      0.00      0.00
                                0.00      0.00      0.00
                                0.00      0.00      0.00

     Energy error            =      7.2E-05 Ry
     Gradient error          =      1.2E-03 Ry/Bohr
     Cell gradient error     =      1.4E+00 kbar

     number of scf cycles    =   3
     number of bfgs steps    =   2

     enthalpy           old  =   -1568.2378332344 Ry
     enthalpy           new  =   -1568.2379050912 Ry

     CASE: enthalpy          _new < enthalpy          _old

     new trust radius        =       0.0094008112 bohr
     new conv_thr            =       0.0000000001 Ry

     new unit-cell volume =   3028.10392 a.u.^3 (   448.71871 Ang^3 )
     density =      4.03366 g/cm^3

CELL_PARAMETERS (angstrom)
   9.246655596   0.000380757  -2.211655565
  -1.252533273   5.104198671  -7.922069147
   0.002374401  -0.000164587   9.507004681

ATOMIC_POSITIONS (crystal)
Rb               0.1243633408        0.7284389804        0.8527980616
Rb               0.8756366592        0.2715610196        0.1472019384
Rb               0.3756400590        0.2284302907        0.6040708930
Rb               0.6243599410        0.7715697093        0.3959291070
Cu               0.0245558626        0.7500103903        0.2745571234
Cu               0.9754441374        0.2499896097        0.7254428766
Cu               0.4754421662        0.7500051681        0.7254577318
Cu               0.5245578338        0.2499948319        0.2745422682
Sn               0.2500033762        0.2499955029       -0.0000008065
Sn               0.7499966238        0.7500044971        0.0000008065
S                0.0164278637        0.9190178604        0.6376486726
S                0.9835721363        0.0809821396        0.3623513274
S                0.2813649523        0.3787899760        0.3623611735
S                0.7186350477        0.6212100240        0.6376388265
S                0.4835625668        0.1212179974        0.9025757616
S                0.5164374332        0.8787820026        0.0974242384
S                0.2186371271        0.5809881947        0.0974156984
S                0.7813628729        0.4190118053        0.9025843016



     Writing config-only to output data dir ./tmp/relax/Rb2Cu2SnS4_relax.save/ :
     XML data file
     NEW-OLD atomic charge density approx. for the potential
     New effective cutoffs (rho, wfc):  717.83   89.73

     total cpu time spent up to now is      821.8 secs

     Self-consistent Calculation

     iteration #  1     ecut=    90.00 Ry     beta= 0.30
     Davidson diagonalization with overlap

---- Real-time Memory Report at c_bands before calling an iterative solver
             0 MiB given to the printing process from OS
             0 MiB allocation reported by mallinfo(arena+hblkhd)
             0 MiB available memory on the node where the printing process lives
------------------
     ethr =  1.00E-06,  avg # of iterations =  2.0

     Threshold (ethr) on eigenvalues was too large:
     Diagonalizing with lowered threshold

     Davidson diagonalization with overlap

---- Real-time Memory Report at c_bands before calling an iterative solver
             0 MiB given to the printing process from OS
             0 MiB allocation reported by mallinfo(arena+hblkhd)
             0 MiB available memory on the node where the printing process lives
------------------
     ethr =  9.49E-09,  avg # of iterations =  7.9

     total cpu time spent up to now is      879.2 secs

     total energy              =   -1568.23794940 Ry
     estimated scf accuracy    <       0.00000659 Ry

     iteration #  2     ecut=    90.00 Ry     beta= 0.30
     Davidson diagonalization with overlap

---- Real-time Memory Report at c_bands before calling an iterative solver
             0 MiB given to the printing process from OS
             0 MiB allocation reported by mallinfo(arena+hblkhd)
             0 MiB available memory on the node where the printing process lives
------------------
     ethr =  4.22E-09,  avg # of iterations =  4.0

     total cpu time spent up to now is      899.6 secs

     total energy              =   -1568.23796026 Ry
     estimated scf accuracy    <       0.00000149 Ry

     iteration #  3     ecut=    90.00 Ry     beta= 0.30
     Davidson diagonalization with overlap

---- Real-time Memory Report at c_bands before calling an iterative solver
             0 MiB given to the printing process from OS
             0 MiB allocation reported by mallinfo(arena+hblkhd)
             0 MiB available memory on the node where the printing process lives
------------------
     ethr =  9.53E-10,  avg # of iterations =  2.6

     total cpu time spent up to now is      919.0 secs

     total energy              =   -1568.23796513 Ry
     estimated scf accuracy    <       0.00000030 Ry

     iteration #  4     ecut=    90.00 Ry     beta= 0.30
     Davidson diagonalization with overlap

---- Real-time Memory Report at c_bands before calling an iterative solver
             0 MiB given to the printing process from OS
             0 MiB allocation reported by mallinfo(arena+hblkhd)
             0 MiB available memory on the node where the printing process lives
------------------
     ethr =  1.90E-10,  avg # of iterations =  5.2

     total cpu time spent up to now is      941.6 secs

     total energy              =   -1568.23796760 Ry
     estimated scf accuracy    <       0.00000011 Ry

     iteration #  5     ecut=    90.00 Ry     beta= 0.30
     Davidson diagonalization with overlap

---- Real-time Memory Report at c_bands before calling an iterative solver
             0 MiB given to the printing process from OS
             0 MiB allocation reported by mallinfo(arena+hblkhd)
             0 MiB available memory on the node where the printing process lives
------------------
     ethr =  6.85E-11,  avg # of iterations =  5.9

     total cpu time spent up to now is      966.5 secs

     total energy              =   -1568.23796895 Ry
     estimated scf accuracy    <       0.00000006 Ry

     iteration #  6     ecut=    90.00 Ry     beta= 0.30
     Davidson diagonalization with overlap

---- Real-time Memory Report at c_bands before calling an iterative solver
             0 MiB given to the printing process from OS
             0 MiB allocation reported by mallinfo(arena+hblkhd)
             0 MiB available memory on the node where the printing process lives
------------------
     ethr =  3.88E-11,  avg # of iterations =  4.0

     total cpu time spent up to now is      987.1 secs

     total energy              =   -1568.23796959 Ry
     estimated scf accuracy    <       0.00000002 Ry

     iteration #  7     ecut=    90.00 Ry     beta= 0.30
     Davidson diagonalization with overlap

---- Real-time Memory Report at c_bands before calling an iterative solver
             0 MiB given to the printing process from OS
             0 MiB allocation reported by mallinfo(arena+hblkhd)
             0 MiB available memory on the node where the printing process lives
------------------
     ethr =  1.10E-11,  avg # of iterations =  3.3

     total cpu time spent up to now is     1008.0 secs

     total energy              =   -1568.23796990 Ry
     estimated scf accuracy    <          8.4E-09 Ry

     iteration #  8     ecut=    90.00 Ry     beta= 0.30
     Davidson diagonalization with overlap

---- Real-time Memory Report at c_bands before calling an iterative solver
             0 MiB given to the printing process from OS
             0 MiB allocation reported by mallinfo(arena+hblkhd)
             0 MiB available memory on the node where the printing process lives
------------------
     ethr =  5.41E-12,  avg # of iterations =  4.3

     total cpu time spent up to now is     1028.9 secs

     total energy              =   -1568.23797005 Ry
     estimated scf accuracy    <          1.8E-09 Ry

     iteration #  9     ecut=    90.00 Ry     beta= 0.30
     Davidson diagonalization with overlap

---- Real-time Memory Report at c_bands before calling an iterative solver
             0 MiB given to the printing process from OS
             0 MiB allocation reported by mallinfo(arena+hblkhd)
             0 MiB available memory on the node where the printing process lives
------------------
     ethr =  1.12E-12,  avg # of iterations =  2.0

     total cpu time spent up to now is     1048.3 secs

     total energy              =   -1568.23797012 Ry
     estimated scf accuracy    <          8.7E-10 Ry

     iteration # 10     ecut=    90.00 Ry     beta= 0.30
     Davidson diagonalization with overlap

---- Real-time Memory Report at c_bands before calling an iterative solver
             0 MiB given to the printing process from OS
             0 MiB allocation reported by mallinfo(arena+hblkhd)
             0 MiB available memory on the node where the printing process lives
------------------
     ethr =  5.59E-13,  avg # of iterations =  3.8

     total cpu time spent up to now is     1068.5 secs

     End of self-consistent calculation

          k = 0.0000 0.0000 0.0000 ( 43377 PWs)   bands (ev):

   -20.7647 -20.7397 -20.7360 -20.7113 -15.7131 -15.7130 -15.7044 -15.7043
   -15.6994 -15.6993 -15.6409 -15.6408 -15.6252 -15.6250  -7.2579  -6.9279
    -6.6134  -6.2918  -6.1239  -6.1238  -6.1224  -5.8941  -5.1250  -5.0481
    -4.8866  -4.8811  -4.8270  -4.8135  -4.7729  -4.7727  -4.7306  -4.7061
    -4.7051  -4.6296  -1.0601  -0.8589   1.5263   1.6225   1.8473   1.9942
     2.0683   2.1318   2.1798   2.5076   2.8567   2.9772   3.1008   3.1442
     3.2726   3.2810   3.3733   3.3789   3.3950   3.4282   3.5477   3.6510
     3.7761   3.7938   4.5257   4.5727   4.7913   4.7940   4.8034   4.9025
     4.9220   5.1416   5.2347   5.2619   5.2997   5.3620   5.4659   5.5610
     5.6665   5.8481   5.9801   6.1383   6.1773   6.2350

     occupation numbers 
     1.0000   1.0000   1.0000   1.0000   1.0000   1.0000   1.0000   1.0000
     1.0000   1.0000   1.0000   1.0000   1.0000   1.0000   1.0000   1.0000
     1.0000   1.0000   1.0000   1.0000   1.0000   1.0000   1.0000   1.0000
     1.0000   1.0000   1.0000   1.0000   1.0000   1.0000   1.0000   1.0000
     1.0000   1.0000   1.0000   1.0000   1.0000   1.0000   1.0000   1.0000
     1.0000   1.0000   1.0000   1.0000   1.0000   1.0000   1.0000   1.0000
     1.0000   1.0000   1.0000   1.0000   1.0000   1.0000   1.0000   1.0000
     1.0000   1.0000   1.0000   1.0000   1.0000   1.0000   1.0000   1.0000
     1.0000   1.0000   1.0000   1.0000   1.0000   1.0000   1.0000   1.0000
     1.0000   1.0000   1.0000   1.0000   1.0000   1.0000

          k = 0.0597 0.4020 0.2496 ( 43439 PWs)   bands (ev):

   -20.7560 -20.7454 -20.7297 -20.7194 -15.7130 -15.7130 -15.7046 -15.7045
   -15.6995 -15.6994 -15.6406 -15.6406 -15.6251 -15.6250  -7.1593  -6.9610
    -6.4217  -6.2786  -6.2433  -6.2125  -6.1850  -6.0050  -5.0470  -4.9636
    -4.8863  -4.8449  -4.8233  -4.8135  -4.8015  -4.8013  -4.7703  -4.7102
    -4.7007  -4.6894  -1.0042  -0.8545   1.3315   1.5045   1.6301   1.9388
     2.0377   2.1989   2.4220   2.6015   2.6648   2.9454   3.0402   3.1929
     3.2379   3.2693   3.2806   3.3681   3.3753   3.5044   3.6618   3.7001
     3.7419   3.8070   4.6336   4.6897   4.7740   4.8261   4.8772   4.9373
     4.9619   5.0696   5.1664   5.2015   5.2167   5.3750   5.6724   5.7208
     5.7727   5.8913   5.9858   6.0632   6.1194   6.2321

     occupation numbers 
     1.0000   1.0000   1.0000   1.0000   1.0000   1.0000   1.0000   1.0000
     1.0000   1.0000   1.0000   1.0000   1.0000   1.0000   1.0000   1.0000
     1.0000   1.0000   1.0000   1.0000   1.0000   1.0000   1.0000   1.0000
     1.0000   1.0000   1.0000   1.0000   1.0000   1.0000   1.0000   1.0000
     1.0000   1.0000   1.0000   1.0000   1.0000   1.0000   1.0000   1.0000
     1.0000   1.0000   1.0000   1.0000   1.0000   1.0000   1.0000   1.0000
     1.0000   1.0000   1.0000   1.0000   1.0000   1.0000   1.0000   1.0000
     1.0000   1.0000   1.0000   1.0000   1.0000   1.0000   1.0000   1.0000
     1.0000   1.0000   1.0000   1.0000   1.0000   1.0000   1.0000   1.0000
     1.0000   1.0000   1.0000   1.0000   1.0000   1.0000

          k =-0.1193-0.8039-0.4991 ( 43366 PWs)   bands (ev):

   -20.7434 -20.7433 -20.7313 -20.7312 -15.7130 -15.7130 -15.7047 -15.7047
   -15.6996 -15.6996 -15.6404 -15.6404 -15.6251 -15.6251  -7.0304  -6.9428
    -6.4430  -6.3269  -6.3003  -6.2575  -6.1336  -6.0733  -4.9687  -4.9574
    -4.9418  -4.8620  -4.8467  -4.8323  -4.8184  -4.8078  -4.7335  -4.7251
    -4.7030  -4.6812  -0.9369  -0.8553   1.2356   1.3923   1.5093   1.7414
     2.1291   2.3150   2.3952   2.4015   2.7420   2.9617   3.0387   3.2079
     3.2082   3.2889   3.3215   3.3465   3.3810   3.5348   3.6563   3.7005
     3.7839   3.7997   4.7198   4.7895   4.8042   4.8449   4.9462   4.9684
     5.0069   5.0312   5.1086   5.1563   5.1765   5.2991   5.7293   5.8985
     5.9247   5.9777   6.0452   6.0817   6.1151   6.1492

     occupation numbers 
     1.0000   1.0000   1.0000   1.0000   1.0000   1.0000   1.0000   1.0000
     1.0000   1.0000   1.0000   1.0000   1.0000   1.0000   1.0000   1.0000
     1.0000   1.0000   1.0000   1.0000   1.0000   1.0000   1.0000   1.0000
     1.0000   1.0000   1.0000   1.0000   1.0000   1.0000   1.0000   1.0000
     1.0000   1.0000   1.0000   1.0000   1.0000   1.0000   1.0000   1.0000
     1.0000   1.0000   1.0000   1.0000   1.0000   1.0000   1.0000   1.0000
     1.0000   1.0000   1.0000   1.0000   1.0000   1.0000   1.0000   1.0000
     1.0000   1.0000   1.0000   1.0000   1.0000   1.0000   1.0000   1.0000
     1.0000   1.0000   1.0000   1.0000   1.0000   1.0000   1.0000   1.0000
     1.0000   1.0000   1.0000   1.0000   1.0000   1.0000

          k =-0.0000 0.4648 0.0000 ( 43455 PWs)   bands (ev):

   -20.7575 -20.7397 -20.7353 -20.7179 -15.7131 -15.7130 -15.7046 -15.7045
   -15.6995 -15.6994 -15.6406 -15.6406 -15.6252 -15.6250  -7.1838  -6.8988
    -6.5252  -6.2462  -6.2272  -6.1987  -6.1702  -6.0121  -5.0721  -4.9511
    -4.8847  -4.8746  -4.8118  -4.7950  -4.7923  -4.7847  -4.7666  -4.7159
    -4.7143  -4.6924  -1.0130  -0.8465   1.3078   1.4782   1.7172   1.9835
     2.0197   2.1611   2.3730   2.5778   2.6436   3.0455   3.0503   3.1215
     3.2604   3.2948   3.3232   3.3317   3.4103   3.4578   3.6040   3.7021
     3.7950   3.7994   4.6392   4.6830   4.7551   4.8417   4.8873   4.9340
     4.9591   5.0912   5.1236   5.2136   5.2230   5.3853   5.6466   5.7882
     5.7996   5.9038   5.9640   6.0548   6.0825   6.1658

     occupation numbers 
     1.0000   1.0000   1.0000   1.0000   1.0000   1.0000   1.0000   1.0000
     1.0000   1.0000   1.0000   1.0000   1.0000   1.0000   1.0000   1.0000
     1.0000   1.0000   1.0000   1.0000   1.0000   1.0000   1.0000   1.0000
     1.0000   1.0000   1.0000   1.0000   1.0000   1.0000   1.0000   1.0000
     1.0000   1.0000   1.0000   1.0000   1.0000   1.0000   1.0000   1.0000
     1.0000   1.0000   1.0000   1.0000   1.0000   1.0000   1.0000   1.0000
     1.0000   1.0000   1.0000   1.0000   1.0000   1.0000   1.0000   1.0000
     1.0000   1.0000   1.0000   1.0000   1.0000   1.0000   1.0000   1.0000
     1.0000   1.0000   1.0000   1.0000   1.0000   1.0000   1.0000   1.0000
     1.0000   1.0000   1.0000   1.0000   1.0000   1.0000

          k = 0.0597 0.8668 0.2496 ( 43432 PWs)   bands (ev):

   -20.7434 -20.7433 -20.7313 -20.7312 -15.7130 -15.7130 -15.7047 -15.7047
   -15.6996 -15.6996 -15.6404 -15.6404 -15.6251 -15.6251  -7.0189  -6.9591
    -6.4447  -6.3543  -6.2677  -6.2068  -6.1541  -6.1019  -4.9698  -4.9648
    -4.9177  -4.8814  -4.8543  -4.8391  -4.8099  -4.7947  -4.7640  -4.7410
    -4.6735  -4.6673  -0.9260  -0.8681   1.2054   1.3336   1.6683   1.8076
     2.1188   2.2486   2.3030   2.3300   2.8497   2.9658   3.0847   3.1609
     3.2127   3.2510   3.2715   3.3142   3.4238   3.5526   3.6855   3.7216
     3.7592   3.8118   4.7348   4.7828   4.8004   4.8401   4.9374   4.9640
     4.9737   5.0057   5.1426   5.1801   5.2118   5.2839   5.7748   5.8895
     5.9390   5.9787   6.0209   6.0834   6.1099   6.1709

     occupation numbers 
     1.0000   1.0000   1.0000   1.0000   1.0000   1.0000   1.0000   1.0000
     1.0000   1.0000   1.0000   1.0000   1.0000   1.0000   1.0000   1.0000
     1.0000   1.0000   1.0000   1.0000   1.0000   1.0000   1.0000   1.0000
     1.0000   1.0000   1.0000   1.0000   1.0000   1.0000   1.0000   1.0000
     1.0000   1.0000   1.0000   1.0000   1.0000   1.0000   1.0000   1.0000
     1.0000   1.0000   1.0000   1.0000   1.0000   1.0000   1.0000   1.0000
     1.0000   1.0000   1.0000   1.0000   1.0000   1.0000   1.0000   1.0000
     1.0000   1.0000   1.0000   1.0000   1.0000   1.0000   1.0000   1.0000
     1.0000   1.0000   1.0000   1.0000   1.0000   1.0000   1.0000   1.0000
     1.0000   1.0000   1.0000   1.0000   1.0000   1.0000

          k =-0.1194-0.3391-0.4991 ( 43424 PWs)   bands (ev):

   -20.7517 -20.7516 -20.7236 -20.7235 -15.7130 -15.7130 -15.7045 -15.7045
   -15.6995 -15.6995 -15.6406 -15.6406 -15.6251 -15.6251  -7.0933  -7.0817
    -6.3782  -6.3034  -6.2206  -6.1857  -6.1303  -6.0272  -5.0112  -4.9946
    -4.8764  -4.8633  -4.8569  -4.8275  -4.8148  -4.8093  -4.7567  -4.7381
    -4.6834  -4.6795  -0.9542  -0.9094   1.4449   1.5092   1.6118   1.7530
     2.1933   2.2879   2.4008   2.4530   2.7751   2.9024   2.9955   3.1253
     3.1946   3.2306   3.2987   3.3892   3.4104   3.5802   3.6939   3.7285
     3.7483   3.7829   4.6377   4.6759   4.7903   4.8069   4.8852   4.9129
     5.0118   5.0260   5.1842   5.2080   5.2522   5.3120   5.6562   5.7112
     5.7948   5.8862   5.9782   5.9986   6.2091   6.2549

     occupation numbers 
     1.0000   1.0000   1.0000   1.0000   1.0000   1.0000   1.0000   1.0000
     1.0000   1.0000   1.0000   1.0000   1.0000   1.0000   1.0000   1.0000
     1.0000   1.0000   1.0000   1.0000   1.0000   1.0000   1.0000   1.0000
     1.0000   1.0000   1.0000   1.0000   1.0000   1.0000   1.0000   1.0000
     1.0000   1.0000   1.0000   1.0000   1.0000   1.0000   1.0000   1.0000
     1.0000   1.0000   1.0000   1.0000   1.0000   1.0000   1.0000   1.0000
     1.0000   1.0000   1.0000   1.0000   1.0000   1.0000   1.0000   1.0000
     1.0000   1.0000   1.0000   1.0000   1.0000   1.0000   1.0000   1.0000
     1.0000   1.0000   1.0000   1.0000   1.0000   1.0000   1.0000   1.0000
     1.0000   1.0000   1.0000   1.0000   1.0000   1.0000

          k =-0.0597 0.0629-0.2495 ( 43427 PWs)   bands (ev):

   -20.7627 -20.7482 -20.7275 -20.7133 -15.7130 -15.7130 -15.7044 -15.7043
   -15.6994 -15.6993 -15.6409 -15.6408 -15.6252 -15.6250  -7.2377  -7.0336
    -6.4934  -6.2571  -6.1806  -6.1485  -6.0669  -5.9123  -5.0929  -5.0393
    -4.9383  -4.8991  -4.8299  -4.7900  -4.7737  -4.7682  -4.7285  -4.7141
    -4.7082  -4.6528  -1.0355  -0.8898   1.5564   1.6891   1.7998   1.9723
     2.0230   2.0735   2.2867   2.6883   2.8138   2.8726   3.0014   3.1670
     3.2018   3.2229   3.3535   3.3738   3.5245   3.5470   3.5677   3.6507
     3.7367   3.7863   4.5278   4.5633   4.7935   4.8004   4.8292   4.9032
     4.9180   5.0482   5.2555   5.3024   5.3320   5.3484   5.4297   5.5351
     5.7128   5.8549   5.9971   6.0271   6.1446   6.1965

     occupation numbers 
     1.0000   1.0000   1.0000   1.0000   1.0000   1.0000   1.0000   1.0000
     1.0000   1.0000   1.0000   1.0000   1.0000   1.0000   1.0000   1.0000
     1.0000   1.0000   1.0000   1.0000   1.0000   1.0000   1.0000   1.0000
     1.0000   1.0000   1.0000   1.0000   1.0000   1.0000   1.0000   1.0000
     1.0000   1.0000   1.0000   1.0000   1.0000   1.0000   1.0000   1.0000
     1.0000   1.0000   1.0000   1.0000   1.0000   1.0000   1.0000   1.0000
     1.0000   1.0000   1.0000   1.0000   1.0000   1.0000   1.0000   1.0000
     1.0000   1.0000   1.0000   1.0000   1.0000   1.0000   1.0000   1.0000
     1.0000   1.0000   1.0000   1.0000   1.0000   1.0000   1.0000   1.0000
     1.0000   1.0000   1.0000   1.0000   1.0000   1.0000

          k = 0.0000-0.9297-0.0000 ( 43450 PWs)   bands (ev):

   -20.7434 -20.7433 -20.7313 -20.7312 -15.7130 -15.7130 -15.7047 -15.7047
   -15.6996 -15.6996 -15.6404 -15.6404 -15.6251 -15.6251  -6.9913  -6.9912
    -6.4125  -6.4119  -6.1909  -6.1909  -6.1589  -6.1584  -4.9741  -4.9740
    -4.8985  -4.8984  -4.8480  -4.8479  -4.7924  -4.7924  -4.7694  -4.7694
    -4.6572  -4.6571  -0.8981  -0.8980   1.2366   1.2368   1.9328   1.9328
     2.0208   2.0212   2.2741   2.2742   2.9912   2.9913   3.0931   3.0934
     3.1906   3.1912   3.2763   3.2766   3.5121   3.5123   3.7246   3.7249
     3.7813   3.7817   4.7646   4.7650   4.8144   4.8148   4.9366   4.9368
     4.9763   4.9766   5.1978   5.1980   5.2414   5.2414   5.8591   5.8594
     5.9338   5.9340   6.0660   6.0662   6.1472   6.1472

     occupation numbers 
     1.0000   1.0000   1.0000   1.0000   1.0000   1.0000   1.0000   1.0000
     1.0000   1.0000   1.0000   1.0000   1.0000   1.0000   1.0000   1.0000
     1.0000   1.0000   1.0000   1.0000   1.0000   1.0000   1.0000   1.0000
     1.0000   1.0000   1.0000   1.0000   1.0000   1.0000   1.0000   1.0000
     1.0000   1.0000   1.0000   1.0000   1.0000   1.0000   1.0000   1.0000
     1.0000   1.0000   1.0000   1.0000   1.0000   1.0000   1.0000   1.0000
     1.0000   1.0000   1.0000   1.0000   1.0000   1.0000   1.0000   1.0000
     1.0000   1.0000   1.0000   1.0000   1.0000   1.0000   1.0000   1.0000
     1.0000   1.0000   1.0000   1.0000   1.0000   1.0000   1.0000   1.0000
     1.0000   1.0000   1.0000   1.0000   1.0000   1.0000

          k = 0.0597-0.5277 0.2495 ( 43437 PWs)   bands (ev):

   -20.7559 -20.7454 -20.7297 -20.7194 -15.7131 -15.7130 -15.7045 -15.7045
   -15.6995 -15.6994 -15.6406 -15.6406 -15.6252 -15.6250  -7.1617  -6.9861
    -6.4836  -6.2380  -6.2119  -6.1861  -6.1038  -6.0452  -5.0472  -4.9707
    -4.8955  -4.8828  -4.8232  -4.8135  -4.8043  -4.7995  -4.7742  -4.7268
    -4.6940  -4.6833  -0.9764  -0.8880   1.4086   1.4688   1.6944   1.8281
     2.1133   2.2596   2.3640   2.5683   2.6259   2.9967   3.0268   3.0823
     3.2138   3.2717   3.3117   3.3713   3.4072   3.5375   3.6784   3.6869
     3.7733   3.8232   4.6489   4.6631   4.7581   4.8370   4.8944   4.9176
     4.9794   5.0558   5.1531   5.2164   5.2602   5.3235   5.6425   5.7481
     5.8372   5.8798   5.9660   5.9930   6.1781   6.2008

     occupation numbers 
     1.0000   1.0000   1.0000   1.0000   1.0000   1.0000   1.0000   1.0000
     1.0000   1.0000   1.0000   1.0000   1.0000   1.0000   1.0000   1.0000
     1.0000   1.0000   1.0000   1.0000   1.0000   1.0000   1.0000   1.0000
     1.0000   1.0000   1.0000   1.0000   1.0000   1.0000   1.0000   1.0000
     1.0000   1.0000   1.0000   1.0000   1.0000   1.0000   1.0000   1.0000
     1.0000   1.0000   1.0000   1.0000   1.0000   1.0000   1.0000   1.0000
     1.0000   1.0000   1.0000   1.0000   1.0000   1.0000   1.0000   1.0000
     1.0000   1.0000   1.0000   1.0000   1.0000   1.0000   1.0000   1.0000
     1.0000   1.0000   1.0000   1.0000   1.0000   1.0000   1.0000   1.0000
     1.0000   1.0000   1.0000   1.0000   1.0000   1.0000

          k =-0.1193-1.7336-0.4991 ( 43432 PWs)   bands (ev):

   -20.7569 -20.7568 -20.7190 -20.7189 -15.7130 -15.7130 -15.7043 -15.7043
   -15.6993 -15.6993 -15.6408 -15.6408 -15.6251 -15.6251  -7.1653  -7.1651
    -6.3200  -6.3199  -6.1900  -6.1897  -5.9768  -5.9765  -5.0356  -5.0355
    -4.9651  -4.9650  -4.7964  -4.7964  -4.7721  -4.7720  -4.7283  -4.7282
    -4.6896  -4.6895  -0.9659  -0.9659   1.6750   1.6754   1.8053   1.8054
     2.0633   2.0634   2.5479   2.5481   2.8600   2.8602   2.9819   2.9823
     3.1992   3.1993   3.3819   3.3823   3.5773   3.5775   3.6617   3.6619
     3.7265   3.7268   4.5415   4.5423   4.7975   4.7983   4.9089   4.9096
     4.9229   4.9233   5.3082   5.3089   5.3193   5.3201   5.4684   5.4688
     5.7917   5.7922   6.0113   6.0120   6.1359   6.1364

     occupation numbers 
     1.0000   1.0000   1.0000   1.0000   1.0000   1.0000   1.0000   1.0000
     1.0000   1.0000   1.0000   1.0000   1.0000   1.0000   1.0000   1.0000
     1.0000   1.0000   1.0000   1.0000   1.0000   1.0000   1.0000   1.0000
     1.0000   1.0000   1.0000   1.0000   1.0000   1.0000   1.0000   1.0000
     1.0000   1.0000   1.0000   1.0000   1.0000   1.0000   1.0000   1.0000
     1.0000   1.0000   1.0000   1.0000   1.0000   1.0000   1.0000   1.0000
     1.0000   1.0000   1.0000   1.0000   1.0000   1.0000   1.0000   1.0000
     1.0000   1.0000   1.0000   1.0000   1.0000   1.0000   1.0000   1.0000
     1.0000   1.0000   1.0000   1.0000   1.0000   1.0000   1.0000   1.0000
     1.0000   1.0000   1.0000   1.0000   1.0000   1.0000

          k =-0.5131-0.1257 0.0001 ( 43432 PWs)   bands (ev):

   -20.7569 -20.7568 -20.7190 -20.7189 -15.7130 -15.7130 -15.7043 -15.7043
   -15.6993 -15.6993 -15.6408 -15.6408 -15.6251 -15.6251  -7.1653  -7.1650
    -6.3199  -6.3198  -6.1901  -6.1898  -5.9768  -5.9766  -5.0355  -5.0355
    -4.9651  -4.9650  -4.7964  -4.7964  -4.7721  -4.7720  -4.7283  -4.7282
    -4.6895  -4.6895  -0.9659  -0.9659   1.6750   1.6754   1.8053   1.8053
     2.0634   2.0634   2.5479   2.5480   2.8600   2.8602   2.9819   2.9823
     3.1993   3.1995   3.3820   3.3823   3.5772   3.5774   3.6617   3.6618
     3.7265   3.7268   4.5416   4.5423   4.7975   4.7983   4.9089   4.9097
     4.9228   4.9232   5.3082   5.3090   5.3193   5.3199   5.4684   5.4688
     5.7918   5.7925   6.0113   6.0117   6.1358   6.1364

     occupation numbers 
     1.0000   1.0000   1.0000   1.0000   1.0000   1.0000   1.0000   1.0000
     1.0000   1.0000   1.0000   1.0000   1.0000   1.0000   1.0000   1.0000
     1.0000   1.0000   1.0000   1.0000   1.0000   1.0000   1.0000   1.0000
     1.0000   1.0000   1.0000   1.0000   1.0000   1.0000   1.0000   1.0000
     1.0000   1.0000   1.0000   1.0000   1.0000   1.0000   1.0000   1.0000
     1.0000   1.0000   1.0000   1.0000   1.0000   1.0000   1.0000   1.0000
     1.0000   1.0000   1.0000   1.0000   1.0000   1.0000   1.0000   1.0000
     1.0000   1.0000   1.0000   1.0000   1.0000   1.0000   1.0000   1.0000
     1.0000   1.0000   1.0000   1.0000   1.0000   1.0000   1.0000   1.0000
     1.0000   1.0000   1.0000   1.0000   1.0000   1.0000

          k =-0.4535 0.2762 0.2497 ( 43437 PWs)   bands (ev):

   -20.7559 -20.7454 -20.7297 -20.7194 -15.7131 -15.7130 -15.7045 -15.7045
   -15.6995 -15.6994 -15.6406 -15.6406 -15.6252 -15.6250  -7.1617  -6.9861
    -6.4836  -6.2379  -6.2122  -6.1860  -6.1037  -6.0453  -5.0472  -4.9707
    -4.8955  -4.8828  -4.8232  -4.8135  -4.8043  -4.7995  -4.7741  -4.7268
    -4.6940  -4.6833  -0.9764  -0.8880   1.4085   1.4689   1.6944   1.8282
     2.1133   2.2595   2.3640   2.5683   2.6260   2.9968   3.0270   3.0821
     3.2135   3.2717   3.3121   3.3712   3.4073   3.5372   3.6787   3.6868
     3.7735   3.8229   4.6496   4.6624   4.7582   4.8372   4.8942   4.9176
     4.9794   5.0558   5.1531   5.2166   5.2602   5.3234   5.6425   5.7483
     5.8374   5.8797   5.9660   5.9926   6.1780   6.2010

     occupation numbers 
     1.0000   1.0000   1.0000   1.0000   1.0000   1.0000   1.0000   1.0000
     1.0000   1.0000   1.0000   1.0000   1.0000   1.0000   1.0000   1.0000
     1.0000   1.0000   1.0000   1.0000   1.0000   1.0000   1.0000   1.0000
     1.0000   1.0000   1.0000   1.0000   1.0000   1.0000   1.0000   1.0000
     1.0000   1.0000   1.0000   1.0000   1.0000   1.0000   1.0000   1.0000
     1.0000   1.0000   1.0000   1.0000   1.0000   1.0000   1.0000   1.0000
     1.0000   1.0000   1.0000   1.0000   1.0000   1.0000   1.0000   1.0000
     1.0000   1.0000   1.0000   1.0000   1.0000   1.0000   1.0000   1.0000
     1.0000   1.0000   1.0000   1.0000   1.0000   1.0000   1.0000   1.0000
     1.0000   1.0000   1.0000   1.0000   1.0000   1.0000

          k =-0.6325-0.9297-0.4990 ( 43450 PWs)   bands (ev):

   -20.7434 -20.7433 -20.7313 -20.7312 -15.7130 -15.7130 -15.7047 -15.7047
   -15.6996 -15.6996 -15.6404 -15.6404 -15.6251 -15.6251  -6.9913  -6.9912
    -6.4125  -6.4122  -6.1906  -6.1905  -6.1589  -6.1588  -4.9741  -4.9740
    -4.8984  -4.8984  -4.8480  -4.8480  -4.7924  -4.7924  -4.7694  -4.7694
    -4.6572  -4.6572  -0.8981  -0.8980   1.2366   1.2368   1.9328   1.9328
     2.0208   2.0212   2.2741   2.2742   2.9914   2.9916   3.0929   3.0932
     3.1905   3.1910   3.2763   3.2766   3.5120   3.5123   3.7247   3.7251
     3.7813   3.7817   4.7645   4.7649   4.8147   4.8151   4.9364   4.9366
     4.9763   4.9766   5.1979   5.1980   5.2414   5.2415   5.8588   5.8590
     5.9341   5.9344   6.0659   6.0659   6.1473   6.1474

     occupation numbers 
     1.0000   1.0000   1.0000   1.0000   1.0000   1.0000   1.0000   1.0000
     1.0000   1.0000   1.0000   1.0000   1.0000   1.0000   1.0000   1.0000
     1.0000   1.0000   1.0000   1.0000   1.0000   1.0000   1.0000   1.0000
     1.0000   1.0000   1.0000   1.0000   1.0000   1.0000   1.0000   1.0000
     1.0000   1.0000   1.0000   1.0000   1.0000   1.0000   1.0000   1.0000
     1.0000   1.0000   1.0000   1.0000   1.0000   1.0000   1.0000   1.0000
     1.0000   1.0000   1.0000   1.0000   1.0000   1.0000   1.0000   1.0000
     1.0000   1.0000   1.0000   1.0000   1.0000   1.0000   1.0000   1.0000
     1.0000   1.0000   1.0000   1.0000   1.0000   1.0000   1.0000   1.0000
     1.0000   1.0000   1.0000   1.0000   1.0000   1.0000

          k =-0.5132 0.3391 0.0001 ( 43424 PWs)   bands (ev):

   -20.7517 -20.7516 -20.7236 -20.7235 -15.7130 -15.7130 -15.7045 -15.7045
   -15.6995 -15.6995 -15.6406 -15.6406 -15.6251 -15.6251  -7.0932  -7.0817
    -6.3782  -6.3031  -6.2206  -6.1857  -6.1302  -6.0273  -5.0112  -4.9946
    -4.8764  -4.8633  -4.8569  -4.8275  -4.8148  -4.8093  -4.7568  -4.7381
    -4.6835  -4.6795  -0.9542  -0.9094   1.4450   1.5091   1.6118   1.7530
     2.1933   2.2879   2.4007   2.4530   2.7752   2.9025   2.9956   3.1253
     3.1946   3.2303   3.2989   3.3893   3.4103   3.5802   3.6940   3.7289
     3.7480   3.7827   4.6377   4.6760   4.7903   4.8069   4.8852   4.9129
     5.0117   5.0261   5.1843   5.2080   5.2522   5.3120   5.6563   5.7113
     5.7948   5.8864   5.9779   5.9986   6.2090   6.2550

     occupation numbers 
     1.0000   1.0000   1.0000   1.0000   1.0000   1.0000   1.0000   1.0000
     1.0000   1.0000   1.0000   1.0000   1.0000   1.0000   1.0000   1.0000
     1.0000   1.0000   1.0000   1.0000   1.0000   1.0000   1.0000   1.0000
     1.0000   1.0000   1.0000   1.0000   1.0000   1.0000   1.0000   1.0000
     1.0000   1.0000   1.0000   1.0000   1.0000   1.0000   1.0000   1.0000
     1.0000   1.0000   1.0000   1.0000   1.0000   1.0000   1.0000   1.0000
     1.0000   1.0000   1.0000   1.0000   1.0000   1.0000   1.0000   1.0000
     1.0000   1.0000   1.0000   1.0000   1.0000   1.0000   1.0000   1.0000
     1.0000   1.0000   1.0000   1.0000   1.0000   1.0000   1.0000   1.0000
     1.0000   1.0000   1.0000   1.0000   1.0000   1.0000

          k =-0.4535 0.7411 0.2497 ( 43432 PWs)   bands (ev):

   -20.7434 -20.7433 -20.7313 -20.7312 -15.7130 -15.7130 -15.7047 -15.7047
   -15.6996 -15.6996 -15.6404 -15.6404 -15.6251 -15.6251  -7.0189  -6.9592
    -6.4449  -6.3544  -6.2676  -6.2066  -6.1540  -6.1021  -4.9699  -4.9648
    -4.9177  -4.8813  -4.8543  -4.8391  -4.8099  -4.7947  -4.7640  -4.7410
    -4.6735  -4.6673  -0.9260  -0.8681   1.2055   1.3335   1.6683   1.8077
     2.1189   2.2486   2.3030   2.3300   2.8497   2.9659   3.0847   3.1608
     3.2128   3.2507   3.2714   3.3143   3.4238   3.5526   3.6856   3.7216
     3.7591   3.8118   4.7348   4.7827   4.8006   4.8402   4.9374   4.9639
     4.9736   5.0056   5.1426   5.1801   5.2119   5.2840   5.7746   5.8894
     5.9394   5.9789   6.0208   6.0830   6.1100   6.1711

     occupation numbers 
     1.0000   1.0000   1.0000   1.0000   1.0000   1.0000   1.0000   1.0000
     1.0000   1.0000   1.0000   1.0000   1.0000   1.0000   1.0000   1.0000
     1.0000   1.0000   1.0000   1.0000   1.0000   1.0000   1.0000   1.0000
     1.0000   1.0000   1.0000   1.0000   1.0000   1.0000   1.0000   1.0000
     1.0000   1.0000   1.0000   1.0000   1.0000   1.0000   1.0000   1.0000
     1.0000   1.0000   1.0000   1.0000   1.0000   1.0000   1.0000   1.0000
     1.0000   1.0000   1.0000   1.0000   1.0000   1.0000   1.0000   1.0000
     1.0000   1.0000   1.0000   1.0000   1.0000   1.0000   1.0000   1.0000
     1.0000   1.0000   1.0000   1.0000   1.0000   1.0000   1.0000   1.0000
     1.0000   1.0000   1.0000   1.0000   1.0000   1.0000

          k =-0.6325-0.4648-0.4990 ( 43453 PWs)   bands (ev):

   -20.7574 -20.7397 -20.7353 -20.7179 -15.7131 -15.7130 -15.7046 -15.7045
   -15.6995 -15.6994 -15.6406 -15.6406 -15.6252 -15.6250  -7.1924  -6.9476
    -6.5852  -6.2071  -6.1638  -6.1057  -6.1008  -6.0564  -5.0682  -4.9738
    -4.9234  -4.9090  -4.8205  -4.8149  -4.7975  -4.7935  -4.7544  -4.7325
    -4.7143  -4.6825  -0.9772  -0.8930   1.4254   1.4414   1.8148   1.9031
     2.0303   2.2636   2.3087   2.5657   2.6138   2.9313   3.0360   3.0999
     3.2062   3.2292   3.3040   3.3719   3.4394   3.5997   3.6324   3.6702
     3.7511   3.9361   4.6354   4.6677   4.7303   4.8652   4.9007   4.9192
     4.9839   5.0533   5.1178   5.2267   5.2914   5.3077   5.6065   5.7458
     5.8066   5.9653   5.9841   6.0272   6.0909   6.1779

     occupation numbers 
     1.0000   1.0000   1.0000   1.0000   1.0000   1.0000   1.0000   1.0000
     1.0000   1.0000   1.0000   1.0000   1.0000   1.0000   1.0000   1.0000
     1.0000   1.0000   1.0000   1.0000   1.0000   1.0000   1.0000   1.0000
     1.0000   1.0000   1.0000   1.0000   1.0000   1.0000   1.0000   1.0000
     1.0000   1.0000   1.0000   1.0000   1.0000   1.0000   1.0000   1.0000
     1.0000   1.0000   1.0000   1.0000   1.0000   1.0000   1.0000   1.0000
     1.0000   1.0000   1.0000   1.0000   1.0000   1.0000   1.0000   1.0000
     1.0000   1.0000   1.0000   1.0000   1.0000   1.0000   1.0000   1.0000
     1.0000   1.0000   1.0000   1.0000   1.0000   1.0000   1.0000   1.0000
     1.0000   1.0000   1.0000   1.0000   1.0000   1.0000

          k =-0.5728-0.0629-0.2494 ( 43489 PWs)   bands (ev):

   -20.7627 -20.7483 -20.7275 -20.7133 -15.7131 -15.7130 -15.7044 -15.7043
   -15.6994 -15.6993 -15.6408 -15.6408 -15.6252 -15.6250  -7.2747  -7.0304
    -6.5199  -6.1760  -6.1494  -6.1471  -6.0040  -5.9582  -5.0877  -5.0450
    -4.9371  -4.9188  -4.8278  -4.8166  -4.7718  -4.7650  -4.7311  -4.7164
    -4.7073  -4.7018  -1.0211  -0.9207   1.6228   1.6675   1.7842   1.9806
     2.0387   2.1368   2.4796   2.6599   2.6886   2.8019   2.9728   3.1236
     3.1678   3.2501   3.2968   3.4173   3.4360   3.5613   3.5763   3.6823
     3.6937   4.0025   4.5271   4.5523   4.7911   4.8048   4.8415   4.8863
     4.9525   5.0277   5.2507   5.2967   5.3356   5.3664   5.3702   5.5354
     5.6179   5.9060   5.9731   6.0492   6.1397   6.1768

     occupation numbers 
     1.0000   1.0000   1.0000   1.0000   1.0000   1.0000   1.0000   1.0000
     1.0000   1.0000   1.0000   1.0000   1.0000   1.0000   1.0000   1.0000
     1.0000   1.0000   1.0000   1.0000   1.0000   1.0000   1.0000   1.0000
     1.0000   1.0000   1.0000   1.0000   1.0000   1.0000   1.0000   1.0000
     1.0000   1.0000   1.0000   1.0000   1.0000   1.0000   1.0000   1.0000
     1.0000   1.0000   1.0000   1.0000   1.0000   1.0000   1.0000   1.0000
     1.0000   1.0000   1.0000   1.0000   1.0000   1.0000   1.0000   1.0000
     1.0000   1.0000   1.0000   1.0000   1.0000   1.0000   1.0000   1.0000
     1.0000   1.0000   1.0000   1.0000   1.0000   1.0000   1.0000   1.0000
     1.0000   1.0000   1.0000   1.0000   1.0000   1.0000

          k =-0.5131-1.0554 0.0001 ( 43366 PWs)   bands (ev):

   -20.7434 -20.7433 -20.7313 -20.7312 -15.7130 -15.7130 -15.7047 -15.7047
   -15.6996 -15.6996 -15.6404 -15.6404 -15.6251 -15.6251  -7.0303  -6.9428
    -6.4431  -6.3270  -6.3001  -6.2573  -6.1335  -6.0735  -4.9687  -4.9575
    -4.9417  -4.8619  -4.8467  -4.8322  -4.8183  -4.8078  -4.7335  -4.7251
    -4.7031  -4.6811  -0.9369  -0.8553   1.2357   1.3922   1.5092   1.7415
     2.1291   2.3149   2.3952   2.4014   2.7419   2.9617   3.0388   3.2079
     3.2081   3.2889   3.3216   3.3465   3.3809   3.5348   3.6564   3.7005
     3.7838   3.7997   4.7198   4.7896   4.8042   4.8449   4.9463   4.9685
     5.0068   5.0311   5.1085   5.1564   5.1765   5.2992   5.7292   5.8986
     5.9250   5.9778   6.0450   6.0816   6.1150   6.1494

     occupation numbers 
     1.0000   1.0000   1.0000   1.0000   1.0000   1.0000   1.0000   1.0000
     1.0000   1.0000   1.0000   1.0000   1.0000   1.0000   1.0000   1.0000
     1.0000   1.0000   1.0000   1.0000   1.0000   1.0000   1.0000   1.0000
     1.0000   1.0000   1.0000   1.0000   1.0000   1.0000   1.0000   1.0000
     1.0000   1.0000   1.0000   1.0000   1.0000   1.0000   1.0000   1.0000
     1.0000   1.0000   1.0000   1.0000   1.0000   1.0000   1.0000   1.0000
     1.0000   1.0000   1.0000   1.0000   1.0000   1.0000   1.0000   1.0000
     1.0000   1.0000   1.0000   1.0000   1.0000   1.0000   1.0000   1.0000
     1.0000   1.0000   1.0000   1.0000   1.0000   1.0000   1.0000   1.0000
     1.0000   1.0000   1.0000   1.0000   1.0000   1.0000

          k =-0.4534-0.6534 0.2497 ( 43437 PWs)   bands (ev):

   -20.7559 -20.7454 -20.7297 -20.7194 -15.7131 -15.7130 -15.7045 -15.7045
   -15.6995 -15.6995 -15.6406 -15.6406 -15.6252 -15.6250  -7.1642  -7.0085
    -6.5243  -6.2105  -6.1519  -6.1404  -6.1340  -6.0286  -5.0489  -4.9837
    -4.9209  -4.8967  -4.8297  -4.8094  -4.8057  -4.7906  -4.7836  -4.7403
    -4.6937  -4.6785  -0.9488  -0.9207   1.4292   1.4964   1.7388   1.7922
     2.1478   2.2764   2.3712   2.5329   2.5852   2.9139   3.1027   3.1246
     3.1429   3.2260   3.3088   3.3192   3.4357   3.5953   3.6646   3.7151
     3.7452   3.9086   4.6281   4.6770   4.7437   4.8510   4.9008   4.9176
     4.9936   5.0383   5.1402   5.2283   5.2735   5.3048   5.6052   5.7344
     5.7832   5.9329   5.9889   6.0099   6.1621   6.2242

     occupation numbers 
     1.0000   1.0000   1.0000   1.0000   1.0000   1.0000   1.0000   1.0000
     1.0000   1.0000   1.0000   1.0000   1.0000   1.0000   1.0000   1.0000
     1.0000   1.0000   1.0000   1.0000   1.0000   1.0000   1.0000   1.0000
     1.0000   1.0000   1.0000   1.0000   1.0000   1.0000   1.0000   1.0000
     1.0000   1.0000   1.0000   1.0000   1.0000   1.0000   1.0000   1.0000
     1.0000   1.0000   1.0000   1.0000   1.0000   1.0000   1.0000   1.0000
     1.0000   1.0000   1.0000   1.0000   1.0000   1.0000   1.0000   1.0000
     1.0000   1.0000   1.0000   1.0000   1.0000   1.0000   1.0000   1.0000
     1.0000   1.0000   1.0000   1.0000   1.0000   1.0000   1.0000   1.0000
     1.0000   1.0000   1.0000   1.0000   1.0000   1.0000

          k =-0.6325-1.8593-0.4990 ( 43494 PWs)   bands (ev):

   -20.7647 -20.7398 -20.7360 -20.7112 -15.7131 -15.7129 -15.7044 -15.7043
   -15.6994 -15.6993 -15.6408 -15.6408 -15.6252 -15.6250  -7.3167  -6.9493
    -6.6292  -6.1582  -6.0818  -6.0706  -6.0633  -5.9466  -5.1179  -5.0551
    -4.8842  -4.8791  -4.8733  -4.8591  -4.7615  -4.7598  -4.7437  -4.7335
    -4.7069  -4.7054  -1.0499  -0.9020   1.6104   1.6290   1.8474   2.0411
     2.0859   2.1802   2.4637   2.5518   2.7549   2.8279   2.8501   3.0741
     3.1619   3.2678   3.3309   3.4087   3.4519   3.5026   3.5758   3.6872
     3.7001   4.1174   4.5212   4.5502   4.7886   4.7983   4.8160   4.8787
     4.9794   5.1121   5.2261   5.2411   5.3004   5.3833   5.3934   5.5433
     5.5540   5.8976   6.0188   6.0320   6.1653   6.1875

     occupation numbers 
     1.0000   1.0000   1.0000   1.0000   1.0000   1.0000   1.0000   1.0000
     1.0000   1.0000   1.0000   1.0000   1.0000   1.0000   1.0000   1.0000
     1.0000   1.0000   1.0000   1.0000   1.0000   1.0000   1.0000   1.0000
     1.0000   1.0000   1.0000   1.0000   1.0000   1.0000   1.0000   1.0000
     1.0000   1.0000   1.0000   1.0000   1.0000   1.0000   1.0000   1.0000
     1.0000   1.0000   1.0000   1.0000   1.0000   1.0000   1.0000   1.0000
     1.0000   1.0000   1.0000   1.0000   1.0000   1.0000   1.0000   1.0000
     1.0000   1.0000   1.0000   1.0000   1.0000   1.0000   1.0000   1.0000
     1.0000   1.0000   1.0000   1.0000   1.0000   1.0000   1.0000   1.0000
     1.0000   1.0000   1.0000   1.0000   1.0000   1.0000

     highest occupied level (ev):     6.2550

!    total energy              =   -1568.23797019 Ry
     estimated scf accuracy    <          2.8E-11 Ry

     The total energy is the sum of the following terms:
     one-electron contribution =    -582.44130613 Ry
     hartree contribution      =     399.71417799 Ry
     xc contribution           =    -371.70269522 Ry
     ewald contribution        =    -654.54707396 Ry
     one-center paw contrib.   =    -359.26107287 Ry
      -> PAW hartree energy AE =       0.00000000 Ry
      -> PAW hartree energy PS =       0.00000000 Ry
      -> PAW xc energy AE      =       0.00000000 Ry
      -> PAW xc energy PS      =       0.00000000 Ry
      -> total E_H with PAW    =     399.71417799 Ry
      -> total E_XC with PAW   =    -371.70269522 Ry

     convergence has been achieved in  10 iterations

     Forces acting on atoms (cartesian axes, Ry/au):

     atom    1 type  2   force =     0.00003418    0.00017733    0.00010640
     atom    2 type  2   force =    -0.00003418   -0.00017733   -0.00010640
     atom    3 type  2   force =    -0.00010982    0.00016491   -0.00000207
     atom    4 type  2   force =     0.00010982   -0.00016491    0.00000207
     atom    5 type  1   force =    -0.00001640    0.00001297   -0.00004181
     atom    6 type  1   force =     0.00001640   -0.00001297    0.00004181
     atom    7 type  1   force =     0.00001548    0.00000343    0.00004998
     atom    8 type  1   force =    -0.00001548   -0.00000343   -0.00004998
     atom    9 type  4   force =     0.00000231   -0.00000984    0.00000978
     atom   10 type  4   force =    -0.00000231    0.00000984   -0.00000978
     atom   11 type  3   force =     0.00030146    0.00071323   -0.00102127
     atom   12 type  3   force =    -0.00030146   -0.00071323    0.00102127
     atom   13 type  3   force =     0.00105429    0.00017646   -0.00067935
     atom   14 type  3   force =    -0.00105429   -0.00017646    0.00067935
     atom   15 type  3   force =    -0.00044068   -0.00016505    0.00116818
     atom   16 type  3   force =     0.00044068    0.00016505   -0.00116818
     atom   17 type  3   force =    -0.00092533   -0.00069581    0.00051866
     atom   18 type  3   force =     0.00092533    0.00069581   -0.00051866
     The non-local contrib.  to forces
     atom    1 type  2   force =    -0.00074657   -0.00516196   -0.00317325
     atom    2 type  2   force =     0.00074657    0.00516196    0.00317325
     atom    3 type  2   force =     0.00324951   -0.00515314   -0.00003052
     atom    4 type  2   force =    -0.00324951    0.00515314    0.00003052
     atom    5 type  1   force =    -0.07080250    0.00001108   -0.05567400
     atom    6 type  1   force =     0.07080250   -0.00001108    0.05567400
     atom    7 type  1   force =     0.07075348    0.00015477    0.05583718
     atom    8 type  1   force =    -0.07075348   -0.00015477   -0.05583718
     atom    9 type  4   force =     0.00000109   -0.00012641   -0.00005682
     atom   10 type  4   force =    -0.00000109    0.00012641    0.00005682
     atom   11 type  3   force =     0.12349236    0.12976686   -0.12852819
     atom   12 type  3   force =    -0.12349236   -0.12976686    0.12852819
     atom   13 type  3   force =     0.12152190    0.02661971   -0.18191909
     atom   14 type  3   force =    -0.12152190   -0.02661971    0.18191909
     atom   15 type  3   force =    -0.14876423   -0.02657810    0.16060280
     atom   16 type  3   force =     0.14876423    0.02657810   -0.16060280
     atom   17 type  3   force =    -0.09631808   -0.12969877    0.14990093
     atom   18 type  3   force =     0.09631808    0.12969877   -0.14990093
     The ionic contribution  to forces
     atom    1 type  2   force =    -0.76526865   -0.44116703   -0.82540263
     atom    2 type  2   force =     0.76526865    0.44116703    0.82540263
     atom    3 type  2   force =     0.98078242   -0.44096589    0.55159372
     atom    4 type  2   force =    -0.98078242    0.44096589   -0.55159372
     atom    5 type  1   force =     2.93726604   -0.00155788    2.31566627
     atom    6 type  1   force =    -2.93726604    0.00155788   -2.31566627
     atom    7 type  1   force =    -2.93615915   -0.00199632   -2.31609907
     atom    8 type  1   force =     2.93615915    0.00199632    2.31609907
     atom    9 type  4   force =    -0.00109014   -0.00028365    0.00017000
     atom   10 type  4   force =     0.00109014    0.00028365   -0.00017000
     atom   11 type  3   force =    -3.27576049   -4.78984995    7.45185453
     atom   12 type  3   force =     3.27576049    4.78984995   -7.45185453
     atom   13 type  3   force =    -7.19184428   -1.89533034    5.81994629
     atom   14 type  3   force =     7.19184428    1.89533034   -5.81994629
     atom   15 type  3   force =     3.98518962    1.89531806   -8.35044444
     atom   16 type  3   force =    -3.98518962   -1.89531806    8.35044444
     atom   17 type  3   force =     6.48252224    4.78947711   -4.92140786
     atom   18 type  3   force =    -6.48252224   -4.78947711    4.92140786
     The local contribution  to forces
     atom    1 type  2   force =     0.76604902    0.44650816    0.82868130
     atom    2 type  2   force =    -0.76604902   -0.44650816   -0.82868130
     atom    3 type  2   force =    -0.98414079    0.44628575   -0.55156511
     atom    4 type  2   force =     0.98414079   -0.44628575    0.55156511
     atom    5 type  1   force =    -2.86820679    0.00157394   -2.26135923
     atom    6 type  1   force =     2.86820679   -0.00157394    2.26135923
     atom    7 type  1   force =     2.86711652    0.00187503    2.26165980
     atom    8 type  1   force =    -2.86711652   -0.00187503   -2.26165980
     atom    9 type  4   force =     0.00109314    0.00039085   -0.00010054
     atom   10 type  4   force =    -0.00109314   -0.00039085    0.00010054
     atom   11 type  3   force =     3.15917798    4.66775303   -7.33145948
     atom   12 type  3   force =    -3.15917798   -4.66775303    7.33145948
     atom   13 type  3   force =     7.07808438    1.87042890   -5.64846321
     atom   14 type  3   force =    -7.07808438   -1.87042890    5.64846321
     atom   15 type  3   force =    -3.84480033   -1.87044448    8.19980860
     atom   16 type  3   force =     3.84480033    1.87044448   -8.19980860
     atom   17 type  3   force =    -6.39251147   -4.66742695    4.78010134
     atom   18 type  3   force =     6.39251147    4.66742695   -4.78010134
     The core correction contribution to forces
     atom    1 type  2   force =     0.00000000    0.00000000    0.00000000
     atom    2 type  2   force =     0.00000000    0.00000000    0.00000000
     atom    3 type  2   force =     0.00000000    0.00000000    0.00000000
     atom    4 type  2   force =     0.00000000    0.00000000    0.00000000
     atom    5 type  1   force =     0.00172747   -0.00001414    0.00132569
     atom    6 type  1   force =    -0.00172747    0.00001414   -0.00132569
     atom    7 type  1   force =    -0.00169522   -0.00003023   -0.00134792
     atom    8 type  1   force =     0.00169522    0.00003023    0.00134792
     atom    9 type  4   force =     0.00000191    0.00000673   -0.00000027
     atom   10 type  4   force =    -0.00000191   -0.00000673    0.00000027
     atom   11 type  3   force =    -0.00660664   -0.00695622    0.00711374
     atom   12 type  3   force =     0.00660664    0.00695622   -0.00711374
     atom   13 type  3   force =    -0.00670692   -0.00154153    0.00975522
     atom   14 type  3   force =     0.00670692    0.00154153   -0.00975522
     atom   15 type  3   force =     0.00793300    0.00153920   -0.00879770
     atom   16 type  3   force =    -0.00793300   -0.00153920    0.00879770
     atom   17 type  3   force =     0.00538420    0.00695232   -0.00807450
     atom   18 type  3   force =    -0.00538420   -0.00695232    0.00807450
     The Hubbard contrib.    to forces
     atom    1 type  2   force =     0.00000000    0.00000000    0.00000000
     atom    2 type  2   force =     0.00000000    0.00000000    0.00000000
     atom    3 type  2   force =     0.00000000    0.00000000    0.00000000
     atom    4 type  2   force =     0.00000000    0.00000000    0.00000000
     atom    5 type  1   force =     0.00000000    0.00000000    0.00000000
     atom    6 type  1   force =     0.00000000    0.00000000    0.00000000
     atom    7 type  1   force =     0.00000000    0.00000000    0.00000000
     atom    8 type  1   force =     0.00000000    0.00000000    0.00000000
     atom    9 type  4   force =     0.00000000    0.00000000    0.00000000
     atom   10 type  4   force =     0.00000000    0.00000000    0.00000000
     atom   11 type  3   force =     0.00000000    0.00000000    0.00000000
     atom   12 type  3   force =     0.00000000    0.00000000    0.00000000
     atom   13 type  3   force =     0.00000000    0.00000000    0.00000000
     atom   14 type  3   force =     0.00000000    0.00000000    0.00000000
     atom   15 type  3   force =     0.00000000    0.00000000    0.00000000
     atom   16 type  3   force =     0.00000000    0.00000000    0.00000000
     atom   17 type  3   force =     0.00000000    0.00000000    0.00000000
     atom   18 type  3   force =     0.00000000    0.00000000    0.00000000
     The SCF correction term to forces
     atom    1 type  2   force =     0.00000039   -0.00000184    0.00000097
     atom    2 type  2   force =    -0.00000039    0.00000184   -0.00000097
     atom    3 type  2   force =    -0.00000097   -0.00000181   -0.00000015
     atom    4 type  2   force =     0.00000097    0.00000181    0.00000015
     atom    5 type  1   force =    -0.00000062   -0.00000002   -0.00000055
     atom    6 type  1   force =     0.00000062    0.00000002    0.00000055
     atom    7 type  1   force =    -0.00000016    0.00000019   -0.00000001
     atom    8 type  1   force =     0.00000016   -0.00000019    0.00000001
     atom    9 type  4   force =    -0.00000369    0.00000263   -0.00000259
     atom   10 type  4   force =     0.00000369   -0.00000263    0.00000259
     atom   11 type  3   force =    -0.00000175   -0.00000050   -0.00000187
     atom   12 type  3   force =     0.00000175    0.00000050    0.00000187
     atom   13 type  3   force =    -0.00000080   -0.00000029    0.00000144
     atom   14 type  3   force =     0.00000080    0.00000029   -0.00000144
     atom   15 type  3   force =     0.00000125    0.00000027   -0.00000109
     atom   16 type  3   force =    -0.00000125   -0.00000027    0.00000109
     atom   17 type  3   force =    -0.00000223    0.00000048   -0.00000125
     atom   18 type  3   force =     0.00000223   -0.00000048    0.00000125

     Total force =     0.003614     Total SCF correction =     0.000011


     Computing stress (Cartesian axis) and pressure

          total   stress  (Ry/bohr**3)                   (kbar)     P=        0.32
   0.00000311   0.00000011   0.00000107            0.46        0.02        0.16
   0.00000011   0.00000122  -0.00000001            0.02        0.18       -0.00
   0.00000107  -0.00000001   0.00000227            0.16       -0.00        0.33

     kinetic stress (kbar)   7770.56     -4.35    -22.39
                               -4.35   7813.61      5.58
                              -22.39      5.58   7780.87

     local   stress (kbar)  -2105.89   3589.86  -6631.70
                             3589.86  -6060.94  -4550.79
                            -6631.70  -4550.79   1071.02

     nonloc. stress (kbar)   2082.68      0.39     -2.22
                                0.39   2084.01     -0.47
                               -2.22     -0.47   2083.59

     hartree stress (kbar)   6318.17  -1713.68   3113.09
                            -1713.68   8273.09   2172.46
                             3113.09   2172.46   4826.83

     exc-cor stress (kbar)   5886.66     -0.24      0.10
                               -0.24   5887.33      0.30
                                0.10      0.30   5886.60

     corecor stress (kbar)  -9266.33      0.30     -0.34
                                0.30  -9266.90     -0.39
                               -0.34     -0.39  -9266.13

     ewald   stress (kbar) -10685.39  -1872.27   3543.61
                            -1872.27  -8730.01   2373.30
                             3543.61   2373.30 -12382.45

     hubbard stress (kbar)      0.00      0.00      0.00
                                0.00      0.00      0.00
                                0.00      0.00      0.00

     DFT-D   stress (kbar)      0.00      0.00      0.00
                                0.00      0.00      0.00
                                0.00      0.00      0.00

     XDM     stress (kbar)      0.00      0.00      0.00
                                0.00      0.00      0.00
                                0.00      0.00      0.00

     dft-nl  stress (kbar)      0.00      0.00      0.00
                                0.00      0.00      0.00
                                0.00      0.00      0.00

     TS-vdW  stress (kbar)      0.00      0.00      0.00
                                0.00      0.00      0.00
                                0.00      0.00      0.00

     MDB     stress (kbar)      0.00      0.00      0.00
                                0.00      0.00      0.00
                                0.00      0.00      0.00

     3D-RISM stress (kbar)      0.00      0.00      0.00
                                0.00      0.00      0.00
                                0.00      0.00      0.00

     Energy error            =      6.5E-05 Ry
     Gradient error          =      1.2E-03 Ry/Bohr
     Cell gradient error     =      4.6E-01 kbar

     number of scf cycles    =   4
     number of bfgs steps    =   3

     enthalpy           old  =   -1568.2379050912 Ry
     enthalpy           new  =   -1568.2379701918 Ry

     CASE: enthalpy          _new < enthalpy          _old

     new trust radius        =       0.0083245868 bohr
     new conv_thr            =       0.0000000001 Ry

     new unit-cell volume =   3033.90993 a.u.^3 (   449.57907 Ang^3 )
     density =      4.02594 g/cm^3

CELL_PARAMETERS (angstrom)
   9.253265776   0.000544715  -2.211920579
  -1.254393766   5.106864603  -7.927431338
   0.003588810  -0.000217533   9.513214156

ATOMIC_POSITIONS (crystal)
Rb               0.1243810377        0.7284999292        0.8528743427
Rb               0.8756189623        0.2715000708        0.1471256573
Rb               0.3756243026        0.2284861349        0.6041112953
Rb               0.6243756974        0.7715138651        0.3958887047
Cu               0.0245595706        0.7500161314        0.2745600809
Cu               0.9754404294        0.2499838686        0.7254399191
Cu               0.4754382199        0.7500074439        0.7254630181
Cu               0.5245617801        0.2499925561        0.2745369819
Sn               0.2500046088        0.2499921593       -0.0000014738
Sn               0.7499953912        0.7500078407        0.0000014738
S                0.0164130611        0.9190987550        0.6374995838
S                0.9835869389        0.0809012450        0.3625004162
S                0.2815935639        0.3789315559        0.3625190814
S                0.7184064361        0.6210684441        0.6374809186
S                0.4835737878        0.1210811090        0.9026627243
S                0.5164262122        0.8789188910        0.0973372757
S                0.2184093246        0.5809125547        0.0973233525
S                0.7815906754        0.4190874453        0.9026766475



     Writing config-only to output data dir ./tmp/relax/Rb2Cu2SnS4_relax.save/ :
     XML data file
     NEW-OLD atomic charge density approx. for the potential
     New effective cutoffs (rho, wfc):  717.08   89.64

     total cpu time spent up to now is     1083.0 secs

     Self-consistent Calculation

     iteration #  1     ecut=    90.00 Ry     beta= 0.30
     Davidson diagonalization with overlap

---- Real-time Memory Report at c_bands before calling an iterative solver
             0 MiB given to the printing process from OS
             0 MiB allocation reported by mallinfo(arena+hblkhd)
             0 MiB available memory on the node where the printing process lives
------------------
     ethr =  1.00E-06,  avg # of iterations =  2.0

     Threshold (ethr) on eigenvalues was too large:
     Diagonalizing with lowered threshold

     Davidson diagonalization with overlap

---- Real-time Memory Report at c_bands before calling an iterative solver
             0 MiB given to the printing process from OS
             0 MiB allocation reported by mallinfo(arena+hblkhd)
             0 MiB available memory on the node where the printing process lives
------------------
     ethr =  1.18E-08,  avg # of iterations =  7.8

     total cpu time spent up to now is     1141.0 secs

     total energy              =   -1568.23798779 Ry
     estimated scf accuracy    <       0.00000807 Ry

     iteration #  2     ecut=    90.00 Ry     beta= 0.30
     Davidson diagonalization with overlap

---- Real-time Memory Report at c_bands before calling an iterative solver
             0 MiB given to the printing process from OS
             0 MiB allocation reported by mallinfo(arena+hblkhd)
             0 MiB available memory on the node where the printing process lives
------------------
     ethr =  5.17E-09,  avg # of iterations =  3.3

     total cpu time spent up to now is     1161.3 secs

     total energy              =   -1568.23799564 Ry
     estimated scf accuracy    <       0.00000125 Ry

     iteration #  3     ecut=    90.00 Ry     beta= 0.30
     Davidson diagonalization with overlap

---- Real-time Memory Report at c_bands before calling an iterative solver
             0 MiB given to the printing process from OS
             0 MiB allocation reported by mallinfo(arena+hblkhd)
             0 MiB available memory on the node where the printing process lives
------------------
     ethr =  8.02E-10,  avg # of iterations =  4.3

     total cpu time spent up to now is     1182.4 secs

     total energy              =   -1568.23799941 Ry
     estimated scf accuracy    <       0.00000027 Ry

     iteration #  4     ecut=    90.00 Ry     beta= 0.30
     Davidson diagonalization with overlap

---- Real-time Memory Report at c_bands before calling an iterative solver
             0 MiB given to the printing process from OS
             0 MiB allocation reported by mallinfo(arena+hblkhd)
             0 MiB available memory on the node where the printing process lives
------------------
     ethr =  1.72E-10,  avg # of iterations =  5.2

     total cpu time spent up to now is     1204.6 secs

     total energy              =   -1568.23800114 Ry
     estimated scf accuracy    <       0.00000012 Ry

     iteration #  5     ecut=    90.00 Ry     beta= 0.30
     Davidson diagonalization with overlap

---- Real-time Memory Report at c_bands before calling an iterative solver
             0 MiB given to the printing process from OS
             0 MiB allocation reported by mallinfo(arena+hblkhd)
             0 MiB available memory on the node where the printing process lives
------------------
     ethr =  7.76E-11,  avg # of iterations =  4.7

     total cpu time spent up to now is     1228.0 secs

     total energy              =   -1568.23800211 Ry
     estimated scf accuracy    <       0.00000004 Ry

     iteration #  6     ecut=    90.00 Ry     beta= 0.30
     Davidson diagonalization with overlap

---- Real-time Memory Report at c_bands before calling an iterative solver
             0 MiB given to the printing process from OS
             0 MiB allocation reported by mallinfo(arena+hblkhd)
             0 MiB available memory on the node where the printing process lives
------------------
     ethr =  2.82E-11,  avg # of iterations =  5.2

     total cpu time spent up to now is     1252.3 secs

     total energy              =   -1568.23800256 Ry
     estimated scf accuracy    <       0.00000004 Ry

     iteration #  7     ecut=    90.00 Ry     beta= 0.30
     Davidson diagonalization with overlap

---- Real-time Memory Report at c_bands before calling an iterative solver
             0 MiB given to the printing process from OS
             0 MiB allocation reported by mallinfo(arena+hblkhd)
             0 MiB available memory on the node where the printing process lives
------------------
     ethr =  2.53E-11,  avg # of iterations =  3.5

     total cpu time spent up to now is     1272.8 secs

     total energy              =   -1568.23800278 Ry
     estimated scf accuracy    <          1.2E-09 Ry

     iteration #  8     ecut=    90.00 Ry     beta= 0.30
     Davidson diagonalization with overlap

---- Real-time Memory Report at c_bands before calling an iterative solver
             0 MiB given to the printing process from OS
             0 MiB allocation reported by mallinfo(arena+hblkhd)
             0 MiB available memory on the node where the printing process lives
------------------
     ethr =  7.47E-13,  avg # of iterations =  5.8

     total cpu time spent up to now is     1302.4 secs

     total energy              =   -1568.23800289 Ry
     estimated scf accuracy    <          2.5E-09 Ry

     iteration #  9     ecut=    90.00 Ry     beta= 0.30
     Davidson diagonalization with overlap

---- Real-time Memory Report at c_bands before calling an iterative solver
             0 MiB given to the printing process from OS
             0 MiB allocation reported by mallinfo(arena+hblkhd)
             0 MiB available memory on the node where the printing process lives
------------------
     ethr =  7.47E-13,  avg # of iterations =  3.5

     total cpu time spent up to now is     1322.7 secs

     End of self-consistent calculation

          k = 0.0000 0.0000 0.0000 ( 43377 PWs)   bands (ev):

   -20.7880 -20.7632 -20.7595 -20.7350 -15.7303 -15.7302 -15.7218 -15.7217
   -15.7171 -15.7170 -15.6591 -15.6591 -15.6432 -15.6430  -7.2690  -6.9384
    -6.6294  -6.3054  -6.1389  -6.1382  -6.1377  -5.9106  -5.1465  -5.0695
    -4.9091  -4.9035  -4.8504  -4.8370  -4.7960  -4.7958  -4.7537  -4.7298
    -4.7292  -4.6534  -1.0768  -0.8762   1.5129   1.6068   1.8323   1.9799
     2.0561   2.1138   2.1664   2.4908   2.8420   2.9605   3.0853   3.1274
     3.2555   3.2672   3.3568   3.3622   3.3758   3.4120   3.5303   3.6338
     3.7573   3.7773   4.5092   4.5564   4.7734   4.7740   4.7854   4.8843
     4.9036   5.1219   5.2167   5.2431   5.2827   5.3440   5.4474   5.5414
     5.6517   5.8326   5.9614   6.1218   6.1605   6.2171

     occupation numbers 
     1.0000   1.0000   1.0000   1.0000   1.0000   1.0000   1.0000   1.0000
     1.0000   1.0000   1.0000   1.0000   1.0000   1.0000   1.0000   1.0000
     1.0000   1.0000   1.0000   1.0000   1.0000   1.0000   1.0000   1.0000
     1.0000   1.0000   1.0000   1.0000   1.0000   1.0000   1.0000   1.0000
     1.0000   1.0000   1.0000   1.0000   1.0000   1.0000   1.0000   1.0000
     1.0000   1.0000   1.0000   1.0000   1.0000   1.0000   1.0000   1.0000
     1.0000   1.0000   1.0000   1.0000   1.0000   1.0000   1.0000   1.0000
     1.0000   1.0000   1.0000   1.0000   1.0000   1.0000   1.0000   1.0000
     1.0000   1.0000   1.0000   1.0000   1.0000   1.0000   1.0000   1.0000
     1.0000   1.0000   1.0000   1.0000   1.0000   1.0000

          k = 0.0596 0.4018 0.2494 ( 43439 PWs)   bands (ev):

   -20.7793 -20.7688 -20.7533 -20.7431 -15.7303 -15.7303 -15.7220 -15.7219
   -15.7172 -15.7171 -15.6589 -15.6589 -15.6431 -15.6430  -7.1703  -6.9722
    -6.4374  -6.2935  -6.2573  -6.2267  -6.1998  -6.0211  -5.0689  -4.9858
    -4.9090  -4.8679  -4.8464  -4.8363  -4.8245  -4.8243  -4.7932  -4.7335
    -4.7246  -4.7135  -1.0209  -0.8719   1.3174   1.4906   1.6163   1.9232
     2.0239   2.1843   2.4047   2.5856   2.6488   2.9285   3.0242   3.1768
     3.2222   3.2539   3.2637   3.3520   3.3586   3.4872   3.6440   3.6816
     3.7242   3.7883   4.6172   4.6731   4.7562   4.8082   4.8590   4.9193
     4.9433   5.0511   5.1482   5.1845   5.1997   5.3568   5.6540   5.7025
     5.7565   5.8730   5.9693   6.0456   6.1017   6.2145

     occupation numbers 
     1.0000   1.0000   1.0000   1.0000   1.0000   1.0000   1.0000   1.0000
     1.0000   1.0000   1.0000   1.0000   1.0000   1.0000   1.0000   1.0000
     1.0000   1.0000   1.0000   1.0000   1.0000   1.0000   1.0000   1.0000
     1.0000   1.0000   1.0000   1.0000   1.0000   1.0000   1.0000   1.0000
     1.0000   1.0000   1.0000   1.0000   1.0000   1.0000   1.0000   1.0000
     1.0000   1.0000   1.0000   1.0000   1.0000   1.0000   1.0000   1.0000
     1.0000   1.0000   1.0000   1.0000   1.0000   1.0000   1.0000   1.0000
     1.0000   1.0000   1.0000   1.0000   1.0000   1.0000   1.0000   1.0000
     1.0000   1.0000   1.0000   1.0000   1.0000   1.0000   1.0000   1.0000
     1.0000   1.0000   1.0000   1.0000   1.0000   1.0000

          k =-0.1192-0.8035-0.4988 ( 43366 PWs)   bands (ev):

   -20.7668 -20.7667 -20.7549 -20.7548 -15.7303 -15.7303 -15.7221 -15.7221
   -15.7173 -15.7173 -15.6587 -15.6587 -15.6430 -15.6430  -7.0411  -6.9540
    -6.4578  -6.3406  -6.3161  -6.2720  -6.1486  -6.0889  -4.9911  -4.9797
    -4.9643  -4.8852  -4.8691  -4.8549  -4.8411  -4.8306  -4.7571  -4.7486
    -4.7269  -4.7052  -0.9538  -0.8728   1.2222   1.3779   1.4960   1.7263
     2.1147   2.2999   2.3778   2.3841   2.7277   2.9460   3.0238   3.1906
     3.1923   3.2716   3.3043   3.3294   3.3641   3.5177   3.6378   3.6828
     3.7647   3.7812   4.7034   4.7724   4.7873   4.8275   4.9278   4.9508
     4.9881   5.0139   5.0906   5.1380   5.1603   5.2826   5.7121   5.8810
     5.9077   5.9596   6.0281   6.0637   6.0966   6.1309

     occupation numbers 
     1.0000   1.0000   1.0000   1.0000   1.0000   1.0000   1.0000   1.0000
     1.0000   1.0000   1.0000   1.0000   1.0000   1.0000   1.0000   1.0000
     1.0000   1.0000   1.0000   1.0000   1.0000   1.0000   1.0000   1.0000
     1.0000   1.0000   1.0000   1.0000   1.0000   1.0000   1.0000   1.0000
     1.0000   1.0000   1.0000   1.0000   1.0000   1.0000   1.0000   1.0000
     1.0000   1.0000   1.0000   1.0000   1.0000   1.0000   1.0000   1.0000
     1.0000   1.0000   1.0000   1.0000   1.0000   1.0000   1.0000   1.0000
     1.0000   1.0000   1.0000   1.0000   1.0000   1.0000   1.0000   1.0000
     1.0000   1.0000   1.0000   1.0000   1.0000   1.0000   1.0000   1.0000
     1.0000   1.0000   1.0000   1.0000   1.0000   1.0000

          k =-0.0000 0.4646 0.0000 ( 43455 PWs)   bands (ev):

   -20.7808 -20.7632 -20.7589 -20.7416 -15.7303 -15.7302 -15.7220 -15.7219
   -15.7172 -15.7171 -15.6589 -15.6589 -15.6431 -15.6430  -7.1948  -6.9096
    -6.5410  -6.2606  -6.2413  -6.2135  -6.1850  -6.0282  -5.0938  -4.9732
    -4.9075  -4.8975  -4.8347  -4.8181  -4.8156  -4.8074  -4.7898  -4.7397
    -4.7383  -4.7160  -1.0299  -0.8638   1.2938   1.4646   1.7024   1.9692
     2.0050   2.1467   2.3554   2.5618   2.6281   3.0286   3.0340   3.1067
     3.2441   3.2786   3.3069   3.3146   3.3927   3.4414   3.5862   3.6837
     3.7777   3.7808   4.6227   4.6664   4.7374   4.8240   4.8680   4.9161
     4.9411   5.0733   5.1049   5.1965   5.2061   5.3670   5.6282   5.7693
     5.7832   5.8871   5.9464   6.0375   6.0646   6.1485

     occupation numbers 
     1.0000   1.0000   1.0000   1.0000   1.0000   1.0000   1.0000   1.0000
     1.0000   1.0000   1.0000   1.0000   1.0000   1.0000   1.0000   1.0000
     1.0000   1.0000   1.0000   1.0000   1.0000   1.0000   1.0000   1.0000
     1.0000   1.0000   1.0000   1.0000   1.0000   1.0000   1.0000   1.0000
     1.0000   1.0000   1.0000   1.0000   1.0000   1.0000   1.0000   1.0000
     1.0000   1.0000   1.0000   1.0000   1.0000   1.0000   1.0000   1.0000
     1.0000   1.0000   1.0000   1.0000   1.0000   1.0000   1.0000   1.0000
     1.0000   1.0000   1.0000   1.0000   1.0000   1.0000   1.0000   1.0000
     1.0000   1.0000   1.0000   1.0000   1.0000   1.0000   1.0000   1.0000
     1.0000   1.0000   1.0000   1.0000   1.0000   1.0000

          k = 0.0596 0.8664 0.2494 ( 43432 PWs)   bands (ev):

   -20.7668 -20.7667 -20.7549 -20.7548 -15.7303 -15.7303 -15.7221 -15.7221
   -15.7173 -15.7173 -15.6587 -15.6587 -15.6430 -15.6430  -7.0297  -6.9703
    -6.4593  -6.3693  -6.2822  -6.2219  -6.1692  -6.1173  -4.9921  -4.9872
    -4.9403  -4.9044  -4.8767  -4.8617  -4.8327  -4.8176  -4.7873  -4.7644
    -4.6976  -4.6914  -0.9429  -0.8854   1.1923   1.3196   1.6541   1.7923
     2.1037   2.2313   2.2872   2.3159   2.8344   2.9498   3.0689   3.1441
     3.1961   3.2340   3.2553   3.2973   3.4069   3.5353   3.6669   3.7037
     3.7403   3.7931   4.7182   4.7656   4.7838   4.8229   4.9190   4.9461
     4.9553   4.9884   5.1248   5.1628   5.1944   5.2670   5.7575   5.8721
     5.9213   5.9613   6.0033   6.0657   6.0919   6.1525

     occupation numbers 
     1.0000   1.0000   1.0000   1.0000   1.0000   1.0000   1.0000   1.0000
     1.0000   1.0000   1.0000   1.0000   1.0000   1.0000   1.0000   1.0000
     1.0000   1.0000   1.0000   1.0000   1.0000   1.0000   1.0000   1.0000
     1.0000   1.0000   1.0000   1.0000   1.0000   1.0000   1.0000   1.0000
     1.0000   1.0000   1.0000   1.0000   1.0000   1.0000   1.0000   1.0000
     1.0000   1.0000   1.0000   1.0000   1.0000   1.0000   1.0000   1.0000
     1.0000   1.0000   1.0000   1.0000   1.0000   1.0000   1.0000   1.0000
     1.0000   1.0000   1.0000   1.0000   1.0000   1.0000   1.0000   1.0000
     1.0000   1.0000   1.0000   1.0000   1.0000   1.0000   1.0000   1.0000
     1.0000   1.0000   1.0000   1.0000   1.0000   1.0000

          k =-0.1192-0.3389-0.4988 ( 43424 PWs)   bands (ev):

   -20.7751 -20.7750 -20.7472 -20.7471 -15.7303 -15.7303 -15.7219 -15.7219
   -15.7172 -15.7172 -15.6589 -15.6589 -15.6431 -15.6430  -7.1043  -7.0929
    -6.3931  -6.3187  -6.2346  -6.2000  -6.1456  -6.0431  -5.0333  -5.0169
    -4.8991  -4.8860  -4.8797  -4.8505  -4.8376  -4.8321  -4.7799  -4.7613
    -4.7075  -4.7036  -0.9711  -0.9268   1.4304   1.4946   1.5984   1.7385
     2.1788   2.2718   2.3852   2.4380   2.7585   2.8852   2.9800   3.1096
     3.1786   3.2137   3.2823   3.3730   3.3940   3.5633   3.6757   3.7102
     3.7300   3.7645   4.6213   4.6594   4.7725   4.7889   4.8674   4.8950
     4.9930   5.0072   5.1665   5.1902   5.2350   5.2944   5.6380   5.6928
     5.7783   5.8683   5.9614   5.9813   6.1915   6.2372

     occupation numbers 
     1.0000   1.0000   1.0000   1.0000   1.0000   1.0000   1.0000   1.0000
     1.0000   1.0000   1.0000   1.0000   1.0000   1.0000   1.0000   1.0000
     1.0000   1.0000   1.0000   1.0000   1.0000   1.0000   1.0000   1.0000
     1.0000   1.0000   1.0000   1.0000   1.0000   1.0000   1.0000   1.0000
     1.0000   1.0000   1.0000   1.0000   1.0000   1.0000   1.0000   1.0000
     1.0000   1.0000   1.0000   1.0000   1.0000   1.0000   1.0000   1.0000
     1.0000   1.0000   1.0000   1.0000   1.0000   1.0000   1.0000   1.0000
     1.0000   1.0000   1.0000   1.0000   1.0000   1.0000   1.0000   1.0000
     1.0000   1.0000   1.0000   1.0000   1.0000   1.0000   1.0000   1.0000
     1.0000   1.0000   1.0000   1.0000   1.0000   1.0000

          k =-0.0596 0.0628-0.2494 ( 43427 PWs)   bands (ev):

   -20.7860 -20.7717 -20.7511 -20.7370 -15.7303 -15.7302 -15.7218 -15.7217
   -15.7171 -15.7170 -15.6591 -15.6591 -15.6432 -15.6430  -7.2488  -7.0447
    -6.5088  -6.2709  -6.1962  -6.1628  -6.0819  -5.9286  -5.1146  -5.0607
    -4.9605  -4.9221  -4.8528  -4.8135  -4.7968  -4.7914  -4.7517  -4.7382
    -4.7321  -4.6765  -1.0523  -0.9071   1.5433   1.6726   1.7854   1.9550
     2.0087   2.0610   2.2729   2.6711   2.7994   2.8568   2.9868   3.1498
     3.1840   3.2047   3.3384   3.3580   3.5070   3.5300   3.5508   3.6333
     3.7181   3.7695   4.5115   4.5471   4.7755   4.7823   4.8093   4.8851
     4.8996   5.0284   5.2375   5.2853   5.3131   5.3305   5.4113   5.5157
     5.6976   5.8392   5.9786   6.0099   6.1278   6.1789

     occupation numbers 
     1.0000   1.0000   1.0000   1.0000   1.0000   1.0000   1.0000   1.0000
     1.0000   1.0000   1.0000   1.0000   1.0000   1.0000   1.0000   1.0000
     1.0000   1.0000   1.0000   1.0000   1.0000   1.0000   1.0000   1.0000
     1.0000   1.0000   1.0000   1.0000   1.0000   1.0000   1.0000   1.0000
     1.0000   1.0000   1.0000   1.0000   1.0000   1.0000   1.0000   1.0000
     1.0000   1.0000   1.0000   1.0000   1.0000   1.0000   1.0000   1.0000
     1.0000   1.0000   1.0000   1.0000   1.0000   1.0000   1.0000   1.0000
     1.0000   1.0000   1.0000   1.0000   1.0000   1.0000   1.0000   1.0000
     1.0000   1.0000   1.0000   1.0000   1.0000   1.0000   1.0000   1.0000
     1.0000   1.0000   1.0000   1.0000   1.0000   1.0000

          k = 0.0000-0.9292-0.0000 ( 43450 PWs)   bands (ev):

   -20.7668 -20.7667 -20.7549 -20.7548 -15.7303 -15.7303 -15.7221 -15.7221
   -15.7173 -15.7173 -15.6587 -15.6587 -15.6430 -15.6430  -7.0022  -7.0022
    -6.4272  -6.4266  -6.2058  -6.2057  -6.1742  -6.1736  -4.9963  -4.9962
    -4.9212  -4.9211  -4.8706  -4.8705  -4.8154  -4.8154  -4.7926  -4.7926
    -4.6815  -4.6814  -0.9152  -0.9151   1.2233   1.2235   1.9180   1.9180
     2.0034   2.0039   2.2605   2.2605   2.9748   2.9750   3.0761   3.0765
     3.1747   3.1754   3.2598   3.2601   3.4949   3.4952   3.7058   3.7062
     3.7629   3.7634   4.7475   4.7479   4.7979   4.7983   4.9181   4.9183
     4.9588   4.9590   5.1806   5.1808   5.2238   5.2238   5.8417   5.8419
     5.9162   5.9163   6.0486   6.0487   6.1289   6.1291

     occupation numbers 
     1.0000   1.0000   1.0000   1.0000   1.0000   1.0000   1.0000   1.0000
     1.0000   1.0000   1.0000   1.0000   1.0000   1.0000   1.0000   1.0000
     1.0000   1.0000   1.0000   1.0000   1.0000   1.0000   1.0000   1.0000
     1.0000   1.0000   1.0000   1.0000   1.0000   1.0000   1.0000   1.0000
     1.0000   1.0000   1.0000   1.0000   1.0000   1.0000   1.0000   1.0000
     1.0000   1.0000   1.0000   1.0000   1.0000   1.0000   1.0000   1.0000
     1.0000   1.0000   1.0000   1.0000   1.0000   1.0000   1.0000   1.0000
     1.0000   1.0000   1.0000   1.0000   1.0000   1.0000   1.0000   1.0000
     1.0000   1.0000   1.0000   1.0000   1.0000   1.0000   1.0000   1.0000
     1.0000   1.0000   1.0000   1.0000   1.0000   1.0000

          k = 0.0596-0.5274 0.2494 ( 43437 PWs)   bands (ev):

   -20.7793 -20.7688 -20.7533 -20.7431 -15.7303 -15.7303 -15.7220 -15.7219
   -15.7172 -15.7171 -15.6589 -15.6589 -15.6431 -15.6430  -7.1728  -6.9970
    -6.4987  -6.2532  -6.2260  -6.2005  -6.1191  -6.0611  -5.0691  -4.9929
    -4.9181  -4.9055  -4.8461  -4.8364  -4.8272  -4.8226  -4.7971  -4.7502
    -4.7180  -4.7073  -0.9935  -0.9051   1.3941   1.4549   1.6803   1.8136
     2.0981   2.2454   2.3478   2.5527   2.6094   2.9805   3.0110   3.0666
     3.1970   3.2547   3.2953   3.3549   3.3905   3.5207   3.6599   3.6689
     3.7549   3.8055   4.6324   4.6466   4.7404   4.8191   4.8761   4.8995
     4.9608   5.0374   5.1348   5.1991   5.2431   5.3057   5.6241   5.7298
     5.8201   5.8631   5.9486   5.9754   6.1605   6.1832

     occupation numbers 
     1.0000   1.0000   1.0000   1.0000   1.0000   1.0000   1.0000   1.0000
     1.0000   1.0000   1.0000   1.0000   1.0000   1.0000   1.0000   1.0000
     1.0000   1.0000   1.0000   1.0000   1.0000   1.0000   1.0000   1.0000
     1.0000   1.0000   1.0000   1.0000   1.0000   1.0000   1.0000   1.0000
     1.0000   1.0000   1.0000   1.0000   1.0000   1.0000   1.0000   1.0000
     1.0000   1.0000   1.0000   1.0000   1.0000   1.0000   1.0000   1.0000
     1.0000   1.0000   1.0000   1.0000   1.0000   1.0000   1.0000   1.0000
     1.0000   1.0000   1.0000   1.0000   1.0000   1.0000   1.0000   1.0000
     1.0000   1.0000   1.0000   1.0000   1.0000   1.0000   1.0000   1.0000
     1.0000   1.0000   1.0000   1.0000   1.0000   1.0000

          k =-0.1191-1.7327-0.4988 ( 43432 PWs)   bands (ev):

   -20.7803 -20.7802 -20.7427 -20.7426 -15.7303 -15.7303 -15.7218 -15.7218
   -15.7170 -15.7170 -15.6591 -15.6591 -15.6431 -15.6431  -7.1764  -7.1762
    -6.3353  -6.3353  -6.2040  -6.2038  -5.9925  -5.9923  -5.0573  -5.0572
    -4.9874  -4.9873  -4.8196  -4.8196  -4.7952  -4.7951  -4.7519  -4.7518
    -4.7132  -4.7132  -0.9830  -0.9830   1.6619   1.6622   1.7879   1.7879
     2.0500   2.0500   2.5331   2.5333   2.8460   2.8461   2.9642   2.9646
     3.1813   3.1814   3.3662   3.3665   3.5604   3.5606   3.6438   3.6439
     3.7094   3.7097   4.5254   4.5260   4.7796   4.7803   4.8906   4.8912
     4.9030   4.9035   5.2902   5.2907   5.3018   5.3025   5.4494   5.4498
     5.7760   5.7764   5.9937   5.9943   6.1188   6.1191

     occupation numbers 
     1.0000   1.0000   1.0000   1.0000   1.0000   1.0000   1.0000   1.0000
     1.0000   1.0000   1.0000   1.0000   1.0000   1.0000   1.0000   1.0000
     1.0000   1.0000   1.0000   1.0000   1.0000   1.0000   1.0000   1.0000
     1.0000   1.0000   1.0000   1.0000   1.0000   1.0000   1.0000   1.0000
     1.0000   1.0000   1.0000   1.0000   1.0000   1.0000   1.0000   1.0000
     1.0000   1.0000   1.0000   1.0000   1.0000   1.0000   1.0000   1.0000
     1.0000   1.0000   1.0000   1.0000   1.0000   1.0000   1.0000   1.0000
     1.0000   1.0000   1.0000   1.0000   1.0000   1.0000   1.0000   1.0000
     1.0000   1.0000   1.0000   1.0000   1.0000   1.0000   1.0000   1.0000
     1.0000   1.0000   1.0000   1.0000   1.0000   1.0000

          k =-0.5128-0.1257 0.0002 ( 43432 PWs)   bands (ev):

   -20.7803 -20.7802 -20.7427 -20.7426 -15.7303 -15.7303 -15.7218 -15.7218
   -15.7170 -15.7170 -15.6591 -15.6591 -15.6431 -15.6431  -7.1764  -7.1762
    -6.3352  -6.3352  -6.2042  -6.2039  -5.9926  -5.9924  -5.0573  -5.0572
    -4.9874  -4.9873  -4.8196  -4.8196  -4.7952  -4.7951  -4.7519  -4.7518
    -4.7132  -4.7131  -0.9830  -0.9830   1.6618   1.6621   1.7879   1.7879
     2.0500   2.0500   2.5331   2.5332   2.8460   2.8461   2.9642   2.9646
     3.1814   3.1816   3.3663   3.3665   3.5604   3.5605   3.6437   3.6437
     3.7094   3.7097   4.5254   4.5260   4.7796   4.7803   4.8906   4.8913
     4.9030   4.9034   5.2902   5.2909   5.3018   5.3024   5.4494   5.4498
     5.7760   5.7767   5.9938   5.9940   6.1186   6.1191

     occupation numbers 
     1.0000   1.0000   1.0000   1.0000   1.0000   1.0000   1.0000   1.0000
     1.0000   1.0000   1.0000   1.0000   1.0000   1.0000   1.0000   1.0000
     1.0000   1.0000   1.0000   1.0000   1.0000   1.0000   1.0000   1.0000
     1.0000   1.0000   1.0000   1.0000   1.0000   1.0000   1.0000   1.0000
     1.0000   1.0000   1.0000   1.0000   1.0000   1.0000   1.0000   1.0000
     1.0000   1.0000   1.0000   1.0000   1.0000   1.0000   1.0000   1.0000
     1.0000   1.0000   1.0000   1.0000   1.0000   1.0000   1.0000   1.0000
     1.0000   1.0000   1.0000   1.0000   1.0000   1.0000   1.0000   1.0000
     1.0000   1.0000   1.0000   1.0000   1.0000   1.0000   1.0000   1.0000
     1.0000   1.0000   1.0000   1.0000   1.0000   1.0000

          k =-0.4532 0.2761 0.2496 ( 43437 PWs)   bands (ev):

   -20.7793 -20.7688 -20.7533 -20.7431 -15.7303 -15.7303 -15.7220 -15.7219
   -15.7172 -15.7171 -15.6589 -15.6589 -15.6431 -15.6430  -7.1728  -6.9970
    -6.4986  -6.2530  -6.2264  -6.2004  -6.1190  -6.0612  -5.0691  -4.9929
    -4.9181  -4.9055  -4.8461  -4.8364  -4.8272  -4.8226  -4.7971  -4.7502
    -4.7180  -4.7073  -0.9935  -0.9051   1.3940   1.4550   1.6802   1.8137
     2.0981   2.2453   2.3477   2.5527   2.6095   2.9806   3.0112   3.0664
     3.1966   3.2547   3.2957   3.3548   3.3905   3.5205   3.6602   3.6687
     3.7551   3.8051   4.6331   4.6459   4.7404   4.8192   4.8759   4.8995
     4.9608   5.0375   5.1348   5.1993   5.2431   5.3056   5.6241   5.7299
     5.8202   5.8631   5.9486   5.9751   6.1604   6.1834

     occupation numbers 
     1.0000   1.0000   1.0000   1.0000   1.0000   1.0000   1.0000   1.0000
     1.0000   1.0000   1.0000   1.0000   1.0000   1.0000   1.0000   1.0000
     1.0000   1.0000   1.0000   1.0000   1.0000   1.0000   1.0000   1.0000
     1.0000   1.0000   1.0000   1.0000   1.0000   1.0000   1.0000   1.0000
     1.0000   1.0000   1.0000   1.0000   1.0000   1.0000   1.0000   1.0000
     1.0000   1.0000   1.0000   1.0000   1.0000   1.0000   1.0000   1.0000
     1.0000   1.0000   1.0000   1.0000   1.0000   1.0000   1.0000   1.0000
     1.0000   1.0000   1.0000   1.0000   1.0000   1.0000   1.0000   1.0000
     1.0000   1.0000   1.0000   1.0000   1.0000   1.0000   1.0000   1.0000
     1.0000   1.0000   1.0000   1.0000   1.0000   1.0000

          k =-0.6319-0.9292-0.4986 ( 43450 PWs)   bands (ev):

   -20.7668 -20.7667 -20.7549 -20.7548 -15.7303 -15.7303 -15.7221 -15.7221
   -15.7173 -15.7173 -15.6587 -15.6587 -15.6430 -15.6430  -7.0023  -7.0021
    -6.4273  -6.4269  -6.2056  -6.2054  -6.1741  -6.1740  -4.9963  -4.9962
    -4.9212  -4.9211  -4.8705  -4.8705  -4.8154  -4.8154  -4.7926  -4.7926
    -4.6815  -4.6814  -0.9152  -0.9151   1.2232   1.2235   1.9180   1.9181
     2.0034   2.0039   2.2604   2.2605   2.9750   2.9752   3.0760   3.0764
     3.1746   3.1752   3.2598   3.2601   3.4949   3.4952   3.7059   3.7063
     3.7629   3.7634   4.7474   4.7479   4.7981   4.7985   4.9179   4.9181
     4.9588   4.9590   5.1807   5.1807   5.2239   5.2239   5.8414   5.8416
     5.9164   5.9167   6.0485   6.0485   6.1291   6.1291

     occupation numbers 
     1.0000   1.0000   1.0000   1.0000   1.0000   1.0000   1.0000   1.0000
     1.0000   1.0000   1.0000   1.0000   1.0000   1.0000   1.0000   1.0000
     1.0000   1.0000   1.0000   1.0000   1.0000   1.0000   1.0000   1.0000
     1.0000   1.0000   1.0000   1.0000   1.0000   1.0000   1.0000   1.0000
     1.0000   1.0000   1.0000   1.0000   1.0000   1.0000   1.0000   1.0000
     1.0000   1.0000   1.0000   1.0000   1.0000   1.0000   1.0000   1.0000
     1.0000   1.0000   1.0000   1.0000   1.0000   1.0000   1.0000   1.0000
     1.0000   1.0000   1.0000   1.0000   1.0000   1.0000   1.0000   1.0000
     1.0000   1.0000   1.0000   1.0000   1.0000   1.0000   1.0000   1.0000
     1.0000   1.0000   1.0000   1.0000   1.0000   1.0000

          k =-0.5128 0.3389 0.0002 ( 43424 PWs)   bands (ev):

   -20.7751 -20.7750 -20.7472 -20.7471 -15.7303 -15.7303 -15.7219 -15.7219
   -15.7172 -15.7172 -15.6589 -15.6589 -15.6431 -15.6430  -7.1043  -7.0929
    -6.3931  -6.3185  -6.2347  -6.2001  -6.1455  -6.0432  -5.0333  -5.0168
    -4.8991  -4.8860  -4.8797  -4.8504  -4.8377  -4.8320  -4.7799  -4.7612
    -4.7075  -4.7036  -0.9711  -0.9268   1.4304   1.4945   1.5984   1.7386
     2.1789   2.2718   2.3852   2.4379   2.7586   2.8853   2.9800   3.1096
     3.1786   3.2134   3.2825   3.3731   3.3939   3.5633   3.6758   3.7107
     3.7296   3.7643   4.6213   4.6594   4.7724   4.7889   4.8673   4.8950
     4.9929   5.0073   5.1667   5.1901   5.2349   5.2944   5.6380   5.6928
     5.7783   5.8686   5.9611   5.9813   6.1914   6.2373

     occupation numbers 
     1.0000   1.0000   1.0000   1.0000   1.0000   1.0000   1.0000   1.0000
     1.0000   1.0000   1.0000   1.0000   1.0000   1.0000   1.0000   1.0000
     1.0000   1.0000   1.0000   1.0000   1.0000   1.0000   1.0000   1.0000
     1.0000   1.0000   1.0000   1.0000   1.0000   1.0000   1.0000   1.0000
     1.0000   1.0000   1.0000   1.0000   1.0000   1.0000   1.0000   1.0000
     1.0000   1.0000   1.0000   1.0000   1.0000   1.0000   1.0000   1.0000
     1.0000   1.0000   1.0000   1.0000   1.0000   1.0000   1.0000   1.0000
     1.0000   1.0000   1.0000   1.0000   1.0000   1.0000   1.0000   1.0000
     1.0000   1.0000   1.0000   1.0000   1.0000   1.0000   1.0000   1.0000
     1.0000   1.0000   1.0000   1.0000   1.0000   1.0000

          k =-0.4532 0.7407 0.2496 ( 43432 PWs)   bands (ev):

   -20.7668 -20.7667 -20.7549 -20.7548 -15.7303 -15.7303 -15.7221 -15.7221
   -15.7173 -15.7173 -15.6587 -15.6587 -15.6430 -15.6430  -7.0296  -6.9703
    -6.4595  -6.3693  -6.2821  -6.2216  -6.1691  -6.1175  -4.9922  -4.9871
    -4.9404  -4.9043  -4.8767  -4.8617  -4.8327  -4.8176  -4.7873  -4.7644
    -4.6977  -4.6914  -0.9429  -0.8854   1.1924   1.3195   1.6540   1.7924
     2.1037   2.2312   2.2872   2.3159   2.8344   2.9499   3.0689   3.1440
     3.1961   3.2337   3.2552   3.2973   3.4069   3.5354   3.6670   3.7037
     3.7402   3.7931   4.7182   4.7655   4.7839   4.8230   4.9189   4.9461
     4.9552   4.9883   5.1248   5.1628   5.1944   5.2671   5.7573   5.8720
     5.9217   5.9615   6.0031   6.0653   6.0919   6.1526

     occupation numbers 
     1.0000   1.0000   1.0000   1.0000   1.0000   1.0000   1.0000   1.0000
     1.0000   1.0000   1.0000   1.0000   1.0000   1.0000   1.0000   1.0000
     1.0000   1.0000   1.0000   1.0000   1.0000   1.0000   1.0000   1.0000
     1.0000   1.0000   1.0000   1.0000   1.0000   1.0000   1.0000   1.0000
     1.0000   1.0000   1.0000   1.0000   1.0000   1.0000   1.0000   1.0000
     1.0000   1.0000   1.0000   1.0000   1.0000   1.0000   1.0000   1.0000
     1.0000   1.0000   1.0000   1.0000   1.0000   1.0000   1.0000   1.0000
     1.0000   1.0000   1.0000   1.0000   1.0000   1.0000   1.0000   1.0000
     1.0000   1.0000   1.0000   1.0000   1.0000   1.0000   1.0000   1.0000
     1.0000   1.0000   1.0000   1.0000   1.0000   1.0000

          k =-0.6320-0.4646-0.4986 ( 43453 PWs)   bands (ev):

   -20.7808 -20.7632 -20.7589 -20.7416 -15.7303 -15.7302 -15.7220 -15.7219
   -15.7172 -15.7171 -15.6589 -15.6589 -15.6431 -15.6430  -7.2035  -6.9581
    -6.6003  -6.2211  -6.1791  -6.1213  -6.1157  -6.0722  -5.0899  -4.9958
    -4.9461  -4.9314  -4.8433  -4.8373  -4.8205  -4.8168  -4.7778  -4.7559
    -4.7383  -4.7064  -0.9946  -0.9099   1.4120   1.4264   1.7997   1.8885
     2.0157   2.2477   2.2943   2.5498   2.5977   2.9173   3.0202   3.0841
     3.1889   3.2120   3.2869   3.3546   3.4226   3.5819   3.6151   3.6517
     3.7330   3.9185   4.6192   4.6511   4.7127   4.8475   4.8812   4.9012
     4.9657   5.0358   5.0989   5.2095   5.2743   5.2900   5.5881   5.7294
     5.7875   5.9484   5.9668   6.0092   6.0737   6.1602

     occupation numbers 
     1.0000   1.0000   1.0000   1.0000   1.0000   1.0000   1.0000   1.0000
     1.0000   1.0000   1.0000   1.0000   1.0000   1.0000   1.0000   1.0000
     1.0000   1.0000   1.0000   1.0000   1.0000   1.0000   1.0000   1.0000
     1.0000   1.0000   1.0000   1.0000   1.0000   1.0000   1.0000   1.0000
     1.0000   1.0000   1.0000   1.0000   1.0000   1.0000   1.0000   1.0000
     1.0000   1.0000   1.0000   1.0000   1.0000   1.0000   1.0000   1.0000
     1.0000   1.0000   1.0000   1.0000   1.0000   1.0000   1.0000   1.0000
     1.0000   1.0000   1.0000   1.0000   1.0000   1.0000   1.0000   1.0000
     1.0000   1.0000   1.0000   1.0000   1.0000   1.0000   1.0000   1.0000
     1.0000   1.0000   1.0000   1.0000   1.0000   1.0000

          k =-0.5724-0.0628-0.2492 ( 43489 PWs)   bands (ev):

   -20.7860 -20.7717 -20.7511 -20.7370 -15.7303 -15.7302 -15.7218 -15.7217
   -15.7171 -15.7170 -15.6591 -15.6591 -15.6432 -15.6430  -7.2857  -7.0414
    -6.5349  -6.1900  -6.1640  -6.1631  -6.0196  -5.9741  -5.1094  -5.0664
    -4.9592  -4.9417  -4.8506  -4.8399  -4.7948  -4.7882  -4.7544  -4.7400
    -4.7307  -4.7258  -1.0385  -0.9376   1.6099   1.6511   1.7699   1.9628
     2.0249   2.1234   2.4646   2.6460   2.6718   2.7873   2.9586   3.1061
     3.1506   3.2320   3.2812   3.4008   3.4200   3.5432   3.5592   3.6638
     3.6754   3.9856   4.5110   4.5359   4.7732   4.7866   4.8216   4.8682
     4.9340   5.0080   5.2327   5.2795   5.3166   5.3485   5.3523   5.5161
     5.6027   5.8877   5.9570   6.0322   6.1227   6.1594

     occupation numbers 
     1.0000   1.0000   1.0000   1.0000   1.0000   1.0000   1.0000   1.0000
     1.0000   1.0000   1.0000   1.0000   1.0000   1.0000   1.0000   1.0000
     1.0000   1.0000   1.0000   1.0000   1.0000   1.0000   1.0000   1.0000
     1.0000   1.0000   1.0000   1.0000   1.0000   1.0000   1.0000   1.0000
     1.0000   1.0000   1.0000   1.0000   1.0000   1.0000   1.0000   1.0000
     1.0000   1.0000   1.0000   1.0000   1.0000   1.0000   1.0000   1.0000
     1.0000   1.0000   1.0000   1.0000   1.0000   1.0000   1.0000   1.0000
     1.0000   1.0000   1.0000   1.0000   1.0000   1.0000   1.0000   1.0000
     1.0000   1.0000   1.0000   1.0000   1.0000   1.0000   1.0000   1.0000
     1.0000   1.0000   1.0000   1.0000   1.0000   1.0000

          k =-0.5127-1.0548 0.0002 ( 43366 PWs)   bands (ev):

   -20.7668 -20.7667 -20.7549 -20.7548 -15.7303 -15.7303 -15.7221 -15.7221
   -15.7173 -15.7173 -15.6587 -15.6587 -15.6430 -15.6430  -7.0411  -6.9540
    -6.4579  -6.3407  -6.3159  -6.2718  -6.1485  -6.0891  -4.9911  -4.9797
    -4.9643  -4.8851  -4.8692  -4.8548  -4.8410  -4.8306  -4.7570  -4.7486
    -4.7270  -4.7051  -0.9538  -0.8728   1.2223   1.3778   1.4959   1.7264
     2.1147   2.2999   2.3777   2.3841   2.7277   2.9461   3.0238   3.1906
     3.1923   3.2716   3.3043   3.3294   3.3640   3.5178   3.6379   3.6828
     3.7646   3.7811   4.7034   4.7724   4.7872   4.8275   4.9279   4.9509
     4.9880   5.0138   5.0905   5.1381   5.1602   5.2826   5.7120   5.8812
     5.9080   5.9597   6.0278   6.0635   6.0965   6.1310

     occupation numbers 
     1.0000   1.0000   1.0000   1.0000   1.0000   1.0000   1.0000   1.0000
     1.0000   1.0000   1.0000   1.0000   1.0000   1.0000   1.0000   1.0000
     1.0000   1.0000   1.0000   1.0000   1.0000   1.0000   1.0000   1.0000
     1.0000   1.0000   1.0000   1.0000   1.0000   1.0000   1.0000   1.0000
     1.0000   1.0000   1.0000   1.0000   1.0000   1.0000   1.0000   1.0000
     1.0000   1.0000   1.0000   1.0000   1.0000   1.0000   1.0000   1.0000
     1.0000   1.0000   1.0000   1.0000   1.0000   1.0000   1.0000   1.0000
     1.0000   1.0000   1.0000   1.0000   1.0000   1.0000   1.0000   1.0000
     1.0000   1.0000   1.0000   1.0000   1.0000   1.0000   1.0000   1.0000
     1.0000   1.0000   1.0000   1.0000   1.0000   1.0000

          k =-0.4531-0.6531 0.2496 ( 43437 PWs)   bands (ev):

   -20.7793 -20.7688 -20.7533 -20.7431 -15.7303 -15.7302 -15.7220 -15.7219
   -15.7172 -15.7172 -15.6589 -15.6589 -15.6431 -15.6430  -7.1753  -7.0193
    -6.5391  -6.2245  -6.1678  -6.1556  -6.1488  -6.0444  -5.0708  -5.0058
    -4.9436  -4.9191  -4.8523  -4.8326  -4.8284  -4.8134  -4.8071  -4.7635
    -4.7177  -4.7025  -0.9663  -0.9376   1.4155   1.4813   1.7246   1.7775
     2.1323   2.2615   2.3567   2.5179   2.5681   2.8991   3.0881   3.1088
     3.1249   3.2086   3.2920   3.3022   3.4192   3.5780   3.6459   3.6970
     3.7271   3.8909   4.6119   4.6604   4.7261   4.8329   4.8829   4.8991
     4.9749   5.0201   5.1219   5.2108   5.2561   5.2875   5.5868   5.7180
     5.7643   5.9152   5.9715   5.9929   6.1446   6.2064

     occupation numbers 
     1.0000   1.0000   1.0000   1.0000   1.0000   1.0000   1.0000   1.0000
     1.0000   1.0000   1.0000   1.0000   1.0000   1.0000   1.0000   1.0000
     1.0000   1.0000   1.0000   1.0000   1.0000   1.0000   1.0000   1.0000
     1.0000   1.0000   1.0000   1.0000   1.0000   1.0000   1.0000   1.0000
     1.0000   1.0000   1.0000   1.0000   1.0000   1.0000   1.0000   1.0000
     1.0000   1.0000   1.0000   1.0000   1.0000   1.0000   1.0000   1.0000
     1.0000   1.0000   1.0000   1.0000   1.0000   1.0000   1.0000   1.0000
     1.0000   1.0000   1.0000   1.0000   1.0000   1.0000   1.0000   1.0000
     1.0000   1.0000   1.0000   1.0000   1.0000   1.0000   1.0000   1.0000
     1.0000   1.0000   1.0000   1.0000   1.0000   1.0000

          k =-0.6319-1.8584-0.4986 ( 43494 PWs)   bands (ev):

   -20.7880 -20.7633 -20.7596 -20.7350 -15.7304 -15.7302 -15.7218 -15.7217
   -15.7171 -15.7170 -15.6591 -15.6591 -15.6432 -15.6429  -7.3277  -6.9597
    -6.6447  -6.1722  -6.0981  -6.0865  -6.0776  -5.9625  -5.1394  -5.0764
    -4.9067  -4.9016  -4.8964  -4.8824  -4.7847  -4.7831  -4.7668  -4.7563
    -4.7306  -4.7295  -1.0673  -0.9189   1.5974   1.6127   1.8327   2.0275
     2.0676   2.1667   2.4486   2.5347   2.7408   2.8163   2.8357   3.0555
     3.1453   3.2497   3.3151   3.3921   3.4357   3.4838   3.5589   3.6687
     3.6817   4.1003   4.5051   4.5338   4.7706   4.7784   4.7979   4.8606
     4.9606   5.0922   5.2082   5.2226   5.2834   5.3652   5.3753   5.5285
     5.5345   5.8788   6.0027   6.0150   6.1487   6.1699

     occupation numbers 
     1.0000   1.0000   1.0000   1.0000   1.0000   1.0000   1.0000   1.0000
     1.0000   1.0000   1.0000   1.0000   1.0000   1.0000   1.0000   1.0000
     1.0000   1.0000   1.0000   1.0000   1.0000   1.0000   1.0000   1.0000
     1.0000   1.0000   1.0000   1.0000   1.0000   1.0000   1.0000   1.0000
     1.0000   1.0000   1.0000   1.0000   1.0000   1.0000   1.0000   1.0000
     1.0000   1.0000   1.0000   1.0000   1.0000   1.0000   1.0000   1.0000
     1.0000   1.0000   1.0000   1.0000   1.0000   1.0000   1.0000   1.0000
     1.0000   1.0000   1.0000   1.0000   1.0000   1.0000   1.0000   1.0000
     1.0000   1.0000   1.0000   1.0000   1.0000   1.0000   1.0000   1.0000
     1.0000   1.0000   1.0000   1.0000   1.0000   1.0000

     highest occupied level (ev):     6.2373

!    total energy              =   -1568.23800299 Ry
     estimated scf accuracy    <          1.1E-10 Ry

     The total energy is the sum of the following terms:
     one-electron contribution =    -583.54679944 Ry
     hartree contribution      =     400.15711797 Ry
     xc contribution           =    -371.69219765 Ry
     ewald contribution        =    -653.89495821 Ry
     one-center paw contrib.   =    -359.26116566 Ry
      -> PAW hartree energy AE =       0.00000000 Ry
      -> PAW hartree energy PS =       0.00000000 Ry
      -> PAW xc energy AE      =       0.00000000 Ry
      -> PAW xc energy PS      =       0.00000000 Ry
      -> total E_H with PAW    =     400.15711797 Ry
      -> total E_XC with PAW   =    -371.69219765 Ry

     convergence has been achieved in   9 iterations

     Forces acting on atoms (cartesian axes, Ry/au):

     atom    1 type  2   force =     0.00002955    0.00016718    0.00010118
     atom    2 type  2   force =    -0.00002955   -0.00016718   -0.00010118
     atom    3 type  2   force =    -0.00010286    0.00015744   -0.00000028
     atom    4 type  2   force =     0.00010286   -0.00015744    0.00000028
     atom    5 type  1   force =    -0.00007008    0.00000971   -0.00008805
     atom    6 type  1   force =     0.00007008   -0.00000971    0.00008805
     atom    7 type  1   force =     0.00007280    0.00000034    0.00009385
     atom    8 type  1   force =    -0.00007280   -0.00000034   -0.00009385
     atom    9 type  4   force =    -0.00000649   -0.00000610    0.00000534
     atom   10 type  4   force =     0.00000649    0.00000610   -0.00000534
     atom   11 type  3   force =     0.00058951    0.00105361   -0.00078216
     atom   12 type  3   force =    -0.00058951   -0.00105361    0.00078216
     atom   13 type  3   force =     0.00090935   -0.00008153   -0.00108356
     atom   14 type  3   force =    -0.00090935    0.00008153    0.00108356
     atom   15 type  3   force =    -0.00086570    0.00009052    0.00112116
     atom   16 type  3   force =     0.00086570   -0.00009052   -0.00112116
     atom   17 type  3   force =    -0.00063641   -0.00103666    0.00073966
     atom   18 type  3   force =     0.00063641    0.00103666   -0.00073966
     The non-local contrib.  to forces
     atom    1 type  2   force =    -0.00087447   -0.00511812   -0.00325381
     atom    2 type  2   force =     0.00087447    0.00511812    0.00325381
     atom    3 type  2   force =     0.00335684   -0.00510936    0.00007426
     atom    4 type  2   force =    -0.00335684    0.00510936   -0.00007426
     atom    5 type  1   force =    -0.07065118   -0.00002177   -0.05552111
     atom    6 type  1   force =     0.07065118    0.00002177    0.05552111
     atom    7 type  1   force =     0.07063714    0.00015007    0.05571990
     atom    8 type  1   force =    -0.07063714   -0.00015007   -0.05571990
     atom    9 type  4   force =     0.00000693   -0.00014323   -0.00004830
     atom   10 type  4   force =    -0.00000693    0.00014323    0.00004830
     atom   11 type  3   force =     0.12358450    0.12970801   -0.12778608
     atom   12 type  3   force =    -0.12358450   -0.12970801    0.12778608
     atom   13 type  3   force =     0.12084541    0.02629939   -0.18191095
     atom   14 type  3   force =    -0.12084541   -0.02629939    0.18191095
     atom   15 type  3   force =    -0.14890433   -0.02626015    0.15996803
     atom   16 type  3   force =     0.14890433    0.02626015   -0.15996803
     atom   17 type  3   force =    -0.09557405   -0.12963106    0.14981381
     atom   18 type  3   force =     0.09557405    0.12963106   -0.14981381
     The ionic contribution  to forces
     atom    1 type  2   force =    -0.77112913   -0.44112220   -0.82972121
     atom    2 type  2   force =     0.77112913    0.44112220    0.82972121
     atom    3 type  2   force =     0.98629772   -0.44076142    0.55610828
     atom    4 type  2   force =    -0.98629772    0.44076142   -0.55610828
     atom    5 type  1   force =     2.93511110   -0.00222972    2.31331122
     atom    6 type  1   force =    -2.93511110    0.00222972   -2.31331122
     atom    7 type  1   force =    -2.93341810   -0.00306268   -2.31389317
     atom    8 type  1   force =     2.93341810    0.00306268    2.31389317
     atom    9 type  4   force =    -0.00156612   -0.00035613    0.00023094
     atom   10 type  4   force =     0.00156612    0.00035613   -0.00023094
     atom   11 type  3   force =    -3.26724301   -4.78368398    7.46054139
     atom   12 type  3   force =     3.26724301    4.78368398   -7.46054139
     atom   13 type  3   force =    -7.19877935   -1.90101962    5.80998458
     atom   14 type  3   force =     7.19877935    1.90101962   -5.80998458
     atom   15 type  3   force =     3.97385431    1.90094658   -8.35546212
     atom   16 type  3   force =    -3.97385431   -1.90094658    8.35546212
     atom   17 type  3   force =     6.49230552    4.78289718   -4.91529597
     atom   18 type  3   force =    -6.49230552   -4.78289718    4.91529597
     The local contribution  to forces
     atom    1 type  2   force =     0.77203567    0.44640814    0.83307758
     atom    2 type  2   force =    -0.77203567   -0.44640814   -0.83307758
     atom    3 type  2   force =    -0.98975919    0.44602878   -0.55618476
     atom    4 type  2   force =     0.98975919   -0.44602878    0.55618476
     atom    5 type  1   force =    -2.86626995    0.00227071   -2.25921212
     atom    6 type  1   force =     2.86626995   -0.00227071    2.25921212
     atom    7 type  1   force =     2.86456632    0.00294182    2.25962699
     atom    8 type  1   force =    -2.86456632   -0.00294182   -2.25962699
     atom    9 type  4   force =     0.00155343    0.00048126   -0.00017476
     atom   10 type  4   force =    -0.00155343   -0.00048126    0.00017476
     atom   11 type  3   force =     3.15086442    4.66198793   -7.34061416
     atom   12 type  3   force =    -3.15086442   -4.66198793    7.34061416
     atom   13 type  3   force =     7.08551885    1.87616333   -5.63891894
     atom   14 type  3   force =    -7.08551885   -1.87616333    5.63891894
     atom   15 type  3   force =    -3.83376196   -1.87611829    8.20538518
     atom   16 type  3   force =     3.83376196    1.87611829   -8.20538518
     atom   17 type  3   force =    -6.40271380   -4.66125655    4.77429687
     atom   18 type  3   force =     6.40271380    4.66125655   -4.77429687
     The core correction contribution to forces
     atom    1 type  2   force =     0.00000000    0.00000000    0.00000000
     atom    2 type  2   force =     0.00000000    0.00000000    0.00000000
     atom    3 type  2   force =     0.00000000    0.00000000    0.00000000
     atom    4 type  2   force =     0.00000000    0.00000000    0.00000000
     atom    5 type  1   force =     0.00173936   -0.00000988    0.00133310
     atom    6 type  1   force =    -0.00173936    0.00000988   -0.00133310
     atom    7 type  1   force =    -0.00171085   -0.00002910   -0.00135874
     atom    8 type  1   force =     0.00171085    0.00002910    0.00135874
     atom    9 type  4   force =     0.00000255    0.00000786   -0.00000042
     atom   10 type  4   force =    -0.00000255   -0.00000786    0.00000042
     atom   11 type  3   force =    -0.00661460   -0.00695591    0.00707102
     atom   12 type  3   force =     0.00661460    0.00695591   -0.00707102
     atom   13 type  3   force =    -0.00666841   -0.00152198    0.00975863
     atom   14 type  3   force =     0.00666841    0.00152198   -0.00975863
     atom   15 type  3   force =     0.00794472    0.00151979   -0.00876242
     atom   16 type  3   force =    -0.00794472   -0.00151979    0.00876242
     atom   17 type  3   force =     0.00534080    0.00695151   -0.00807205
     atom   18 type  3   force =    -0.00534080   -0.00695151    0.00807205
     The Hubbard contrib.    to forces
     atom    1 type  2   force =     0.00000000    0.00000000    0.00000000
     atom    2 type  2   force =     0.00000000    0.00000000    0.00000000
     atom    3 type  2   force =     0.00000000    0.00000000    0.00000000
     atom    4 type  2   force =     0.00000000    0.00000000    0.00000000
     atom    5 type  1   force =     0.00000000    0.00000000    0.00000000
     atom    6 type  1   force =     0.00000000    0.00000000    0.00000000
     atom    7 type  1   force =     0.00000000    0.00000000    0.00000000
     atom    8 type  1   force =     0.00000000    0.00000000    0.00000000
     atom    9 type  4   force =     0.00000000    0.00000000    0.00000000
     atom   10 type  4   force =     0.00000000    0.00000000    0.00000000
     atom   11 type  3   force =     0.00000000    0.00000000    0.00000000
     atom   12 type  3   force =     0.00000000    0.00000000    0.00000000
     atom   13 type  3   force =     0.00000000    0.00000000    0.00000000
     atom   14 type  3   force =     0.00000000    0.00000000    0.00000000
     atom   15 type  3   force =     0.00000000    0.00000000    0.00000000
     atom   16 type  3   force =     0.00000000    0.00000000    0.00000000
     atom   17 type  3   force =     0.00000000    0.00000000    0.00000000
     atom   18 type  3   force =     0.00000000    0.00000000    0.00000000
     The SCF correction term to forces
     atom    1 type  2   force =    -0.00000252   -0.00000064   -0.00000138
     atom    2 type  2   force =     0.00000252    0.00000064    0.00000138
     atom    3 type  2   force =     0.00000177   -0.00000057    0.00000194
     atom    4 type  2   force =    -0.00000177    0.00000057   -0.00000194
     atom    5 type  1   force =     0.00000061    0.00000037    0.00000086
     atom    6 type  1   force =    -0.00000061   -0.00000037   -0.00000086
     atom    7 type  1   force =    -0.00000170    0.00000022   -0.00000112
     atom    8 type  1   force =     0.00000170   -0.00000022    0.00000112
     atom    9 type  4   force =    -0.00000328    0.00000414   -0.00000213
     atom   10 type  4   force =     0.00000328   -0.00000414    0.00000213
     atom   11 type  3   force =    -0.00000179   -0.00000244    0.00000567
     atom   12 type  3   force =     0.00000179    0.00000244   -0.00000567
     atom   13 type  3   force =    -0.00000715   -0.00000266    0.00000313
     atom   14 type  3   force =     0.00000715    0.00000266   -0.00000313
     atom   15 type  3   force =     0.00000156    0.00000259   -0.00000752
     atom   16 type  3   force =    -0.00000156   -0.00000259    0.00000752
     atom   17 type  3   force =     0.00000512    0.00000227   -0.00000299
     atom   18 type  3   force =    -0.00000512   -0.00000227    0.00000299

     Total force =     0.004055     Total SCF correction =     0.000023


     Computing stress (Cartesian axis) and pressure

          total   stress  (Ry/bohr**3)                   (kbar)     P=       -0.30
  -0.00000141   0.00000011   0.00000057           -0.21        0.02        0.08
   0.00000011  -0.00000267  -0.00000005            0.02       -0.39       -0.01
   0.00000057  -0.00000005  -0.00000196            0.08       -0.01       -0.29

     kinetic stress (kbar)   7754.94     -4.26    -22.62
                               -4.26   7798.00      5.47
                              -22.62      5.47   7765.36

     local   stress (kbar)  -2114.90   3591.40  -6627.37
                             3591.40  -6080.33  -4552.70
                            -6627.37  -4552.70   1060.14

     nonloc. stress (kbar)   2078.49      0.38     -2.24
                                0.38   2079.86     -0.47
                               -2.24     -0.47   2079.42

     hartree stress (kbar)   6311.32  -1714.11   3110.95
                            -1714.11   8270.26   2173.03
                             3110.95   2173.03   4820.83

     exc-cor stress (kbar)   5875.52     -0.24      0.11
                               -0.24   5876.20      0.30
                                0.11      0.30   5875.46

     corecor stress (kbar)  -9248.56      0.30     -0.33
                                0.30  -9249.15     -0.39
                               -0.33     -0.39  -9248.37

     ewald   stress (kbar) -10657.02  -1873.46   3541.59
                            -1873.46  -8695.23   2374.74
                             3541.59   2374.74 -12353.13

     hubbard stress (kbar)      0.00      0.00      0.00
                                0.00      0.00      0.00
                                0.00      0.00      0.00

     DFT-D   stress (kbar)      0.00      0.00      0.00
                                0.00      0.00      0.00
                                0.00      0.00      0.00

     XDM     stress (kbar)      0.00      0.00      0.00
                                0.00      0.00      0.00
                                0.00      0.00      0.00

     dft-nl  stress (kbar)      0.00      0.00      0.00
                                0.00      0.00      0.00
                                0.00      0.00      0.00

     TS-vdW  stress (kbar)      0.00      0.00      0.00
                                0.00      0.00      0.00
                                0.00      0.00      0.00

     MDB     stress (kbar)      0.00      0.00      0.00
                                0.00      0.00      0.00
                                0.00      0.00      0.00

     3D-RISM stress (kbar)      0.00      0.00      0.00
                                0.00      0.00      0.00
                                0.00      0.00      0.00

     Energy error            =      3.3E-05 Ry
     Gradient error          =      1.1E-03 Ry/Bohr
     Cell gradient error     =      3.9E-01 kbar

     number of scf cycles    =   5
     number of bfgs steps    =   4

     enthalpy           old  =   -1568.2379701918 Ry
     enthalpy           new  =   -1568.2380029925 Ry

     CASE: enthalpy          _new < enthalpy          _old

     new trust radius        =       0.0056927919 bohr
     new conv_thr            =       0.0000000001 Ry

     new unit-cell volume =   3037.65428 a.u.^3 (   450.13392 Ang^3 )
     density =      4.02098 g/cm^3

CELL_PARAMETERS (angstrom)
   9.257707633   0.000707015  -2.211874197
  -1.255789841   5.108452952  -7.930960899
   0.004602402  -0.000282943   9.517247908

ATOMIC_POSITIONS (crystal)
Rb               0.1243985450        0.7285628517        0.8529527208
Rb               0.8756014550        0.2714371483        0.1470472792
Rb               0.3756085701        0.2285442732        0.6041540501
Rb               0.6243914299        0.7714557268        0.3958459499
Cu               0.0245569746        0.7500213948        0.2745556294
Cu               0.9754430254        0.2499786052        0.7254443706
Cu               0.4754408818        0.7500090913        0.7254746793
Cu               0.5245591182        0.2499909087        0.2745253207
Sn               0.2500046612        0.2499892387       -0.0000025718
Sn               0.7499953388        0.7500107613        0.0000025718
S                0.0164544118        0.9192773215        0.6374591619
S                0.9835455882        0.0807226785        0.3625408381
S                0.2818121971        0.3790205354        0.3625695890
S                0.7181878029        0.6209794646        0.6374304110
S                0.4835301616        0.1209965331        0.9027918551
S                0.5164698384        0.8790034669        0.0972081449
S                0.2181912345        0.5807396222        0.0971889372
S                0.7818087655        0.4192603778        0.9028110628



     Writing config-only to output data dir ./tmp/relax/Rb2Cu2SnS4_relax.save/ :
     XML data file
     NEW-OLD atomic charge density approx. for the potential
     New effective cutoffs (rho, wfc):  716.63   89.59

     total cpu time spent up to now is     1337.2 secs

     Self-consistent Calculation

     iteration #  1     ecut=    90.00 Ry     beta= 0.30
     Davidson diagonalization with overlap

---- Real-time Memory Report at c_bands before calling an iterative solver
             0 MiB given to the printing process from OS
             0 MiB allocation reported by mallinfo(arena+hblkhd)
             0 MiB available memory on the node where the printing process lives
------------------
     ethr =  1.00E-06,  avg # of iterations =  2.0

     Threshold (ethr) on eigenvalues was too large:
     Diagonalizing with lowered threshold

     Davidson diagonalization with overlap

---- Real-time Memory Report at c_bands before calling an iterative solver
             0 MiB given to the printing process from OS
             0 MiB allocation reported by mallinfo(arena+hblkhd)
             0 MiB available memory on the node where the printing process lives
------------------
     ethr =  1.07E-08,  avg # of iterations =  7.2

     total cpu time spent up to now is     1394.5 secs

     total energy              =   -1568.23802041 Ry
     estimated scf accuracy    <       0.00000775 Ry

     iteration #  2     ecut=    90.00 Ry     beta= 0.30
     Davidson diagonalization with overlap

---- Real-time Memory Report at c_bands before calling an iterative solver
             0 MiB given to the printing process from OS
             0 MiB allocation reported by mallinfo(arena+hblkhd)
             0 MiB available memory on the node where the printing process lives
------------------
     ethr =  4.97E-09,  avg # of iterations =  2.4

     total cpu time spent up to now is     1414.2 secs

     total energy              =   -1568.23802387 Ry
     estimated scf accuracy    <       0.00000092 Ry

     iteration #  3     ecut=    90.00 Ry     beta= 0.30
     Davidson diagonalization with overlap

---- Real-time Memory Report at c_bands before calling an iterative solver
             0 MiB given to the printing process from OS
             0 MiB allocation reported by mallinfo(arena+hblkhd)
             0 MiB available memory on the node where the printing process lives
------------------
     ethr =  5.89E-10,  avg # of iterations =  4.6

     total cpu time spent up to now is     1437.3 secs

     total energy              =   -1568.23802556 Ry
     estimated scf accuracy    <       0.00000021 Ry

     iteration #  4     ecut=    90.00 Ry     beta= 0.30
     Davidson diagonalization with overlap

---- Real-time Memory Report at c_bands before calling an iterative solver
             0 MiB given to the printing process from OS
             0 MiB allocation reported by mallinfo(arena+hblkhd)
             0 MiB available memory on the node where the printing process lives
------------------
     ethr =  1.36E-10,  avg # of iterations =  2.7

     total cpu time spent up to now is     1456.6 secs

     total energy              =   -1568.23802624 Ry
     estimated scf accuracy    <       0.00000008 Ry

     iteration #  5     ecut=    90.00 Ry     beta= 0.30
     Davidson diagonalization with overlap

---- Real-time Memory Report at c_bands before calling an iterative solver
             0 MiB given to the printing process from OS
             0 MiB allocation reported by mallinfo(arena+hblkhd)
             0 MiB available memory on the node where the printing process lives
------------------
     ethr =  5.39E-11,  avg # of iterations =  4.5

     total cpu time spent up to now is     1480.4 secs

     total energy              =   -1568.23802662 Ry
     estimated scf accuracy    <       0.00000004 Ry

     iteration #  6     ecut=    90.00 Ry     beta= 0.30
     Davidson diagonalization with overlap

---- Real-time Memory Report at c_bands before calling an iterative solver
             0 MiB given to the printing process from OS
             0 MiB allocation reported by mallinfo(arena+hblkhd)
             0 MiB available memory on the node where the printing process lives
------------------
     ethr =  2.33E-11,  avg # of iterations =  4.3

     total cpu time spent up to now is     1503.0 secs

     total energy              =   -1568.23802681 Ry
     estimated scf accuracy    <       0.00000002 Ry

     iteration #  7     ecut=    90.00 Ry     beta= 0.30
     Davidson diagonalization with overlap

---- Real-time Memory Report at c_bands before calling an iterative solver
             0 MiB given to the printing process from OS
             0 MiB allocation reported by mallinfo(arena+hblkhd)
             0 MiB available memory on the node where the printing process lives
------------------
     ethr =  1.51E-11,  avg # of iterations =  3.6

     total cpu time spent up to now is     1523.3 secs

     total energy              =   -1568.23802689 Ry
     estimated scf accuracy    <          1.1E-09 Ry

     iteration #  8     ecut=    90.00 Ry     beta= 0.30
     Davidson diagonalization with overlap

---- Real-time Memory Report at c_bands before calling an iterative solver
             0 MiB given to the printing process from OS
             0 MiB allocation reported by mallinfo(arena+hblkhd)
             0 MiB available memory on the node where the printing process lives
------------------
     ethr =  6.93E-13,  avg # of iterations =  5.3

     total cpu time spent up to now is     1551.6 secs

     total energy              =   -1568.23802693 Ry
     estimated scf accuracy    <          2.4E-09 Ry

     iteration #  9     ecut=    90.00 Ry     beta= 0.30
     Davidson diagonalization with overlap

---- Real-time Memory Report at c_bands before calling an iterative solver
             0 MiB given to the printing process from OS
             0 MiB allocation reported by mallinfo(arena+hblkhd)
             0 MiB available memory on the node where the printing process lives
------------------
     ethr =  6.93E-13,  avg # of iterations =  3.1

     total cpu time spent up to now is     1575.2 secs

     total energy              =   -1568.23802696 Ry
     estimated scf accuracy    <          3.4E-10 Ry

     iteration # 10     ecut=    90.00 Ry     beta= 0.30
     Davidson diagonalization with overlap

---- Real-time Memory Report at c_bands before calling an iterative solver
             0 MiB given to the printing process from OS
             0 MiB allocation reported by mallinfo(arena+hblkhd)
             0 MiB available memory on the node where the printing process lives
------------------
     ethr =  2.18E-13,  avg # of iterations =  2.0

     total cpu time spent up to now is     1594.2 secs

     End of self-consistent calculation

          k = 0.0000 0.0000 0.0000 ( 43377 PWs)   bands (ev):

   -20.8039 -20.7793 -20.7757 -20.7513 -15.7406 -15.7405 -15.7321 -15.7320
   -15.7275 -15.7275 -15.6698 -15.6698 -15.6537 -15.6534  -7.2780  -6.9469
    -6.6409  -6.3139  -6.1491  -6.1483  -6.1464  -5.9215  -5.1611  -5.0840
    -4.9244  -4.9186  -4.8665  -4.8533  -4.8118  -4.8115  -4.7696  -4.7460
    -4.7456  -4.6697  -1.0883  -0.8872   1.5045   1.5951   1.8225   1.9692
     2.0474   2.1000   2.1572   2.4788   2.8332   2.9484   3.0754   3.1160
     3.2437   3.2596   3.3455   3.3507   3.3622   3.4014   3.5186   3.6229
     3.7442   3.7670   4.4990   4.5461   4.7606   4.7618   4.7738   4.8723
     4.8912   5.1084   5.2054   5.2309   5.2725   5.3330   5.4359   5.5287
     5.6443   5.8244   5.9496   6.1121   6.1509   6.2066

     occupation numbers 
     1.0000   1.0000   1.0000   1.0000   1.0000   1.0000   1.0000   1.0000
     1.0000   1.0000   1.0000   1.0000   1.0000   1.0000   1.0000   1.0000
     1.0000   1.0000   1.0000   1.0000   1.0000   1.0000   1.0000   1.0000
     1.0000   1.0000   1.0000   1.0000   1.0000   1.0000   1.0000   1.0000
     1.0000   1.0000   1.0000   1.0000   1.0000   1.0000   1.0000   1.0000
     1.0000   1.0000   1.0000   1.0000   1.0000   1.0000   1.0000   1.0000
     1.0000   1.0000   1.0000   1.0000   1.0000   1.0000   1.0000   1.0000
     1.0000   1.0000   1.0000   1.0000   1.0000   1.0000   1.0000   1.0000
     1.0000   1.0000   1.0000   1.0000   1.0000   1.0000   1.0000   1.0000
     1.0000   1.0000   1.0000   1.0000   1.0000   1.0000

          k = 0.0595 0.4016 0.2493 ( 43439 PWs)   bands (ev):

   -20.7953 -20.7848 -20.7694 -20.7593 -15.7406 -15.7405 -15.7323 -15.7322
   -15.7276 -15.7276 -15.6696 -15.6696 -15.6536 -15.6535  -7.1791  -6.9811
    -6.4487  -6.3036  -6.2661  -6.2357  -6.2093  -6.0317  -5.0839  -5.0011
    -4.9245  -4.8837  -4.8622  -4.8518  -4.8402  -4.8398  -4.8088  -4.7495
    -4.7409  -4.7299  -1.0320  -0.8831   1.3069   1.4807   1.6072   1.9119
     2.0143   2.1737   2.3923   2.5741   2.6375   2.9169   3.0140   3.1660
     3.2119   3.2444   3.2522   3.3413   3.3476   3.4759   3.6319   3.6692
     3.7124   3.7754   4.6067   4.6625   4.7445   4.7965   4.8473   4.9079
     4.9312   5.0392   5.1366   5.1740   5.1894   5.3456   5.6423   5.6912
     5.7477   5.8619   5.9602   6.0351   6.0914   6.2041

     occupation numbers 
     1.0000   1.0000   1.0000   1.0000   1.0000   1.0000   1.0000   1.0000
     1.0000   1.0000   1.0000   1.0000   1.0000   1.0000   1.0000   1.0000
     1.0000   1.0000   1.0000   1.0000   1.0000   1.0000   1.0000   1.0000
     1.0000   1.0000   1.0000   1.0000   1.0000   1.0000   1.0000   1.0000
     1.0000   1.0000   1.0000   1.0000   1.0000   1.0000   1.0000   1.0000
     1.0000   1.0000   1.0000   1.0000   1.0000   1.0000   1.0000   1.0000
     1.0000   1.0000   1.0000   1.0000   1.0000   1.0000   1.0000   1.0000
     1.0000   1.0000   1.0000   1.0000   1.0000   1.0000   1.0000   1.0000
     1.0000   1.0000   1.0000   1.0000   1.0000   1.0000   1.0000   1.0000
     1.0000   1.0000   1.0000   1.0000   1.0000   1.0000

          k =-0.1191-0.8033-0.4986 ( 43366 PWs)   bands (ev):

   -20.7829 -20.7827 -20.7710 -20.7709 -15.7406 -15.7406 -15.7324 -15.7324
   -15.7277 -15.7277 -15.6694 -15.6693 -15.6535 -15.6535  -7.0495  -6.9630
    -6.4678  -6.3493  -6.3272  -6.2812  -6.1585  -6.0992  -5.0065  -4.9950
    -4.9798  -4.9013  -4.8843  -4.8702  -4.8566  -4.8460  -4.7732  -4.7646
    -4.7432  -4.7216  -0.9645  -0.8841   1.2124   1.3672   1.4869   1.7156
     2.1047   2.2891   2.3649   2.3713   2.7185   2.9351   3.0145   3.1790
     3.1822   3.2601   3.2925   3.3179   3.3529   3.5065   3.6250   3.6710
     3.7513   3.7686   4.6931   4.7613   4.7764   4.8162   4.9161   4.9395
     4.9761   5.0033   5.0792   5.1263   5.1507   5.2729   5.7019   5.8706
     5.8979   5.9490   6.0183   6.0531   6.0855   6.1198

     occupation numbers 
     1.0000   1.0000   1.0000   1.0000   1.0000   1.0000   1.0000   1.0000
     1.0000   1.0000   1.0000   1.0000   1.0000   1.0000   1.0000   1.0000
     1.0000   1.0000   1.0000   1.0000   1.0000   1.0000   1.0000   1.0000
     1.0000   1.0000   1.0000   1.0000   1.0000   1.0000   1.0000   1.0000
     1.0000   1.0000   1.0000   1.0000   1.0000   1.0000   1.0000   1.0000
     1.0000   1.0000   1.0000   1.0000   1.0000   1.0000   1.0000   1.0000
     1.0000   1.0000   1.0000   1.0000   1.0000   1.0000   1.0000   1.0000
     1.0000   1.0000   1.0000   1.0000   1.0000   1.0000   1.0000   1.0000
     1.0000   1.0000   1.0000   1.0000   1.0000   1.0000   1.0000   1.0000
     1.0000   1.0000   1.0000   1.0000   1.0000   1.0000

          k =-0.0000 0.4645 0.0000 ( 43455 PWs)   bands (ev):

   -20.7968 -20.7792 -20.7750 -20.7578 -15.7406 -15.7405 -15.7323 -15.7322
   -15.7276 -15.7276 -15.6696 -15.6696 -15.6536 -15.6535  -7.2036  -6.9181
    -6.5523  -6.2701  -6.2503  -6.2228  -6.1948  -6.0389  -5.1087  -4.9885
    -4.9233  -4.9131  -4.8502  -4.8338  -4.8314  -4.8229  -4.8055  -4.7559
    -4.7547  -4.7322  -1.0412  -0.8747   1.2835   1.4550   1.6928   1.9587
     1.9944   2.1364   2.3428   2.5507   2.6169   3.0171   3.0234   3.0972
     3.2335   3.2678   3.2960   3.3032   3.3807   3.4309   3.5739   3.6715
     3.7665   3.7679   4.6122   4.6558   4.7257   4.8127   4.8553   4.9046
     4.9295   5.0621   5.0929   5.1860   5.1960   5.3556   5.6165   5.7575
     5.7745   5.8777   5.9357   6.0276   6.0537   6.1383

     occupation numbers 
     1.0000   1.0000   1.0000   1.0000   1.0000   1.0000   1.0000   1.0000
     1.0000   1.0000   1.0000   1.0000   1.0000   1.0000   1.0000   1.0000
     1.0000   1.0000   1.0000   1.0000   1.0000   1.0000   1.0000   1.0000
     1.0000   1.0000   1.0000   1.0000   1.0000   1.0000   1.0000   1.0000
     1.0000   1.0000   1.0000   1.0000   1.0000   1.0000   1.0000   1.0000
     1.0000   1.0000   1.0000   1.0000   1.0000   1.0000   1.0000   1.0000
     1.0000   1.0000   1.0000   1.0000   1.0000   1.0000   1.0000   1.0000
     1.0000   1.0000   1.0000   1.0000   1.0000   1.0000   1.0000   1.0000
     1.0000   1.0000   1.0000   1.0000   1.0000   1.0000   1.0000   1.0000
     1.0000   1.0000   1.0000   1.0000   1.0000   1.0000

          k = 0.0595 0.8661 0.2493 ( 43432 PWs)   bands (ev):

   -20.7829 -20.7827 -20.7710 -20.7709 -15.7406 -15.7406 -15.7324 -15.7324
   -15.7277 -15.7277 -15.6694 -15.6693 -15.6535 -15.6535  -7.0382  -6.9792
    -6.4692  -6.3794  -6.2916  -6.2318  -6.1790  -6.1275  -5.0074  -5.0026
    -4.9559  -4.9202  -4.8919  -4.8770  -4.8482  -4.8332  -4.8033  -4.7805
    -4.7141  -4.7079  -0.9537  -0.8967   1.1829   1.3094   1.6440   1.7813
     2.0931   2.2187   2.2756   2.3056   2.8244   2.9389   3.0588   3.1329
     3.1850   3.2225   3.2445   3.2859   3.3959   3.5239   3.6542   3.6916
     3.7273   3.7803   4.7077   4.7545   4.7732   4.8119   4.9071   4.9346
     4.9436   4.9776   5.1137   5.1521   5.1838   5.2569   5.7472   5.8617
     5.9108   5.9512   5.9928   6.0553   6.0813   6.1414

     occupation numbers 
     1.0000   1.0000   1.0000   1.0000   1.0000   1.0000   1.0000   1.0000
     1.0000   1.0000   1.0000   1.0000   1.0000   1.0000   1.0000   1.0000
     1.0000   1.0000   1.0000   1.0000   1.0000   1.0000   1.0000   1.0000
     1.0000   1.0000   1.0000   1.0000   1.0000   1.0000   1.0000   1.0000
     1.0000   1.0000   1.0000   1.0000   1.0000   1.0000   1.0000   1.0000
     1.0000   1.0000   1.0000   1.0000   1.0000   1.0000   1.0000   1.0000
     1.0000   1.0000   1.0000   1.0000   1.0000   1.0000   1.0000   1.0000
     1.0000   1.0000   1.0000   1.0000   1.0000   1.0000   1.0000   1.0000
     1.0000   1.0000   1.0000   1.0000   1.0000   1.0000   1.0000   1.0000
     1.0000   1.0000   1.0000   1.0000   1.0000   1.0000

          k =-0.1191-0.3388-0.4985 ( 43424 PWs)   bands (ev):

   -20.7911 -20.7910 -20.7634 -20.7633 -15.7406 -15.7406 -15.7322 -15.7322
   -15.7276 -15.7276 -15.6696 -15.6696 -15.6535 -15.6535  -7.1130  -7.1018
    -6.4034  -6.3295  -6.2434  -6.2092  -6.1555  -6.0535  -5.0485  -5.0322
    -4.9146  -4.9015  -4.8951  -4.8662  -4.8532  -4.8475  -4.7957  -4.7772
    -4.7239  -4.7200  -0.9821  -0.9382   1.4197   1.4839   1.5895   1.7285
     2.1688   2.2604   2.3738   2.4271   2.7469   2.8730   2.9701   3.0997
     3.1681   3.2023   3.2713   3.3624   3.3834   3.5526   3.6634   3.6978
     3.7176   3.7518   4.6110   4.6488   4.7607   4.7771   4.8560   4.8837
     4.9808   4.9949   5.1555   5.1790   5.2245   5.2837   5.6265   5.6811
     5.7691   5.8577   5.9519   5.9709   6.1813   6.2269

     occupation numbers 
     1.0000   1.0000   1.0000   1.0000   1.0000   1.0000   1.0000   1.0000
     1.0000   1.0000   1.0000   1.0000   1.0000   1.0000   1.0000   1.0000
     1.0000   1.0000   1.0000   1.0000   1.0000   1.0000   1.0000   1.0000
     1.0000   1.0000   1.0000   1.0000   1.0000   1.0000   1.0000   1.0000
     1.0000   1.0000   1.0000   1.0000   1.0000   1.0000   1.0000   1.0000
     1.0000   1.0000   1.0000   1.0000   1.0000   1.0000   1.0000   1.0000
     1.0000   1.0000   1.0000   1.0000   1.0000   1.0000   1.0000   1.0000
     1.0000   1.0000   1.0000   1.0000   1.0000   1.0000   1.0000   1.0000
     1.0000   1.0000   1.0000   1.0000   1.0000   1.0000   1.0000   1.0000
     1.0000   1.0000   1.0000   1.0000   1.0000   1.0000

          k =-0.0596 0.0628-0.2493 ( 43427 PWs)   bands (ev):

   -20.8019 -20.7877 -20.7673 -20.7532 -15.7406 -15.7405 -15.7321 -15.7320
   -15.7275 -15.7275 -15.6698 -15.6698 -15.6536 -15.6535  -7.2577  -7.0535
    -6.5199  -6.2796  -6.2071  -6.1717  -6.0914  -5.9393  -5.1294  -5.0752
    -4.9755  -4.9379  -4.8682  -4.8295  -4.8124  -4.8072  -4.7675  -4.7546
    -4.7483  -4.6927  -1.0637  -0.9182   1.5351   1.6603   1.7762   1.9419
     1.9981   2.0520   2.2632   2.6588   2.7899   2.8464   2.9777   3.1380
     3.1712   3.1920   3.3293   3.3476   3.4949   3.5187   3.5397   3.6222
     3.7053   3.7589   4.5013   4.5368   4.7640   4.7707   4.7960   4.8730
     4.8873   5.0152   5.2261   5.2750   5.3009   5.3196   5.3999   5.5031
     5.6899   5.8311   5.9671   5.9998   6.1180   6.1686

     occupation numbers 
     1.0000   1.0000   1.0000   1.0000   1.0000   1.0000   1.0000   1.0000
     1.0000   1.0000   1.0000   1.0000   1.0000   1.0000   1.0000   1.0000
     1.0000   1.0000   1.0000   1.0000   1.0000   1.0000   1.0000   1.0000
     1.0000   1.0000   1.0000   1.0000   1.0000   1.0000   1.0000   1.0000
     1.0000   1.0000   1.0000   1.0000   1.0000   1.0000   1.0000   1.0000
     1.0000   1.0000   1.0000   1.0000   1.0000   1.0000   1.0000   1.0000
     1.0000   1.0000   1.0000   1.0000   1.0000   1.0000   1.0000   1.0000
     1.0000   1.0000   1.0000   1.0000   1.0000   1.0000   1.0000   1.0000
     1.0000   1.0000   1.0000   1.0000   1.0000   1.0000   1.0000   1.0000
     1.0000   1.0000   1.0000   1.0000   1.0000   1.0000

          k = 0.0001-0.9289-0.0000 ( 43450 PWs)   bands (ev):

   -20.7829 -20.7827 -20.7710 -20.7709 -15.7406 -15.7406 -15.7324 -15.7324
   -15.7277 -15.7277 -15.6694 -15.6694 -15.6535 -15.6535  -7.0109  -7.0108
    -6.4372  -6.4365  -6.2155  -6.2154  -6.1843  -6.1837  -5.0116  -5.0115
    -4.9368  -4.9367  -4.8859  -4.8858  -4.8311  -4.8310  -4.8086  -4.8085
    -4.6980  -4.6979  -0.9262  -0.9261   1.2136   1.2140   1.9071   1.9072
     1.9911   1.9917   2.2508   2.2509   2.9639   2.9642   3.0646   3.0651
     3.1642   3.1650   3.2490   3.2493   3.4836   3.4841   3.6930   3.6934
     3.7502   3.7508   4.7364   4.7369   4.7875   4.7879   4.9062   4.9064
     4.9477   4.9479   5.1702   5.1703   5.2130   5.2131   5.8315   5.8317
     5.9056   5.9057   6.0385   6.0385   6.1180   6.1183

     occupation numbers 
     1.0000   1.0000   1.0000   1.0000   1.0000   1.0000   1.0000   1.0000
     1.0000   1.0000   1.0000   1.0000   1.0000   1.0000   1.0000   1.0000
     1.0000   1.0000   1.0000   1.0000   1.0000   1.0000   1.0000   1.0000
     1.0000   1.0000   1.0000   1.0000   1.0000   1.0000   1.0000   1.0000
     1.0000   1.0000   1.0000   1.0000   1.0000   1.0000   1.0000   1.0000
     1.0000   1.0000   1.0000   1.0000   1.0000   1.0000   1.0000   1.0000
     1.0000   1.0000   1.0000   1.0000   1.0000   1.0000   1.0000   1.0000
     1.0000   1.0000   1.0000   1.0000   1.0000   1.0000   1.0000   1.0000
     1.0000   1.0000   1.0000   1.0000   1.0000   1.0000   1.0000   1.0000
     1.0000   1.0000   1.0000   1.0000   1.0000   1.0000

          k = 0.0596-0.5273 0.2492 ( 43437 PWs)   bands (ev):

   -20.7953 -20.7849 -20.7694 -20.7593 -15.7406 -15.7405 -15.7323 -15.7322
   -15.7276 -15.7276 -15.6696 -15.6696 -15.6536 -15.6535  -7.1817  -7.0057
    -6.5093  -6.2635  -6.2351  -6.2096  -6.1290  -6.0717  -5.0840  -5.0082
    -4.9336  -4.9211  -4.8617  -4.8520  -4.8427  -4.8383  -4.8127  -4.7663
    -4.7343  -4.7236  -1.0049  -0.9160   1.3833   1.4451   1.6708   1.8033
     2.0871   2.2354   2.3362   2.5413   2.5980   2.9696   3.0007   3.0566
     3.1856   3.2432   3.2843   3.3441   3.3793   3.5099   3.6473   3.6567
     3.7423   3.7938   4.6220   4.6361   4.7288   4.8073   4.8644   4.8880
     4.9487   5.0257   5.1232   5.1884   5.2328   5.2947   5.6124   5.7185
     5.8103   5.8540   5.9383   5.9650   6.1502   6.1730

     occupation numbers 
     1.0000   1.0000   1.0000   1.0000   1.0000   1.0000   1.0000   1.0000
     1.0000   1.0000   1.0000   1.0000   1.0000   1.0000   1.0000   1.0000
     1.0000   1.0000   1.0000   1.0000   1.0000   1.0000   1.0000   1.0000
     1.0000   1.0000   1.0000   1.0000   1.0000   1.0000   1.0000   1.0000
     1.0000   1.0000   1.0000   1.0000   1.0000   1.0000   1.0000   1.0000
     1.0000   1.0000   1.0000   1.0000   1.0000   1.0000   1.0000   1.0000
     1.0000   1.0000   1.0000   1.0000   1.0000   1.0000   1.0000   1.0000
     1.0000   1.0000   1.0000   1.0000   1.0000   1.0000   1.0000   1.0000
     1.0000   1.0000   1.0000   1.0000   1.0000   1.0000   1.0000   1.0000
     1.0000   1.0000   1.0000   1.0000   1.0000   1.0000

          k =-0.1190-1.7322-0.4986 ( 43432 PWs)   bands (ev):

   -20.7962 -20.7961 -20.7589 -20.7588 -15.7406 -15.7406 -15.7320 -15.7320
   -15.7275 -15.7275 -15.6698 -15.6698 -15.6536 -15.6536  -7.1853  -7.1851
    -6.3462  -6.3461  -6.2129  -6.2127  -6.0028  -6.0026  -5.0721  -5.0721
    -5.0026  -5.0025  -4.8354  -4.8353  -4.8108  -4.8107  -4.7681  -4.7679
    -4.7295  -4.7294  -0.9944  -0.9943   1.6537   1.6540   1.7747   1.7747
     2.0402   2.0403   2.5227   2.5229   2.8377   2.8378   2.9513   2.9518
     3.1688   3.1689   3.3559   3.3563   3.5495   3.5496   3.6316   3.6318
     3.6983   3.6985   4.5152   4.5158   4.7680   4.7687   4.8783   4.8789
     4.8898   4.8902   5.2788   5.2794   5.2912   5.2919   5.4372   5.4376
     5.7677   5.7681   5.9832   5.9838   6.1087   6.1090

     occupation numbers 
     1.0000   1.0000   1.0000   1.0000   1.0000   1.0000   1.0000   1.0000
     1.0000   1.0000   1.0000   1.0000   1.0000   1.0000   1.0000   1.0000
     1.0000   1.0000   1.0000   1.0000   1.0000   1.0000   1.0000   1.0000
     1.0000   1.0000   1.0000   1.0000   1.0000   1.0000   1.0000   1.0000
     1.0000   1.0000   1.0000   1.0000   1.0000   1.0000   1.0000   1.0000
     1.0000   1.0000   1.0000   1.0000   1.0000   1.0000   1.0000   1.0000
     1.0000   1.0000   1.0000   1.0000   1.0000   1.0000   1.0000   1.0000
     1.0000   1.0000   1.0000   1.0000   1.0000   1.0000   1.0000   1.0000
     1.0000   1.0000   1.0000   1.0000   1.0000   1.0000   1.0000   1.0000
     1.0000   1.0000   1.0000   1.0000   1.0000   1.0000

          k =-0.5125-0.1256 0.0002 ( 43432 PWs)   bands (ev):

   -20.7962 -20.7961 -20.7589 -20.7588 -15.7406 -15.7406 -15.7320 -15.7320
   -15.7275 -15.7275 -15.6698 -15.6698 -15.6536 -15.6536  -7.1853  -7.1851
    -6.3461  -6.3460  -6.2131  -6.2128  -6.0029  -6.0027  -5.0721  -5.0720
    -5.0026  -5.0025  -4.8354  -4.8353  -4.8108  -4.8108  -4.7681  -4.7679
    -4.7294  -4.7293  -0.9943  -0.9943   1.6536   1.6539   1.7747   1.7747
     2.0402   2.0403   2.5227   2.5228   2.8377   2.8378   2.9513   2.9518
     3.1690   3.1691   3.3561   3.3563   3.5494   3.5495   3.6315   3.6315
     3.6983   3.6986   4.5152   4.5158   4.7680   4.7687   4.8784   4.8791
     4.8897   4.8901   5.2788   5.2795   5.2912   5.2917   5.4371   5.4375
     5.7678   5.7684   5.9834   5.9836   6.1086   6.1090

     occupation numbers 
     1.0000   1.0000   1.0000   1.0000   1.0000   1.0000   1.0000   1.0000
     1.0000   1.0000   1.0000   1.0000   1.0000   1.0000   1.0000   1.0000
     1.0000   1.0000   1.0000   1.0000   1.0000   1.0000   1.0000   1.0000
     1.0000   1.0000   1.0000   1.0000   1.0000   1.0000   1.0000   1.0000
     1.0000   1.0000   1.0000   1.0000   1.0000   1.0000   1.0000   1.0000
     1.0000   1.0000   1.0000   1.0000   1.0000   1.0000   1.0000   1.0000
     1.0000   1.0000   1.0000   1.0000   1.0000   1.0000   1.0000   1.0000
     1.0000   1.0000   1.0000   1.0000   1.0000   1.0000   1.0000   1.0000
     1.0000   1.0000   1.0000   1.0000   1.0000   1.0000   1.0000   1.0000
     1.0000   1.0000   1.0000   1.0000   1.0000   1.0000

          k =-0.4530 0.2760 0.2495 ( 43437 PWs)   bands (ev):

   -20.7953 -20.7849 -20.7694 -20.7593 -15.7406 -15.7405 -15.7323 -15.7322
   -15.7276 -15.7276 -15.6696 -15.6696 -15.6536 -15.6535  -7.1817  -7.0057
    -6.5092  -6.2633  -6.2354  -6.2096  -6.1290  -6.0718  -5.0841  -5.0082
    -4.9335  -4.9212  -4.8617  -4.8520  -4.8427  -4.8383  -4.8127  -4.7662
    -4.7343  -4.7236  -1.0049  -0.9160   1.3832   1.4452   1.6707   1.8033
     2.0872   2.2352   2.3361   2.5414   2.5981   2.9697   3.0010   3.0564
     3.1852   3.2432   3.2848   3.3439   3.3794   3.5097   3.6477   3.6565
     3.7425   3.7935   4.6227   4.6355   4.7288   4.8075   4.8642   4.8879
     4.9487   5.0258   5.1232   5.1886   5.2328   5.2947   5.6124   5.7185
     5.8104   5.8539   5.9383   5.9647   6.1501   6.1732

     occupation numbers 
     1.0000   1.0000   1.0000   1.0000   1.0000   1.0000   1.0000   1.0000
     1.0000   1.0000   1.0000   1.0000   1.0000   1.0000   1.0000   1.0000
     1.0000   1.0000   1.0000   1.0000   1.0000   1.0000   1.0000   1.0000
     1.0000   1.0000   1.0000   1.0000   1.0000   1.0000   1.0000   1.0000
     1.0000   1.0000   1.0000   1.0000   1.0000   1.0000   1.0000   1.0000
     1.0000   1.0000   1.0000   1.0000   1.0000   1.0000   1.0000   1.0000
     1.0000   1.0000   1.0000   1.0000   1.0000   1.0000   1.0000   1.0000
     1.0000   1.0000   1.0000   1.0000   1.0000   1.0000   1.0000   1.0000
     1.0000   1.0000   1.0000   1.0000   1.0000   1.0000   1.0000   1.0000
     1.0000   1.0000   1.0000   1.0000   1.0000   1.0000

          k =-0.6315-0.9289-0.4983 ( 43450 PWs)   bands (ev):

   -20.7829 -20.7827 -20.7710 -20.7709 -15.7406 -15.7406 -15.7324 -15.7324
   -15.7277 -15.7277 -15.6694 -15.6694 -15.6535 -15.6535  -7.0109  -7.0108
    -6.4372  -6.4367  -6.2152  -6.2151  -6.1842  -6.1840  -5.0116  -5.0115
    -4.9368  -4.9367  -4.8859  -4.8858  -4.8310  -4.8310  -4.8086  -4.8085
    -4.6980  -4.6979  -0.9262  -0.9261   1.2136   1.2139   1.9071   1.9072
     1.9911   1.9917   2.2507   2.2508   2.9641   2.9644   3.0645   3.0649
     3.1641   3.1648   3.2489   3.2493   3.4837   3.4841   3.6931   3.6935
     3.7502   3.7508   4.7363   4.7368   4.7877   4.7882   4.9060   4.9062
     4.9477   4.9479   5.1702   5.1702   5.2131   5.2131   5.8313   5.8313
     5.9059   5.9061   6.0383   6.0384   6.1182   6.1183

     occupation numbers 
     1.0000   1.0000   1.0000   1.0000   1.0000   1.0000   1.0000   1.0000
     1.0000   1.0000   1.0000   1.0000   1.0000   1.0000   1.0000   1.0000
     1.0000   1.0000   1.0000   1.0000   1.0000   1.0000   1.0000   1.0000
     1.0000   1.0000   1.0000   1.0000   1.0000   1.0000   1.0000   1.0000
     1.0000   1.0000   1.0000   1.0000   1.0000   1.0000   1.0000   1.0000
     1.0000   1.0000   1.0000   1.0000   1.0000   1.0000   1.0000   1.0000
     1.0000   1.0000   1.0000   1.0000   1.0000   1.0000   1.0000   1.0000
     1.0000   1.0000   1.0000   1.0000   1.0000   1.0000   1.0000   1.0000
     1.0000   1.0000   1.0000   1.0000   1.0000   1.0000   1.0000   1.0000
     1.0000   1.0000   1.0000   1.0000   1.0000   1.0000

          k =-0.5125 0.3389 0.0003 ( 43424 PWs)   bands (ev):

   -20.7911 -20.7910 -20.7634 -20.7633 -15.7406 -15.7406 -15.7322 -15.7322
   -15.7276 -15.7276 -15.6696 -15.6696 -15.6535 -15.6535  -7.1130  -7.1018
    -6.4034  -6.3292  -6.2436  -6.2093  -6.1555  -6.0537  -5.0486  -5.0321
    -4.9147  -4.9015  -4.8952  -4.8661  -4.8532  -4.8475  -4.7957  -4.7770
    -4.7239  -4.7200  -0.9821  -0.9382   1.4197   1.4838   1.5894   1.7286
     2.1689   2.2603   2.3738   2.4270   2.7471   2.8732   2.9702   3.0997
     3.1680   3.2019   3.2715   3.3624   3.3833   3.5525   3.6636   3.6983
     3.7171   3.7516   4.6110   4.6488   4.7607   4.7771   4.8560   4.8836
     4.9807   4.9951   5.1557   5.1789   5.2245   5.2837   5.6265   5.6812
     5.7692   5.8579   5.9516   5.9709   6.1812   6.2270

     occupation numbers 
     1.0000   1.0000   1.0000   1.0000   1.0000   1.0000   1.0000   1.0000
     1.0000   1.0000   1.0000   1.0000   1.0000   1.0000   1.0000   1.0000
     1.0000   1.0000   1.0000   1.0000   1.0000   1.0000   1.0000   1.0000
     1.0000   1.0000   1.0000   1.0000   1.0000   1.0000   1.0000   1.0000
     1.0000   1.0000   1.0000   1.0000   1.0000   1.0000   1.0000   1.0000
     1.0000   1.0000   1.0000   1.0000   1.0000   1.0000   1.0000   1.0000
     1.0000   1.0000   1.0000   1.0000   1.0000   1.0000   1.0000   1.0000
     1.0000   1.0000   1.0000   1.0000   1.0000   1.0000   1.0000   1.0000
     1.0000   1.0000   1.0000   1.0000   1.0000   1.0000   1.0000   1.0000
     1.0000   1.0000   1.0000   1.0000   1.0000   1.0000

          k =-0.4530 0.7405 0.2495 ( 43432 PWs)   bands (ev):

   -20.7829 -20.7827 -20.7710 -20.7709 -15.7406 -15.7406 -15.7324 -15.7324
   -15.7277 -15.7277 -15.6694 -15.6693 -15.6535 -15.6535  -7.0381  -6.9792
    -6.4694  -6.3794  -6.2916  -6.2315  -6.1789  -6.1277  -5.0075  -5.0025
    -4.9560  -4.9201  -4.8919  -4.8770  -4.8482  -4.8332  -4.8033  -4.7805
    -4.7141  -4.7079  -0.9537  -0.8966   1.1830   1.3093   1.6439   1.7814
     2.0932   2.2186   2.2756   2.3056   2.8244   2.9390   3.0589   3.1329
     3.1851   3.2223   3.2445   3.2860   3.3959   3.5240   3.6542   3.6917
     3.7272   3.7803   4.7077   4.7545   4.7733   4.8120   4.9071   4.9346
     4.9435   4.9776   5.1136   5.1522   5.1838   5.2570   5.7470   5.8617
     5.9112   5.9515   5.9926   6.0549   6.0813   6.1416

     occupation numbers 
     1.0000   1.0000   1.0000   1.0000   1.0000   1.0000   1.0000   1.0000
     1.0000   1.0000   1.0000   1.0000   1.0000   1.0000   1.0000   1.0000
     1.0000   1.0000   1.0000   1.0000   1.0000   1.0000   1.0000   1.0000
     1.0000   1.0000   1.0000   1.0000   1.0000   1.0000   1.0000   1.0000
     1.0000   1.0000   1.0000   1.0000   1.0000   1.0000   1.0000   1.0000
     1.0000   1.0000   1.0000   1.0000   1.0000   1.0000   1.0000   1.0000
     1.0000   1.0000   1.0000   1.0000   1.0000   1.0000   1.0000   1.0000
     1.0000   1.0000   1.0000   1.0000   1.0000   1.0000   1.0000   1.0000
     1.0000   1.0000   1.0000   1.0000   1.0000   1.0000   1.0000   1.0000
     1.0000   1.0000   1.0000   1.0000   1.0000   1.0000

          k =-0.6316-0.4644-0.4983 ( 43453 PWs)   bands (ev):

   -20.7967 -20.7793 -20.7750 -20.7578 -15.7406 -15.7405 -15.7323 -15.7322
   -15.7276 -15.7276 -15.6696 -15.6696 -15.6536 -15.6534  -7.2124  -6.9663
    -6.6109  -6.2300  -6.1893  -6.1315  -6.1255  -6.0829  -5.1047  -5.0110
    -4.9618  -4.9467  -4.8588  -4.8525  -4.8361  -4.8326  -4.7937  -4.7720
    -4.7547  -4.7227  -1.0064  -0.9205   1.4028   1.4153   1.7895   1.8780
     2.0050   2.2365   2.2840   2.5388   2.5862   2.9088   3.0099   3.0741
     3.1770   3.2001   3.2752   3.3428   3.4114   3.5695   3.6039   3.6391
     3.7206   3.9072   4.6089   4.6406   4.7011   4.8363   4.8685   4.8898
     4.9538   5.0248   5.0869   5.1988   5.2641   5.2792   5.5764   5.7203
     5.7756   5.9392   5.9565   5.9984   6.0638   6.1497

     occupation numbers 
     1.0000   1.0000   1.0000   1.0000   1.0000   1.0000   1.0000   1.0000
     1.0000   1.0000   1.0000   1.0000   1.0000   1.0000   1.0000   1.0000
     1.0000   1.0000   1.0000   1.0000   1.0000   1.0000   1.0000   1.0000
     1.0000   1.0000   1.0000   1.0000   1.0000   1.0000   1.0000   1.0000
     1.0000   1.0000   1.0000   1.0000   1.0000   1.0000   1.0000   1.0000
     1.0000   1.0000   1.0000   1.0000   1.0000   1.0000   1.0000   1.0000
     1.0000   1.0000   1.0000   1.0000   1.0000   1.0000   1.0000   1.0000
     1.0000   1.0000   1.0000   1.0000   1.0000   1.0000   1.0000   1.0000
     1.0000   1.0000   1.0000   1.0000   1.0000   1.0000   1.0000   1.0000
     1.0000   1.0000   1.0000   1.0000   1.0000   1.0000

          k =-0.5721-0.0628-0.2490 ( 43489 PWs)   bands (ev):

   -20.8019 -20.7877 -20.7673 -20.7532 -15.7406 -15.7405 -15.7321 -15.7320
   -15.7275 -15.7275 -15.6698 -15.6698 -15.6536 -15.6535  -7.2945  -7.0500
    -6.5457  -6.1988  -6.1743  -6.1732  -6.0297  -5.9844  -5.1241  -5.0809
    -4.9742  -4.9575  -4.8661  -4.8559  -4.8105  -4.8039  -4.7704  -4.7560
    -4.7466  -4.7422  -1.0504  -0.9484   1.6019   1.6388   1.7608   1.9492
     2.0147   2.1137   2.4538   2.6366   2.6601   2.7780   2.9501   3.0941
     3.1384   3.2193   3.2713   3.3896   3.4096   3.5307   3.5479   3.6514
     3.6627   3.9754   4.5009   4.5257   4.7616   4.7747   4.8084   4.8562
     4.9214   4.9948   5.2213   5.2692   5.3042   5.3376   5.3412   5.5037
     5.5950   5.8765   5.9485   6.0223   6.1127   6.1491

     occupation numbers 
     1.0000   1.0000   1.0000   1.0000   1.0000   1.0000   1.0000   1.0000
     1.0000   1.0000   1.0000   1.0000   1.0000   1.0000   1.0000   1.0000
     1.0000   1.0000   1.0000   1.0000   1.0000   1.0000   1.0000   1.0000
     1.0000   1.0000   1.0000   1.0000   1.0000   1.0000   1.0000   1.0000
     1.0000   1.0000   1.0000   1.0000   1.0000   1.0000   1.0000   1.0000
     1.0000   1.0000   1.0000   1.0000   1.0000   1.0000   1.0000   1.0000
     1.0000   1.0000   1.0000   1.0000   1.0000   1.0000   1.0000   1.0000
     1.0000   1.0000   1.0000   1.0000   1.0000   1.0000   1.0000   1.0000
     1.0000   1.0000   1.0000   1.0000   1.0000   1.0000   1.0000   1.0000
     1.0000   1.0000   1.0000   1.0000   1.0000   1.0000

          k =-0.5124-1.0545 0.0002 ( 43366 PWs)   bands (ev):

   -20.7829 -20.7827 -20.7710 -20.7709 -15.7406 -15.7406 -15.7324 -15.7324
   -15.7277 -15.7277 -15.6694 -15.6693 -15.6535 -15.6535  -7.0494  -6.9631
    -6.4680  -6.3494  -6.3270  -6.2811  -6.1583  -6.0994  -5.0065  -4.9951
    -4.9798  -4.9011  -4.8845  -4.8702  -4.8565  -4.8461  -4.7731  -4.7647
    -4.7433  -4.7215  -0.9645  -0.8841   1.2125   1.3671   1.4867   1.7157
     2.1047   2.2890   2.3648   2.3714   2.7185   2.9352   3.0146   3.1791
     3.1822   3.2601   3.2925   3.3179   3.3528   3.5066   3.6251   3.6711
     3.7513   3.7686   4.6931   4.7613   4.7764   4.8162   4.9161   4.9396
     4.9760   5.0032   5.0791   5.1264   5.1506   5.2729   5.7017   5.8708
     5.8982   5.9490   6.0179   6.0529   6.0854   6.1200

     occupation numbers 
     1.0000   1.0000   1.0000   1.0000   1.0000   1.0000   1.0000   1.0000
     1.0000   1.0000   1.0000   1.0000   1.0000   1.0000   1.0000   1.0000
     1.0000   1.0000   1.0000   1.0000   1.0000   1.0000   1.0000   1.0000
     1.0000   1.0000   1.0000   1.0000   1.0000   1.0000   1.0000   1.0000
     1.0000   1.0000   1.0000   1.0000   1.0000   1.0000   1.0000   1.0000
     1.0000   1.0000   1.0000   1.0000   1.0000   1.0000   1.0000   1.0000
     1.0000   1.0000   1.0000   1.0000   1.0000   1.0000   1.0000   1.0000
     1.0000   1.0000   1.0000   1.0000   1.0000   1.0000   1.0000   1.0000
     1.0000   1.0000   1.0000   1.0000   1.0000   1.0000   1.0000   1.0000
     1.0000   1.0000   1.0000   1.0000   1.0000   1.0000

          k =-0.4529-0.6529 0.2495 ( 43437 PWs)   bands (ev):

   -20.7952 -20.7849 -20.7695 -20.7593 -15.7406 -15.7405 -15.7322 -15.7322
   -15.7276 -15.7276 -15.6696 -15.6696 -15.6536 -15.6535  -7.1842  -7.0277
    -6.5494  -6.2333  -6.1790  -6.1653  -6.1585  -6.0547  -5.0857  -5.0211
    -4.9592  -4.9345  -4.8676  -4.8483  -4.8439  -4.8289  -4.8231  -4.7793
    -4.7340  -4.7189  -0.9781  -0.9482   1.4061   1.4700   1.7145   1.7674
     2.1210   2.2511   2.3463   2.5073   2.5561   2.8897   3.0792   3.0987
     3.1122   3.1967   3.2806   3.2906   3.4082   3.5665   3.6333   3.6847
     3.7147   3.8793   4.6017   4.6499   4.7145   4.8211   4.8715   4.8873
     4.9627   5.0086   5.1104   5.2000   5.2455   5.2770   5.5752   5.7090
     5.7523   5.9046   5.9611   5.9836   6.1345   6.1960

     occupation numbers 
     1.0000   1.0000   1.0000   1.0000   1.0000   1.0000   1.0000   1.0000
     1.0000   1.0000   1.0000   1.0000   1.0000   1.0000   1.0000   1.0000
     1.0000   1.0000   1.0000   1.0000   1.0000   1.0000   1.0000   1.0000
     1.0000   1.0000   1.0000   1.0000   1.0000   1.0000   1.0000   1.0000
     1.0000   1.0000   1.0000   1.0000   1.0000   1.0000   1.0000   1.0000
     1.0000   1.0000   1.0000   1.0000   1.0000   1.0000   1.0000   1.0000
     1.0000   1.0000   1.0000   1.0000   1.0000   1.0000   1.0000   1.0000
     1.0000   1.0000   1.0000   1.0000   1.0000   1.0000   1.0000   1.0000
     1.0000   1.0000   1.0000   1.0000   1.0000   1.0000   1.0000   1.0000
     1.0000   1.0000   1.0000   1.0000   1.0000   1.0000

          k =-0.6315-1.8578-0.4983 ( 43494 PWs)   bands (ev):

   -20.8039 -20.7793 -20.7757 -20.7513 -15.7406 -15.7405 -15.7321 -15.7320
   -15.7275 -15.7275 -15.6698 -15.6698 -15.6537 -15.6534  -7.3364  -6.9679
    -6.6557  -6.1810  -6.1096  -6.0968  -6.0869  -5.9728  -5.1540  -5.0907
    -4.9221  -4.9167  -4.9122  -4.8985  -4.8004  -4.7990  -4.7827  -4.7718
    -4.7468  -4.7460  -1.0794  -0.9295   1.5895   1.6005   1.8233   2.0174
     2.0536   2.1569   2.4377   2.5226   2.7322   2.8094   2.8269   3.0425
     3.1343   3.2369   3.3042   3.3807   3.4252   3.4707   3.5476   3.6562
     3.6689   4.0900   4.4950   4.5236   4.7590   4.7650   4.7862   4.8486
     4.9478   5.0788   5.1968   5.2107   5.2732   5.3540   5.3642   5.5210
     5.5219   5.8671   5.9943   6.0052   6.1389   6.1596

     occupation numbers 
     1.0000   1.0000   1.0000   1.0000   1.0000   1.0000   1.0000   1.0000
     1.0000   1.0000   1.0000   1.0000   1.0000   1.0000   1.0000   1.0000
     1.0000   1.0000   1.0000   1.0000   1.0000   1.0000   1.0000   1.0000
     1.0000   1.0000   1.0000   1.0000   1.0000   1.0000   1.0000   1.0000
     1.0000   1.0000   1.0000   1.0000   1.0000   1.0000   1.0000   1.0000
     1.0000   1.0000   1.0000   1.0000   1.0000   1.0000   1.0000   1.0000
     1.0000   1.0000   1.0000   1.0000   1.0000   1.0000   1.0000   1.0000
     1.0000   1.0000   1.0000   1.0000   1.0000   1.0000   1.0000   1.0000
     1.0000   1.0000   1.0000   1.0000   1.0000   1.0000   1.0000   1.0000
     1.0000   1.0000   1.0000   1.0000   1.0000   1.0000

     highest occupied level (ev):     6.2270

!    total energy              =   -1568.23802698 Ry
     estimated scf accuracy    <          3.5E-11 Ry

     The total energy is the sum of the following terms:
     one-electron contribution =    -584.51236305 Ry
     hartree contribution      =     400.56982110 Ry
     xc contribution           =    -371.68810251 Ry
     ewald contribution        =    -653.34599455 Ry
     one-center paw contrib.   =    -359.26138796 Ry
      -> PAW hartree energy AE =       0.00000000 Ry
      -> PAW hartree energy PS =       0.00000000 Ry
      -> PAW xc energy AE      =       0.00000000 Ry
      -> PAW xc energy PS      =       0.00000000 Ry
      -> total E_H with PAW    =     400.56982110 Ry
      -> total E_XC with PAW   =    -371.68810251 Ry

     convergence has been achieved in  10 iterations

     Forces acting on atoms (cartesian axes, Ry/au):

     atom    1 type  2   force =     0.00003403    0.00013826    0.00009270
     atom    2 type  2   force =    -0.00003403   -0.00013826   -0.00009270
     atom    3 type  2   force =    -0.00009487    0.00013107   -0.00000780
     atom    4 type  2   force =     0.00009487   -0.00013107    0.00000780
     atom    5 type  1   force =    -0.00011691    0.00000691   -0.00012732
     atom    6 type  1   force =     0.00011691   -0.00000691    0.00012732
     atom    7 type  1   force =     0.00012317   -0.00000179    0.00013167
     atom    8 type  1   force =    -0.00012317    0.00000179   -0.00013167
     atom    9 type  4   force =    -0.00000430   -0.00000431    0.00000551
     atom   10 type  4   force =     0.00000430    0.00000431   -0.00000551
     atom   11 type  3   force =     0.00059664    0.00106419   -0.00047571
     atom   12 type  3   force =    -0.00059664   -0.00106419    0.00047571
     atom   13 type  3   force =     0.00066026   -0.00025685   -0.00107714
     atom   14 type  3   force =    -0.00066026    0.00025685    0.00107714
     atom   15 type  3   force =    -0.00091730    0.00026328    0.00087830
     atom   16 type  3   force =     0.00091730   -0.00026328   -0.00087830
     atom   17 type  3   force =    -0.00034332   -0.00105044    0.00067371
     atom   18 type  3   force =     0.00034332    0.00105044   -0.00067371
     The non-local contrib.  to forces
     atom    1 type  2   force =    -0.00095572   -0.00512006   -0.00331930
     atom    2 type  2   force =     0.00095572    0.00512006    0.00331930
     atom    3 type  2   force =     0.00343826   -0.00511113    0.00013709
     atom    4 type  2   force =    -0.00343826    0.00511113   -0.00013709
     atom    5 type  1   force =    -0.07031358   -0.00004700   -0.05521623
     atom    6 type  1   force =     0.07031358    0.00004700    0.05521623
     atom    7 type  1   force =     0.07033077    0.00014767    0.05544957
     atom    8 type  1   force =    -0.07033077   -0.00014767   -0.05544957
     atom    9 type  4   force =     0.00001803   -0.00015692   -0.00003989
     atom   10 type  4   force =    -0.00001803    0.00015692    0.00003989
     atom   11 type  3   force =     0.12348847    0.12943798   -0.12707758
     atom   12 type  3   force =    -0.12348847   -0.12943798    0.12707758
     atom   13 type  3   force =     0.12016614    0.02607255   -0.18163969
     atom   14 type  3   force =    -0.12016614   -0.02607255    0.18163969
     atom   15 type  3   force =    -0.14878939   -0.02603359    0.15926956
     atom   16 type  3   force =     0.14878939    0.02603359   -0.15926956
     atom   17 type  3   force =    -0.09490582   -0.12935305    0.14955581
     atom   18 type  3   force =     0.09490582    0.12935305   -0.14955581
     The ionic contribution  to forces
     atom    1 type  2   force =    -0.77531748   -0.44259788   -0.83356152
     atom    2 type  2   force =     0.77531748    0.44259788    0.83356152
     atom    3 type  2   force =     0.99096458   -0.44207386    0.55915338
     atom    4 type  2   force =    -0.99096458    0.44207386   -0.55915338
     atom    5 type  1   force =     2.93656900   -0.00267943    2.31389259
     atom    6 type  1   force =    -2.93656900    0.00267943   -2.31389259
     atom    7 type  1   force =    -2.93431751   -0.00401635   -2.31450992
     atom    8 type  1   force =     2.93431751    0.00401635    2.31450992
     atom    9 type  4   force =    -0.00172112   -0.00038771    0.00043754
     atom   10 type  4   force =     0.00172112    0.00038771   -0.00043754
     atom   11 type  3   force =    -3.26343125   -4.78452058    7.47075282
     atom   12 type  3   force =     3.26343125    4.78452058   -7.47075282
     atom   13 type  3   force =    -7.20839532   -1.90454753    5.80772640
     atom   14 type  3   force =     7.20839532    1.90454753   -5.80772640
     atom   15 type  3   force =     3.96934330    1.90435358   -8.36485722
     atom   16 type  3   force =    -3.96934330   -1.90435358    8.36485722
     atom   17 type  3   force =     6.50267028    4.78323953   -4.91411923
     atom   18 type  3   force =    -6.50267028   -4.78323953    4.91411923
     The local contribution  to forces
     atom    1 type  2   force =     0.77630783    0.44785621    0.83697378
     atom    2 type  2   force =    -0.77630783   -0.44785621   -0.83697378
     atom    3 type  2   force =    -0.99449819    0.44731604   -0.55929883
     atom    4 type  2   force =     0.99449819   -0.44731604    0.55929883
     atom    5 type  1   force =    -2.86809443    0.00273994   -2.26012059
     atom    6 type  1   force =     2.86809443   -0.00273994    2.26012059
     atom    7 type  1   force =     2.86580705    0.00389531    2.26053816
     atom    8 type  1   force =    -2.86580705   -0.00389531   -2.26053816
     atom    9 type  4   force =     0.00169758    0.00052896   -0.00039020
     atom   10 type  4   force =    -0.00169758   -0.00052896    0.00039020
     atom   11 type  3   force =     3.14714676    4.66308587   -7.35117784
     atom   12 type  3   force =    -3.14714676   -4.66308587    7.35117784
     atom   13 type  3   force =     7.09551623    1.87972546   -5.63690454
     atom   14 type  3   force =    -7.09551623   -1.87972546    5.63690454
     atom   15 type  3   force =    -3.82940764   -1.87956188    8.21518513
     atom   16 type  3   force =     3.82940764    1.87956188   -8.21518513
     atom   17 type  3   force =    -6.41340735   -4.66187118    4.77329186
     atom   18 type  3   force =     6.41340735    4.66187118   -4.77329186
     The core correction contribution to forces
     atom    1 type  2   force =     0.00000000    0.00000000    0.00000000
     atom    2 type  2   force =     0.00000000    0.00000000    0.00000000
     atom    3 type  2   force =     0.00000000    0.00000000    0.00000000
     atom    4 type  2   force =     0.00000000    0.00000000    0.00000000
     atom    5 type  1   force =     0.00172337   -0.00000654    0.00131805
     atom    6 type  1   force =    -0.00172337    0.00000654   -0.00131805
     atom    7 type  1   force =    -0.00169836   -0.00002828   -0.00134711
     atom    8 type  1   force =     0.00169836    0.00002828    0.00134711
     atom    9 type  4   force =     0.00000194    0.00000861   -0.00000092
     atom   10 type  4   force =    -0.00000194   -0.00000861    0.00000092
     atom   11 type  3   force =    -0.00660999   -0.00694156    0.00703041
     atom   12 type  3   force =     0.00660999    0.00694156   -0.00703041
     atom   13 type  3   force =    -0.00662969   -0.00150851    0.00974447
     atom   14 type  3   force =     0.00662969    0.00150851   -0.00974447
     atom   15 type  3   force =     0.00793943    0.00150635   -0.00872285
     atom   16 type  3   force =    -0.00793943   -0.00150635    0.00872285
     atom   17 type  3   force =     0.00530232    0.00693673   -0.00805812
     atom   18 type  3   force =    -0.00530232   -0.00693673    0.00805812
     The Hubbard contrib.    to forces
     atom    1 type  2   force =     0.00000000    0.00000000    0.00000000
     atom    2 type  2   force =     0.00000000    0.00000000    0.00000000
     atom    3 type  2   force =     0.00000000    0.00000000    0.00000000
     atom    4 type  2   force =     0.00000000    0.00000000    0.00000000
     atom    5 type  1   force =     0.00000000    0.00000000    0.00000000
     atom    6 type  1   force =     0.00000000    0.00000000    0.00000000
     atom    7 type  1   force =     0.00000000    0.00000000    0.00000000
     atom    8 type  1   force =     0.00000000    0.00000000    0.00000000
     atom    9 type  4   force =     0.00000000    0.00000000    0.00000000
     atom   10 type  4   force =     0.00000000    0.00000000    0.00000000
     atom   11 type  3   force =     0.00000000    0.00000000    0.00000000
     atom   12 type  3   force =     0.00000000    0.00000000    0.00000000
     atom   13 type  3   force =     0.00000000    0.00000000    0.00000000
     atom   14 type  3   force =     0.00000000    0.00000000    0.00000000
     atom   15 type  3   force =     0.00000000    0.00000000    0.00000000
     atom   16 type  3   force =     0.00000000    0.00000000    0.00000000
     atom   17 type  3   force =     0.00000000    0.00000000    0.00000000
     atom   18 type  3   force =     0.00000000    0.00000000    0.00000000
     The SCF correction term to forces
     atom    1 type  2   force =    -0.00000060   -0.00000002   -0.00000027
     atom    2 type  2   force =     0.00000060    0.00000002    0.00000027
     atom    3 type  2   force =     0.00000047    0.00000001    0.00000056
     atom    4 type  2   force =    -0.00000047   -0.00000001   -0.00000056
     atom    5 type  1   force =    -0.00000128   -0.00000006   -0.00000114
     atom    6 type  1   force =     0.00000128    0.00000006    0.00000114
     atom    7 type  1   force =     0.00000122   -0.00000013    0.00000098
     atom    8 type  1   force =    -0.00000122    0.00000013   -0.00000098
     atom    9 type  4   force =    -0.00000073    0.00000275   -0.00000101
     atom   10 type  4   force =     0.00000073   -0.00000275    0.00000101
     atom   11 type  3   force =     0.00000265    0.00000247   -0.00000353
     atom   12 type  3   force =    -0.00000265   -0.00000247    0.00000353
     atom   13 type  3   force =     0.00000291    0.00000119   -0.00000378
     atom   14 type  3   force =    -0.00000291   -0.00000119    0.00000378
     atom   15 type  3   force =    -0.00000299   -0.00000117    0.00000368
     atom   16 type  3   force =     0.00000299    0.00000117   -0.00000368
     atom   17 type  3   force =    -0.00000275   -0.00000247    0.00000340
     atom   18 type  3   force =     0.00000275    0.00000247   -0.00000340

     Total force =     0.003702     Total SCF correction =     0.000015


     Computing stress (Cartesian axis) and pressure

          total   stress  (Ry/bohr**3)                   (kbar)     P=       -0.53
  -0.00000316   0.00000018   0.00000020           -0.46        0.03        0.03
   0.00000018  -0.00000416  -0.00000018            0.03       -0.61       -0.03
   0.00000020  -0.00000018  -0.00000351            0.03       -0.03       -0.52

     kinetic stress (kbar)   7745.01     -4.16    -22.94
                               -4.16   7788.12      5.33
                              -22.94      5.33   7755.59

     local   stress (kbar)  -2125.83   3597.55  -6636.35
                             3597.55  -6100.82  -4560.50
                            -6636.35  -4560.50   1053.76

     nonloc. stress (kbar)   2075.92      0.38     -2.26
                                0.38   2077.30     -0.47
                               -2.26     -0.47   2076.85

     hartree stress (kbar)   6309.28  -1716.68   3114.58
                            -1716.68   8272.33   2176.32
                             3114.58   2176.32   4816.86

     exc-cor stress (kbar)   5868.32     -0.24      0.12
                               -0.24   5869.00      0.31
                                0.12      0.31   5868.26

     corecor stress (kbar)  -9237.15      0.30     -0.33
                                0.30  -9237.75     -0.39
                               -0.33     -0.39  -9236.95

     ewald   stress (kbar) -10636.01  -1877.13   3547.20
                            -1877.13  -8668.81   2379.37
                             3547.20   2379.37 -12334.89

     hubbard stress (kbar)      0.00      0.00      0.00
                                0.00      0.00      0.00
                                0.00      0.00      0.00

     DFT-D   stress (kbar)      0.00      0.00      0.00
                                0.00      0.00      0.00
                                0.00      0.00      0.00

     XDM     stress (kbar)      0.00      0.00      0.00
                                0.00      0.00      0.00
                                0.00      0.00      0.00

     dft-nl  stress (kbar)      0.00      0.00      0.00
                                0.00      0.00      0.00
                                0.00      0.00      0.00

     TS-vdW  stress (kbar)      0.00      0.00      0.00
                                0.00      0.00      0.00
                                0.00      0.00      0.00

     MDB     stress (kbar)      0.00      0.00      0.00
                                0.00      0.00      0.00
                                0.00      0.00      0.00

     3D-RISM stress (kbar)      0.00      0.00      0.00
                                0.00      0.00      0.00
                                0.00      0.00      0.00

     Energy error            =      2.4E-05 Ry
     Gradient error          =      1.1E-03 Ry/Bohr
     Cell gradient error     =      6.1E-01 kbar

     number of scf cycles    =   6
     number of bfgs steps    =   5

     enthalpy           old  =   -1568.2380029925 Ry
     enthalpy           new  =   -1568.2380269762 Ry

     CASE: enthalpy          _new < enthalpy          _old

     new trust radius        =       0.0061045334 bohr
     new conv_thr            =       0.0000000001 Ry

     new unit-cell volume =   3040.91876 a.u.^3 (   450.61767 Ang^3 )
     density =      4.01666 g/cm^3

CELL_PARAMETERS (angstrom)
   9.261926048   0.000998010  -2.211503160
  -1.257296846   5.109621458  -7.934215253
   0.005846891  -0.000445979   9.520852000

ATOMIC_POSITIONS (crystal)
Rb               0.1244253609        0.7286574817        0.8530714887
Rb               0.8755746391        0.2713425183        0.1469285113
Rb               0.3755842724        0.2286322011        0.6042181879
Rb               0.6244157276        0.7713677989        0.3957818121
Cu               0.0245424527        0.7500286306        0.2745365782
Cu               0.9754575473        0.2499713694        0.7254634218
Cu               0.4754561023        0.7500106858        0.7255032276
Cu               0.5245438977        0.2499893142        0.2744967724
Sn               0.2500041063        0.2499851989       -0.0000042885
Sn               0.7499958937        0.7500148011        0.0000042885
S                0.0165719766        0.9196478239        0.6375280900
S                0.9834280234        0.0803521761        0.3624719100
S                0.2821146496        0.3790792297        0.3625165377
S                0.7178853504        0.6209207703        0.6374834623
S                0.4834102953        0.1209439646        0.9030340592
S                0.5165897047        0.8790560354        0.0969659408
S                0.2178891414        0.5803777082        0.0969390619
S                0.7821108586        0.4196222918        0.9030609381



     Writing config-only to output data dir ./tmp/relax/Rb2Cu2SnS4_relax.save/ :
     XML data file
     NEW-OLD atomic charge density approx. for the potential
     New effective cutoffs (rho, wfc):  716.32   89.55

     total cpu time spent up to now is     1608.8 secs

     Self-consistent Calculation

     iteration #  1     ecut=    90.00 Ry     beta= 0.30
     Davidson diagonalization with overlap

---- Real-time Memory Report at c_bands before calling an iterative solver
             0 MiB given to the printing process from OS
             0 MiB allocation reported by mallinfo(arena+hblkhd)
             0 MiB available memory on the node where the printing process lives
------------------
     ethr =  1.00E-06,  avg # of iterations =  3.0

     Threshold (ethr) on eigenvalues was too large:
     Diagonalizing with lowered threshold

     Davidson diagonalization with overlap

---- Real-time Memory Report at c_bands before calling an iterative solver
             0 MiB given to the printing process from OS
             0 MiB allocation reported by mallinfo(arena+hblkhd)
             0 MiB available memory on the node where the printing process lives
------------------
     ethr =  8.60E-09,  avg # of iterations =  8.2

     total cpu time spent up to now is     1672.6 secs

     total energy              =   -1568.23805034 Ry
     estimated scf accuracy    <       0.00001838 Ry

     iteration #  2     ecut=    90.00 Ry     beta= 0.30
     Davidson diagonalization with overlap

---- Real-time Memory Report at c_bands before calling an iterative solver
             0 MiB given to the printing process from OS
             0 MiB allocation reported by mallinfo(arena+hblkhd)
             0 MiB available memory on the node where the printing process lives
------------------
     ethr =  1.18E-08,  avg # of iterations =  2.0

     total cpu time spent up to now is     1691.8 secs

     total energy              =   -1568.23805415 Ry
     estimated scf accuracy    <       0.00000184 Ry

     iteration #  3     ecut=    90.00 Ry     beta= 0.30
     Davidson diagonalization with overlap

---- Real-time Memory Report at c_bands before calling an iterative solver
             0 MiB given to the printing process from OS
             0 MiB allocation reported by mallinfo(arena+hblkhd)
             0 MiB available memory on the node where the printing process lives
------------------
     ethr =  1.18E-09,  avg # of iterations =  4.2

     total cpu time spent up to now is     1715.6 secs

     total energy              =   -1568.23805561 Ry
     estimated scf accuracy    <       0.00000045 Ry

     iteration #  4     ecut=    90.00 Ry     beta= 0.30
     Davidson diagonalization with overlap

---- Real-time Memory Report at c_bands before calling an iterative solver
             0 MiB given to the printing process from OS
             0 MiB allocation reported by mallinfo(arena+hblkhd)
             0 MiB available memory on the node where the printing process lives
------------------
     ethr =  2.87E-10,  avg # of iterations =  2.1

     total cpu time spent up to now is     1735.3 secs

     total energy              =   -1568.23805612 Ry
     estimated scf accuracy    <       0.00000016 Ry

     iteration #  5     ecut=    90.00 Ry     beta= 0.30
     Davidson diagonalization with overlap

---- Real-time Memory Report at c_bands before calling an iterative solver
             0 MiB given to the printing process from OS
             0 MiB allocation reported by mallinfo(arena+hblkhd)
             0 MiB available memory on the node where the printing process lives
------------------
     ethr =  1.01E-10,  avg # of iterations =  4.7

     total cpu time spent up to now is     1758.6 secs

     total energy              =   -1568.23805639 Ry
     estimated scf accuracy    <       0.00000007 Ry

     iteration #  6     ecut=    90.00 Ry     beta= 0.30
     Davidson diagonalization with overlap

---- Real-time Memory Report at c_bands before calling an iterative solver
             0 MiB given to the printing process from OS
             0 MiB allocation reported by mallinfo(arena+hblkhd)
             0 MiB available memory on the node where the printing process lives
------------------
     ethr =  4.53E-11,  avg # of iterations =  4.7

     total cpu time spent up to now is     1783.6 secs

     total energy              =   -1568.23805652 Ry
     estimated scf accuracy    <       0.00000008 Ry

     iteration #  7     ecut=    90.00 Ry     beta= 0.30
     Davidson diagonalization with overlap

---- Real-time Memory Report at c_bands before calling an iterative solver
             0 MiB given to the printing process from OS
             0 MiB allocation reported by mallinfo(arena+hblkhd)
             0 MiB available memory on the node where the printing process lives
------------------
     ethr =  4.53E-11,  avg # of iterations =  3.0

     total cpu time spent up to now is     1804.3 secs

     total energy              =   -1568.23805659 Ry
     estimated scf accuracy    <          1.6E-09 Ry

     iteration #  8     ecut=    90.00 Ry     beta= 0.30
     Davidson diagonalization with overlap

---- Real-time Memory Report at c_bands before calling an iterative solver
             0 MiB given to the printing process from OS
             0 MiB allocation reported by mallinfo(arena+hblkhd)
             0 MiB available memory on the node where the printing process lives
------------------
     ethr =  1.04E-12,  avg # of iterations =  6.0

     total cpu time spent up to now is     1836.7 secs

     total energy              =   -1568.23805662 Ry
     estimated scf accuracy    <          2.7E-09 Ry

     iteration #  9     ecut=    90.00 Ry     beta= 0.30
     Davidson diagonalization with overlap

---- Real-time Memory Report at c_bands before calling an iterative solver
             0 MiB given to the printing process from OS
             0 MiB allocation reported by mallinfo(arena+hblkhd)
             0 MiB available memory on the node where the printing process lives
------------------
     ethr =  1.04E-12,  avg # of iterations =  3.4

     total cpu time spent up to now is     1858.6 secs

     End of self-consistent calculation

          k = 0.0000 0.0000 0.0000 ( 43377 PWs)   bands (ev):

   -20.8193 -20.7947 -20.7912 -20.7669 -15.7483 -15.7482 -15.7397 -15.7396
   -15.7352 -15.7351 -15.6774 -15.6774 -15.6611 -15.6609  -7.2887  -6.9570
    -6.6531  -6.3211  -6.1599  -6.1562  -6.1538  -5.9314  -5.1751  -5.0977
    -4.9390  -4.9329  -4.8821  -4.8691  -4.8269  -4.8264  -4.7848  -4.7615
    -4.7613  -4.6855  -1.0995  -0.8965   1.4974   1.5821   1.8135   1.9575
     2.0385   2.0844   2.1480   2.4662   2.8269   2.9357   3.0670   3.1051
     3.2321   3.2549   3.3345   3.3397   3.3482   3.3919   3.5076   3.6136
     3.7312   3.7589   4.4907   4.5375   4.7482   4.7519   4.7640   4.8616
     4.8797   5.0957   5.1960   5.2203   5.2650   5.3245   5.4265   5.5177
     5.6412   5.8203   5.9398   6.1052   6.1445   6.1992

     occupation numbers 
     1.0000   1.0000   1.0000   1.0000   1.0000   1.0000   1.0000   1.0000
     1.0000   1.0000   1.0000   1.0000   1.0000   1.0000   1.0000   1.0000
     1.0000   1.0000   1.0000   1.0000   1.0000   1.0000   1.0000   1.0000
     1.0000   1.0000   1.0000   1.0000   1.0000   1.0000   1.0000   1.0000
     1.0000   1.0000   1.0000   1.0000   1.0000   1.0000   1.0000   1.0000
     1.0000   1.0000   1.0000   1.0000   1.0000   1.0000   1.0000   1.0000
     1.0000   1.0000   1.0000   1.0000   1.0000   1.0000   1.0000   1.0000
     1.0000   1.0000   1.0000   1.0000   1.0000   1.0000   1.0000   1.0000
     1.0000   1.0000   1.0000   1.0000   1.0000   1.0000   1.0000   1.0000
     1.0000   1.0000   1.0000   1.0000   1.0000   1.0000

          k = 0.0595 0.4016 0.2492 ( 43439 PWs)   bands (ev):

   -20.8106 -20.8003 -20.7850 -20.7748 -15.7483 -15.7483 -15.7398 -15.7398
   -15.7353 -15.7353 -15.6772 -15.6772 -15.6611 -15.6609  -7.1895  -6.9917
    -6.4605  -6.3133  -6.2734  -6.2435  -6.2175  -6.0413  -5.0984  -5.0160
    -4.9396  -4.8991  -4.8774  -4.8665  -4.8552  -4.8545  -4.8238  -4.7649
    -4.7566  -4.7456  -1.0422  -0.8927   1.2957   1.4705   1.5989   1.8999
     2.0047   2.1626   2.3793   2.5620   2.6259   2.9057   3.0053   3.1558
     3.2028   3.2369   3.2412   3.3317   3.3376   3.4658   3.6206   3.6577
     3.7016   3.7629   4.5978   4.6534   4.7340   4.7862   4.8372   4.8984
     4.9205   5.0292   5.1270   5.1658   5.1816   5.3366   5.6324   5.6821
     5.7427   5.8533   5.9549   6.0271   6.0841   6.1967

     occupation numbers 
     1.0000   1.0000   1.0000   1.0000   1.0000   1.0000   1.0000   1.0000
     1.0000   1.0000   1.0000   1.0000   1.0000   1.0000   1.0000   1.0000
     1.0000   1.0000   1.0000   1.0000   1.0000   1.0000   1.0000   1.0000
     1.0000   1.0000   1.0000   1.0000   1.0000   1.0000   1.0000   1.0000
     1.0000   1.0000   1.0000   1.0000   1.0000   1.0000   1.0000   1.0000
     1.0000   1.0000   1.0000   1.0000   1.0000   1.0000   1.0000   1.0000
     1.0000   1.0000   1.0000   1.0000   1.0000   1.0000   1.0000   1.0000
     1.0000   1.0000   1.0000   1.0000   1.0000   1.0000   1.0000   1.0000
     1.0000   1.0000   1.0000   1.0000   1.0000   1.0000   1.0000   1.0000
     1.0000   1.0000   1.0000   1.0000   1.0000   1.0000

          k =-0.1189-0.8031-0.4984 ( 43366 PWs)   bands (ev):

   -20.7983 -20.7981 -20.7866 -20.7864 -15.7483 -15.7483 -15.7400 -15.7400
   -15.7354 -15.7354 -15.6770 -15.6770 -15.6610 -15.6610  -7.0593  -6.9740
    -6.4775  -6.3566  -6.3382  -6.2891  -6.1673  -6.1086  -5.0216  -5.0102
    -4.9948  -4.9169  -4.8989  -4.8848  -4.8714  -4.8607  -4.7887  -4.7801
    -4.7590  -4.7374  -0.9737  -0.8941   1.2021   1.3557   1.4780   1.7046
     2.0948   2.2778   2.3511   2.3577   2.7104   2.9244   3.0072   3.1684
     3.1735   3.2496   3.2813   3.3071   3.3427   3.4964   3.6127   3.6603
     3.7381   3.7569   4.6846   4.7515   4.7670   4.8062   4.9061   4.9300
     4.9659   4.9949   5.0697   5.1165   5.1437   5.2659   5.6944   5.8631
     5.8911   5.9412   6.0117   6.0455   6.0770   6.1115

     occupation numbers 
     1.0000   1.0000   1.0000   1.0000   1.0000   1.0000   1.0000   1.0000
     1.0000   1.0000   1.0000   1.0000   1.0000   1.0000   1.0000   1.0000
     1.0000   1.0000   1.0000   1.0000   1.0000   1.0000   1.0000   1.0000
     1.0000   1.0000   1.0000   1.0000   1.0000   1.0000   1.0000   1.0000
     1.0000   1.0000   1.0000   1.0000   1.0000   1.0000   1.0000   1.0000
     1.0000   1.0000   1.0000   1.0000   1.0000   1.0000   1.0000   1.0000
     1.0000   1.0000   1.0000   1.0000   1.0000   1.0000   1.0000   1.0000
     1.0000   1.0000   1.0000   1.0000   1.0000   1.0000   1.0000   1.0000
     1.0000   1.0000   1.0000   1.0000   1.0000   1.0000   1.0000   1.0000
     1.0000   1.0000   1.0000   1.0000   1.0000   1.0000

          k =-0.0000 0.4644 0.0000 ( 43455 PWs)   bands (ev):

   -20.8121 -20.7947 -20.7905 -20.7734 -15.7483 -15.7482 -15.7398 -15.7398
   -15.7353 -15.7353 -15.6772 -15.6772 -15.6611 -15.6609  -7.2141  -6.9284
    -6.5639  -6.2788  -6.2581  -6.2308  -6.2037  -6.0486  -5.1229  -5.0033
    -4.9388  -4.9284  -4.8651  -4.8487  -4.8464  -4.8376  -4.8205  -4.7715
    -4.7704  -4.7477  -1.0518  -0.8839   1.2724   1.4453   1.6840   1.9475
     1.9832   2.1257   2.3298   2.5396   2.6051   3.0062   3.0141   3.0890
     3.2239   3.2578   3.2859   3.2927   3.3694   3.4219   3.5621   3.6603
     3.7553   3.7570   4.6033   4.6468   4.7153   4.8029   4.8440   4.8948
     4.9195   5.0529   5.0828   5.1777   5.1885   5.3465   5.6067   5.7479
     5.7696   5.8719   5.9277   6.0208   6.0453   6.1310

     occupation numbers 
     1.0000   1.0000   1.0000   1.0000   1.0000   1.0000   1.0000   1.0000
     1.0000   1.0000   1.0000   1.0000   1.0000   1.0000   1.0000   1.0000
     1.0000   1.0000   1.0000   1.0000   1.0000   1.0000   1.0000   1.0000
     1.0000   1.0000   1.0000   1.0000   1.0000   1.0000   1.0000   1.0000
     1.0000   1.0000   1.0000   1.0000   1.0000   1.0000   1.0000   1.0000
     1.0000   1.0000   1.0000   1.0000   1.0000   1.0000   1.0000   1.0000
     1.0000   1.0000   1.0000   1.0000   1.0000   1.0000   1.0000   1.0000
     1.0000   1.0000   1.0000   1.0000   1.0000   1.0000   1.0000   1.0000
     1.0000   1.0000   1.0000   1.0000   1.0000   1.0000   1.0000   1.0000
     1.0000   1.0000   1.0000   1.0000   1.0000   1.0000

          k = 0.0594 0.8659 0.2492 ( 43432 PWs)   bands (ev):

   -20.7983 -20.7981 -20.7866 -20.7864 -15.7483 -15.7483 -15.7400 -15.7400
   -15.7354 -15.7354 -15.6770 -15.6770 -15.6610 -15.6610  -7.0481  -6.9899
    -6.4786  -6.3889  -6.2999  -6.2407  -6.1879  -6.1367  -5.0224  -5.0177
    -4.9711  -4.9356  -4.9064  -4.8916  -4.8631  -4.8481  -4.8187  -4.7960
    -4.7298  -4.7237  -0.9630  -0.9065   1.1732   1.2985   1.6338   1.7699
     2.0826   2.2055   2.2633   2.2949   2.8153   2.9285   3.0503   3.1227
     3.1749   3.2118   3.2348   3.2755   3.3862   3.5137   3.6419   3.6803
     3.7148   3.7679   4.6987   4.7447   4.7642   4.8023   4.8970   4.9248
     4.9337   4.9690   5.1046   5.1438   5.1755   5.2495   5.7398   5.8543
     5.9032   5.9442   5.9852   6.0477   6.0736   6.1332

     occupation numbers 
     1.0000   1.0000   1.0000   1.0000   1.0000   1.0000   1.0000   1.0000
     1.0000   1.0000   1.0000   1.0000   1.0000   1.0000   1.0000   1.0000
     1.0000   1.0000   1.0000   1.0000   1.0000   1.0000   1.0000   1.0000
     1.0000   1.0000   1.0000   1.0000   1.0000   1.0000   1.0000   1.0000
     1.0000   1.0000   1.0000   1.0000   1.0000   1.0000   1.0000   1.0000
     1.0000   1.0000   1.0000   1.0000   1.0000   1.0000   1.0000   1.0000
     1.0000   1.0000   1.0000   1.0000   1.0000   1.0000   1.0000   1.0000
     1.0000   1.0000   1.0000   1.0000   1.0000   1.0000   1.0000   1.0000
     1.0000   1.0000   1.0000   1.0000   1.0000   1.0000   1.0000   1.0000
     1.0000   1.0000   1.0000   1.0000   1.0000   1.0000

          k =-0.1190-0.3388-0.4983 ( 43424 PWs)   bands (ev):

   -20.8065 -20.8064 -20.7790 -20.7788 -15.7483 -15.7483 -15.7398 -15.7398
   -15.7353 -15.7353 -15.6772 -15.6772 -15.6610 -15.6610  -7.1233  -7.1124
    -6.4135  -6.3403  -6.2509  -6.2172  -6.1643  -6.0630  -5.0634  -5.0471
    -4.9297  -4.9163  -4.9100  -4.8814  -4.8681  -4.8622  -4.8109  -4.7924
    -4.7396  -4.7357  -0.9918  -0.9484   1.4082   1.4725   1.5812   1.7186
     2.1590   2.2485   2.3617   2.4156   2.7355   2.8606   2.9618   3.0914
     3.1585   3.1914   3.2610   3.3526   3.3743   3.5435   3.6520   3.6859
     3.7058   3.7396   4.6022   4.6398   4.7501   4.7666   4.8464   4.8742
     4.9701   4.9843   5.1466   5.1699   5.2165   5.2754   5.6172   5.6715
     5.7636   5.8497   5.9459   5.9632   6.1743   6.2196

     occupation numbers 
     1.0000   1.0000   1.0000   1.0000   1.0000   1.0000   1.0000   1.0000
     1.0000   1.0000   1.0000   1.0000   1.0000   1.0000   1.0000   1.0000
     1.0000   1.0000   1.0000   1.0000   1.0000   1.0000   1.0000   1.0000
     1.0000   1.0000   1.0000   1.0000   1.0000   1.0000   1.0000   1.0000
     1.0000   1.0000   1.0000   1.0000   1.0000   1.0000   1.0000   1.0000
     1.0000   1.0000   1.0000   1.0000   1.0000   1.0000   1.0000   1.0000
     1.0000   1.0000   1.0000   1.0000   1.0000   1.0000   1.0000   1.0000
     1.0000   1.0000   1.0000   1.0000   1.0000   1.0000   1.0000   1.0000
     1.0000   1.0000   1.0000   1.0000   1.0000   1.0000   1.0000   1.0000
     1.0000   1.0000   1.0000   1.0000   1.0000   1.0000

          k =-0.0595 0.0628-0.2492 ( 43427 PWs)   bands (ev):

   -20.8173 -20.8031 -20.7828 -20.7689 -15.7483 -15.7482 -15.7397 -15.7396
   -15.7352 -15.7352 -15.6774 -15.6774 -15.6611 -15.6609  -7.2683  -7.0639
    -6.5315  -6.2869  -6.2179  -6.1792  -6.0996  -5.9491  -5.1436  -5.0890
    -4.9897  -4.9532  -4.8829  -4.8450  -4.8273  -4.8223  -4.7828  -4.7704
    -4.7638  -4.7084  -1.0747  -0.9278   1.5283   1.6467   1.7680   1.9273
     1.9865   2.0426   2.2535   2.6460   2.7813   2.8372   2.9704   3.1266
     3.1581   3.1794   3.3224   3.3380   3.4832   3.5085   3.5294   3.6126
     3.6926   3.7501   4.4930   4.5283   4.7541   4.7606   4.7839   4.8621
     4.8758   5.0029   5.2168   5.2673   5.2902   5.3112   5.3907   5.4923
     5.6864   5.8272   5.9578   5.9925   6.1112   6.1614

     occupation numbers 
     1.0000   1.0000   1.0000   1.0000   1.0000   1.0000   1.0000   1.0000
     1.0000   1.0000   1.0000   1.0000   1.0000   1.0000   1.0000   1.0000
     1.0000   1.0000   1.0000   1.0000   1.0000   1.0000   1.0000   1.0000
     1.0000   1.0000   1.0000   1.0000   1.0000   1.0000   1.0000   1.0000
     1.0000   1.0000   1.0000   1.0000   1.0000   1.0000   1.0000   1.0000
     1.0000   1.0000   1.0000   1.0000   1.0000   1.0000   1.0000   1.0000
     1.0000   1.0000   1.0000   1.0000   1.0000   1.0000   1.0000   1.0000
     1.0000   1.0000   1.0000   1.0000   1.0000   1.0000   1.0000   1.0000
     1.0000   1.0000   1.0000   1.0000   1.0000   1.0000   1.0000   1.0000
     1.0000   1.0000   1.0000   1.0000   1.0000   1.0000

          k = 0.0001-0.9287-0.0000 ( 43450 PWs)   bands (ev):

   -20.7983 -20.7981 -20.7866 -20.7864 -15.7483 -15.7483 -15.7400 -15.7400
   -15.7354 -15.7354 -15.6770 -15.6770 -15.6610 -15.6610  -7.0212  -7.0211
    -6.4466  -6.4459  -6.2240  -6.2239  -6.1936  -6.1929  -5.0266  -5.0264
    -4.9520  -4.9518  -4.9006  -4.9004  -4.8460  -4.8459  -4.8241  -4.8240
    -4.7139  -4.7137  -0.9357  -0.9356   1.2036   1.2040   1.8954   1.8955
     1.9786   1.9794   2.2408   2.2409   2.9538   2.9542   3.0537   3.0543
     3.1548   3.1557   3.2392   3.2395   3.4737   3.4743   3.6808   3.6813
     3.7379   3.7387   4.7265   4.7272   4.7789   4.7794   4.8959   4.8962
     4.9385   4.9386   5.1621   5.1621   5.2046   5.2047   5.8242   5.8244
     5.8977   5.8979   6.0313   6.0314   6.1100   6.1105

     occupation numbers 
     1.0000   1.0000   1.0000   1.0000   1.0000   1.0000   1.0000   1.0000
     1.0000   1.0000   1.0000   1.0000   1.0000   1.0000   1.0000   1.0000
     1.0000   1.0000   1.0000   1.0000   1.0000   1.0000   1.0000   1.0000
     1.0000   1.0000   1.0000   1.0000   1.0000   1.0000   1.0000   1.0000
     1.0000   1.0000   1.0000   1.0000   1.0000   1.0000   1.0000   1.0000
     1.0000   1.0000   1.0000   1.0000   1.0000   1.0000   1.0000   1.0000
     1.0000   1.0000   1.0000   1.0000   1.0000   1.0000   1.0000   1.0000
     1.0000   1.0000   1.0000   1.0000   1.0000   1.0000   1.0000   1.0000
     1.0000   1.0000   1.0000   1.0000   1.0000   1.0000   1.0000   1.0000
     1.0000   1.0000   1.0000   1.0000   1.0000   1.0000

          k = 0.0595-0.5272 0.2491 ( 43437 PWs)   bands (ev):

   -20.8106 -20.8003 -20.7850 -20.7749 -15.7483 -15.7482 -15.7398 -15.7398
   -15.7353 -15.7353 -15.6772 -15.6772 -15.6611 -15.6609  -7.1922  -7.0158
    -6.5200  -6.2734  -6.2428  -6.2175  -6.1378  -6.0814  -5.0985  -5.0232
    -4.9485  -4.9364  -4.8766  -4.8669  -4.8576  -4.8532  -4.8277  -4.7818
    -4.7500  -4.7393  -1.0156  -0.9253   1.3718   1.4352   1.6620   1.7927
     2.0757   2.2251   2.3243   2.5294   2.5866   2.9593   2.9917   3.0482
     3.1748   3.2323   3.2741   3.3342   3.3692   3.5006   3.6354   3.6452
     3.7301   3.7835   4.6132   4.6272   4.7183   4.7970   4.8544   4.8783
     4.9380   5.0159   5.1136   5.1799   5.2250   5.2861   5.6027   5.7095
     5.8038   5.8485   5.9307   5.9572   6.1429   6.1658

     occupation numbers 
     1.0000   1.0000   1.0000   1.0000   1.0000   1.0000   1.0000   1.0000
     1.0000   1.0000   1.0000   1.0000   1.0000   1.0000   1.0000   1.0000
     1.0000   1.0000   1.0000   1.0000   1.0000   1.0000   1.0000   1.0000
     1.0000   1.0000   1.0000   1.0000   1.0000   1.0000   1.0000   1.0000
     1.0000   1.0000   1.0000   1.0000   1.0000   1.0000   1.0000   1.0000
     1.0000   1.0000   1.0000   1.0000   1.0000   1.0000   1.0000   1.0000
     1.0000   1.0000   1.0000   1.0000   1.0000   1.0000   1.0000   1.0000
     1.0000   1.0000   1.0000   1.0000   1.0000   1.0000   1.0000   1.0000
     1.0000   1.0000   1.0000   1.0000   1.0000   1.0000   1.0000   1.0000
     1.0000   1.0000   1.0000   1.0000   1.0000   1.0000

          k =-0.1188-1.7318-0.4984 ( 43432 PWs)   bands (ev):

   -20.8116 -20.8115 -20.7745 -20.7744 -15.7483 -15.7483 -15.7396 -15.7396
   -15.7352 -15.7352 -15.6774 -15.6774 -15.6610 -15.6610  -7.1958  -7.1956
    -6.3573  -6.3572  -6.2203  -6.2201  -6.0119  -6.0117  -5.0864  -5.0863
    -5.0171  -5.0170  -4.8505  -4.8503  -4.8258  -4.8257  -4.7837  -4.7835
    -4.7451  -4.7450  -1.0048  -1.0046   1.6470   1.6472   1.7599   1.7599
     2.0298   2.0299   2.5121   2.5123   2.8316   2.8317   2.9378   2.9383
     3.1566   3.1566   3.3469   3.3473   3.5399   3.5400   3.6201   3.6203
     3.6883   3.6886   4.5069   4.5074   4.7581   4.7588   4.8670   4.8676
     4.8776   4.8780   5.2695   5.2700   5.2831   5.2838   5.4267   5.4271
     5.7636   5.7639   5.9754   5.9759   6.1016   6.1019

     occupation numbers 
     1.0000   1.0000   1.0000   1.0000   1.0000   1.0000   1.0000   1.0000
     1.0000   1.0000   1.0000   1.0000   1.0000   1.0000   1.0000   1.0000
     1.0000   1.0000   1.0000   1.0000   1.0000   1.0000   1.0000   1.0000
     1.0000   1.0000   1.0000   1.0000   1.0000   1.0000   1.0000   1.0000
     1.0000   1.0000   1.0000   1.0000   1.0000   1.0000   1.0000   1.0000
     1.0000   1.0000   1.0000   1.0000   1.0000   1.0000   1.0000   1.0000
     1.0000   1.0000   1.0000   1.0000   1.0000   1.0000   1.0000   1.0000
     1.0000   1.0000   1.0000   1.0000   1.0000   1.0000   1.0000   1.0000
     1.0000   1.0000   1.0000   1.0000   1.0000   1.0000   1.0000   1.0000
     1.0000   1.0000   1.0000   1.0000   1.0000   1.0000

          k =-0.5122-0.1256 0.0003 ( 43432 PWs)   bands (ev):

   -20.8116 -20.8115 -20.7745 -20.7744 -15.7483 -15.7483 -15.7396 -15.7396
   -15.7352 -15.7352 -15.6774 -15.6774 -15.6610 -15.6610  -7.1957  -7.1955
    -6.3571  -6.3571  -6.2205  -6.2203  -6.0120  -6.0118  -5.0864  -5.0863
    -5.0171  -5.0170  -4.8504  -4.8504  -4.8258  -4.8257  -4.7837  -4.7835
    -4.7450  -4.7449  -1.0047  -1.0046   1.6469   1.6471   1.7599   1.7599
     2.0298   2.0299   2.5121   2.5122   2.8316   2.8317   2.9379   2.9384
     3.1567   3.1568   3.3471   3.3474   3.5398   3.5400   3.6199   3.6200
     3.6883   3.6886   4.5069   4.5075   4.7581   4.7588   4.8671   4.8678
     4.8775   4.8778   5.2695   5.2701   5.2832   5.2836   5.4266   5.4270
     5.7637   5.7642   5.9756   5.9758   6.1014   6.1018

     occupation numbers 
     1.0000   1.0000   1.0000   1.0000   1.0000   1.0000   1.0000   1.0000
     1.0000   1.0000   1.0000   1.0000   1.0000   1.0000   1.0000   1.0000
     1.0000   1.0000   1.0000   1.0000   1.0000   1.0000   1.0000   1.0000
     1.0000   1.0000   1.0000   1.0000   1.0000   1.0000   1.0000   1.0000
     1.0000   1.0000   1.0000   1.0000   1.0000   1.0000   1.0000   1.0000
     1.0000   1.0000   1.0000   1.0000   1.0000   1.0000   1.0000   1.0000
     1.0000   1.0000   1.0000   1.0000   1.0000   1.0000   1.0000   1.0000
     1.0000   1.0000   1.0000   1.0000   1.0000   1.0000   1.0000   1.0000
     1.0000   1.0000   1.0000   1.0000   1.0000   1.0000   1.0000   1.0000
     1.0000   1.0000   1.0000   1.0000   1.0000   1.0000

          k =-0.4528 0.2760 0.2495 ( 43437 PWs)   bands (ev):

   -20.8106 -20.8003 -20.7850 -20.7749 -15.7483 -15.7482 -15.7398 -15.7398
   -15.7353 -15.7353 -15.6772 -15.6772 -15.6611 -15.6609  -7.1922  -7.0158
    -6.5199  -6.2732  -6.2432  -6.2175  -6.1378  -6.0816  -5.0985  -5.0232
    -4.9485  -4.9364  -4.8766  -4.8669  -4.8576  -4.8533  -4.8277  -4.7817
    -4.7500  -4.7393  -1.0156  -0.9253   1.3716   1.4353   1.6620   1.7928
     2.0757   2.2248   2.3242   2.5294   2.5868   2.9595   2.9920   3.0479
     3.1743   3.2322   3.2746   3.3341   3.3693   3.5004   3.6358   3.6450
     3.7305   3.7831   4.6138   4.6266   4.7182   4.7971   4.8542   4.8782
     4.9380   5.0159   5.1136   5.1801   5.2250   5.2861   5.6027   5.7094
     5.8040   5.8485   5.9308   5.9569   6.1429   6.1660

     occupation numbers 
     1.0000   1.0000   1.0000   1.0000   1.0000   1.0000   1.0000   1.0000
     1.0000   1.0000   1.0000   1.0000   1.0000   1.0000   1.0000   1.0000
     1.0000   1.0000   1.0000   1.0000   1.0000   1.0000   1.0000   1.0000
     1.0000   1.0000   1.0000   1.0000   1.0000   1.0000   1.0000   1.0000
     1.0000   1.0000   1.0000   1.0000   1.0000   1.0000   1.0000   1.0000
     1.0000   1.0000   1.0000   1.0000   1.0000   1.0000   1.0000   1.0000
     1.0000   1.0000   1.0000   1.0000   1.0000   1.0000   1.0000   1.0000
     1.0000   1.0000   1.0000   1.0000   1.0000   1.0000   1.0000   1.0000
     1.0000   1.0000   1.0000   1.0000   1.0000   1.0000   1.0000   1.0000
     1.0000   1.0000   1.0000   1.0000   1.0000   1.0000

          k =-0.6312-0.9287-0.4981 ( 43450 PWs)   bands (ev):

   -20.7983 -20.7981 -20.7866 -20.7864 -15.7483 -15.7483 -15.7400 -15.7400
   -15.7354 -15.7354 -15.6770 -15.6770 -15.6610 -15.6610  -7.0212  -7.0210
    -6.4467  -6.4461  -6.2238  -6.2237  -6.1935  -6.1932  -5.0265  -5.0265
    -4.9519  -4.9518  -4.9005  -4.9005  -4.8460  -4.8460  -4.8241  -4.8240
    -4.7139  -4.7137  -0.9357  -0.9356   1.2036   1.2040   1.8954   1.8955
     1.9786   1.9795   2.2407   2.2409   2.9540   2.9544   3.0536   3.0542
     3.1546   3.1554   3.2392   3.2396   3.4737   3.4743   3.6809   3.6813
     3.7379   3.7387   4.7265   4.7271   4.7791   4.7796   4.8957   4.8960
     4.9385   4.9386   5.1621   5.1621   5.2047   5.2048   5.8240   5.8240
     5.8980   5.8982   6.0311   6.0314   6.1102   6.1105

     occupation numbers 
     1.0000   1.0000   1.0000   1.0000   1.0000   1.0000   1.0000   1.0000
     1.0000   1.0000   1.0000   1.0000   1.0000   1.0000   1.0000   1.0000
     1.0000   1.0000   1.0000   1.0000   1.0000   1.0000   1.0000   1.0000
     1.0000   1.0000   1.0000   1.0000   1.0000   1.0000   1.0000   1.0000
     1.0000   1.0000   1.0000   1.0000   1.0000   1.0000   1.0000   1.0000
     1.0000   1.0000   1.0000   1.0000   1.0000   1.0000   1.0000   1.0000
     1.0000   1.0000   1.0000   1.0000   1.0000   1.0000   1.0000   1.0000
     1.0000   1.0000   1.0000   1.0000   1.0000   1.0000   1.0000   1.0000
     1.0000   1.0000   1.0000   1.0000   1.0000   1.0000   1.0000   1.0000
     1.0000   1.0000   1.0000   1.0000   1.0000   1.0000

          k =-0.5123 0.3388 0.0003 ( 43424 PWs)   bands (ev):

   -20.8065 -20.8064 -20.7790 -20.7788 -15.7483 -15.7483 -15.7398 -15.7398
   -15.7353 -15.7353 -15.6772 -15.6772 -15.6610 -15.6610  -7.1232  -7.1124
    -6.4135  -6.3400  -6.2511  -6.2173  -6.1643  -6.0631  -5.0634  -5.0470
    -4.9298  -4.9163  -4.9100  -4.8813  -4.8681  -4.8622  -4.8109  -4.7923
    -4.7396  -4.7357  -0.9918  -0.9484   1.4082   1.4723   1.5811   1.7188
     2.1590   2.2484   2.3617   2.4155   2.7357   2.8608   2.9619   3.0914
     3.1584   3.1909   3.2613   3.3527   3.3743   3.5435   3.6522   3.6866
     3.7052   3.7393   4.6022   4.6398   4.7501   4.7666   4.8464   4.8742
     4.9700   4.9844   5.1468   5.1697   5.2165   5.2754   5.6171   5.6715
     5.7636   5.8500   5.9456   5.9633   6.1742   6.2198

     occupation numbers 
     1.0000   1.0000   1.0000   1.0000   1.0000   1.0000   1.0000   1.0000
     1.0000   1.0000   1.0000   1.0000   1.0000   1.0000   1.0000   1.0000
     1.0000   1.0000   1.0000   1.0000   1.0000   1.0000   1.0000   1.0000
     1.0000   1.0000   1.0000   1.0000   1.0000   1.0000   1.0000   1.0000
     1.0000   1.0000   1.0000   1.0000   1.0000   1.0000   1.0000   1.0000
     1.0000   1.0000   1.0000   1.0000   1.0000   1.0000   1.0000   1.0000
     1.0000   1.0000   1.0000   1.0000   1.0000   1.0000   1.0000   1.0000
     1.0000   1.0000   1.0000   1.0000   1.0000   1.0000   1.0000   1.0000
     1.0000   1.0000   1.0000   1.0000   1.0000   1.0000   1.0000   1.0000
     1.0000   1.0000   1.0000   1.0000   1.0000   1.0000

          k =-0.4528 0.7404 0.2495 ( 43432 PWs)   bands (ev):

   -20.7983 -20.7981 -20.7866 -20.7864 -15.7483 -15.7483 -15.7400 -15.7400
   -15.7354 -15.7354 -15.6770 -15.6770 -15.6610 -15.6610  -7.0480  -6.9899
    -6.4787  -6.3889  -6.2999  -6.2405  -6.1878  -6.1369  -5.0225  -5.0176
    -4.9712  -4.9354  -4.9064  -4.8915  -4.8630  -4.8481  -4.8187  -4.7960
    -4.7299  -4.7237  -0.9630  -0.9065   1.1732   1.2984   1.6336   1.7701
     2.0827   2.2054   2.2634   2.2949   2.8153   2.9286   3.0503   3.1227
     3.1749   3.2116   3.2348   3.2755   3.3862   3.5138   3.6420   3.6804
     3.7148   3.7679   4.6987   4.7447   4.7644   4.8025   4.8970   4.9248
     4.9336   4.9689   5.1046   5.1438   5.1756   5.2495   5.7395   5.8543
     5.9037   5.9444   5.9850   6.0474   6.0736   6.1334

     occupation numbers 
     1.0000   1.0000   1.0000   1.0000   1.0000   1.0000   1.0000   1.0000
     1.0000   1.0000   1.0000   1.0000   1.0000   1.0000   1.0000   1.0000
     1.0000   1.0000   1.0000   1.0000   1.0000   1.0000   1.0000   1.0000
     1.0000   1.0000   1.0000   1.0000   1.0000   1.0000   1.0000   1.0000
     1.0000   1.0000   1.0000   1.0000   1.0000   1.0000   1.0000   1.0000
     1.0000   1.0000   1.0000   1.0000   1.0000   1.0000   1.0000   1.0000
     1.0000   1.0000   1.0000   1.0000   1.0000   1.0000   1.0000   1.0000
     1.0000   1.0000   1.0000   1.0000   1.0000   1.0000   1.0000   1.0000
     1.0000   1.0000   1.0000   1.0000   1.0000   1.0000   1.0000   1.0000
     1.0000   1.0000   1.0000   1.0000   1.0000   1.0000

          k =-0.6312-0.4643-0.4980 ( 43453 PWs)   bands (ev):

   -20.8121 -20.7947 -20.7905 -20.7734 -15.7483 -15.7482 -15.7398 -15.7398
   -15.7353 -15.7353 -15.6772 -15.6772 -15.6611 -15.6609  -7.2230  -6.9759
    -6.6215  -6.2375  -6.1989  -6.1404  -6.1341  -6.0931  -5.1189  -5.0257
    -4.9773  -4.9616  -4.8735  -4.8671  -4.8510  -4.8477  -4.8089  -4.7875
    -4.7705  -4.7384  -1.0177  -0.9293   1.3938   1.4033   1.7799   1.8670
     1.9934   2.2252   2.2735   2.5282   2.5744   2.9019   3.0007   3.0655
     3.1655   3.1887   3.2638   3.3317   3.4011   3.5573   3.5942   3.6275
     3.7089   3.8974   4.6002   4.6317   4.6906   4.8267   4.8571   4.8801
     4.9434   5.0159   5.0768   5.1903   5.2565   5.2708   5.5666   5.7149
     5.7657   5.9339   5.9486   5.9902   6.0571   6.1421

     occupation numbers 
     1.0000   1.0000   1.0000   1.0000   1.0000   1.0000   1.0000   1.0000
     1.0000   1.0000   1.0000   1.0000   1.0000   1.0000   1.0000   1.0000
     1.0000   1.0000   1.0000   1.0000   1.0000   1.0000   1.0000   1.0000
     1.0000   1.0000   1.0000   1.0000   1.0000   1.0000   1.0000   1.0000
     1.0000   1.0000   1.0000   1.0000   1.0000   1.0000   1.0000   1.0000
     1.0000   1.0000   1.0000   1.0000   1.0000   1.0000   1.0000   1.0000
     1.0000   1.0000   1.0000   1.0000   1.0000   1.0000   1.0000   1.0000
     1.0000   1.0000   1.0000   1.0000   1.0000   1.0000   1.0000   1.0000
     1.0000   1.0000   1.0000   1.0000   1.0000   1.0000   1.0000   1.0000
     1.0000   1.0000   1.0000   1.0000   1.0000   1.0000

          k =-0.5717-0.0628-0.2489 ( 43489 PWs)   bands (ev):

   -20.8172 -20.8031 -20.7828 -20.7689 -15.7483 -15.7482 -15.7397 -15.7396
   -15.7352 -15.7352 -15.6774 -15.6774 -15.6611 -15.6609  -7.3050  -7.0602
    -6.5567  -6.2062  -6.1856  -6.1812  -6.0387  -5.9935  -5.1383  -5.0946
    -4.9885  -4.9728  -4.8809  -4.8714  -4.8255  -4.8188  -4.7860  -4.7714
    -4.7619  -4.7580  -1.0619  -0.9577   1.5955   1.6254   1.7529   1.9340
     2.0038   2.1034   2.4427   2.6278   2.6484   2.7703   2.9438   3.0823
     3.1262   3.2066   3.2628   3.3791   3.4005   3.5185   3.5373   3.6397
     3.6504   3.9676   4.4925   4.5175   4.7517   4.7643   4.7965   4.8453
     4.9095   4.9826   5.2119   5.2613   5.2933   5.3294   5.3325   5.4931
     5.5914   5.8678   5.9442   6.0155   6.1052   6.1417

     occupation numbers 
     1.0000   1.0000   1.0000   1.0000   1.0000   1.0000   1.0000   1.0000
     1.0000   1.0000   1.0000   1.0000   1.0000   1.0000   1.0000   1.0000
     1.0000   1.0000   1.0000   1.0000   1.0000   1.0000   1.0000   1.0000
     1.0000   1.0000   1.0000   1.0000   1.0000   1.0000   1.0000   1.0000
     1.0000   1.0000   1.0000   1.0000   1.0000   1.0000   1.0000   1.0000
     1.0000   1.0000   1.0000   1.0000   1.0000   1.0000   1.0000   1.0000
     1.0000   1.0000   1.0000   1.0000   1.0000   1.0000   1.0000   1.0000
     1.0000   1.0000   1.0000   1.0000   1.0000   1.0000   1.0000   1.0000
     1.0000   1.0000   1.0000   1.0000   1.0000   1.0000   1.0000   1.0000
     1.0000   1.0000   1.0000   1.0000   1.0000   1.0000

          k =-0.5122-1.0543 0.0003 ( 43366 PWs)   bands (ev):

   -20.7983 -20.7981 -20.7866 -20.7864 -15.7483 -15.7483 -15.7400 -15.7400
   -15.7354 -15.7354 -15.6770 -15.6770 -15.6610 -15.6610  -7.0592  -6.9740
    -6.4776  -6.3567  -6.3381  -6.2890  -6.1672  -6.1087  -5.0216  -5.0103
    -4.9948  -4.9167  -4.8991  -4.8847  -4.8712  -4.8608  -4.7886  -4.7802
    -4.7591  -4.7374  -0.9737  -0.8941   1.2022   1.3555   1.4777   1.7049
     2.0948   2.2778   2.3509   2.3578   2.7104   2.9244   3.0072   3.1685
     3.1735   3.2496   3.2813   3.3070   3.3426   3.4965   3.6127   3.6604
     3.7381   3.7568   4.6846   4.7515   4.7670   4.8063   4.9062   4.9301
     4.9657   4.9948   5.0696   5.1166   5.1437   5.2660   5.6941   5.8633
     5.8915   5.9413   6.0113   6.0452   6.0769   6.1116

     occupation numbers 
     1.0000   1.0000   1.0000   1.0000   1.0000   1.0000   1.0000   1.0000
     1.0000   1.0000   1.0000   1.0000   1.0000   1.0000   1.0000   1.0000
     1.0000   1.0000   1.0000   1.0000   1.0000   1.0000   1.0000   1.0000
     1.0000   1.0000   1.0000   1.0000   1.0000   1.0000   1.0000   1.0000
     1.0000   1.0000   1.0000   1.0000   1.0000   1.0000   1.0000   1.0000
     1.0000   1.0000   1.0000   1.0000   1.0000   1.0000   1.0000   1.0000
     1.0000   1.0000   1.0000   1.0000   1.0000   1.0000   1.0000   1.0000
     1.0000   1.0000   1.0000   1.0000   1.0000   1.0000   1.0000   1.0000
     1.0000   1.0000   1.0000   1.0000   1.0000   1.0000   1.0000   1.0000
     1.0000   1.0000   1.0000   1.0000   1.0000   1.0000

          k =-0.4527-0.6527 0.2494 ( 43437 PWs)   bands (ev):

   -20.8106 -20.8003 -20.7850 -20.7749 -15.7483 -15.7482 -15.7398 -15.7398
   -15.7353 -15.7353 -15.6772 -15.6772 -15.6611 -15.6609  -7.1949  -7.0375
    -6.5597  -6.2407  -6.1903  -6.1737  -6.1669  -6.0641  -5.1001  -5.0359
    -4.9744  -4.9493  -4.8821  -4.8633  -4.8587  -4.8438  -4.8385  -4.7947
    -4.7497  -4.7346  -0.9892  -0.9572   1.3967   1.4577   1.7041   1.7578
     2.1090   2.2407   2.3356   2.4966   2.5442   2.8819   3.0722   3.0900
     3.0993   3.1853   3.2697   3.2796   3.3981   3.5560   3.6213   3.6733
     3.7030   3.8690   4.5931   4.6409   4.7039   4.8106   4.8619   4.8773
     4.9519   4.9989   5.1008   5.1912   5.2374   5.2691   5.5656   5.7035
     5.7424   5.8967   5.9533   5.9782   6.1275   6.1885

     occupation numbers 
     1.0000   1.0000   1.0000   1.0000   1.0000   1.0000   1.0000   1.0000
     1.0000   1.0000   1.0000   1.0000   1.0000   1.0000   1.0000   1.0000
     1.0000   1.0000   1.0000   1.0000   1.0000   1.0000   1.0000   1.0000
     1.0000   1.0000   1.0000   1.0000   1.0000   1.0000   1.0000   1.0000
     1.0000   1.0000   1.0000   1.0000   1.0000   1.0000   1.0000   1.0000
     1.0000   1.0000   1.0000   1.0000   1.0000   1.0000   1.0000   1.0000
     1.0000   1.0000   1.0000   1.0000   1.0000   1.0000   1.0000   1.0000
     1.0000   1.0000   1.0000   1.0000   1.0000   1.0000   1.0000   1.0000
     1.0000   1.0000   1.0000   1.0000   1.0000   1.0000   1.0000   1.0000
     1.0000   1.0000   1.0000   1.0000   1.0000   1.0000

          k =-0.6311-1.8574-0.4981 ( 43494 PWs)   bands (ev):

   -20.8192 -20.7947 -20.7912 -20.7669 -15.7484 -15.7482 -15.7397 -15.7396
   -15.7352 -15.7352 -15.6774 -15.6774 -15.6611 -15.6609  -7.3468  -6.9775
    -6.6670  -6.1883  -6.1212  -6.1058  -6.0950  -5.9819  -5.1679  -5.1043
    -4.9367  -4.9311  -4.9275  -4.9143  -4.8153  -4.8142  -4.7982  -4.7868
    -4.7622  -4.7618  -1.0915  -0.9384   1.5832   1.5872   1.8152   2.0065
     2.0378   2.1466   2.4265   2.5100   2.7256   2.8040   2.8198   3.0293
     3.1241   3.2242   3.2937   3.3699   3.4160   3.4578   3.5369   3.6446
     3.6565   4.0823   4.4867   4.5155   4.7491   4.7526   4.7762   4.8378
     4.9356   5.0663   5.1873   5.2005   5.2654   5.3451   5.3559   5.5110
     5.5176   5.8578   5.9902   5.9984   6.1319   6.1521

     occupation numbers 
     1.0000   1.0000   1.0000   1.0000   1.0000   1.0000   1.0000   1.0000
     1.0000   1.0000   1.0000   1.0000   1.0000   1.0000   1.0000   1.0000
     1.0000   1.0000   1.0000   1.0000   1.0000   1.0000   1.0000   1.0000
     1.0000   1.0000   1.0000   1.0000   1.0000   1.0000   1.0000   1.0000
     1.0000   1.0000   1.0000   1.0000   1.0000   1.0000   1.0000   1.0000
     1.0000   1.0000   1.0000   1.0000   1.0000   1.0000   1.0000   1.0000
     1.0000   1.0000   1.0000   1.0000   1.0000   1.0000   1.0000   1.0000
     1.0000   1.0000   1.0000   1.0000   1.0000   1.0000   1.0000   1.0000
     1.0000   1.0000   1.0000   1.0000   1.0000   1.0000   1.0000   1.0000
     1.0000   1.0000   1.0000   1.0000   1.0000   1.0000

     highest occupied level (ev):     6.2198

!    total energy              =   -1568.23805665 Ry
     estimated scf accuracy    <          7.5E-11 Ry

     The total energy is the sum of the following terms:
     one-electron contribution =    -585.76647893 Ry
     hartree contribution      =     401.13755957 Ry
     xc contribution           =    -371.68895166 Ry
     ewald contribution        =    -652.65835772 Ry
     one-center paw contrib.   =    -359.26182791 Ry
      -> PAW hartree energy AE =       0.00000000 Ry
      -> PAW hartree energy PS =       0.00000000 Ry
      -> PAW xc energy AE      =       0.00000000 Ry
      -> PAW xc energy PS      =       0.00000000 Ry
      -> total E_H with PAW    =     401.13755957 Ry
      -> total E_XC with PAW   =    -371.68895166 Ry

     convergence has been achieved in   9 iterations

     Forces acting on atoms (cartesian axes, Ry/au):

     atom    1 type  2   force =     0.00004984    0.00007376    0.00007605
     atom    2 type  2   force =    -0.00004984   -0.00007376   -0.00007605
     atom    3 type  2   force =    -0.00008117    0.00007030   -0.00002852
     atom    4 type  2   force =     0.00008117   -0.00007030    0.00002852
     atom    5 type  1   force =    -0.00016565    0.00000432   -0.00016557
     atom    6 type  1   force =     0.00016565   -0.00000432    0.00016557
     atom    7 type  1   force =     0.00017546   -0.00000328    0.00016949
     atom    8 type  1   force =    -0.00017546    0.00000328   -0.00016949
     atom    9 type  4   force =     0.00000113    0.00000539    0.00000513
     atom   10 type  4   force =    -0.00000113   -0.00000539   -0.00000513
     atom   11 type  3   force =     0.00032650    0.00073326    0.00000769
     atom   12 type  3   force =    -0.00032650   -0.00073326   -0.00000769
     atom   13 type  3   force =     0.00021165   -0.00040012   -0.00064722
     atom   14 type  3   force =    -0.00021165    0.00040012    0.00064722
     atom   15 type  3   force =    -0.00060459    0.00040224    0.00034399
     atom   16 type  3   force =     0.00060459   -0.00040224   -0.00034399
     atom   17 type  3   force =     0.00005979   -0.00072723    0.00029789
     atom   18 type  3   force =    -0.00005979    0.00072723   -0.00029789
     The non-local contrib.  to forces
     atom    1 type  2   force =    -0.00102046   -0.00517777   -0.00339956
     atom    2 type  2   force =     0.00102046    0.00517777    0.00339956
     atom    3 type  2   force =     0.00352936   -0.00516838    0.00018009
     atom    4 type  2   force =    -0.00352936    0.00516838   -0.00018009
     atom    5 type  1   force =    -0.06956733   -0.00007413   -0.05456154
     atom    6 type  1   force =     0.06956733    0.00007413    0.05456154
     atom    7 type  1   force =     0.06962137    0.00014898    0.05484203
     atom    8 type  1   force =    -0.06962137   -0.00014898   -0.05484203
     atom    9 type  4   force =     0.00003618   -0.00017274   -0.00002954
     atom   10 type  4   force =    -0.00003618    0.00017274    0.00002954
     atom   11 type  3   force =     0.12315462    0.12880882   -0.12609347
     atom   12 type  3   force =    -0.12315462   -0.12880882    0.12609347
     atom   13 type  3   force =     0.11917855    0.02586000   -0.18096272
     atom   14 type  3   force =    -0.11917855   -0.02586000    0.18096272
     atom   15 type  3   force =    -0.14834647   -0.02581866    0.15818971
     atom   16 type  3   force =     0.14834647    0.02581866   -0.15818971
     atom   17 type  3   force =    -0.09402276   -0.12871223    0.14900780
     atom   18 type  3   force =     0.09402276    0.12871223   -0.14900780
     The ionic contribution  to forces
     atom    1 type  2   force =    -0.77965954   -0.44654806   -0.83873028
     atom    2 type  2   force =     0.77965954    0.44654806    0.83873028
     atom    3 type  2   force =     0.99693867   -0.44578185    0.56202581
     atom    4 type  2   force =    -0.99693867    0.44578185   -0.56202581
     atom    5 type  1   force =     2.94304678   -0.00303192    2.31825010
     atom    6 type  1   force =    -2.94304678    0.00303192   -2.31825010
     atom    7 type  1   force =    -2.94008937   -0.00531839   -2.31885297
     atom    8 type  1   force =     2.94008937    0.00531839    2.31885297
     atom    9 type  4   force =    -0.00179689   -0.00038056    0.00075115
     atom   10 type  4   force =     0.00179689    0.00038056   -0.00075115
     atom   11 type  3   force =    -3.26278285   -4.79348775    7.48674972
     atom   12 type  3   force =     3.26278285    4.79348775   -7.48674972
     atom   13 type  3   force =    -7.22502666   -1.90685038    5.81274492
     atom   14 type  3   force =     7.22502666    1.90685038   -5.81274492
     atom   15 type  3   force =     3.97020430    1.90637781   -8.38303286
     atom   16 type  3   force =    -3.97020430   -1.90637781    8.38303286
     atom   17 type  3   force =     6.51795326    4.79135847   -4.91745523
     atom   18 type  3   force =    -6.51795326   -4.79135847    4.91745523
     The local contribution  to forces
     atom    1 type  2   force =     0.78072936    0.45179998    0.84220654
     atom    2 type  2   force =    -0.78072936   -0.45179998   -0.84220654
     atom    3 type  2   force =    -1.00054968    0.45102080   -0.56223365
     atom    4 type  2   force =     1.00054968   -0.45102080    0.56223365
     atom    5 type  1   force =    -2.87531183    0.00311307   -2.26512324
     atom    6 type  1   force =     2.87531183   -0.00311307    2.26512324
     atom    7 type  1   force =     2.87228865    0.00519366    2.26548260
     atom    8 type  1   force =    -2.87228865   -0.00519366   -2.26548260
     atom    9 type  4   force =     0.00176031    0.00054416   -0.00071492
     atom   10 type  4   force =    -0.00176031   -0.00054416    0.00071492
     atom   11 type  3   force =     3.14654698    4.67232022   -7.36762288
     atom   12 type  3   force =    -3.14654698   -4.67232022    7.36762288
     atom   13 type  3   force =     7.11263160    1.88208484   -5.64213754
     atom   14 type  3   force =    -7.11263160   -1.88208484    5.64213754
     atom   15 type  3   force =    -3.83037935   -1.88164915    8.23384742
     atom   16 type  3   force =     3.83037935    1.88164915   -8.23384742
     atom   17 type  3   force =    -6.42912239   -4.67027589    4.77677336
     atom   18 type  3   force =     6.42912239    4.67027589   -4.77677336
     The core correction contribution to forces
     atom    1 type  2   force =     0.00000000    0.00000000    0.00000000
     atom    2 type  2   force =     0.00000000    0.00000000    0.00000000
     atom    3 type  2   force =     0.00000000    0.00000000    0.00000000
     atom    4 type  2   force =     0.00000000    0.00000000    0.00000000
     atom    5 type  1   force =     0.00166533   -0.00000278    0.00126794
     atom    6 type  1   force =    -0.00166533    0.00000278   -0.00126794
     atom    7 type  1   force =    -0.00164465   -0.00002752   -0.00130168
     atom    8 type  1   force =     0.00164465    0.00002752    0.00130168
     atom    9 type  4   force =     0.00000049    0.00000917   -0.00000157
     atom   10 type  4   force =    -0.00000049   -0.00000917    0.00000157
     atom   11 type  3   force =    -0.00659014   -0.00690492    0.00697407
     atom   12 type  3   force =     0.00659014    0.00690492   -0.00697407
     atom   13 type  3   force =    -0.00657318   -0.00149642    0.00970483
     atom   14 type  3   force =     0.00657318    0.00149642   -0.00970483
     atom   15 type  3   force =     0.00791322    0.00149415   -0.00866077
     atom   16 type  3   force =    -0.00791322   -0.00149415    0.00866077
     atom   17 type  3   force =     0.00525193    0.00689951   -0.00802602
     atom   18 type  3   force =    -0.00525193   -0.00689951    0.00802602
     The Hubbard contrib.    to forces
     atom    1 type  2   force =     0.00000000    0.00000000    0.00000000
     atom    2 type  2   force =     0.00000000    0.00000000    0.00000000
     atom    3 type  2   force =     0.00000000    0.00000000    0.00000000
     atom    4 type  2   force =     0.00000000    0.00000000    0.00000000
     atom    5 type  1   force =     0.00000000    0.00000000    0.00000000
     atom    6 type  1   force =     0.00000000    0.00000000    0.00000000
     atom    7 type  1   force =     0.00000000    0.00000000    0.00000000
     atom    8 type  1   force =     0.00000000    0.00000000    0.00000000
     atom    9 type  4   force =     0.00000000    0.00000000    0.00000000
     atom   10 type  4   force =     0.00000000    0.00000000    0.00000000
     atom   11 type  3   force =     0.00000000    0.00000000    0.00000000
     atom   12 type  3   force =     0.00000000    0.00000000    0.00000000
     atom   13 type  3   force =     0.00000000    0.00000000    0.00000000
     atom   14 type  3   force =     0.00000000    0.00000000    0.00000000
     atom   15 type  3   force =     0.00000000    0.00000000    0.00000000
     atom   16 type  3   force =     0.00000000    0.00000000    0.00000000
     atom   17 type  3   force =     0.00000000    0.00000000    0.00000000
     atom   18 type  3   force =     0.00000000    0.00000000    0.00000000
     The SCF correction term to forces
     atom    1 type  2   force =     0.00000048   -0.00000040   -0.00000065
     atom    2 type  2   force =    -0.00000048    0.00000040    0.00000065
     atom    3 type  2   force =     0.00000049   -0.00000028   -0.00000078
     atom    4 type  2   force =    -0.00000049    0.00000028    0.00000078
     atom    5 type  1   force =     0.00000140    0.00000009    0.00000117
     atom    6 type  1   force =    -0.00000140   -0.00000009   -0.00000117
     atom    7 type  1   force =    -0.00000054   -0.00000001   -0.00000049
     atom    8 type  1   force =     0.00000054    0.00000001    0.00000049
     atom    9 type  4   force =     0.00000102    0.00000537    0.00000001
     atom   10 type  4   force =    -0.00000102   -0.00000537   -0.00000001
     atom   11 type  3   force =    -0.00000211   -0.00000311    0.00000025
     atom   12 type  3   force =     0.00000211    0.00000311   -0.00000025
     atom   13 type  3   force =     0.00000133    0.00000184    0.00000330
     atom   14 type  3   force =    -0.00000133   -0.00000184   -0.00000330
     atom   15 type  3   force =     0.00000371   -0.00000191    0.00000049
     atom   16 type  3   force =    -0.00000371    0.00000191   -0.00000049
     atom   17 type  3   force =    -0.00000026    0.00000291   -0.00000202
     atom   18 type  3   force =     0.00000026   -0.00000291    0.00000202

     Total force =     0.002313     Total SCF correction =     0.000014


     Computing stress (Cartesian axis) and pressure

          total   stress  (Ry/bohr**3)                   (kbar)     P=       -0.41
  -0.00000238   0.00000035  -0.00000017           -0.35        0.05       -0.03
   0.00000035  -0.00000341  -0.00000041            0.05       -0.50       -0.06
  -0.00000017  -0.00000041  -0.00000252           -0.03       -0.06       -0.37

     kinetic stress (kbar)   7736.55     -4.00    -23.48
                               -4.00   7779.81      5.12
                              -23.48      5.12   7747.39

     local   stress (kbar)  -2144.00   3611.03  -6663.19
                             3611.03  -6131.10  -4577.67
                            -6663.19  -4577.67   1048.91

     nonloc. stress (kbar)   2073.91      0.39     -2.27
                                0.39   2075.29     -0.48
                               -2.27     -0.48   2074.86

     hartree stress (kbar)   6311.47  -1722.55   3125.84
                            -1722.55   8280.29   2183.82
                             3125.84   2183.82   4813.36

     exc-cor stress (kbar)   5862.00     -0.25      0.13
                               -0.25   5862.69      0.31
                                0.13      0.31   5861.94

     corecor stress (kbar)  -9227.22      0.30     -0.32
                                0.30  -9227.83     -0.39
                               -0.32     -0.39  -9227.03

     ewald   stress (kbar) -10613.06  -1884.88   3563.26
                            -1884.88  -8639.63   2389.21
                             3563.26   2389.21 -12319.80

     hubbard stress (kbar)      0.00      0.00      0.00
                                0.00      0.00      0.00
                                0.00      0.00      0.00

     DFT-D   stress (kbar)      0.00      0.00      0.00
                                0.00      0.00      0.00
                                0.00      0.00      0.00

     XDM     stress (kbar)      0.00      0.00      0.00
                                0.00      0.00      0.00
                                0.00      0.00      0.00

     dft-nl  stress (kbar)      0.00      0.00      0.00
                                0.00      0.00      0.00
                                0.00      0.00      0.00

     TS-vdW  stress (kbar)      0.00      0.00      0.00
                                0.00      0.00      0.00
                                0.00      0.00      0.00

     MDB     stress (kbar)      0.00      0.00      0.00
                                0.00      0.00      0.00
                                0.00      0.00      0.00

     3D-RISM stress (kbar)      0.00      0.00      0.00
                                0.00      0.00      0.00
                                0.00      0.00      0.00

     Energy error            =      3.0E-05 Ry
     Gradient error          =      7.3E-04 Ry/Bohr
     Cell gradient error     =      5.0E-01 kbar

     number of scf cycles    =   7
     number of bfgs steps    =   6

     enthalpy           old  =   -1568.2380269762 Ry
     enthalpy           new  =   -1568.2380566526 Ry

     CASE: enthalpy          _new < enthalpy          _old

     new trust radius        =       0.0033361416 bohr
     new conv_thr            =            1.0E-10 Ry

     new unit-cell volume =   3041.18412 a.u.^3 (   450.65699 Ang^3 )
     density =      4.01631 g/cm^3

CELL_PARAMETERS (angstrom)
   9.262697871   0.001264861  -2.211194383
  -1.257646911   5.109496202  -7.934752132
   0.006270126  -0.000656303   9.521293935

ATOMIC_POSITIONS (crystal)
Rb               0.1244417402        0.7287064529        0.8531357745
Rb               0.8755582598        0.2712935471        0.1468642255
Rb               0.3755692031        0.2286779993        0.6042491441
Rb               0.6244307969        0.7713220007        0.3957508559
Cu               0.0245224415        0.7500321433        0.2745123259
Cu               0.9754775585        0.2499678567        0.7254876741
Cu               0.4754772196        0.7500107806        0.7255318165
Cu               0.5245227804        0.2499892194        0.2744681835
Sn               0.2500038001        0.2499845157       -0.0000040091
Sn               0.7499961999        0.7500154843        0.0000040091
S                0.0166650340        0.9199132719        0.6376660344
S                0.9833349660        0.0800867281        0.3623339656
S                0.2822440877        0.3790385033        0.3623873015
S                0.7177559123        0.6209614967        0.6376126985
S                0.4833165259        0.1209874257        0.9032023346
S                0.5166834741        0.8790125743        0.0967976654
S                0.2177594737        0.5801166135        0.0967667092
S                0.7822405263        0.4198833865        0.9032332908



     Writing config-only to output data dir ./tmp/relax/Rb2Cu2SnS4_relax.save/ :
     XML data file
     NEW-OLD atomic charge density approx. for the potential
     New effective cutoffs (rho, wfc):  716.39   89.56

     total cpu time spent up to now is     1873.9 secs

     Self-consistent Calculation

     iteration #  1     ecut=    90.00 Ry     beta= 0.30
     Davidson diagonalization with overlap

---- Real-time Memory Report at c_bands before calling an iterative solver
             0 MiB given to the printing process from OS
             0 MiB allocation reported by mallinfo(arena+hblkhd)
             0 MiB available memory on the node where the printing process lives
------------------
     ethr =  1.00E-06,  avg # of iterations =  2.0

     Threshold (ethr) on eigenvalues was too large:
     Diagonalizing with lowered threshold

     Davidson diagonalization with overlap

---- Real-time Memory Report at c_bands before calling an iterative solver
             0 MiB given to the printing process from OS
             0 MiB allocation reported by mallinfo(arena+hblkhd)
             0 MiB available memory on the node where the printing process lives
------------------
     ethr =  5.33E-09,  avg # of iterations =  7.3

     total cpu time spent up to now is     1935.1 secs

     total energy              =   -1568.23806684 Ry
     estimated scf accuracy    <       0.00000499 Ry

     iteration #  2     ecut=    90.00 Ry     beta= 0.30
     Davidson diagonalization with overlap

---- Real-time Memory Report at c_bands before calling an iterative solver
             0 MiB given to the printing process from OS
             0 MiB allocation reported by mallinfo(arena+hblkhd)
             0 MiB available memory on the node where the printing process lives
------------------
     ethr =  3.20E-09,  avg # of iterations =  2.0

     total cpu time spent up to now is     1955.5 secs

     total energy              =   -1568.23806737 Ry
     estimated scf accuracy    <       0.00000052 Ry

     iteration #  3     ecut=    90.00 Ry     beta= 0.30
     Davidson diagonalization with overlap

---- Real-time Memory Report at c_bands before calling an iterative solver
             0 MiB given to the printing process from OS
             0 MiB allocation reported by mallinfo(arena+hblkhd)
             0 MiB available memory on the node where the printing process lives
------------------
     ethr =  3.34E-10,  avg # of iterations =  4.8

     total cpu time spent up to now is     1980.8 secs

     total energy              =   -1568.23806751 Ry
     estimated scf accuracy    <       0.00000012 Ry

     iteration #  4     ecut=    90.00 Ry     beta= 0.30
     Davidson diagonalization with overlap

---- Real-time Memory Report at c_bands before calling an iterative solver
             0 MiB given to the printing process from OS
             0 MiB allocation reported by mallinfo(arena+hblkhd)
             0 MiB available memory on the node where the printing process lives
------------------
     ethr =  7.88E-11,  avg # of iterations =  4.0

     total cpu time spent up to now is     2002.8 secs

     total energy              =   -1568.23806754 Ry
     estimated scf accuracy    <       0.00000003 Ry

     iteration #  5     ecut=    90.00 Ry     beta= 0.30
     Davidson diagonalization with overlap

---- Real-time Memory Report at c_bands before calling an iterative solver
             0 MiB given to the printing process from OS
             0 MiB allocation reported by mallinfo(arena+hblkhd)
             0 MiB available memory on the node where the printing process lives
------------------
     ethr =  1.97E-11,  avg # of iterations =  2.6

     total cpu time spent up to now is     2023.2 secs

     total energy              =   -1568.23806754 Ry
     estimated scf accuracy    <          8.0E-09 Ry

     iteration #  6     ecut=    90.00 Ry     beta= 0.30
     Davidson diagonalization with overlap

---- Real-time Memory Report at c_bands before calling an iterative solver
             0 MiB given to the printing process from OS
             0 MiB allocation reported by mallinfo(arena+hblkhd)
             0 MiB available memory on the node where the printing process lives
------------------
     ethr =  5.16E-12,  avg # of iterations =  5.4

     total cpu time spent up to now is     2049.9 secs

     total energy              =   -1568.23806755 Ry
     estimated scf accuracy    <       0.00000001 Ry

     iteration #  7     ecut=    90.00 Ry     beta= 0.30
     Davidson diagonalization with overlap

---- Real-time Memory Report at c_bands before calling an iterative solver
             0 MiB given to the printing process from OS
             0 MiB allocation reported by mallinfo(arena+hblkhd)
             0 MiB available memory on the node where the printing process lives
------------------
     ethr =  5.16E-12,  avg # of iterations =  3.0

     total cpu time spent up to now is     2070.7 secs

     total energy              =   -1568.23806755 Ry
     estimated scf accuracy    <          1.2E-09 Ry

     iteration #  8     ecut=    90.00 Ry     beta= 0.30
     Davidson diagonalization with overlap

---- Real-time Memory Report at c_bands before calling an iterative solver
             0 MiB given to the printing process from OS
             0 MiB allocation reported by mallinfo(arena+hblkhd)
             0 MiB available memory on the node where the printing process lives
------------------
     ethr =  7.45E-13,  avg # of iterations =  5.8

     total cpu time spent up to now is     2097.5 secs

     total energy              =   -1568.23806755 Ry
     estimated scf accuracy    <          5.2E-10 Ry

     iteration #  9     ecut=    90.00 Ry     beta= 0.30
     Davidson diagonalization with overlap

---- Real-time Memory Report at c_bands before calling an iterative solver
             0 MiB given to the printing process from OS
             0 MiB allocation reported by mallinfo(arena+hblkhd)
             0 MiB available memory on the node where the printing process lives
------------------
     ethr =  3.36E-13,  avg # of iterations =  2.0

     total cpu time spent up to now is     2116.5 secs

     total energy              =   -1568.23806755 Ry
     estimated scf accuracy    <          1.3E-10 Ry

     iteration # 10     ecut=    90.00 Ry     beta= 0.30
     Davidson diagonalization with overlap

---- Real-time Memory Report at c_bands before calling an iterative solver
             0 MiB given to the printing process from OS
             0 MiB allocation reported by mallinfo(arena+hblkhd)
             0 MiB available memory on the node where the printing process lives
------------------
     ethr =  1.00E-13,  avg # of iterations =  4.5

     total cpu time spent up to now is     2139.9 secs

     End of self-consistent calculation

          k = 0.0000 0.0000 0.0000 ( 43377 PWs)   bands (ev):

   -20.8220 -20.7974 -20.7940 -20.7697 -15.7477 -15.7476 -15.7389 -15.7388
   -15.7344 -15.7344 -15.6764 -15.6764 -15.6601 -15.6598  -7.2926  -6.9608
    -6.6561  -6.3215  -6.1621  -6.1564  -6.1542  -5.9326  -5.1776  -5.1000
    -4.9414  -4.9352  -4.8849  -4.8722  -4.8295  -4.8289  -4.7875  -4.7643
    -4.7639  -4.6884  -1.1016  -0.8968   1.4971   1.5785   1.8124   1.9541
     2.0362   2.0796   2.1463   2.4633   2.8278   2.9327   3.0667   3.1034
     3.2302   3.2565   3.3329   3.3378   3.3450   3.3909   3.5060   3.6132
     3.7288   3.7591   4.4907   4.5373   4.7466   4.7515   4.7637   4.8605
     4.8781   5.0939   5.1959   5.2196   5.2658   5.3252   5.4266   5.5171
     5.6442   5.8229   5.9395   6.1060   6.1457   6.2002

     occupation numbers 
     1.0000   1.0000   1.0000   1.0000   1.0000   1.0000   1.0000   1.0000
     1.0000   1.0000   1.0000   1.0000   1.0000   1.0000   1.0000   1.0000
     1.0000   1.0000   1.0000   1.0000   1.0000   1.0000   1.0000   1.0000
     1.0000   1.0000   1.0000   1.0000   1.0000   1.0000   1.0000   1.0000
     1.0000   1.0000   1.0000   1.0000   1.0000   1.0000   1.0000   1.0000
     1.0000   1.0000   1.0000   1.0000   1.0000   1.0000   1.0000   1.0000
     1.0000   1.0000   1.0000   1.0000   1.0000   1.0000   1.0000   1.0000
     1.0000   1.0000   1.0000   1.0000   1.0000   1.0000   1.0000   1.0000
     1.0000   1.0000   1.0000   1.0000   1.0000   1.0000   1.0000   1.0000
     1.0000   1.0000   1.0000   1.0000   1.0000   1.0000

          k = 0.0594 0.4016 0.2492 ( 43439 PWs)   bands (ev):

   -20.8134 -20.8030 -20.7877 -20.7776 -15.7477 -15.7477 -15.7391 -15.7390
   -15.7345 -15.7345 -15.6762 -15.6762 -15.6600 -15.6599  -7.1932  -6.9956
    -6.4634  -6.3150  -6.2737  -6.2441  -6.2180  -6.0424  -5.1011  -5.0189
    -4.9423  -4.9020  -4.8801  -4.8691  -4.8577  -4.8569  -4.8264  -4.7677
    -4.7593  -4.7483  -1.0436  -0.8933   1.2927   1.4681   1.5979   1.8967
     2.0027   2.1599   2.3761   2.5591   2.6233   2.9038   3.0050   3.1543
     3.2019   3.2370   3.2396   3.3305   3.3366   3.4648   3.6192   3.6564
     3.7004   3.7609   4.5974   4.6529   4.7329   4.7852   4.8367   4.8982
     4.9197   5.0290   5.1268   5.1662   5.1823   5.3368   5.6321   5.6823
     5.7451   5.8538   5.9570   6.0276   6.0851   6.1976

     occupation numbers 
     1.0000   1.0000   1.0000   1.0000   1.0000   1.0000   1.0000   1.0000
     1.0000   1.0000   1.0000   1.0000   1.0000   1.0000   1.0000   1.0000
     1.0000   1.0000   1.0000   1.0000   1.0000   1.0000   1.0000   1.0000
     1.0000   1.0000   1.0000   1.0000   1.0000   1.0000   1.0000   1.0000
     1.0000   1.0000   1.0000   1.0000   1.0000   1.0000   1.0000   1.0000
     1.0000   1.0000   1.0000   1.0000   1.0000   1.0000   1.0000   1.0000
     1.0000   1.0000   1.0000   1.0000   1.0000   1.0000   1.0000   1.0000
     1.0000   1.0000   1.0000   1.0000   1.0000   1.0000   1.0000   1.0000
     1.0000   1.0000   1.0000   1.0000   1.0000   1.0000   1.0000   1.0000
     1.0000   1.0000   1.0000   1.0000   1.0000   1.0000

          k =-0.1189-0.8032-0.4984 ( 43366 PWs)   bands (ev):

   -20.8010 -20.8008 -20.7894 -20.7892 -15.7477 -15.7477 -15.7392 -15.7392
   -15.7346 -15.7346 -15.6760 -15.6760 -15.6599 -15.6599  -7.0628  -6.9782
    -6.4791  -6.3569  -6.3406  -6.2895  -6.1684  -6.1096  -5.0245  -5.0132
    -4.9976  -4.9200  -4.9014  -4.8872  -4.8740  -4.8630  -4.7914  -4.7827
    -4.7618  -4.7402  -0.9743  -0.8950   1.1996   1.3525   1.4763   1.7022
     2.0927   2.2750   2.3475   2.3543   2.7096   2.9220   3.0074   3.1671
     3.1731   3.2484   3.2795   3.3055   3.3416   3.4954   3.6105   3.6593
     3.7356   3.7555   4.6843   4.7506   4.7664   4.8053   4.9057   4.9297
     4.9655   4.9951   5.0695   5.1162   5.1446   5.2668   5.6952   5.8640
     5.8924   5.9423   6.0131   6.0465   6.0775   6.1121

     occupation numbers 
     1.0000   1.0000   1.0000   1.0000   1.0000   1.0000   1.0000   1.0000
     1.0000   1.0000   1.0000   1.0000   1.0000   1.0000   1.0000   1.0000
     1.0000   1.0000   1.0000   1.0000   1.0000   1.0000   1.0000   1.0000
     1.0000   1.0000   1.0000   1.0000   1.0000   1.0000   1.0000   1.0000
     1.0000   1.0000   1.0000   1.0000   1.0000   1.0000   1.0000   1.0000
     1.0000   1.0000   1.0000   1.0000   1.0000   1.0000   1.0000   1.0000
     1.0000   1.0000   1.0000   1.0000   1.0000   1.0000   1.0000   1.0000
     1.0000   1.0000   1.0000   1.0000   1.0000   1.0000   1.0000   1.0000
     1.0000   1.0000   1.0000   1.0000   1.0000   1.0000   1.0000   1.0000
     1.0000   1.0000   1.0000   1.0000   1.0000   1.0000

          k =-0.0001 0.4644 0.0000 ( 43455 PWs)   bands (ev):

   -20.8148 -20.7974 -20.7933 -20.7762 -15.7477 -15.7476 -15.7391 -15.7390
   -15.7345 -15.7345 -15.6762 -15.6762 -15.6600 -15.6599  -7.2179  -6.9323
    -6.5666  -6.2800  -6.2586  -6.2311  -6.2048  -6.0497  -5.1254  -5.0061
    -4.9419  -4.9311  -4.8676  -4.8512  -4.8489  -4.8401  -4.8230  -4.7743
    -4.7732  -4.7505  -1.0534  -0.8843   1.2696   1.4432   1.6830   1.9444
     1.9803   2.1231   2.3269   2.5372   2.6022   3.0046   3.0135   3.0883
     3.2230   3.2564   3.2845   3.2914   3.3677   3.4214   3.5603   3.6593
     3.7532   3.7564   4.6028   4.6463   4.7142   4.8023   4.8430   4.8944
     4.9190   5.0528   5.0826   5.1781   5.1892   5.3466   5.6063   5.7480
     5.7721   5.8738   5.9282   6.0221   6.0456   6.1319

     occupation numbers 
     1.0000   1.0000   1.0000   1.0000   1.0000   1.0000   1.0000   1.0000
     1.0000   1.0000   1.0000   1.0000   1.0000   1.0000   1.0000   1.0000
     1.0000   1.0000   1.0000   1.0000   1.0000   1.0000   1.0000   1.0000
     1.0000   1.0000   1.0000   1.0000   1.0000   1.0000   1.0000   1.0000
     1.0000   1.0000   1.0000   1.0000   1.0000   1.0000   1.0000   1.0000
     1.0000   1.0000   1.0000   1.0000   1.0000   1.0000   1.0000   1.0000
     1.0000   1.0000   1.0000   1.0000   1.0000   1.0000   1.0000   1.0000
     1.0000   1.0000   1.0000   1.0000   1.0000   1.0000   1.0000   1.0000
     1.0000   1.0000   1.0000   1.0000   1.0000   1.0000   1.0000   1.0000
     1.0000   1.0000   1.0000   1.0000   1.0000   1.0000

          k = 0.0594 0.8660 0.2492 ( 43432 PWs)   bands (ev):

   -20.8010 -20.8008 -20.7894 -20.7892 -15.7477 -15.7477 -15.7392 -15.7392
   -15.7346 -15.7346 -15.6760 -15.6760 -15.6599 -15.6599  -7.0517  -6.9940
    -6.4802  -6.3904  -6.3008  -6.2417  -6.1889  -6.1378  -5.0253  -5.0205
    -4.9739  -4.9386  -4.9088  -4.8940  -4.8656  -4.8506  -4.8215  -4.7988
    -4.7326  -4.7265  -0.9635  -0.9074   1.1709   1.2957   1.6315   1.7672
     2.0804   2.2023   2.2602   2.2922   2.8142   2.9265   3.0500   3.1214
     3.1737   3.2104   3.2337   3.2742   3.3854   3.5127   3.6401   3.6789
     3.7130   3.7658   4.6982   4.7438   4.7638   4.8016   4.8965   4.9244
     4.9333   4.9691   5.1046   5.1441   5.1760   5.2502   5.7407   5.8553
     5.9042   5.9453   5.9861   6.0486   6.0747   6.1340

     occupation numbers 
     1.0000   1.0000   1.0000   1.0000   1.0000   1.0000   1.0000   1.0000
     1.0000   1.0000   1.0000   1.0000   1.0000   1.0000   1.0000   1.0000
     1.0000   1.0000   1.0000   1.0000   1.0000   1.0000   1.0000   1.0000
     1.0000   1.0000   1.0000   1.0000   1.0000   1.0000   1.0000   1.0000
     1.0000   1.0000   1.0000   1.0000   1.0000   1.0000   1.0000   1.0000
     1.0000   1.0000   1.0000   1.0000   1.0000   1.0000   1.0000   1.0000
     1.0000   1.0000   1.0000   1.0000   1.0000   1.0000   1.0000   1.0000
     1.0000   1.0000   1.0000   1.0000   1.0000   1.0000   1.0000   1.0000
     1.0000   1.0000   1.0000   1.0000   1.0000   1.0000   1.0000   1.0000
     1.0000   1.0000   1.0000   1.0000   1.0000   1.0000

          k =-0.1189-0.3388-0.4983 ( 43424 PWs)   bands (ev):

   -20.8092 -20.8091 -20.7818 -20.7816 -15.7477 -15.7477 -15.7391 -15.7390
   -15.7345 -15.7345 -15.6762 -15.6762 -15.6599 -15.6599  -7.1269  -7.1162
    -6.4155  -6.3426  -6.2513  -6.2179  -6.1651  -6.0640  -5.0662  -5.0499
    -4.9325  -4.9188  -4.9125  -4.8841  -4.8706  -4.8646  -4.8136  -4.7951
    -4.7423  -4.7384  -0.9927  -0.9495   1.4052   1.4695   1.5800   1.7167
     2.1571   2.2457   2.3586   2.4127   2.7333   2.8579   2.9615   3.0912
     3.1575   3.1898   3.2596   3.3515   3.3738   3.5432   3.6505   3.6842
     3.7040   3.7375   4.6019   4.6393   4.7490   4.7655   4.8461   4.8741
     4.9695   4.9836   5.1468   5.1699   5.2171   5.2758   5.6171   5.6713
     5.7656   5.8504   5.9477   5.9639   6.1755   6.2207

     occupation numbers 
     1.0000   1.0000   1.0000   1.0000   1.0000   1.0000   1.0000   1.0000
     1.0000   1.0000   1.0000   1.0000   1.0000   1.0000   1.0000   1.0000
     1.0000   1.0000   1.0000   1.0000   1.0000   1.0000   1.0000   1.0000
     1.0000   1.0000   1.0000   1.0000   1.0000   1.0000   1.0000   1.0000
     1.0000   1.0000   1.0000   1.0000   1.0000   1.0000   1.0000   1.0000
     1.0000   1.0000   1.0000   1.0000   1.0000   1.0000   1.0000   1.0000
     1.0000   1.0000   1.0000   1.0000   1.0000   1.0000   1.0000   1.0000
     1.0000   1.0000   1.0000   1.0000   1.0000   1.0000   1.0000   1.0000
     1.0000   1.0000   1.0000   1.0000   1.0000   1.0000   1.0000   1.0000
     1.0000   1.0000   1.0000   1.0000   1.0000   1.0000

          k =-0.0595 0.0628-0.2491 ( 43427 PWs)   bands (ev):

   -20.8200 -20.8058 -20.7856 -20.7716 -15.7477 -15.7476 -15.7389 -15.7388
   -15.7344 -15.7344 -15.6764 -15.6764 -15.6600 -15.6599  -7.2722  -7.0676
    -6.5345  -6.2873  -6.2201  -6.1795  -6.1001  -5.9502  -5.1462  -5.0913
    -4.9920  -4.9561  -4.8853  -4.8478  -4.8298  -4.8249  -4.7855  -4.7732
    -4.7665  -4.7113  -1.0766  -0.9284   1.5279   1.6430   1.7672   1.9229
     1.9831   2.0401   2.2515   2.6430   2.7803   2.8365   2.9705   3.1247
     3.1552   3.1771   3.3229   3.3369   3.4813   3.5074   3.5280   3.6122
     3.6903   3.7498   4.4930   4.5281   4.7537   4.7600   4.7826   4.8609
     4.8743   5.0015   5.2167   5.2680   5.2895   5.3119   5.3907   5.4917
     5.6893   5.8301   5.9576   5.9933   6.1122   6.1624

     occupation numbers 
     1.0000   1.0000   1.0000   1.0000   1.0000   1.0000   1.0000   1.0000
     1.0000   1.0000   1.0000   1.0000   1.0000   1.0000   1.0000   1.0000
     1.0000   1.0000   1.0000   1.0000   1.0000   1.0000   1.0000   1.0000
     1.0000   1.0000   1.0000   1.0000   1.0000   1.0000   1.0000   1.0000
     1.0000   1.0000   1.0000   1.0000   1.0000   1.0000   1.0000   1.0000
     1.0000   1.0000   1.0000   1.0000   1.0000   1.0000   1.0000   1.0000
     1.0000   1.0000   1.0000   1.0000   1.0000   1.0000   1.0000   1.0000
     1.0000   1.0000   1.0000   1.0000   1.0000   1.0000   1.0000   1.0000
     1.0000   1.0000   1.0000   1.0000   1.0000   1.0000   1.0000   1.0000
     1.0000   1.0000   1.0000   1.0000   1.0000   1.0000

          k = 0.0001-0.9288-0.0001 ( 43450 PWs)   bands (ev):

   -20.8010 -20.8008 -20.7894 -20.7892 -15.7477 -15.7477 -15.7392 -15.7392
   -15.7346 -15.7346 -15.6760 -15.6760 -15.6599 -15.6599  -7.0250  -7.0249
    -6.4482  -6.4474  -6.2247  -6.2246  -6.1948  -6.1942  -5.0294  -5.0292
    -4.9547  -4.9545  -4.9031  -4.9029  -4.8486  -4.8485  -4.8270  -4.8269
    -4.7166  -4.7165  -0.9364  -0.9363   1.2012   1.2017   1.8921   1.8923
     1.9761   1.9769   2.2385   2.2386   2.9524   2.9528   3.0520   3.0527
     3.1538   3.1547   3.2382   3.2385   3.4729   3.4735   3.6792   3.6796
     3.7358   3.7366   4.7256   4.7263   4.7786   4.7791   4.8953   4.8956
     4.9384   4.9384   5.1626   5.1626   5.2050   5.2051   5.8253   5.8255
     5.8984   5.8986   6.0324   6.0325   6.1109   6.1114

     occupation numbers 
     1.0000   1.0000   1.0000   1.0000   1.0000   1.0000   1.0000   1.0000
     1.0000   1.0000   1.0000   1.0000   1.0000   1.0000   1.0000   1.0000
     1.0000   1.0000   1.0000   1.0000   1.0000   1.0000   1.0000   1.0000
     1.0000   1.0000   1.0000   1.0000   1.0000   1.0000   1.0000   1.0000
     1.0000   1.0000   1.0000   1.0000   1.0000   1.0000   1.0000   1.0000
     1.0000   1.0000   1.0000   1.0000   1.0000   1.0000   1.0000   1.0000
     1.0000   1.0000   1.0000   1.0000   1.0000   1.0000   1.0000   1.0000
     1.0000   1.0000   1.0000   1.0000   1.0000   1.0000   1.0000   1.0000
     1.0000   1.0000   1.0000   1.0000   1.0000   1.0000   1.0000   1.0000
     1.0000   1.0000   1.0000   1.0000   1.0000   1.0000

          k = 0.0595-0.5272 0.2491 ( 43437 PWs)   bands (ev):

   -20.8134 -20.8030 -20.7877 -20.7776 -15.7477 -15.7476 -15.7391 -15.7390
   -15.7345 -15.7345 -15.6762 -15.6762 -15.6600 -15.6599  -7.1960  -7.0195
    -6.5223  -6.2752  -6.2434  -6.2181  -6.1387  -6.0827  -5.1011  -5.0260
    -4.9512  -4.9392  -4.8792  -4.8695  -4.8601  -4.8557  -4.8303  -4.7846
    -4.7527  -4.7420  -1.0171  -0.9258   1.3687   1.4330   1.6608   1.7902
     2.0728   2.2227   2.3215   2.5264   2.5844   2.9577   2.9910   3.0480
     3.1732   3.2306   3.2728   3.3330   3.3681   3.5001   3.6337   3.6437
     3.7282   3.7824   4.6128   4.6267   4.7171   4.7961   4.8540   4.8780
     4.9372   5.0156   5.1135   5.1802   5.2257   5.2864   5.6024   5.7097
     5.8054   5.8507   5.9315   5.9579   6.1439   6.1669

     occupation numbers 
     1.0000   1.0000   1.0000   1.0000   1.0000   1.0000   1.0000   1.0000
     1.0000   1.0000   1.0000   1.0000   1.0000   1.0000   1.0000   1.0000
     1.0000   1.0000   1.0000   1.0000   1.0000   1.0000   1.0000   1.0000
     1.0000   1.0000   1.0000   1.0000   1.0000   1.0000   1.0000   1.0000
     1.0000   1.0000   1.0000   1.0000   1.0000   1.0000   1.0000   1.0000
     1.0000   1.0000   1.0000   1.0000   1.0000   1.0000   1.0000   1.0000
     1.0000   1.0000   1.0000   1.0000   1.0000   1.0000   1.0000   1.0000
     1.0000   1.0000   1.0000   1.0000   1.0000   1.0000   1.0000   1.0000
     1.0000   1.0000   1.0000   1.0000   1.0000   1.0000   1.0000   1.0000
     1.0000   1.0000   1.0000   1.0000   1.0000   1.0000

          k =-0.1187-1.7319-0.4984 ( 43432 PWs)   bands (ev):

   -20.8144 -20.8142 -20.7773 -20.7771 -15.7477 -15.7477 -15.7389 -15.7389
   -15.7344 -15.7344 -15.6764 -15.6764 -15.6600 -15.6600  -7.1996  -7.1993
    -6.3598  -6.3597  -6.2207  -6.2205  -6.0127  -6.0126  -5.0890  -5.0889
    -5.0196  -5.0194  -4.8530  -4.8529  -4.8283  -4.8282  -4.7865  -4.7863
    -4.7480  -4.7479  -1.0060  -1.0059   1.6468   1.6470   1.7555   1.7556
     2.0270   2.0271   2.5098   2.5100   2.8323   2.8324   2.9346   2.9351
     3.1543   3.1543   3.3462   3.3466   3.5392   3.5392   3.6184   3.6186
     3.6873   3.6876   4.5068   4.5073   4.7577   4.7583   4.8657   4.8663
     4.8762   4.8766   5.2695   5.2700   5.2838   5.2844   5.4261   5.4266
     5.7663   5.7665   5.9761   5.9766   6.1025   6.1028

     occupation numbers 
     1.0000   1.0000   1.0000   1.0000   1.0000   1.0000   1.0000   1.0000
     1.0000   1.0000   1.0000   1.0000   1.0000   1.0000   1.0000   1.0000
     1.0000   1.0000   1.0000   1.0000   1.0000   1.0000   1.0000   1.0000
     1.0000   1.0000   1.0000   1.0000   1.0000   1.0000   1.0000   1.0000
     1.0000   1.0000   1.0000   1.0000   1.0000   1.0000   1.0000   1.0000
     1.0000   1.0000   1.0000   1.0000   1.0000   1.0000   1.0000   1.0000
     1.0000   1.0000   1.0000   1.0000   1.0000   1.0000   1.0000   1.0000
     1.0000   1.0000   1.0000   1.0000   1.0000   1.0000   1.0000   1.0000
     1.0000   1.0000   1.0000   1.0000   1.0000   1.0000   1.0000   1.0000
     1.0000   1.0000   1.0000   1.0000   1.0000   1.0000

          k =-0.5122-0.1256 0.0003 ( 43432 PWs)   bands (ev):

   -20.8144 -20.8142 -20.7773 -20.7771 -15.7477 -15.7477 -15.7389 -15.7389
   -15.7344 -15.7344 -15.6764 -15.6764 -15.6600 -15.6600  -7.1995  -7.1993
    -6.3597  -6.3596  -6.2209  -6.2207  -6.0129  -6.0127  -5.0889  -5.0889
    -5.0196  -5.0194  -4.8530  -4.8529  -4.8283  -4.8282  -4.7865  -4.7863
    -4.7478  -4.7477  -1.0060  -1.0059   1.6467   1.6469   1.7555   1.7556
     2.0270   2.0271   2.5098   2.5099   2.8323   2.8324   2.9346   2.9352
     3.1544   3.1545   3.3464   3.3466   3.5391   3.5393   3.6182   3.6183
     3.6873   3.6876   4.5068   4.5073   4.7577   4.7583   4.8658   4.8665
     4.8760   4.8764   5.2695   5.2701   5.2839   5.2843   5.4260   5.4264
     5.7664   5.7669   5.9763   5.9764   6.1023   6.1027

     occupation numbers 
     1.0000   1.0000   1.0000   1.0000   1.0000   1.0000   1.0000   1.0000
     1.0000   1.0000   1.0000   1.0000   1.0000   1.0000   1.0000   1.0000
     1.0000   1.0000   1.0000   1.0000   1.0000   1.0000   1.0000   1.0000
     1.0000   1.0000   1.0000   1.0000   1.0000   1.0000   1.0000   1.0000
     1.0000   1.0000   1.0000   1.0000   1.0000   1.0000   1.0000   1.0000
     1.0000   1.0000   1.0000   1.0000   1.0000   1.0000   1.0000   1.0000
     1.0000   1.0000   1.0000   1.0000   1.0000   1.0000   1.0000   1.0000
     1.0000   1.0000   1.0000   1.0000   1.0000   1.0000   1.0000   1.0000
     1.0000   1.0000   1.0000   1.0000   1.0000   1.0000   1.0000   1.0000
     1.0000   1.0000   1.0000   1.0000   1.0000   1.0000

          k =-0.4528 0.2760 0.2495 ( 43437 PWs)   bands (ev):

   -20.8134 -20.8030 -20.7877 -20.7776 -15.7477 -15.7476 -15.7391 -15.7390
   -15.7345 -15.7345 -15.6762 -15.6762 -15.6600 -15.6599  -7.1960  -7.0195
    -6.5223  -6.2750  -6.2438  -6.2181  -6.1387  -6.0828  -5.1011  -5.0260
    -4.9512  -4.9393  -4.8792  -4.8694  -4.8601  -4.8558  -4.8302  -4.7845
    -4.7527  -4.7420  -1.0171  -0.9258   1.3685   1.4331   1.6607   1.7903
     2.0728   2.2225   2.3214   2.5264   2.5846   2.9579   2.9913   3.0477
     3.1727   3.2305   3.2733   3.3329   3.3682   3.4999   3.6341   3.6435
     3.7285   3.7820   4.6134   4.6262   4.7171   4.7962   4.8538   4.8779
     4.9372   5.0156   5.1135   5.1803   5.2257   5.2864   5.6024   5.7096
     5.8056   5.8507   5.9316   5.9576   6.1439   6.1670

     occupation numbers 
     1.0000   1.0000   1.0000   1.0000   1.0000   1.0000   1.0000   1.0000
     1.0000   1.0000   1.0000   1.0000   1.0000   1.0000   1.0000   1.0000
     1.0000   1.0000   1.0000   1.0000   1.0000   1.0000   1.0000   1.0000
     1.0000   1.0000   1.0000   1.0000   1.0000   1.0000   1.0000   1.0000
     1.0000   1.0000   1.0000   1.0000   1.0000   1.0000   1.0000   1.0000
     1.0000   1.0000   1.0000   1.0000   1.0000   1.0000   1.0000   1.0000
     1.0000   1.0000   1.0000   1.0000   1.0000   1.0000   1.0000   1.0000
     1.0000   1.0000   1.0000   1.0000   1.0000   1.0000   1.0000   1.0000
     1.0000   1.0000   1.0000   1.0000   1.0000   1.0000   1.0000   1.0000
     1.0000   1.0000   1.0000   1.0000   1.0000   1.0000

          k =-0.6310-0.9287-0.4980 ( 43450 PWs)   bands (ev):

   -20.8010 -20.8008 -20.7894 -20.7892 -15.7477 -15.7477 -15.7392 -15.7392
   -15.7346 -15.7346 -15.6760 -15.6760 -15.6599 -15.6599  -7.0250  -7.0248
    -6.4482  -6.4476  -6.2245  -6.2245  -6.1948  -6.1944  -5.0294  -5.0293
    -4.9547  -4.9545  -4.9030  -4.9029  -4.8486  -4.8485  -4.8270  -4.8269
    -4.7166  -4.7165  -0.9364  -0.9363   1.2011   1.2016   1.8921   1.8923
     1.9761   1.9770   2.2384   2.2386   2.9525   2.9530   3.0520   3.0525
     3.1536   3.1544   3.2382   3.2386   3.4730   3.4736   3.6793   3.6797
     3.7358   3.7366   4.7256   4.7262   4.7788   4.7794   4.8952   4.8954
     4.9383   4.9384   5.1625   5.1626   5.2050   5.2051   5.8250   5.8251
     5.8988   5.8989   6.0322   6.0325   6.1111   6.1114

     occupation numbers 
     1.0000   1.0000   1.0000   1.0000   1.0000   1.0000   1.0000   1.0000
     1.0000   1.0000   1.0000   1.0000   1.0000   1.0000   1.0000   1.0000
     1.0000   1.0000   1.0000   1.0000   1.0000   1.0000   1.0000   1.0000
     1.0000   1.0000   1.0000   1.0000   1.0000   1.0000   1.0000   1.0000
     1.0000   1.0000   1.0000   1.0000   1.0000   1.0000   1.0000   1.0000
     1.0000   1.0000   1.0000   1.0000   1.0000   1.0000   1.0000   1.0000
     1.0000   1.0000   1.0000   1.0000   1.0000   1.0000   1.0000   1.0000
     1.0000   1.0000   1.0000   1.0000   1.0000   1.0000   1.0000   1.0000
     1.0000   1.0000   1.0000   1.0000   1.0000   1.0000   1.0000   1.0000
     1.0000   1.0000   1.0000   1.0000   1.0000   1.0000

          k =-0.5122 0.3388 0.0004 ( 43424 PWs)   bands (ev):

   -20.8092 -20.8091 -20.7818 -20.7816 -15.7477 -15.7477 -15.7391 -15.7390
   -15.7345 -15.7345 -15.6762 -15.6762 -15.6599 -15.6599  -7.1269  -7.1162
    -6.4154  -6.3423  -6.2516  -6.2180  -6.1651  -6.0642  -5.0663  -5.0498
    -4.9325  -4.9189  -4.9125  -4.8841  -4.8706  -4.8646  -4.8136  -4.7949
    -4.7423  -4.7384  -0.9927  -0.9495   1.4053   1.4693   1.5799   1.7168
     2.1571   2.2456   2.3586   2.4126   2.7335   2.8582   2.9616   3.0911
     3.1574   3.1893   3.2599   3.3516   3.3738   3.5432   3.6507   3.6849
     3.7034   3.7372   4.6019   4.6394   4.7490   4.7655   4.8461   4.8740
     4.9694   4.9838   5.1470   5.1697   5.2170   5.2759   5.6171   5.6713
     5.7657   5.8507   5.9474   5.9640   6.1753   6.2208

     occupation numbers 
     1.0000   1.0000   1.0000   1.0000   1.0000   1.0000   1.0000   1.0000
     1.0000   1.0000   1.0000   1.0000   1.0000   1.0000   1.0000   1.0000
     1.0000   1.0000   1.0000   1.0000   1.0000   1.0000   1.0000   1.0000
     1.0000   1.0000   1.0000   1.0000   1.0000   1.0000   1.0000   1.0000
     1.0000   1.0000   1.0000   1.0000   1.0000   1.0000   1.0000   1.0000
     1.0000   1.0000   1.0000   1.0000   1.0000   1.0000   1.0000   1.0000
     1.0000   1.0000   1.0000   1.0000   1.0000   1.0000   1.0000   1.0000
     1.0000   1.0000   1.0000   1.0000   1.0000   1.0000   1.0000   1.0000
     1.0000   1.0000   1.0000   1.0000   1.0000   1.0000   1.0000   1.0000
     1.0000   1.0000   1.0000   1.0000   1.0000   1.0000

          k =-0.4528 0.7404 0.2495 ( 43432 PWs)   bands (ev):

   -20.8010 -20.8008 -20.7894 -20.7892 -15.7477 -15.7477 -15.7392 -15.7392
   -15.7346 -15.7346 -15.6760 -15.6760 -15.6599 -15.6599  -7.0516  -6.9940
    -6.4803  -6.3904  -6.3008  -6.2415  -6.1887  -6.1379  -5.0254  -5.0204
    -4.9741  -4.9384  -4.9088  -4.8940  -4.8655  -4.8506  -4.8215  -4.7989
    -4.7326  -4.7265  -0.9635  -0.9074   1.1709   1.2956   1.6313   1.7674
     2.0805   2.2021   2.2603   2.2922   2.8142   2.9266   3.0500   3.1214
     3.1737   3.2101   3.2336   3.2742   3.3855   3.5128   3.6401   3.6790
     3.7129   3.7658   4.6982   4.7438   4.7639   4.8017   4.8965   4.9243
     4.9332   4.9690   5.1046   5.1441   5.1760   5.2503   5.7405   5.8553
     5.9046   5.9455   5.9859   6.0483   6.0747   6.1341

     occupation numbers 
     1.0000   1.0000   1.0000   1.0000   1.0000   1.0000   1.0000   1.0000
     1.0000   1.0000   1.0000   1.0000   1.0000   1.0000   1.0000   1.0000
     1.0000   1.0000   1.0000   1.0000   1.0000   1.0000   1.0000   1.0000
     1.0000   1.0000   1.0000   1.0000   1.0000   1.0000   1.0000   1.0000
     1.0000   1.0000   1.0000   1.0000   1.0000   1.0000   1.0000   1.0000
     1.0000   1.0000   1.0000   1.0000   1.0000   1.0000   1.0000   1.0000
     1.0000   1.0000   1.0000   1.0000   1.0000   1.0000   1.0000   1.0000
     1.0000   1.0000   1.0000   1.0000   1.0000   1.0000   1.0000   1.0000
     1.0000   1.0000   1.0000   1.0000   1.0000   1.0000   1.0000   1.0000
     1.0000   1.0000   1.0000   1.0000   1.0000   1.0000

          k =-0.6311-0.4643-0.4980 ( 43453 PWs)   bands (ev):

   -20.8148 -20.7974 -20.7933 -20.7762 -15.7477 -15.7476 -15.7391 -15.7390
   -15.7345 -15.7345 -15.6762 -15.6762 -15.6600 -15.6598  -7.2269  -6.9795
    -6.6238  -6.2379  -6.2004  -6.1412  -6.1350  -6.0947  -5.1214  -5.0285
    -4.9803  -4.9643  -4.8760  -4.8696  -4.8534  -4.8502  -4.8115  -4.7902
    -4.7733  -4.7411  -1.0195  -0.9295   1.3920   1.4002   1.7783   1.8643
     1.9902   2.2228   2.2710   2.5261   2.5718   2.9019   2.9999   3.0651
     3.1635   3.1867   3.2619   3.3299   3.3999   3.5552   3.5936   3.6260
     3.7071   3.8967   4.5999   4.6312   4.6895   4.8262   4.8562   4.8798
     4.9426   5.0159   5.0765   5.1905   5.2572   5.2712   5.5663   5.7169
     5.7655   5.9362   5.9492   5.9908   6.0584   6.1429

     occupation numbers 
     1.0000   1.0000   1.0000   1.0000   1.0000   1.0000   1.0000   1.0000
     1.0000   1.0000   1.0000   1.0000   1.0000   1.0000   1.0000   1.0000
     1.0000   1.0000   1.0000   1.0000   1.0000   1.0000   1.0000   1.0000
     1.0000   1.0000   1.0000   1.0000   1.0000   1.0000   1.0000   1.0000
     1.0000   1.0000   1.0000   1.0000   1.0000   1.0000   1.0000   1.0000
     1.0000   1.0000   1.0000   1.0000   1.0000   1.0000   1.0000   1.0000
     1.0000   1.0000   1.0000   1.0000   1.0000   1.0000   1.0000   1.0000
     1.0000   1.0000   1.0000   1.0000   1.0000   1.0000   1.0000   1.0000
     1.0000   1.0000   1.0000   1.0000   1.0000   1.0000   1.0000   1.0000
     1.0000   1.0000   1.0000   1.0000   1.0000   1.0000

          k =-0.5717-0.0628-0.2488 ( 43489 PWs)   bands (ev):

   -20.8199 -20.8059 -20.7856 -20.7716 -15.7477 -15.7476 -15.7389 -15.7388
   -15.7344 -15.7344 -15.6764 -15.6764 -15.6601 -15.6599  -7.3088  -7.0638
    -6.5593  -6.2066  -6.1881  -6.1818  -6.0395  -5.9944  -5.1409  -5.0968
    -4.9908  -4.9756  -4.8833  -4.8742  -4.8281  -4.8213  -4.7888  -4.7741
    -4.7646  -4.7608  -1.0640  -0.9582   1.5956   1.6217   1.7524   1.9294
     2.0007   2.1006   2.4401   2.6265   2.6461   2.7701   2.9444   3.0803
     3.1237   3.2042   3.2622   3.3776   3.3997   3.5163   3.5360   3.6381
     3.6484   3.9680   4.4924   4.5175   4.7514   4.7636   4.7954   4.8441
     4.9078   4.9812   5.2118   5.2620   5.2925   5.3301   5.3327   5.4926
     5.5942   5.8682   5.9469   6.0166   6.1058   6.1426

     occupation numbers 
     1.0000   1.0000   1.0000   1.0000   1.0000   1.0000   1.0000   1.0000
     1.0000   1.0000   1.0000   1.0000   1.0000   1.0000   1.0000   1.0000
     1.0000   1.0000   1.0000   1.0000   1.0000   1.0000   1.0000   1.0000
     1.0000   1.0000   1.0000   1.0000   1.0000   1.0000   1.0000   1.0000
     1.0000   1.0000   1.0000   1.0000   1.0000   1.0000   1.0000   1.0000
     1.0000   1.0000   1.0000   1.0000   1.0000   1.0000   1.0000   1.0000
     1.0000   1.0000   1.0000   1.0000   1.0000   1.0000   1.0000   1.0000
     1.0000   1.0000   1.0000   1.0000   1.0000   1.0000   1.0000   1.0000
     1.0000   1.0000   1.0000   1.0000   1.0000   1.0000   1.0000   1.0000
     1.0000   1.0000   1.0000   1.0000   1.0000   1.0000

          k =-0.5121-1.0543 0.0003 ( 43366 PWs)   bands (ev):

   -20.8010 -20.8008 -20.7894 -20.7892 -15.7477 -15.7477 -15.7392 -15.7392
   -15.7346 -15.7346 -15.6760 -15.6760 -15.6599 -15.6599  -7.0628  -6.9782
    -6.4792  -6.3570  -6.3405  -6.2894  -6.1683  -6.1098  -5.0245  -5.0133
    -4.9976  -4.9197  -4.9016  -4.8871  -4.8738  -4.8631  -4.7913  -4.7829
    -4.7619  -4.7402  -0.9743  -0.8950   1.1997   1.3524   1.4761   1.7025
     2.0927   2.2750   2.3473   2.3544   2.7096   2.9221   3.0075   3.1672
     3.1730   3.2485   3.2796   3.3054   3.3415   3.4955   3.6105   3.6594
     3.7357   3.7554   4.6843   4.7506   4.7663   4.8054   4.9058   4.9298
     4.9653   4.9951   5.0694   5.1163   5.1446   5.2669   5.6950   5.8643
     5.8927   5.9423   6.0127   6.0463   6.0774   6.1122

     occupation numbers 
     1.0000   1.0000   1.0000   1.0000   1.0000   1.0000   1.0000   1.0000
     1.0000   1.0000   1.0000   1.0000   1.0000   1.0000   1.0000   1.0000
     1.0000   1.0000   1.0000   1.0000   1.0000   1.0000   1.0000   1.0000
     1.0000   1.0000   1.0000   1.0000   1.0000   1.0000   1.0000   1.0000
     1.0000   1.0000   1.0000   1.0000   1.0000   1.0000   1.0000   1.0000
     1.0000   1.0000   1.0000   1.0000   1.0000   1.0000   1.0000   1.0000
     1.0000   1.0000   1.0000   1.0000   1.0000   1.0000   1.0000   1.0000
     1.0000   1.0000   1.0000   1.0000   1.0000   1.0000   1.0000   1.0000
     1.0000   1.0000   1.0000   1.0000   1.0000   1.0000   1.0000   1.0000
     1.0000   1.0000   1.0000   1.0000   1.0000   1.0000

          k =-0.4527-0.6527 0.2494 ( 43437 PWs)   bands (ev):

   -20.8133 -20.8030 -20.7877 -20.7776 -15.7477 -15.7476 -15.7391 -15.7390
   -15.7345 -15.7345 -15.6762 -15.6762 -15.6600 -15.6599  -7.1988  -7.0410
    -6.5618  -6.2411  -6.1928  -6.1742  -6.1677  -6.0652  -5.1027  -5.0388
    -4.9774  -4.9519  -4.8845  -4.8659  -4.8612  -4.8463  -4.8413  -4.7974
    -4.7525  -4.7373  -0.9909  -0.9575   1.3949   1.4543   1.7017   1.7562
     2.1060   2.2385   2.3330   2.4941   2.5419   2.8816   3.0723   3.0896
     3.0965   3.1835   3.2681   3.2780   3.3969   3.5549   3.6196   3.6718
     3.7013   3.8680   4.5927   4.6404   4.7028   4.8097   4.8616   4.8770
     4.9511   4.9987   5.1007   5.1913   5.2378   5.2698   5.5653   5.7055
     5.7422   5.8974   5.9538   5.9804   6.1287   6.1894

     occupation numbers 
     1.0000   1.0000   1.0000   1.0000   1.0000   1.0000   1.0000   1.0000
     1.0000   1.0000   1.0000   1.0000   1.0000   1.0000   1.0000   1.0000
     1.0000   1.0000   1.0000   1.0000   1.0000   1.0000   1.0000   1.0000
     1.0000   1.0000   1.0000   1.0000   1.0000   1.0000   1.0000   1.0000
     1.0000   1.0000   1.0000   1.0000   1.0000   1.0000   1.0000   1.0000
     1.0000   1.0000   1.0000   1.0000   1.0000   1.0000   1.0000   1.0000
     1.0000   1.0000   1.0000   1.0000   1.0000   1.0000   1.0000   1.0000
     1.0000   1.0000   1.0000   1.0000   1.0000   1.0000   1.0000   1.0000
     1.0000   1.0000   1.0000   1.0000   1.0000   1.0000   1.0000   1.0000
     1.0000   1.0000   1.0000   1.0000   1.0000   1.0000

          k =-0.6309-1.8575-0.4981 ( 43494 PWs)   bands (ev):

   -20.8219 -20.7974 -20.7940 -20.7697 -15.7478 -15.7476 -15.7389 -15.7388
   -15.7344 -15.7344 -15.6764 -15.6764 -15.6601 -15.6598  -7.3506  -6.9811
    -6.6697  -6.1886  -6.1237  -6.1066  -6.0958  -5.9827  -5.1704  -5.1065
    -4.9391  -4.9334  -4.9303  -4.9174  -4.8178  -4.8168  -4.8011  -4.7893
    -4.7648  -4.7645  -1.0939  -0.9387   1.5833   1.5837   1.8145   2.0035
     2.0330   2.1437   2.4238   2.5072   2.7261   2.8042   2.8199   3.0268
     3.1230   3.2218   3.2920   3.3681   3.4154   3.4551   3.5354   3.6430
     3.6543   4.0830   4.4865   4.5157   4.7488   4.7511   4.7758   4.8367
     4.9337   5.0647   5.1872   5.1999   5.2660   5.3454   5.3566   5.5105
     5.5205   5.8579   5.9931   5.9995   6.1327   6.1529

     occupation numbers 
     1.0000   1.0000   1.0000   1.0000   1.0000   1.0000   1.0000   1.0000
     1.0000   1.0000   1.0000   1.0000   1.0000   1.0000   1.0000   1.0000
     1.0000   1.0000   1.0000   1.0000   1.0000   1.0000   1.0000   1.0000
     1.0000   1.0000   1.0000   1.0000   1.0000   1.0000   1.0000   1.0000
     1.0000   1.0000   1.0000   1.0000   1.0000   1.0000   1.0000   1.0000
     1.0000   1.0000   1.0000   1.0000   1.0000   1.0000   1.0000   1.0000
     1.0000   1.0000   1.0000   1.0000   1.0000   1.0000   1.0000   1.0000
     1.0000   1.0000   1.0000   1.0000   1.0000   1.0000   1.0000   1.0000
     1.0000   1.0000   1.0000   1.0000   1.0000   1.0000   1.0000   1.0000
     1.0000   1.0000   1.0000   1.0000   1.0000   1.0000

     highest occupied level (ev):     6.2208

!    total energy              =   -1568.23806755 Ry
     estimated scf accuracy    <          6.2E-12 Ry

     The total energy is the sum of the following terms:
     one-electron contribution =    -586.28496074 Ry
     hartree contribution      =     401.39377526 Ry
     xc contribution           =    -371.69353892 Ry
     ewald contribution        =    -652.39128122 Ry
     one-center paw contrib.   =    -359.26206193 Ry
      -> PAW hartree energy AE =       0.00000000 Ry
      -> PAW hartree energy PS =       0.00000000 Ry
      -> PAW xc energy AE      =       0.00000000 Ry
      -> PAW xc energy PS      =       0.00000000 Ry
      -> total E_H with PAW    =     401.39377526 Ry
      -> total E_XC with PAW   =    -371.69353892 Ry

     convergence has been achieved in  10 iterations

     Forces acting on atoms (cartesian axes, Ry/au):

     atom    1 type  2   force =     0.00006248    0.00002378    0.00006234
     atom    2 type  2   force =    -0.00006248   -0.00002378   -0.00006234
     atom    3 type  2   force =    -0.00007038    0.00002204   -0.00004461
     atom    4 type  2   force =     0.00007038   -0.00002204    0.00004461
     atom    5 type  1   force =    -0.00016887    0.00000419   -0.00016522
     atom    6 type  1   force =     0.00016887   -0.00000419    0.00016522
     atom    7 type  1   force =     0.00017786   -0.00000293    0.00016913
     atom    8 type  1   force =    -0.00017786    0.00000293   -0.00016913
     atom    9 type  4   force =     0.00000283    0.00000342    0.00000383
     atom   10 type  4   force =    -0.00000283   -0.00000342   -0.00000383
     atom   11 type  3   force =     0.00001670    0.00032880    0.00023652
     atom   12 type  3   force =    -0.00001670   -0.00032880   -0.00023652
     atom   13 type  3   force =    -0.00004595   -0.00036438   -0.00015714
     atom   14 type  3   force =     0.00004595    0.00036438    0.00015714
     atom   15 type  3   force =    -0.00018914    0.00036397   -0.00001907
     atom   16 type  3   force =     0.00018914   -0.00036397    0.00001907
     atom   17 type  3   force =     0.00021241   -0.00032731   -0.00005709
     atom   18 type  3   force =    -0.00021241    0.00032731    0.00005709
     The non-local contrib.  to forces
     atom    1 type  2   force =    -0.00101063   -0.00525300   -0.00342976
     atom    2 type  2   force =     0.00101063    0.00525300    0.00342976
     atom    3 type  2   force =     0.00355547   -0.00524319    0.00016300
     atom    4 type  2   force =    -0.00355547    0.00524319   -0.00016300
     atom    5 type  1   force =    -0.06896301   -0.00008226   -0.05404385
     atom    6 type  1   force =     0.06896301    0.00008226    0.05404385
     atom    7 type  1   force =     0.06902554    0.00015384    0.05433946
     atom    8 type  1   force =    -0.06902554   -0.00015384   -0.05433946
     atom    9 type  4   force =     0.00004416   -0.00017975   -0.00002752
     atom   10 type  4   force =    -0.00004416    0.00017975    0.00002752
     atom   11 type  3   force =     0.12287812    0.12834481   -0.12568926
     atom   12 type  3   force =    -0.12287812   -0.12834481    0.12568926
     atom   13 type  3   force =     0.11872789    0.02586838   -0.18045949
     atom   14 type  3   force =    -0.11872789   -0.02586838    0.18045949
     atom   15 type  3   force =    -0.14795294   -0.02582133    0.15765580
     atom   16 type  3   force =     0.14795294    0.02582133   -0.15765580
     atom   17 type  3   force =    -0.09368956   -0.12823943    0.14865330
     atom   18 type  3   force =     0.09368956    0.12823943   -0.14865330
     The ionic contribution  to forces
     atom    1 type  2   force =    -0.78060552   -0.44994149   -0.84111310
     atom    2 type  2   force =     0.78060552    0.44994149    0.84111310
     atom    3 type  2   force =     0.99941373   -0.44906406    0.56235384
     atom    4 type  2   force =    -0.99941373    0.44906406   -0.56235384
     atom    5 type  1   force =     2.94979482   -0.00290289    2.32322639
     atom    6 type  1   force =    -2.94979482    0.00290289   -2.32322639
     atom    7 type  1   force =    -2.94662698   -0.00593313   -2.32381320
     atom    8 type  1   force =     2.94662698    0.00593313    2.32381320
     atom    9 type  4   force =    -0.00182480   -0.00035353    0.00084435
     atom   10 type  4   force =     0.00182480    0.00035353   -0.00084435
     atom   11 type  3   force =    -3.26562718   -4.80347950    7.49448791
     atom   12 type  3   force =     3.26562718    4.80347950   -7.49448791
     atom   13 type  3   force =    -7.23441874   -1.90529509    5.82090962
     atom   14 type  3   force =     7.23441874    1.90529509   -5.82090962
     atom   15 type  3   force =     3.97583018    1.90454432   -8.39450889
     atom   16 type  3   force =    -3.97583018   -1.90454432    8.39450889
     atom   17 type  3   force =     6.52476652    4.80081816   -4.92222837
     atom   18 type  3   force =    -6.52476652   -4.80081816    4.92222837
     The local contribution  to forces
     atom    1 type  2   force =     0.78168042    0.45521797    0.84460589
     atom    2 type  2   force =    -0.78168042   -0.45521797   -0.84460589
     atom    3 type  2   force =    -1.00304065    0.45432898   -0.56256298
     atom    4 type  2   force =     1.00304065   -0.45432898    0.56256298
     atom    5 type  1   force =    -2.88260701    0.00299111   -2.27056616
     atom    6 type  1   force =     2.88260701   -0.00299111    2.27056616
     atom    7 type  1   force =     2.87936629    0.00580402    2.27089675
     atom    8 type  1   force =    -2.87936629   -0.00580402   -2.27089675
     atom    9 type  4   force =     0.00178445    0.00052619   -0.00081042
     atom   10 type  4   force =    -0.00178445   -0.00052619    0.00081042
     atom   11 type  3   force =     3.14933692    4.68233946   -7.37551341
     atom   12 type  3   force =    -3.14933692   -4.68233946    7.37551341
     atom   13 type  3   force =     7.12219328    1.88055993   -5.65027929
     atom   14 type  3   force =    -7.12219328   -1.88055993    5.65027929
     atom   15 type  3   force =    -3.83595295   -1.87985409    8.24546422
     atom   16 type  3   force =     3.83595295    1.87985409   -8.24546422
     atom   17 type  3   force =    -6.43609845   -4.67977616    4.78152069
     atom   18 type  3   force =     6.43609845    4.67977616   -4.78152069
     The core correction contribution to forces
     atom    1 type  2   force =     0.00000000    0.00000000    0.00000000
     atom    2 type  2   force =     0.00000000    0.00000000    0.00000000
     atom    3 type  2   force =     0.00000000    0.00000000    0.00000000
     atom    4 type  2   force =     0.00000000    0.00000000    0.00000000
     atom    5 type  1   force =     0.00160630   -0.00000175    0.00121848
     atom    6 type  1   force =    -0.00160630    0.00000175   -0.00121848
     atom    7 type  1   force =    -0.00158681   -0.00002757   -0.00125381
     atom    8 type  1   force =     0.00158681    0.00002757    0.00125381
     atom    9 type  4   force =    -0.00000025    0.00000938   -0.00000162
     atom   10 type  4   force =     0.00000025   -0.00000938    0.00000162
     atom   11 type  3   force =    -0.00657273   -0.00687665    0.00695119
     atom   12 type  3   force =     0.00657273    0.00687665   -0.00695119
     atom   13 type  3   force =    -0.00654742   -0.00149756    0.00967381
     atom   14 type  3   force =     0.00654742    0.00149756   -0.00967381
     atom   15 type  3   force =     0.00788855    0.00149501   -0.00862970
     atom   16 type  3   force =    -0.00788855   -0.00149501    0.00862970
     atom   17 type  3   force =     0.00523346    0.00687080   -0.00800422
     atom   18 type  3   force =    -0.00523346   -0.00687080    0.00800422
     The Hubbard contrib.    to forces
     atom    1 type  2   force =     0.00000000    0.00000000    0.00000000
     atom    2 type  2   force =     0.00000000    0.00000000    0.00000000
     atom    3 type  2   force =     0.00000000    0.00000000    0.00000000
     atom    4 type  2   force =     0.00000000    0.00000000    0.00000000
     atom    5 type  1   force =     0.00000000    0.00000000    0.00000000
     atom    6 type  1   force =     0.00000000    0.00000000    0.00000000
     atom    7 type  1   force =     0.00000000    0.00000000    0.00000000
     atom    8 type  1   force =     0.00000000    0.00000000    0.00000000
     atom    9 type  4   force =     0.00000000    0.00000000    0.00000000
     atom   10 type  4   force =     0.00000000    0.00000000    0.00000000
     atom   11 type  3   force =     0.00000000    0.00000000    0.00000000
     atom   12 type  3   force =     0.00000000    0.00000000    0.00000000
     atom   13 type  3   force =     0.00000000    0.00000000    0.00000000
     atom   14 type  3   force =     0.00000000    0.00000000    0.00000000
     atom   15 type  3   force =     0.00000000    0.00000000    0.00000000
     atom   16 type  3   force =     0.00000000    0.00000000    0.00000000
     atom   17 type  3   force =     0.00000000    0.00000000    0.00000000
     atom   18 type  3   force =     0.00000000    0.00000000    0.00000000
     The SCF correction term to forces
     atom    1 type  2   force =    -0.00000178    0.00000030   -0.00000068
     atom    2 type  2   force =     0.00000178   -0.00000030    0.00000068
     atom    3 type  2   force =     0.00000107    0.00000031    0.00000153
     atom    4 type  2   force =    -0.00000107   -0.00000031   -0.00000153
     atom    5 type  1   force =     0.00000004   -0.00000002   -0.00000008
     atom    6 type  1   force =    -0.00000004    0.00000002    0.00000008
     atom    7 type  1   force =    -0.00000018   -0.00000009   -0.00000007
     atom    8 type  1   force =     0.00000018    0.00000009    0.00000007
     atom    9 type  4   force =    -0.00000073    0.00000113   -0.00000096
     atom   10 type  4   force =     0.00000073   -0.00000113    0.00000096
     atom   11 type  3   force =     0.00000157    0.00000068    0.00000009
     atom   12 type  3   force =    -0.00000157   -0.00000068   -0.00000009
     atom   13 type  3   force =    -0.00000097   -0.00000005   -0.00000180
     atom   14 type  3   force =     0.00000097    0.00000005    0.00000180
     atom   15 type  3   force =    -0.00000196    0.00000006   -0.00000050
     atom   16 type  3   force =     0.00000196   -0.00000006    0.00000050
     atom   17 type  3   force =     0.00000045   -0.00000069    0.00000151
     atom   18 type  3   force =    -0.00000045    0.00000069   -0.00000151

     Total force =     0.001249     Total SCF correction =     0.000007


     Computing stress (Cartesian axis) and pressure

          total   stress  (Ry/bohr**3)                   (kbar)     P=       -0.08
  -0.00000010   0.00000044  -0.00000018           -0.01        0.07       -0.03
   0.00000044  -0.00000141  -0.00000054            0.07       -0.21       -0.08
  -0.00000018  -0.00000054  -0.00000022           -0.03       -0.08       -0.03

     kinetic stress (kbar)   7736.04     -3.92    -23.80
                               -3.92   7779.44      5.03
                              -23.80      5.03   7747.03

     local   stress (kbar)  -2154.80   3619.90  -6684.63
                             3619.90  -6145.05  -4588.97
                            -6684.63  -4588.97   1048.71

     nonloc. stress (kbar)   2073.95      0.40     -2.27
                                0.40   2075.31     -0.49
                               -2.27     -0.49   2074.90

     hartree stress (kbar)   6315.86  -1726.52   3134.90
                            -1726.52   8286.74   2188.89
                             3134.90   2188.89   4813.22

     exc-cor stress (kbar)   5861.43     -0.25      0.15
                               -0.25   5862.11      0.32
                                0.15      0.32   5861.37

     corecor stress (kbar)  -9226.43      0.30     -0.31
                                0.30  -9227.04     -0.39
                               -0.31     -0.39  -9226.24

     ewald   stress (kbar) -10606.08  -1889.84   3575.93
                            -1889.84  -8631.71   2395.53
                             3575.93   2395.53 -12319.02

     hubbard stress (kbar)      0.00      0.00      0.00
                                0.00      0.00      0.00
                                0.00      0.00      0.00

     DFT-D   stress (kbar)      0.00      0.00      0.00
                                0.00      0.00      0.00
                                0.00      0.00      0.00

     XDM     stress (kbar)      0.00      0.00      0.00
                                0.00      0.00      0.00
                                0.00      0.00      0.00

     dft-nl  stress (kbar)      0.00      0.00      0.00
                                0.00      0.00      0.00
                                0.00      0.00      0.00

     TS-vdW  stress (kbar)      0.00      0.00      0.00
                                0.00      0.00      0.00
                                0.00      0.00      0.00

     MDB     stress (kbar)      0.00      0.00      0.00
                                0.00      0.00      0.00
                                0.00      0.00      0.00

     3D-RISM stress (kbar)      0.00      0.00      0.00
                                0.00      0.00      0.00
                                0.00      0.00      0.00

     Energy error            =      1.1E-05 Ry
     Gradient error          =      3.6E-04 Ry/Bohr
     Cell gradient error     =      2.1E-01 kbar

     number of scf cycles    =   8
     number of bfgs steps    =   7

     enthalpy           old  =   -1568.2380566526 Ry
     enthalpy           new  =   -1568.2380675516 Ry

     CASE: enthalpy          _new < enthalpy          _old

     new trust radius        =       0.0011628109 bohr
     new conv_thr            =            1.0E-10 Ry

     new unit-cell volume =   3040.53352 a.u.^3 (   450.56058 Ang^3 )
     density =      4.01717 g/cm^3

CELL_PARAMETERS (angstrom)
   9.262220331   0.001464129  -2.211142221
  -1.257428537   5.109115337  -7.934383138
   0.006190717  -0.000850179   9.520738656

ATOMIC_POSITIONS (crystal)
Rb               0.1244481298        0.7287134666        0.8531492611
Rb               0.8755518702        0.2712865334        0.1468507389
Rb               0.3755631236        0.2286846354        0.6042497061
Rb               0.6244368764        0.7713153646        0.3957502939
Cu               0.0245064442        0.7500328467        0.2744937749
Cu               0.9754935558        0.2499671533        0.7255062251
Cu               0.4754941097        0.7500102210        0.7255510298
Cu               0.5245058903        0.2499897790        0.2744489702
Sn               0.2500038247        0.2499850710       -0.0000032884
Sn               0.7499961753        0.7500149290        0.0000032884
S                0.0166918786        0.9200001459        0.6377594161
S                0.9833081214        0.0799998541        0.3622405839
S                0.2822393742        0.3789715631        0.3622959393
S                0.7177606258        0.6210284369        0.6377040607
S                0.4832897287        0.1210544120        0.9032629699
S                0.5167102713        0.8789455880        0.0967370301
S                0.2177638762        0.5800303218        0.0967049430
S                0.7822361238        0.4199696782        0.9032950570



     Writing config-only to output data dir ./tmp/relax/Rb2Cu2SnS4_relax.save/ :
     XML data file
     NEW-OLD atomic charge density approx. for the potential
     New effective cutoffs (rho, wfc):  716.53   89.58

     total cpu time spent up to now is     2155.4 secs

     Self-consistent Calculation

     iteration #  1     ecut=    90.00 Ry     beta= 0.30
     Davidson diagonalization with overlap

---- Real-time Memory Report at c_bands before calling an iterative solver
             0 MiB given to the printing process from OS
             0 MiB allocation reported by mallinfo(arena+hblkhd)
             0 MiB available memory on the node where the printing process lives
------------------
     ethr =  1.00E-06,  avg # of iterations =  2.0

     Threshold (ethr) on eigenvalues was too large:
     Diagonalizing with lowered threshold

     Davidson diagonalization with overlap

---- Real-time Memory Report at c_bands before calling an iterative solver
             0 MiB given to the printing process from OS
             0 MiB allocation reported by mallinfo(arena+hblkhd)
             0 MiB available memory on the node where the printing process lives
------------------
     ethr =  4.48E-10,  avg # of iterations =  8.2

     total cpu time spent up to now is     2221.8 secs

     total energy              =   -1568.23806986 Ry
     estimated scf accuracy    <       0.00000030 Ry

     iteration #  2     ecut=    90.00 Ry     beta= 0.30
     Davidson diagonalization with overlap

---- Real-time Memory Report at c_bands before calling an iterative solver
             0 MiB given to the printing process from OS
             0 MiB allocation reported by mallinfo(arena+hblkhd)
             0 MiB available memory on the node where the printing process lives
------------------
     ethr =  1.94E-10,  avg # of iterations =  2.4

     total cpu time spent up to now is     2243.6 secs

     total energy              =   -1568.23807000 Ry
     estimated scf accuracy    <       0.00000005 Ry

     iteration #  3     ecut=    90.00 Ry     beta= 0.30
     Davidson diagonalization with overlap

---- Real-time Memory Report at c_bands before calling an iterative solver
             0 MiB given to the printing process from OS
             0 MiB allocation reported by mallinfo(arena+hblkhd)
             0 MiB available memory on the node where the printing process lives
------------------
     ethr =  3.51E-11,  avg # of iterations =  4.5

     total cpu time spent up to now is     2269.3 secs

     total energy              =   -1568.23807008 Ry
     estimated scf accuracy    <       0.00000001 Ry

     iteration #  4     ecut=    90.00 Ry     beta= 0.30
     Davidson diagonalization with overlap

---- Real-time Memory Report at c_bands before calling an iterative solver
             0 MiB given to the printing process from OS
             0 MiB allocation reported by mallinfo(arena+hblkhd)
             0 MiB available memory on the node where the printing process lives
------------------
     ethr =  7.04E-12,  avg # of iterations =  4.0

     total cpu time spent up to now is     2292.6 secs

     total energy              =   -1568.23807012 Ry
     estimated scf accuracy    <          3.9E-09 Ry

     iteration #  5     ecut=    90.00 Ry     beta= 0.30
     Davidson diagonalization with overlap

---- Real-time Memory Report at c_bands before calling an iterative solver
             0 MiB given to the printing process from OS
             0 MiB allocation reported by mallinfo(arena+hblkhd)
             0 MiB available memory on the node where the printing process lives
------------------
     ethr =  2.48E-12,  avg # of iterations =  2.4

     total cpu time spent up to now is     2312.8 secs

     total energy              =   -1568.23807014 Ry
     estimated scf accuracy    <          1.2E-09 Ry

     iteration #  6     ecut=    90.00 Ry     beta= 0.30
     Davidson diagonalization with overlap

---- Real-time Memory Report at c_bands before calling an iterative solver
             0 MiB given to the printing process from OS
             0 MiB allocation reported by mallinfo(arena+hblkhd)
             0 MiB available memory on the node where the printing process lives
------------------
     ethr =  7.99E-13,  avg # of iterations =  6.1

     total cpu time spent up to now is     2341.9 secs

     total energy              =   -1568.23807015 Ry
     estimated scf accuracy    <          1.7E-09 Ry

     iteration #  7     ecut=    90.00 Ry     beta= 0.30
     Davidson diagonalization with overlap

---- Real-time Memory Report at c_bands before calling an iterative solver
             0 MiB given to the printing process from OS
             0 MiB allocation reported by mallinfo(arena+hblkhd)
             0 MiB available memory on the node where the printing process lives
------------------
     ethr =  7.99E-13,  avg # of iterations =  4.5

     total cpu time spent up to now is     2365.5 secs

     total energy              =   -1568.23807016 Ry
     estimated scf accuracy    <          1.1E-10 Ry

     iteration #  8     ecut=    90.00 Ry     beta= 0.30
     Davidson diagonalization with overlap

---- Real-time Memory Report at c_bands before calling an iterative solver
             0 MiB given to the printing process from OS
             0 MiB allocation reported by mallinfo(arena+hblkhd)
             0 MiB available memory on the node where the printing process lives
------------------
     ethr =  1.00E-13,  avg # of iterations =  4.2

     total cpu time spent up to now is     2388.4 secs

     End of self-consistent calculation

          k = 0.0000 0.0000 0.0000 ( 43377 PWs)   bands (ev):

   -20.8198 -20.7952 -20.7917 -20.7674 -15.7455 -15.7454 -15.7367 -15.7365
   -15.7321 -15.7320 -15.6740 -15.6739 -15.6576 -15.6574  -7.2924  -6.9607
    -6.6548  -6.3200  -6.1608  -6.1545  -6.1527  -5.9307  -5.1756  -5.0979
    -4.9392  -4.9330  -4.8827  -4.8701  -4.8272  -4.8267  -4.7853  -4.7620
    -4.7616  -4.6862  -1.1000  -0.8945   1.4986   1.5797   1.8140   1.9549
     2.0368   2.0806   2.1475   2.4647   2.8301   2.9343   3.0686   3.1053
     3.2320   3.2586   3.3348   3.3393   3.3467   3.3927   3.5079   3.6155
     3.7307   3.7615   4.4928   4.5393   4.7491   4.7540   4.7662   4.8628
     4.8803   5.0962   5.1985   5.2220   5.2683   5.3279   5.4291   5.5198
     5.6467   5.8256   5.9418   6.1080   6.1478   6.2026

     occupation numbers 
     1.0000   1.0000   1.0000   1.0000   1.0000   1.0000   1.0000   1.0000
     1.0000   1.0000   1.0000   1.0000   1.0000   1.0000   1.0000   1.0000
     1.0000   1.0000   1.0000   1.0000   1.0000   1.0000   1.0000   1.0000
     1.0000   1.0000   1.0000   1.0000   1.0000   1.0000   1.0000   1.0000
     1.0000   1.0000   1.0000   1.0000   1.0000   1.0000   1.0000   1.0000
     1.0000   1.0000   1.0000   1.0000   1.0000   1.0000   1.0000   1.0000
     1.0000   1.0000   1.0000   1.0000   1.0000   1.0000   1.0000   1.0000
     1.0000   1.0000   1.0000   1.0000   1.0000   1.0000   1.0000   1.0000
     1.0000   1.0000   1.0000   1.0000   1.0000   1.0000   1.0000   1.0000
     1.0000   1.0000   1.0000   1.0000   1.0000   1.0000

          k = 0.0594 0.4016 0.2492 ( 43439 PWs)   bands (ev):

   -20.8112 -20.8008 -20.7855 -20.7754 -15.7455 -15.7455 -15.7368 -15.7368
   -15.7322 -15.7321 -15.6737 -15.6737 -15.6575 -15.6574  -7.1930  -6.9955
    -6.4622  -6.3136  -6.2720  -6.2426  -6.2163  -6.0405  -5.0990  -5.0169
    -4.9402  -4.8999  -4.8779  -4.8669  -4.8555  -4.8546  -4.8242  -4.7654
    -4.7570  -4.7461  -1.0418  -0.8912   1.2939   1.4693   1.5994   1.8979
     2.0038   2.1611   2.3775   2.5606   2.6245   2.9056   3.0071   3.1559
     3.2038   3.2391   3.2415   3.3323   3.3385   3.4668   3.6214   3.6587
     3.7024   3.7629   4.5994   4.6549   4.7350   4.7874   4.8391   4.9006
     4.9221   5.0315   5.1293   5.1686   5.1847   5.3392   5.6345   5.6848
     5.7477   5.8562   5.9596   6.0298   6.0874   6.1999

     occupation numbers 
     1.0000   1.0000   1.0000   1.0000   1.0000   1.0000   1.0000   1.0000
     1.0000   1.0000   1.0000   1.0000   1.0000   1.0000   1.0000   1.0000
     1.0000   1.0000   1.0000   1.0000   1.0000   1.0000   1.0000   1.0000
     1.0000   1.0000   1.0000   1.0000   1.0000   1.0000   1.0000   1.0000
     1.0000   1.0000   1.0000   1.0000   1.0000   1.0000   1.0000   1.0000
     1.0000   1.0000   1.0000   1.0000   1.0000   1.0000   1.0000   1.0000
     1.0000   1.0000   1.0000   1.0000   1.0000   1.0000   1.0000   1.0000
     1.0000   1.0000   1.0000   1.0000   1.0000   1.0000   1.0000   1.0000
     1.0000   1.0000   1.0000   1.0000   1.0000   1.0000   1.0000   1.0000
     1.0000   1.0000   1.0000   1.0000   1.0000   1.0000

          k =-0.1189-0.8033-0.4984 ( 43366 PWs)   bands (ev):

   -20.7988 -20.7986 -20.7872 -20.7869 -15.7455 -15.7455 -15.7370 -15.7370
   -15.7323 -15.7323 -15.6735 -15.6735 -15.6575 -15.6575  -7.0627  -6.9782
    -6.4777  -6.3553  -6.3391  -6.2878  -6.1668  -6.1079  -5.0224  -5.0112
    -4.9956  -4.9179  -4.8993  -4.8849  -4.8718  -4.8608  -4.7891  -4.7805
    -4.7595  -4.7380  -0.9723  -0.8931   1.2007   1.3535   1.4776   1.7035
     2.0939   2.2761   2.3489   2.3558   2.7110   2.9232   3.0095   3.1692
     3.1750   3.2506   3.2815   3.3072   3.3436   3.4975   3.6125   3.6617
     3.7376   3.7579   4.6863   4.7525   4.7684   4.8073   4.9081   4.9320
     4.9679   4.9975   5.0719   5.1186   5.1469   5.2691   5.6977   5.8664
     5.8949   5.9449   6.0156   6.0490   6.0799   6.1145

     occupation numbers 
     1.0000   1.0000   1.0000   1.0000   1.0000   1.0000   1.0000   1.0000
     1.0000   1.0000   1.0000   1.0000   1.0000   1.0000   1.0000   1.0000
     1.0000   1.0000   1.0000   1.0000   1.0000   1.0000   1.0000   1.0000
     1.0000   1.0000   1.0000   1.0000   1.0000   1.0000   1.0000   1.0000
     1.0000   1.0000   1.0000   1.0000   1.0000   1.0000   1.0000   1.0000
     1.0000   1.0000   1.0000   1.0000   1.0000   1.0000   1.0000   1.0000
     1.0000   1.0000   1.0000   1.0000   1.0000   1.0000   1.0000   1.0000
     1.0000   1.0000   1.0000   1.0000   1.0000   1.0000   1.0000   1.0000
     1.0000   1.0000   1.0000   1.0000   1.0000   1.0000   1.0000   1.0000
     1.0000   1.0000   1.0000   1.0000   1.0000   1.0000

          k =-0.0001 0.4644 0.0000 ( 43455 PWs)   bands (ev):

   -20.8126 -20.7952 -20.7911 -20.7739 -15.7455 -15.7454 -15.7368 -15.7367
   -15.7322 -15.7321 -15.6737 -15.6737 -15.6576 -15.6574  -7.2177  -6.9323
    -6.5653  -6.2786  -6.2571  -6.2294  -6.2033  -6.0479  -5.1234  -5.0041
    -4.9398  -4.9290  -4.8654  -4.8489  -4.8466  -4.8379  -4.8208  -4.7720
    -4.7710  -4.7483  -1.0517  -0.8821   1.2707   1.4443   1.6846   1.9452
     1.9813   2.1243   2.3286   2.5385   2.6035   3.0066   3.0155   3.0899
     3.2248   3.2582   3.2864   3.2934   3.3697   3.4233   3.5624   3.6617
     3.7552   3.7586   4.6048   4.6483   4.7162   4.8046   4.8454   4.8968
     4.9213   5.0553   5.0853   5.1805   5.1917   5.3490   5.6087   5.7506
     5.7748   5.8763   5.9305   6.0245   6.0479   6.1341

     occupation numbers 
     1.0000   1.0000   1.0000   1.0000   1.0000   1.0000   1.0000   1.0000
     1.0000   1.0000   1.0000   1.0000   1.0000   1.0000   1.0000   1.0000
     1.0000   1.0000   1.0000   1.0000   1.0000   1.0000   1.0000   1.0000
     1.0000   1.0000   1.0000   1.0000   1.0000   1.0000   1.0000   1.0000
     1.0000   1.0000   1.0000   1.0000   1.0000   1.0000   1.0000   1.0000
     1.0000   1.0000   1.0000   1.0000   1.0000   1.0000   1.0000   1.0000
     1.0000   1.0000   1.0000   1.0000   1.0000   1.0000   1.0000   1.0000
     1.0000   1.0000   1.0000   1.0000   1.0000   1.0000   1.0000   1.0000
     1.0000   1.0000   1.0000   1.0000   1.0000   1.0000   1.0000   1.0000
     1.0000   1.0000   1.0000   1.0000   1.0000   1.0000

          k = 0.0594 0.8661 0.2492 ( 43432 PWs)   bands (ev):

   -20.7988 -20.7986 -20.7872 -20.7869 -15.7455 -15.7455 -15.7370 -15.7370
   -15.7323 -15.7323 -15.6735 -15.6735 -15.6575 -15.6575  -7.0515  -6.9939
    -6.4788  -6.3889  -6.2992  -6.2400  -6.1872  -6.1361  -5.0233  -5.0185
    -4.9719  -4.9365  -4.9066  -4.8919  -4.8633  -4.8484  -4.8193  -4.7966
    -4.7303  -4.7242  -0.9615  -0.9054   1.1720   1.2968   1.6327   1.7685
     2.0817   2.2037   2.2616   2.2933   2.8157   2.9279   3.0521   3.1232
     3.1757   3.2123   3.2355   3.2761   3.3876   3.5149   3.6422   3.6810
     3.7153   3.7679   4.7002   4.7458   4.7658   4.8036   4.8989   4.9267
     4.9358   4.9714   5.1071   5.1465   5.1783   5.2526   5.7432   5.8577
     5.9068   5.9478   5.9886   6.0510   6.0772   6.1365

     occupation numbers 
     1.0000   1.0000   1.0000   1.0000   1.0000   1.0000   1.0000   1.0000
     1.0000   1.0000   1.0000   1.0000   1.0000   1.0000   1.0000   1.0000
     1.0000   1.0000   1.0000   1.0000   1.0000   1.0000   1.0000   1.0000
     1.0000   1.0000   1.0000   1.0000   1.0000   1.0000   1.0000   1.0000
     1.0000   1.0000   1.0000   1.0000   1.0000   1.0000   1.0000   1.0000
     1.0000   1.0000   1.0000   1.0000   1.0000   1.0000   1.0000   1.0000
     1.0000   1.0000   1.0000   1.0000   1.0000   1.0000   1.0000   1.0000
     1.0000   1.0000   1.0000   1.0000   1.0000   1.0000   1.0000   1.0000
     1.0000   1.0000   1.0000   1.0000   1.0000   1.0000   1.0000   1.0000
     1.0000   1.0000   1.0000   1.0000   1.0000   1.0000

          k =-0.1189-0.3388-0.4984 ( 43424 PWs)   bands (ev):

   -20.8070 -20.8069 -20.7795 -20.7794 -15.7455 -15.7455 -15.7368 -15.7368
   -15.7322 -15.7322 -15.6737 -15.6737 -15.6575 -15.6575  -7.1267  -7.1160
    -6.4142  -6.3413  -6.2498  -6.2164  -6.1633  -6.0622  -5.0642  -5.0479
    -4.9304  -4.9166  -4.9103  -4.8820  -4.8684  -4.8624  -4.8114  -4.7929
    -4.7400  -4.7361  -0.9908  -0.9476   1.4064   1.4707   1.5813   1.7180
     2.1583   2.2469   2.3598   2.4140   2.7349   2.8595   2.9635   3.0932
     3.1593   3.1917   3.2614   3.3533   3.3759   3.5454   3.6526   3.6863
     3.7061   3.7395   4.6038   4.6413   4.7511   4.7676   4.8486   4.8766
     4.9720   4.9862   5.1492   5.1723   5.2195   5.2783   5.6195   5.6738
     5.7682   5.8529   5.9503   5.9661   6.1778   6.2230

     occupation numbers 
     1.0000   1.0000   1.0000   1.0000   1.0000   1.0000   1.0000   1.0000
     1.0000   1.0000   1.0000   1.0000   1.0000   1.0000   1.0000   1.0000
     1.0000   1.0000   1.0000   1.0000   1.0000   1.0000   1.0000   1.0000
     1.0000   1.0000   1.0000   1.0000   1.0000   1.0000   1.0000   1.0000
     1.0000   1.0000   1.0000   1.0000   1.0000   1.0000   1.0000   1.0000
     1.0000   1.0000   1.0000   1.0000   1.0000   1.0000   1.0000   1.0000
     1.0000   1.0000   1.0000   1.0000   1.0000   1.0000   1.0000   1.0000
     1.0000   1.0000   1.0000   1.0000   1.0000   1.0000   1.0000   1.0000
     1.0000   1.0000   1.0000   1.0000   1.0000   1.0000   1.0000   1.0000
     1.0000   1.0000   1.0000   1.0000   1.0000   1.0000

          k =-0.0595 0.0628-0.2492 ( 43427 PWs)   bands (ev):

   -20.8178 -20.8036 -20.7833 -20.7694 -15.7455 -15.7454 -15.7367 -15.7366
   -15.7321 -15.7320 -15.6740 -15.6739 -15.6576 -15.6574  -7.2720  -7.0674
    -6.5333  -6.2858  -6.2188  -6.1779  -6.0984  -5.9484  -5.1442  -5.0893
    -4.9898  -4.9540  -4.8831  -4.8456  -4.8276  -4.8227  -4.7833  -4.7710
    -4.7643  -4.7091  -1.0749  -0.9262   1.5294   1.6442   1.7688   1.9241
     1.9840   2.0408   2.2528   2.6444   2.7820   2.8385   2.9724   3.1266
     3.1569   3.1790   3.3250   3.3386   3.4832   3.5094   3.5297   3.6144
     3.6923   3.7520   4.4951   4.5301   4.7562   4.7624   4.7852   4.8632
     4.8765   5.0039   5.2192   5.2705   5.2920   5.3146   5.3932   5.4944
     5.6918   5.8328   5.9598   5.9955   6.1143   6.1648

     occupation numbers 
     1.0000   1.0000   1.0000   1.0000   1.0000   1.0000   1.0000   1.0000
     1.0000   1.0000   1.0000   1.0000   1.0000   1.0000   1.0000   1.0000
     1.0000   1.0000   1.0000   1.0000   1.0000   1.0000   1.0000   1.0000
     1.0000   1.0000   1.0000   1.0000   1.0000   1.0000   1.0000   1.0000
     1.0000   1.0000   1.0000   1.0000   1.0000   1.0000   1.0000   1.0000
     1.0000   1.0000   1.0000   1.0000   1.0000   1.0000   1.0000   1.0000
     1.0000   1.0000   1.0000   1.0000   1.0000   1.0000   1.0000   1.0000
     1.0000   1.0000   1.0000   1.0000   1.0000   1.0000   1.0000   1.0000
     1.0000   1.0000   1.0000   1.0000   1.0000   1.0000   1.0000   1.0000
     1.0000   1.0000   1.0000   1.0000   1.0000   1.0000

          k = 0.0001-0.9289-0.0001 ( 43450 PWs)   bands (ev):

   -20.7988 -20.7986 -20.7872 -20.7869 -15.7455 -15.7455 -15.7370 -15.7370
   -15.7323 -15.7323 -15.6735 -15.6735 -15.6575 -15.6575  -7.0249  -7.0248
    -6.4468  -6.4460  -6.2230  -6.2229  -6.1933  -6.1926  -5.0274  -5.0272
    -4.9526  -4.9524  -4.9009  -4.9007  -4.8464  -4.8463  -4.8248  -4.8248
    -4.7143  -4.7142  -0.9344  -0.9343   1.2023   1.2028   1.8930   1.8932
     1.9778   1.9787   2.2395   2.2397   2.9540   2.9545   3.0538   3.0545
     3.1556   3.1565   3.2402   3.2405   3.4751   3.4757   3.6817   3.6820
     3.7378   3.7386   4.7275   4.7282   4.7807   4.7811   4.8977   4.8980
     4.9407   4.9408   5.1650   5.1650   5.2074   5.2075   5.8278   5.8280
     5.9009   5.9011   6.0349   6.0350   6.1134   6.1140

     occupation numbers 
     1.0000   1.0000   1.0000   1.0000   1.0000   1.0000   1.0000   1.0000
     1.0000   1.0000   1.0000   1.0000   1.0000   1.0000   1.0000   1.0000
     1.0000   1.0000   1.0000   1.0000   1.0000   1.0000   1.0000   1.0000
     1.0000   1.0000   1.0000   1.0000   1.0000   1.0000   1.0000   1.0000
     1.0000   1.0000   1.0000   1.0000   1.0000   1.0000   1.0000   1.0000
     1.0000   1.0000   1.0000   1.0000   1.0000   1.0000   1.0000   1.0000
     1.0000   1.0000   1.0000   1.0000   1.0000   1.0000   1.0000   1.0000
     1.0000   1.0000   1.0000   1.0000   1.0000   1.0000   1.0000   1.0000
     1.0000   1.0000   1.0000   1.0000   1.0000   1.0000   1.0000   1.0000
     1.0000   1.0000   1.0000   1.0000   1.0000   1.0000

          k = 0.0596-0.5272 0.2491 ( 43437 PWs)   bands (ev):

   -20.8111 -20.8008 -20.7855 -20.7754 -15.7455 -15.7454 -15.7368 -15.7368
   -15.7322 -15.7322 -15.6737 -15.6737 -15.6575 -15.6574  -7.1958  -7.0194
    -6.5211  -6.2739  -6.2419  -6.2165  -6.1369  -6.0809  -5.0991  -5.0240
    -4.9491  -4.9372  -4.8770  -4.8672  -4.8579  -4.8535  -4.8281  -4.7824
    -4.7504  -4.7397  -1.0154  -0.9237   1.3699   1.4341   1.6622   1.7913
     2.0739   2.2239   2.3228   2.5277   2.5859   2.9594   2.9928   3.0501
     3.1751   3.2325   3.2746   3.3349   3.3700   3.5023   3.6359   3.6459
     3.7303   3.7845   4.6148   4.6287   4.7192   4.7983   4.8564   4.8805
     4.9396   5.0182   5.1160   5.1826   5.2281   5.2888   5.6048   5.7122
     5.8080   5.8533   5.9338   5.9602   6.1463   6.1692

     occupation numbers 
     1.0000   1.0000   1.0000   1.0000   1.0000   1.0000   1.0000   1.0000
     1.0000   1.0000   1.0000   1.0000   1.0000   1.0000   1.0000   1.0000
     1.0000   1.0000   1.0000   1.0000   1.0000   1.0000   1.0000   1.0000
     1.0000   1.0000   1.0000   1.0000   1.0000   1.0000   1.0000   1.0000
     1.0000   1.0000   1.0000   1.0000   1.0000   1.0000   1.0000   1.0000
     1.0000   1.0000   1.0000   1.0000   1.0000   1.0000   1.0000   1.0000
     1.0000   1.0000   1.0000   1.0000   1.0000   1.0000   1.0000   1.0000
     1.0000   1.0000   1.0000   1.0000   1.0000   1.0000   1.0000   1.0000
     1.0000   1.0000   1.0000   1.0000   1.0000   1.0000   1.0000   1.0000
     1.0000   1.0000   1.0000   1.0000   1.0000   1.0000

          k =-0.1187-1.7321-0.4985 ( 43432 PWs)   bands (ev):

   -20.8121 -20.8120 -20.7751 -20.7749 -15.7455 -15.7455 -15.7366 -15.7366
   -15.7321 -15.7321 -15.6739 -15.6739 -15.6575 -15.6575  -7.1993  -7.1991
    -6.3586  -6.3585  -6.2192  -6.2190  -6.0110  -6.0108  -5.0870  -5.0869
    -5.0174  -5.0173  -4.8508  -4.8507  -4.8260  -4.8259  -4.7843  -4.7841
    -4.7457  -4.7456  -1.0041  -1.0040   1.6483   1.6485   1.7568   1.7568
     2.0277   2.0278   2.5112   2.5114   2.8344   2.8344   2.9361   2.9366
     3.1562   3.1562   3.3481   3.3485   3.5413   3.5413   3.6205   3.6206
     3.6892   3.6896   4.5089   4.5094   4.7602   4.7608   4.8679   4.8685
     4.8787   4.8791   5.2720   5.2725   5.2864   5.2870   5.4287   5.4291
     5.7689   5.7691   5.9784   5.9789   6.1047   6.1050

     occupation numbers 
     1.0000   1.0000   1.0000   1.0000   1.0000   1.0000   1.0000   1.0000
     1.0000   1.0000   1.0000   1.0000   1.0000   1.0000   1.0000   1.0000
     1.0000   1.0000   1.0000   1.0000   1.0000   1.0000   1.0000   1.0000
     1.0000   1.0000   1.0000   1.0000   1.0000   1.0000   1.0000   1.0000
     1.0000   1.0000   1.0000   1.0000   1.0000   1.0000   1.0000   1.0000
     1.0000   1.0000   1.0000   1.0000   1.0000   1.0000   1.0000   1.0000
     1.0000   1.0000   1.0000   1.0000   1.0000   1.0000   1.0000   1.0000
     1.0000   1.0000   1.0000   1.0000   1.0000   1.0000   1.0000   1.0000
     1.0000   1.0000   1.0000   1.0000   1.0000   1.0000   1.0000   1.0000
     1.0000   1.0000   1.0000   1.0000   1.0000   1.0000

          k =-0.5122-0.1256 0.0003 ( 43432 PWs)   bands (ev):

   -20.8121 -20.8120 -20.7751 -20.7749 -15.7455 -15.7455 -15.7366 -15.7366
   -15.7321 -15.7321 -15.6739 -15.6739 -15.6575 -15.6575  -7.1993  -7.1990
    -6.3585  -6.3584  -6.2194  -6.2192  -6.0111  -6.0109  -5.0869  -5.0868
    -5.0174  -5.0173  -4.8508  -4.8507  -4.8260  -4.8259  -4.7843  -4.7841
    -4.7456  -4.7454  -1.0041  -1.0040   1.6482   1.6484   1.7568   1.7569
     2.0277   2.0278   2.5111   2.5113   2.8344   2.8345   2.9362   2.9367
     3.1563   3.1564   3.3483   3.3485   3.5412   3.5414   3.6202   3.6203
     3.6892   3.6896   4.5089   4.5094   4.7602   4.7608   4.8681   4.8688
     4.8785   4.8789   5.2720   5.2726   5.2865   5.2869   5.4286   5.4289
     5.7690   5.7695   5.9786   5.9787   6.1045   6.1049

     occupation numbers 
     1.0000   1.0000   1.0000   1.0000   1.0000   1.0000   1.0000   1.0000
     1.0000   1.0000   1.0000   1.0000   1.0000   1.0000   1.0000   1.0000
     1.0000   1.0000   1.0000   1.0000   1.0000   1.0000   1.0000   1.0000
     1.0000   1.0000   1.0000   1.0000   1.0000   1.0000   1.0000   1.0000
     1.0000   1.0000   1.0000   1.0000   1.0000   1.0000   1.0000   1.0000
     1.0000   1.0000   1.0000   1.0000   1.0000   1.0000   1.0000   1.0000
     1.0000   1.0000   1.0000   1.0000   1.0000   1.0000   1.0000   1.0000
     1.0000   1.0000   1.0000   1.0000   1.0000   1.0000   1.0000   1.0000
     1.0000   1.0000   1.0000   1.0000   1.0000   1.0000   1.0000   1.0000
     1.0000   1.0000   1.0000   1.0000   1.0000   1.0000

          k =-0.4528 0.2761 0.2495 ( 43437 PWs)   bands (ev):

   -20.8111 -20.8008 -20.7855 -20.7754 -15.7455 -15.7454 -15.7368 -15.7368
   -15.7322 -15.7322 -15.6737 -15.6737 -15.6575 -15.6574  -7.1958  -7.0194
    -6.5210  -6.2736  -6.2422  -6.2165  -6.1369  -6.0810  -5.0991  -5.0240
    -4.9491  -4.9372  -4.8770  -4.8672  -4.8578  -4.8535  -4.8280  -4.7823
    -4.7505  -4.7397  -1.0153  -0.9237   1.3697   1.4343   1.6621   1.7914
     2.0739   2.2237   2.3227   2.5278   2.5861   2.9596   2.9931   3.0498
     3.1745   3.2323   3.2751   3.3347   3.3702   3.5021   3.6363   3.6457
     3.7306   3.7841   4.6154   4.6281   4.7192   4.7984   4.8562   4.8804
     4.9396   5.0182   5.1160   5.1827   5.2282   5.2888   5.6048   5.7121
     5.8082   5.8533   5.9339   5.9600   6.1463   6.1693

     occupation numbers 
     1.0000   1.0000   1.0000   1.0000   1.0000   1.0000   1.0000   1.0000
     1.0000   1.0000   1.0000   1.0000   1.0000   1.0000   1.0000   1.0000
     1.0000   1.0000   1.0000   1.0000   1.0000   1.0000   1.0000   1.0000
     1.0000   1.0000   1.0000   1.0000   1.0000   1.0000   1.0000   1.0000
     1.0000   1.0000   1.0000   1.0000   1.0000   1.0000   1.0000   1.0000
     1.0000   1.0000   1.0000   1.0000   1.0000   1.0000   1.0000   1.0000
     1.0000   1.0000   1.0000   1.0000   1.0000   1.0000   1.0000   1.0000
     1.0000   1.0000   1.0000   1.0000   1.0000   1.0000   1.0000   1.0000
     1.0000   1.0000   1.0000   1.0000   1.0000   1.0000   1.0000   1.0000
     1.0000   1.0000   1.0000   1.0000   1.0000   1.0000

          k =-0.6311-0.9288-0.4981 ( 43450 PWs)   bands (ev):

   -20.7988 -20.7986 -20.7872 -20.7869 -15.7455 -15.7455 -15.7370 -15.7370
   -15.7323 -15.7323 -15.6735 -15.6735 -15.6575 -15.6575  -7.0249  -7.0247
    -6.4468  -6.4462  -6.2228  -6.2227  -6.1932  -6.1929  -5.0273  -5.0273
    -4.9526  -4.9524  -4.9009  -4.9008  -4.8463  -4.8463  -4.8248  -4.8248
    -4.7143  -4.7142  -0.9344  -0.9343   1.2022   1.2028   1.8930   1.8932
     1.9778   1.9787   2.2395   2.2397   2.9542   2.9546   3.0538   3.0544
     3.1555   3.1563   3.2401   3.2406   3.4752   3.4758   3.6818   3.6821
     3.7377   3.7386   4.7275   4.7281   4.7808   4.7814   4.8976   4.8978
     4.9407   4.9408   5.1649   5.1650   5.2074   5.2075   5.8276   5.8276
     5.9012   5.9013   6.0347   6.0350   6.1136   6.1140

     occupation numbers 
     1.0000   1.0000   1.0000   1.0000   1.0000   1.0000   1.0000   1.0000
     1.0000   1.0000   1.0000   1.0000   1.0000   1.0000   1.0000   1.0000
     1.0000   1.0000   1.0000   1.0000   1.0000   1.0000   1.0000   1.0000
     1.0000   1.0000   1.0000   1.0000   1.0000   1.0000   1.0000   1.0000
     1.0000   1.0000   1.0000   1.0000   1.0000   1.0000   1.0000   1.0000
     1.0000   1.0000   1.0000   1.0000   1.0000   1.0000   1.0000   1.0000
     1.0000   1.0000   1.0000   1.0000   1.0000   1.0000   1.0000   1.0000
     1.0000   1.0000   1.0000   1.0000   1.0000   1.0000   1.0000   1.0000
     1.0000   1.0000   1.0000   1.0000   1.0000   1.0000   1.0000   1.0000
     1.0000   1.0000   1.0000   1.0000   1.0000   1.0000

          k =-0.5123 0.3389 0.0004 ( 43424 PWs)   bands (ev):

   -20.8070 -20.8069 -20.7795 -20.7794 -15.7455 -15.7455 -15.7368 -15.7368
   -15.7322 -15.7322 -15.6737 -15.6737 -15.6575 -15.6575  -7.1267  -7.1160
    -6.4142  -6.3410  -6.2500  -6.2165  -6.1634  -6.0624  -5.0643  -5.0478
    -4.9305  -4.9167  -4.9103  -4.8820  -4.8684  -4.8623  -4.8115  -4.7927
    -4.7400  -4.7361  -0.9908  -0.9476   1.4064   1.4705   1.5812   1.7181
     2.1583   2.2468   2.3598   2.4139   2.7351   2.8597   2.9637   3.0931
     3.1592   3.1912   3.2617   3.3534   3.3758   3.5454   3.6529   3.6869
     3.7055   3.7392   4.6038   4.6413   4.7511   4.7676   4.8486   4.8765
     4.9719   4.9863   5.1494   5.1721   5.2195   5.2784   5.6195   5.6737
     5.7683   5.8532   5.9500   5.9663   6.1777   6.2231

     occupation numbers 
     1.0000   1.0000   1.0000   1.0000   1.0000   1.0000   1.0000   1.0000
     1.0000   1.0000   1.0000   1.0000   1.0000   1.0000   1.0000   1.0000
     1.0000   1.0000   1.0000   1.0000   1.0000   1.0000   1.0000   1.0000
     1.0000   1.0000   1.0000   1.0000   1.0000   1.0000   1.0000   1.0000
     1.0000   1.0000   1.0000   1.0000   1.0000   1.0000   1.0000   1.0000
     1.0000   1.0000   1.0000   1.0000   1.0000   1.0000   1.0000   1.0000
     1.0000   1.0000   1.0000   1.0000   1.0000   1.0000   1.0000   1.0000
     1.0000   1.0000   1.0000   1.0000   1.0000   1.0000   1.0000   1.0000
     1.0000   1.0000   1.0000   1.0000   1.0000   1.0000   1.0000   1.0000
     1.0000   1.0000   1.0000   1.0000   1.0000   1.0000

          k =-0.4529 0.7405 0.2496 ( 43432 PWs)   bands (ev):

   -20.7988 -20.7986 -20.7872 -20.7869 -15.7455 -15.7455 -15.7370 -15.7370
   -15.7323 -15.7323 -15.6735 -15.6735 -15.6575 -15.6575  -7.0515  -6.9939
    -6.4789  -6.3889  -6.2992  -6.2399  -6.1871  -6.1363  -5.0234  -5.0184
    -4.9720  -4.9363  -4.9067  -4.8918  -4.8633  -4.8484  -4.8193  -4.7967
    -4.7303  -4.7242  -0.9615  -0.9054   1.1720   1.2967   1.6325   1.7687
     2.0818   2.2035   2.2616   2.2933   2.8157   2.9280   3.0521   3.1233
     3.1757   3.2120   3.2354   3.2762   3.3876   3.5149   3.6422   3.6812
     3.7152   3.7679   4.7002   4.7457   4.7659   4.8038   4.8989   4.9267
     4.9357   4.9713   5.1070   5.1465   5.1784   5.2526   5.7429   5.8577
     5.9072   5.9480   5.9884   6.0507   6.0772   6.1366

     occupation numbers 
     1.0000   1.0000   1.0000   1.0000   1.0000   1.0000   1.0000   1.0000
     1.0000   1.0000   1.0000   1.0000   1.0000   1.0000   1.0000   1.0000
     1.0000   1.0000   1.0000   1.0000   1.0000   1.0000   1.0000   1.0000
     1.0000   1.0000   1.0000   1.0000   1.0000   1.0000   1.0000   1.0000
     1.0000   1.0000   1.0000   1.0000   1.0000   1.0000   1.0000   1.0000
     1.0000   1.0000   1.0000   1.0000   1.0000   1.0000   1.0000   1.0000
     1.0000   1.0000   1.0000   1.0000   1.0000   1.0000   1.0000   1.0000
     1.0000   1.0000   1.0000   1.0000   1.0000   1.0000   1.0000   1.0000
     1.0000   1.0000   1.0000   1.0000   1.0000   1.0000   1.0000   1.0000
     1.0000   1.0000   1.0000   1.0000   1.0000   1.0000

          k =-0.6311-0.4644-0.4980 ( 43453 PWs)   bands (ev):

   -20.8126 -20.7952 -20.7911 -20.7739 -15.7455 -15.7454 -15.7368 -15.7368
   -15.7322 -15.7322 -15.6737 -15.6737 -15.6576 -15.6574  -7.2267  -6.9794
    -6.6225  -6.2364  -6.1989  -6.1394  -6.1333  -6.0932  -5.1194  -5.0265
    -4.9783  -4.9622  -4.8738  -4.8675  -4.8512  -4.8480  -4.8093  -4.7880
    -4.7711  -4.7389  -1.0178  -0.9273   1.3932   1.4014   1.7798   1.8654
     1.9911   2.2242   2.2722   2.5274   2.5734   2.9036   3.0017   3.0671
     3.1653   3.1886   3.2638   3.3318   3.4018   3.5572   3.5958   3.6283
     3.7091   3.8987   4.6018   4.6332   4.6915   4.8285   4.8586   4.8823
     4.9450   5.0184   5.0792   5.1929   5.2596   5.2736   5.5687   5.7194
     5.7681   5.9389   5.9515   5.9932   6.0608   6.1452

     occupation numbers 
     1.0000   1.0000   1.0000   1.0000   1.0000   1.0000   1.0000   1.0000
     1.0000   1.0000   1.0000   1.0000   1.0000   1.0000   1.0000   1.0000
     1.0000   1.0000   1.0000   1.0000   1.0000   1.0000   1.0000   1.0000
     1.0000   1.0000   1.0000   1.0000   1.0000   1.0000   1.0000   1.0000
     1.0000   1.0000   1.0000   1.0000   1.0000   1.0000   1.0000   1.0000
     1.0000   1.0000   1.0000   1.0000   1.0000   1.0000   1.0000   1.0000
     1.0000   1.0000   1.0000   1.0000   1.0000   1.0000   1.0000   1.0000
     1.0000   1.0000   1.0000   1.0000   1.0000   1.0000   1.0000   1.0000
     1.0000   1.0000   1.0000   1.0000   1.0000   1.0000   1.0000   1.0000
     1.0000   1.0000   1.0000   1.0000   1.0000   1.0000

          k =-0.5717-0.0628-0.2488 ( 43489 PWs)   bands (ev):

   -20.8177 -20.8036 -20.7834 -20.7694 -15.7455 -15.7454 -15.7366 -15.7366
   -15.7321 -15.7320 -15.6740 -15.6739 -15.6576 -15.6574  -7.3086  -7.0636
    -6.5581  -6.2050  -6.1869  -6.1802  -6.0378  -5.9925  -5.1389  -5.0948
    -4.9887  -4.9735  -4.8811  -4.8720  -4.8258  -4.8190  -4.7867  -4.7718
    -4.7624  -4.7586  -1.0623  -0.9561   1.5971   1.6230   1.7540   1.9305
     2.0016   2.1013   2.4414   2.6280   2.6478   2.7719   2.9464   3.0822
     3.1254   3.2061   3.2641   3.3795   3.4017   3.5181   3.5379   3.6402
     3.6504   3.9703   4.4945   4.5197   4.7539   4.7660   4.7980   4.8464
     4.9100   4.9836   5.2143   5.2644   5.2949   5.3328   5.3352   5.4952
     5.5967   5.8707   5.9495   6.0190   6.1079   6.1448

     occupation numbers 
     1.0000   1.0000   1.0000   1.0000   1.0000   1.0000   1.0000   1.0000
     1.0000   1.0000   1.0000   1.0000   1.0000   1.0000   1.0000   1.0000
     1.0000   1.0000   1.0000   1.0000   1.0000   1.0000   1.0000   1.0000
     1.0000   1.0000   1.0000   1.0000   1.0000   1.0000   1.0000   1.0000
     1.0000   1.0000   1.0000   1.0000   1.0000   1.0000   1.0000   1.0000
     1.0000   1.0000   1.0000   1.0000   1.0000   1.0000   1.0000   1.0000
     1.0000   1.0000   1.0000   1.0000   1.0000   1.0000   1.0000   1.0000
     1.0000   1.0000   1.0000   1.0000   1.0000   1.0000   1.0000   1.0000
     1.0000   1.0000   1.0000   1.0000   1.0000   1.0000   1.0000   1.0000
     1.0000   1.0000   1.0000   1.0000   1.0000   1.0000

          k =-0.5121-1.0544 0.0002 ( 43366 PWs)   bands (ev):

   -20.7988 -20.7986 -20.7872 -20.7869 -15.7455 -15.7455 -15.7370 -15.7370
   -15.7323 -15.7323 -15.6735 -15.6735 -15.6575 -15.6575  -7.0626  -6.9782
    -6.4778  -6.3554  -6.3390  -6.2877  -6.1667  -6.1081  -5.0224  -5.0114
    -4.9955  -4.9177  -4.8995  -4.8849  -4.8716  -4.8609  -4.7890  -4.7806
    -4.7597  -4.7379  -0.9723  -0.8931   1.2008   1.3534   1.4773   1.7038
     2.0939   2.2761   2.3488   2.3559   2.7110   2.9232   3.0095   3.1693
     3.1749   3.2507   3.2815   3.3071   3.3435   3.4975   3.6125   3.6618
     3.7377   3.7578   4.6863   4.7525   4.7683   4.8074   4.9082   4.9321
     4.9677   4.9974   5.0718   5.1187   5.1469   5.2692   5.6975   5.8667
     5.8952   5.9450   6.0152   6.0488   6.0799   6.1146

     occupation numbers 
     1.0000   1.0000   1.0000   1.0000   1.0000   1.0000   1.0000   1.0000
     1.0000   1.0000   1.0000   1.0000   1.0000   1.0000   1.0000   1.0000
     1.0000   1.0000   1.0000   1.0000   1.0000   1.0000   1.0000   1.0000
     1.0000   1.0000   1.0000   1.0000   1.0000   1.0000   1.0000   1.0000
     1.0000   1.0000   1.0000   1.0000   1.0000   1.0000   1.0000   1.0000
     1.0000   1.0000   1.0000   1.0000   1.0000   1.0000   1.0000   1.0000
     1.0000   1.0000   1.0000   1.0000   1.0000   1.0000   1.0000   1.0000
     1.0000   1.0000   1.0000   1.0000   1.0000   1.0000   1.0000   1.0000
     1.0000   1.0000   1.0000   1.0000   1.0000   1.0000   1.0000   1.0000
     1.0000   1.0000   1.0000   1.0000   1.0000   1.0000

          k =-0.4527-0.6528 0.2494 ( 43437 PWs)   bands (ev):

   -20.8111 -20.8008 -20.7855 -20.7754 -15.7455 -15.7454 -15.7368 -15.7368
   -15.7322 -15.7322 -15.6737 -15.6737 -15.6575 -15.6574  -7.1986  -7.0409
    -6.5605  -6.2396  -6.1915  -6.1724  -6.1661  -6.0635  -5.1007  -5.0367
    -4.9754  -4.9498  -4.8823  -4.8636  -4.8590  -4.8441  -4.8391  -4.7953
    -4.7502  -4.7351  -0.9891  -0.9554   1.3961   1.4555   1.7028   1.7576
     2.1071   2.2398   2.3342   2.4953   2.5436   2.8835   3.0741   3.0917
     3.0982   3.1854   3.2699   3.2799   3.3987   3.5570   3.6218   3.6740
     3.7034   3.8700   4.5947   4.6424   4.7048   4.8119   4.8640   4.8795
     4.9535   5.0013   5.1032   5.1937   5.2403   5.2722   5.5677   5.7081
     5.7447   5.8998   5.9560   5.9831   6.1312   6.1917

     occupation numbers 
     1.0000   1.0000   1.0000   1.0000   1.0000   1.0000   1.0000   1.0000
     1.0000   1.0000   1.0000   1.0000   1.0000   1.0000   1.0000   1.0000
     1.0000   1.0000   1.0000   1.0000   1.0000   1.0000   1.0000   1.0000
     1.0000   1.0000   1.0000   1.0000   1.0000   1.0000   1.0000   1.0000
     1.0000   1.0000   1.0000   1.0000   1.0000   1.0000   1.0000   1.0000
     1.0000   1.0000   1.0000   1.0000   1.0000   1.0000   1.0000   1.0000
     1.0000   1.0000   1.0000   1.0000   1.0000   1.0000   1.0000   1.0000
     1.0000   1.0000   1.0000   1.0000   1.0000   1.0000   1.0000   1.0000
     1.0000   1.0000   1.0000   1.0000   1.0000   1.0000   1.0000   1.0000
     1.0000   1.0000   1.0000   1.0000   1.0000   1.0000

          k =-0.6309-1.8577-0.4982 ( 43494 PWs)   bands (ev):

   -20.8197 -20.7952 -20.7918 -20.7674 -15.7455 -15.7454 -15.7367 -15.7366
   -15.7321 -15.7320 -15.6740 -15.6739 -15.6576 -15.6574  -7.3504  -6.9810
    -6.6684  -6.1871  -6.1224  -6.1048  -6.0944  -5.9809  -5.1684  -5.1044
    -4.9370  -4.9312  -4.9281  -4.9153  -4.8155  -4.8145  -4.7990  -4.7871
    -4.7625  -4.7623  -1.0923  -0.9365   1.5848   1.5851   1.8161   2.0043
     2.0341   2.1445   2.4250   2.5088   2.7280   2.8056   2.8217   3.0287
     3.1249   3.2237   3.2938   3.3699   3.4174   3.4567   3.5371   3.6452
     3.6563   4.0854   4.4886   4.5179   4.7513   4.7536   4.7784   4.8389
     4.9358   5.0670   5.1898   5.2023   5.2684   5.3479   5.3593   5.5131
     5.5229   5.8604   5.9957   6.0019   6.1348   6.1552

     occupation numbers 
     1.0000   1.0000   1.0000   1.0000   1.0000   1.0000   1.0000   1.0000
     1.0000   1.0000   1.0000   1.0000   1.0000   1.0000   1.0000   1.0000
     1.0000   1.0000   1.0000   1.0000   1.0000   1.0000   1.0000   1.0000
     1.0000   1.0000   1.0000   1.0000   1.0000   1.0000   1.0000   1.0000
     1.0000   1.0000   1.0000   1.0000   1.0000   1.0000   1.0000   1.0000
     1.0000   1.0000   1.0000   1.0000   1.0000   1.0000   1.0000   1.0000
     1.0000   1.0000   1.0000   1.0000   1.0000   1.0000   1.0000   1.0000
     1.0000   1.0000   1.0000   1.0000   1.0000   1.0000   1.0000   1.0000
     1.0000   1.0000   1.0000   1.0000   1.0000   1.0000   1.0000   1.0000
     1.0000   1.0000   1.0000   1.0000   1.0000   1.0000

     highest occupied level (ev):     6.2231

!    total energy              =   -1568.23807016 Ry
     estimated scf accuracy    <          2.3E-11 Ry

     The total energy is the sum of the following terms:
     one-electron contribution =    -586.28621304 Ry
     hartree contribution      =     401.40757542 Ry
     xc contribution           =    -371.69611588 Ry
     ewald contribution        =    -652.40126867 Ry
     one-center paw contrib.   =    -359.26204800 Ry
      -> PAW hartree energy AE =       0.00000000 Ry
      -> PAW hartree energy PS =       0.00000000 Ry
      -> PAW xc energy AE      =       0.00000000 Ry
      -> PAW xc energy PS      =       0.00000000 Ry
      -> total E_H with PAW    =     401.40757542 Ry
      -> total E_XC with PAW   =    -371.69611588 Ry

     convergence has been achieved in   8 iterations

     Forces acting on atoms (cartesian axes, Ry/au):

     atom    1 type  2   force =     0.00006508    0.00000462    0.00005486
     atom    2 type  2   force =    -0.00006508   -0.00000462   -0.00005486
     atom    3 type  2   force =    -0.00006378    0.00000313   -0.00004901
     atom    4 type  2   force =     0.00006378   -0.00000313    0.00004901
     atom    5 type  1   force =    -0.00014770    0.00000519   -0.00014588
     atom    6 type  1   force =     0.00014770   -0.00000519    0.00014588
     atom    7 type  1   force =     0.00015515   -0.00000210    0.00015043
     atom    8 type  1   force =    -0.00015515    0.00000210   -0.00015043
     atom    9 type  4   force =     0.00000204    0.00000264    0.00000248
     atom   10 type  4   force =    -0.00000204   -0.00000264   -0.00000248
     atom   11 type  3   force =    -0.00010258    0.00014072    0.00021677
     atom   12 type  3   force =     0.00010258   -0.00014072   -0.00021677
     atom   13 type  3   force =    -0.00007016   -0.00026731    0.00004360
     atom   14 type  3   force =     0.00007016    0.00026731   -0.00004360
     atom   15 type  3   force =     0.00000036    0.00026602   -0.00008869
     atom   16 type  3   force =    -0.00000036   -0.00026602    0.00008869
     atom   17 type  3   force =     0.00016959   -0.00014076   -0.00016819
     atom   18 type  3   force =    -0.00016959    0.00014076    0.00016819
     The non-local contrib.  to forces
     atom    1 type  2   force =    -0.00098094   -0.00529837   -0.00342929
     atom    2 type  2   force =     0.00098094    0.00529837    0.00342929
     atom    3 type  2   force =     0.00354801   -0.00528842    0.00013430
     atom    4 type  2   force =    -0.00354801    0.00528842   -0.00013430
     atom    5 type  1   force =    -0.06868607   -0.00007892   -0.05381067
     atom    6 type  1   force =     0.06868607    0.00007892    0.05381067
     atom    7 type  1   force =     0.06874095    0.00015896    0.05410056
     atom    8 type  1   force =    -0.06874095   -0.00015896   -0.05410056
     atom    9 type  4   force =     0.00004472   -0.00017906   -0.00002968
     atom   10 type  4   force =    -0.00004472    0.00017906    0.00002968
     atom   11 type  3   force =     0.12279453    0.12819907   -0.12573281
     atom   12 type  3   force =    -0.12279453   -0.12819907    0.12573281
     atom   13 type  3   force =     0.11872564    0.02596822   -0.18031568
     atom   14 type  3   force =    -0.11872564   -0.02596822    0.18031568
     atom   15 type  3   force =    -0.14780981   -0.02591620    0.15762665
     atom   16 type  3   force =     0.14780981    0.02591620   -0.15762665
     atom   17 type  3   force =    -0.09374827   -0.12808921    0.14858871
     atom   18 type  3   force =     0.09374827    0.12808921   -0.14858871
     The ionic contribution  to forces
     atom    1 type  2   force =    -0.78007654   -0.45141063   -0.84146191
     atom    2 type  2   force =     0.78007654    0.45141063    0.84146191
     atom    3 type  2   force =     0.99959242   -0.45052358    0.56178066
     atom    4 type  2   force =    -0.99959242    0.45052358   -0.56178066
     atom    5 type  1   force =     2.95329244   -0.00262833    2.32591117
     atom    6 type  1   force =    -2.95329244    0.00262833   -2.32591117
     atom    7 type  1   force =    -2.95021822   -0.00605087   -2.32653147
     atom    8 type  1   force =     2.95021822    0.00605087    2.32653147
     atom    9 type  4   force =    -0.00188130   -0.00031274    0.00077711
     atom   10 type  4   force =     0.00188130    0.00031274   -0.00077711
     atom   11 type  3   force =    -3.26763259   -4.80825034    7.49452408
     atom   12 type  3   force =     3.26763259    4.80825034   -7.49452408
     atom   13 type  3   force =    -7.23574766   -1.90283319    5.82519341
     atom   14 type  3   force =     7.23574766    1.90283319   -5.82519341
     atom   15 type  3   force =     3.97963029    1.90190528   -8.39691977
     atom   16 type  3   force =    -3.97963029   -1.90190528    8.39691977
     atom   17 type  3   force =     6.52445732    4.80538726   -4.92428502
     atom   18 type  3   force =    -6.52445732   -4.80538726    4.92428502
     The local contribution  to forces
     atom    1 type  2   force =     0.78112299    0.45671379    0.84494633
     atom    2 type  2   force =    -0.78112299   -0.45671379   -0.84494633
     atom    3 type  2   force =    -1.00320458    0.45581529   -0.56196428
     atom    4 type  2   force =     1.00320458   -0.45581529    0.56196428
     atom    5 type  1   force =    -2.88632629    0.00271482   -2.27343651
     atom    6 type  1   force =     2.88632629   -0.00271482    2.27343651
     atom    7 type  1   force =     2.88318427    0.00591792    2.27380625
     atom    8 type  1   force =    -2.88318427   -0.00591792   -2.27380625
     atom    9 type  4   force =     0.00183896    0.00048525   -0.00074354
     atom   10 type  4   force =    -0.00183896   -0.00048525    0.00074354
     atom   11 type  3   force =     3.15130115    4.68705828   -7.37552851
     atom   12 type  3   force =    -3.15130115   -4.68705828    7.37552851
     atom   13 type  3   force =     7.12349956    1.87810164   -5.65449672
     atom   14 type  3   force =    -7.12349956   -1.87810164    5.65449672
     atom   15 type  3   force =    -3.83969748   -1.87722426    8.24783216
     atom   16 type  3   force =     3.83969748    1.87722426   -8.24783216
     atom   17 type  3   force =    -6.43577705   -4.68429905    4.78352648
     atom   18 type  3   force =     6.43577705    4.68429905   -4.78352648
     The core correction contribution to forces
     atom    1 type  2   force =     0.00000000    0.00000000    0.00000000
     atom    2 type  2   force =     0.00000000    0.00000000    0.00000000
     atom    3 type  2   force =     0.00000000    0.00000000    0.00000000
     atom    4 type  2   force =     0.00000000    0.00000000    0.00000000
     atom    5 type  1   force =     0.00157486   -0.00000227    0.00119257
     atom    6 type  1   force =    -0.00157486    0.00000227   -0.00119257
     atom    7 type  1   force =    -0.00155459   -0.00002796   -0.00122730
     atom    8 type  1   force =     0.00155459    0.00002796    0.00122730
     atom    9 type  4   force =    -0.00000014    0.00000922   -0.00000126
     atom   10 type  4   force =     0.00000014   -0.00000922    0.00000126
     atom   11 type  3   force =    -0.00656707   -0.00686726    0.00695399
     atom   12 type  3   force =     0.00656707    0.00686726   -0.00695399
     atom   13 type  3   force =    -0.00654740   -0.00150381    0.00966430
     atom   14 type  3   force =     0.00654740    0.00150381   -0.00966430
     atom   15 type  3   force =     0.00787909    0.00150100   -0.00862783
     atom   16 type  3   force =    -0.00787909   -0.00150100    0.00862783
     atom   17 type  3   force =     0.00523729    0.00686119   -0.00799974
     atom   18 type  3   force =    -0.00523729   -0.00686119    0.00799974
     The Hubbard contrib.    to forces
     atom    1 type  2   force =     0.00000000    0.00000000    0.00000000
     atom    2 type  2   force =     0.00000000    0.00000000    0.00000000
     atom    3 type  2   force =     0.00000000    0.00000000    0.00000000
     atom    4 type  2   force =     0.00000000    0.00000000    0.00000000
     atom    5 type  1   force =     0.00000000    0.00000000    0.00000000
     atom    6 type  1   force =     0.00000000    0.00000000    0.00000000
     atom    7 type  1   force =     0.00000000    0.00000000    0.00000000
     atom    8 type  1   force =     0.00000000    0.00000000    0.00000000
     atom    9 type  4   force =     0.00000000    0.00000000    0.00000000
     atom   10 type  4   force =     0.00000000    0.00000000    0.00000000
     atom   11 type  3   force =     0.00000000    0.00000000    0.00000000
     atom   12 type  3   force =     0.00000000    0.00000000    0.00000000
     atom   13 type  3   force =     0.00000000    0.00000000    0.00000000
     atom   14 type  3   force =     0.00000000    0.00000000    0.00000000
     atom   15 type  3   force =     0.00000000    0.00000000    0.00000000
     atom   16 type  3   force =     0.00000000    0.00000000    0.00000000
     atom   17 type  3   force =     0.00000000    0.00000000    0.00000000
     atom   18 type  3   force =     0.00000000    0.00000000    0.00000000
     The SCF correction term to forces
     atom    1 type  2   force =    -0.00000042   -0.00000017   -0.00000027
     atom    2 type  2   force =     0.00000042    0.00000017    0.00000027
     atom    3 type  2   force =     0.00000037   -0.00000015    0.00000032
     atom    4 type  2   force =    -0.00000037    0.00000015   -0.00000032
     atom    5 type  1   force =    -0.00000265   -0.00000011   -0.00000245
     atom    6 type  1   force =     0.00000265    0.00000011    0.00000245
     atom    7 type  1   force =     0.00000273   -0.00000014    0.00000238
     atom    8 type  1   force =    -0.00000273    0.00000014   -0.00000238
     atom    9 type  4   force =    -0.00000020   -0.00000004   -0.00000015
     atom   10 type  4   force =     0.00000020    0.00000004    0.00000015
     atom   11 type  3   force =     0.00000141    0.00000097    0.00000002
     atom   12 type  3   force =    -0.00000141   -0.00000097   -0.00000002
     atom   13 type  3   force =    -0.00000030   -0.00000017   -0.00000171
     atom   14 type  3   force =     0.00000030    0.00000017    0.00000171
     atom   15 type  3   force =    -0.00000174    0.00000020    0.00000010
     atom   16 type  3   force =     0.00000174   -0.00000020   -0.00000010
     atom   17 type  3   force =     0.00000030   -0.00000095    0.00000138
     atom   18 type  3   force =    -0.00000030    0.00000095   -0.00000138

     Total force =     0.000911     Total SCF correction =     0.000009


     Computing stress (Cartesian axis) and pressure

          total   stress  (Ry/bohr**3)                   (kbar)     P=        0.07
   0.00000106   0.00000045  -0.00000004            0.16        0.07       -0.01
   0.00000045  -0.00000044  -0.00000054            0.07       -0.06       -0.08
  -0.00000004  -0.00000054   0.00000087           -0.01       -0.08        0.13

     kinetic stress (kbar)   7737.82     -3.93    -23.86
                               -3.93   7781.31      5.03
                              -23.86      5.03   7748.84

     local   stress (kbar)  -2157.34   3621.40  -6690.78
                             3621.40  -6144.85  -4590.91
                            -6690.78  -4590.91   1049.26

     nonloc. stress (kbar)   2074.46      0.41     -2.26
                                0.41   2075.80     -0.50
                               -2.26     -0.50   2075.41

     hartree stress (kbar)   6318.16  -1727.26   3137.50
                            -1727.26   8288.27   2189.85
                             3137.50   2189.85   4814.20

     exc-cor stress (kbar)   5862.66     -0.25      0.15
                               -0.25   5863.33      0.32
                                0.15      0.32   5862.59

     corecor stress (kbar)  -9228.41      0.30     -0.31
                                0.30  -9229.02     -0.39
                               -0.31     -0.39  -9228.22

     ewald   stress (kbar) -10607.20  -1890.60   3579.56
                            -1890.60  -8634.90   2396.52
                             3579.56   2396.52 -12321.95

     hubbard stress (kbar)      0.00      0.00      0.00
                                0.00      0.00      0.00
                                0.00      0.00      0.00

     DFT-D   stress (kbar)      0.00      0.00      0.00
                                0.00      0.00      0.00
                                0.00      0.00      0.00

     XDM     stress (kbar)      0.00      0.00      0.00
                                0.00      0.00      0.00
                                0.00      0.00      0.00

     dft-nl  stress (kbar)      0.00      0.00      0.00
                                0.00      0.00      0.00
                                0.00      0.00      0.00

     TS-vdW  stress (kbar)      0.00      0.00      0.00
                                0.00      0.00      0.00
                                0.00      0.00      0.00

     MDB     stress (kbar)      0.00      0.00      0.00
                                0.00      0.00      0.00
                                0.00      0.00      0.00

     3D-RISM stress (kbar)      0.00      0.00      0.00
                                0.00      0.00      0.00
                                0.00      0.00      0.00

     Energy error            =      2.6E-06 Ry
     Gradient error          =      2.7E-04 Ry/Bohr
     Cell gradient error     =      1.6E-01 kbar

     bfgs converged in   9 scf cycles and   8 bfgs steps
     (criteria: energy <  1.0E-05 Ry, force <  1.0E-03 Ry/Bohr, cell <  5.0E-01 kbar)

     End of BFGS Geometry Optimization

     Final enthalpy           =   -1568.2380701606 Ry

     File ./tmp/relax/Rb2Cu2SnS4_relax.bfgs deleted, as requested
Begin final coordinates
     new unit-cell volume =   3040.53352 a.u.^3 (   450.56058 Ang^3 )
     density =      4.01717 g/cm^3

CELL_PARAMETERS (angstrom)
   9.262220331   0.001464129  -2.211142221
  -1.257428537   5.109115337  -7.934383138
   0.006190717  -0.000850179   9.520738656

ATOMIC_POSITIONS (crystal)
Rb               0.1244481298        0.7287134666        0.8531492611
Rb               0.8755518702        0.2712865334        0.1468507389
Rb               0.3755631236        0.2286846354        0.6042497061
Rb               0.6244368764        0.7713153646        0.3957502939
Cu               0.0245064442        0.7500328467        0.2744937749
Cu               0.9754935558        0.2499671533        0.7255062251
Cu               0.4754941097        0.7500102210        0.7255510298
Cu               0.5245058903        0.2499897790        0.2744489702
Sn               0.2500038247        0.2499850710       -0.0000032884
Sn               0.7499961753        0.7500149290        0.0000032884
S                0.0166918786        0.9200001459        0.6377594161
S                0.9833081214        0.0799998541        0.3622405839
S                0.2822393742        0.3789715631        0.3622959393
S                0.7177606258        0.6210284369        0.6377040607
S                0.4832897287        0.1210544120        0.9032629699
S                0.5167102713        0.8789455880        0.0967370301
S                0.2177638762        0.5800303218        0.0967049430
S                0.7822361238        0.4199696782        0.9032950570
End final coordinates



     Writing config-only to output data dir ./tmp/relax/Rb2Cu2SnS4_relax.save/ :
     XML data file

     Final scf calculation at the relaxed structure.
     The G-vectors are recalculated for the final unit cell
     Results may differ from those at the preceding step.

     Parallelization info
     --------------------
     sticks:   dense  smooth     PW     G-vecs:    dense   smooth      PW
     Min        3083    1544    446               165313    58474    9065
     Max        3085    1545    447               165314    58475    9066
     Sum       18503    9269   2677               991881   350847   54395

     Using Slab Decomposition



     bravais-lattice index     =            0
     lattice parameter (alat)  =      17.9341  a.u.
     unit-cell volume          =    3040.5335 (a.u.)^3
     number of atoms/cell      =           18
     number of atomic types    =            4
     number of electrons       =       156.00
     number of Kohn-Sham states=           78
     kinetic-energy cutoff     =      90.0000  Ry
     charge density cutoff     =     720.0000  Ry
     scf convergence threshold =      1.0E-10
     mixing beta               =       0.3000
     number of iterations used =            8  plain     mixing
     press convergence thresh. =      5.0E-01
     Exchange-correlation= SLA  PW   PBE  PBE
                           (   1   4   3   4   0   0   0)

     celldm(1)=  17.934128  celldm(2)=   0.000000  celldm(3)=   0.000000
     celldm(4)=   0.000000  celldm(5)=   0.000000  celldm(6)=   0.000000

     crystal axes: (cart. coord. in units of alat)
               a(1) = (   0.975964   0.000154  -0.232989 )  
               a(2) = (  -0.132496   0.538349  -0.836049 )  
               a(3) = (   0.000652  -0.000090   1.003204 )  

     reciprocal axes: (cart. coord. in units 2 pi/alat)
               b(1) = (  1.024435  0.251129 -0.000644 )  
               b(2) = ( -0.000254  1.857725  0.000166 )  
               b(3) = (  0.237708  1.606512  0.996795 )  


     PseudoPot. # 1 for Cu read from file:
     /Users/kaede/scientific-tools/pseudopotentials/SSSP/1.3.0/PBE/precision/Cu.paw.z_11.ld1.psl.v1.0.0-low.upf
     MD5 check sum: 619f40885d92a09a85a8b37550532d0c
     Pseudo is Projector augmented-wave + core cor, Zval = 11.0
     Generated using &quot;atomic&quot; code by A. Dal Corso  v.6.3MaX
     Shape of augmentation charge: PSQ
     Using radial grid of 1199 points,  6 beta functions with: 
                l(1) =   0
                l(2) =   0
                l(3) =   1
                l(4) =   1
                l(5) =   2
                l(6) =   2
     Q(r) pseudized with 0 coefficients 


     PseudoPot. # 2 for Rb read from file:
     /Users/kaede/scientific-tools/pseudopotentials/SSSP/1.3.0/PBE/precision/Rb_ONCV_PBE-1.0.oncvpsp.upf
     MD5 check sum: 55a5172d6bfbce6759a58e35d43f6aa9
     Pseudo is Norm-conserving, Zval =  9.0
     Generated using ONCVPSP code by D. R. Hamann
     Using radial grid of 2308 points,  6 beta functions with: 
                l(1) =   0
                l(2) =   0
                l(3) =   1
                l(4) =   1
                l(5) =   2
                l(6) =   2

     PseudoPot. # 3 for S  read from file:
     /Users/kaede/scientific-tools/pseudopotentials/SSSP/1.3.0/PBE/precision/s_pbe_v1.4.uspp.F.UPF
     MD5 check sum: 88d86576ff6df21479756cfb9bdac1df
     Pseudo is Ultrasoft + core correction, Zval =  6.0
     Generated by new atomic code, or converted to UPF format
     Using radial grid of  907 points,  6 beta functions with: 
                l(1) =   0
                l(2) =   0
                l(3) =   1
                l(4) =   1
                l(5) =   2
                l(6) =   2
     Q(r) pseudized with  8 coefficients,  rinner =    1.300   1.300   1.300
                                                       1.300   1.300

     PseudoPot. # 4 for Sn read from file:
     /Users/kaede/scientific-tools/pseudopotentials/SSSP/1.3.0/PBE/precision/Sn_pbe_v1.uspp.F.UPF
     MD5 check sum: 4cf58ce39ec5d5d420df3dd08604eb00
     Pseudo is Ultrasoft + core correction, Zval = 14.0
     Generated by new atomic code, or converted to UPF format
     Using radial grid of  891 points,  6 beta functions with: 
                l(1) =   0
                l(2) =   0
                l(3) =   1
                l(4) =   1
                l(5) =   2
                l(6) =   2
     Q(r) pseudized with  6 coefficients,  rinner =    1.200   1.200   1.200
                                                       1.200   1.200

     atomic species   valence    mass     pseudopotential
     Cu               11.00    63.54600     Cu( 1.00)
     Rb                9.00    85.46780     Rb( 1.00)
     S                 6.00    32.06500     S ( 1.00)
     Sn               14.00   118.71000     Sn( 1.00)

      2 Sym. Ops., with inversion, found


                                    s                        frac. trans.

      isym =  1     identity                                     

 cryst.   s( 1) = (     1          0          0      )
                  (     0          1          0      )
                  (     0          0          1      )

 cart.    s( 1) = (  1.0000000 -0.0000000  0.0000000 )
                  (  0.0000000  1.0000000  0.0000000 )
                  (  0.0000000  0.0000000  1.0000000 )


      isym =  2     inversion                                    

 cryst.   s( 2) = (    -1          0          0      )
                  (     0         -1          0      )
                  (     0          0         -1      )

 cart.    s( 2) = ( -1.0000000  0.0000000  0.0000000 )
                  (  0.0000000 -1.0000000  0.0000000 )
                  ( -0.0000000 -0.0000000 -1.0000000 )


   Cartesian axes

     site n.     atom                  positions (alat units)
         1        Rb     tau(   1) = (   0.0254620   0.3922453   0.2176475  )
         2        Rb     tau(   2) = (   0.8186584   0.1461689  -0.2834815  )
         3        Rb     tau(   3) = (   0.3366304   0.1231161   0.3274921  )
         4        Rb     tau(   4) = (   0.5074899   0.4152981  -0.3933261  )
         5        Cu     tau(   5) = (  -0.0752797   0.4037590  -0.3574008  )
         6        Cu     tau(   6) = (   0.9194001   0.1346552   0.2915667  )
         7        Cu     tau(   7) = (   0.3651652   0.4037760  -0.0099545  )
         8        Cu     tau(   8) = (   0.4789552   0.1346382  -0.0558795  )
         9        Sn     tau(   9) = (   0.2108727   0.1346179  -0.2672512  )
        10        Sn     tau(  10) = (   0.6325953   0.4038859  -0.8017868  )
        11        S      tau(  11) = (  -0.1051894   0.4952271  -0.1332515  )
        12        S      tau(  12) = (   0.9493098   0.0431871   0.0674175  )
        13        S      tau(  13) = (   0.2254796   0.2040302  -0.0191407  )
        14        S      tau(  14) = (   0.6186408   0.3343840  -0.0466933  )
        15        S      tau(  15) = (   0.4562233   0.0651632   0.6923484  )
        16        S      tau(  16) = (   0.3878971   0.4732510  -0.7581824  )
        17        S      tau(  17) = (   0.1357412   0.3122840  -0.4386556  )
        18        S      tau(  18) = (   0.7083792   0.2261302   0.3728216  )

   Crystallographic axes

     site n.     atom                  positions (cryst. coord.)
         1        Rb     tau(   1) = (  0.1244481  0.7287135  0.8531493  )
         2        Rb     tau(   2) = (  0.8755519  0.2712865  0.1468507  )
         3        Rb     tau(   3) = (  0.3755631  0.2286846  0.6042497  )
         4        Rb     tau(   4) = (  0.6244369  0.7713154  0.3957503  )
         5        Cu     tau(   5) = (  0.0245064  0.7500328  0.2744938  )
         6        Cu     tau(   6) = (  0.9754936  0.2499672  0.7255062  )
         7        Cu     tau(   7) = (  0.4754941  0.7500102  0.7255510  )
         8        Cu     tau(   8) = (  0.5245059  0.2499898  0.2744490  )
         9        Sn     tau(   9) = (  0.2500038  0.2499851 -0.0000033  )
        10        Sn     tau(  10) = (  0.7499962  0.7500149  0.0000033  )
        11        S      tau(  11) = (  0.0166919  0.9200001  0.6377594  )
        12        S      tau(  12) = (  0.9833081  0.0799999  0.3622406  )
        13        S      tau(  13) = (  0.2822394  0.3789716  0.3622959  )
        14        S      tau(  14) = (  0.7177606  0.6210284  0.6377041  )
        15        S      tau(  15) = (  0.4832897  0.1210544  0.9032630  )
        16        S      tau(  16) = (  0.5167103  0.8789456  0.0967370  )
        17        S      tau(  17) = (  0.2177639  0.5800303  0.0967049  )
        18        S      tau(  18) = (  0.7822361  0.4199697  0.9032951  )

     number of k points=    20
                       cart. coord. in units 2pi/alat
        k(    1) = (   0.0000000   0.0000000   0.0000000), wk =   0.0625000
        k(    2) = (   0.0594270   0.4016280   0.2491988), wk =   0.1250000
        k(    3) = (  -0.1188540  -0.8032560  -0.4983976), wk =   0.0625000
        k(    4) = (  -0.0000635   0.4644312   0.0000415), wk =   0.1250000
        k(    5) = (   0.0593635   0.8660592   0.2492403), wk =   0.1250000
        k(    6) = (  -0.1189175  -0.3388248  -0.4983561), wk =   0.1250000
        k(    7) = (  -0.0594905   0.0628032  -0.2491573), wk =   0.1250000
        k(    8) = (   0.0001270  -0.9288624  -0.0000830), wk =   0.0625000
        k(    9) = (   0.0595540  -0.5272344   0.2491158), wk =   0.1250000
        k(   10) = (  -0.1187270  -1.7321184  -0.4984806), wk =   0.0625000
        k(   11) = (  -0.5122174  -0.1255644   0.0003218), wk =   0.0625000
        k(   12) = (  -0.4527904   0.2760636   0.2495206), wk =   0.1250000
        k(   13) = (  -0.6310714  -0.9288204  -0.4980757), wk =   0.0625000
        k(   14) = (  -0.5122809   0.3388668   0.0003634), wk =   0.1250000
        k(   15) = (  -0.4528539   0.7404948   0.2495621), wk =   0.1250000
        k(   16) = (  -0.6311349  -0.4643893  -0.4980342), wk =   0.1250000
        k(   17) = (  -0.5717079  -0.0627612  -0.2488354), wk =   0.1250000
        k(   18) = (  -0.5120904  -1.0544268   0.0002388), wk =   0.0625000
        k(   19) = (  -0.4526634  -0.6527988   0.2494376), wk =   0.1250000
        k(   20) = (  -0.6309444  -1.8576828  -0.4981587), wk =   0.0625000

                       cryst. coord.
        k(    1) = (   0.0000000   0.0000000   0.0000000), wk =   0.0625000
        k(    2) = (   0.0000000  -0.0000000   0.2500000), wk =   0.1250000
        k(    3) = (  -0.0000000   0.0000000  -0.5000000), wk =   0.0625000
        k(    4) = (   0.0000000   0.2500000   0.0000000), wk =   0.1250000
        k(    5) = (   0.0000000   0.2500000   0.2500000), wk =   0.1250000
        k(    6) = (  -0.0000000   0.2500000  -0.5000000), wk =   0.1250000
        k(    7) = (  -0.0000000   0.2500000  -0.2500000), wk =   0.1250000
        k(    8) = (  -0.0000000  -0.5000000  -0.0000000), wk =   0.0625000
        k(    9) = (   0.0000000  -0.5000000   0.2500000), wk =   0.1250000
        k(   10) = (  -0.0000000  -0.5000000  -0.5000000), wk =   0.0625000
        k(   11) = (  -0.5000000  -0.0000000  -0.0000000), wk =   0.0625000
        k(   12) = (  -0.5000000   0.0000000   0.2500000), wk =   0.1250000
        k(   13) = (  -0.5000000  -0.0000000  -0.5000000), wk =   0.0625000
        k(   14) = (  -0.5000000   0.2500000  -0.0000000), wk =   0.1250000
        k(   15) = (  -0.5000000   0.2500000   0.2500000), wk =   0.1250000
        k(   16) = (  -0.5000000   0.2500000  -0.5000000), wk =   0.1250000
        k(   17) = (  -0.5000000   0.2500000  -0.2500000), wk =   0.1250000
        k(   18) = (  -0.5000000  -0.5000000  -0.0000000), wk =   0.0625000
        k(   19) = (  -0.5000000  -0.5000000   0.2500000), wk =   0.1250000
        k(   20) = (  -0.5000000  -0.5000000  -0.5000000), wk =   0.0625000

     Dense  grid:   991881 G-vectors     FFT dimensions: ( 160, 160, 160)

     Smooth grid:   350847 G-vectors     FFT dimensions: ( 120, 120, 120)

     Dynamical RAM for                 wfc:       8.70 MB

     Dynamical RAM for     wfc (w. buffer):       8.70 MB

     Dynamical RAM for           str. fact:      10.09 MB

     Dynamical RAM for           local pot:       5.00 MB

     Dynamical RAM for          nlocal pot:      36.12 MB

     Dynamical RAM for                qrad:      17.22 MB

     Dynamical RAM for          rho,v,vnew:      23.39 MB

     Dynamical RAM for               rhoin:       7.80 MB

     Dynamical RAM for            rho*nmix:      40.36 MB

     Dynamical RAM for           G-vectors:       9.91 MB

     Dynamical RAM for          h,s,v(r/c):       1.11 MB

     Dynamical RAM for          <psi|beta>:       0.39 MB

     Dynamical RAM for                 psi:      17.39 MB

     Dynamical RAM for                hpsi:      17.39 MB

     Dynamical RAM for                spsi:      17.39 MB

     Dynamical RAM for      wfcinit/wfcrot:      23.89 MB

     Dynamical RAM for           addusdens:     245.94 MB

     Dynamical RAM for          addusforce:     263.63 MB

     Dynamical RAM for         addusstress:     254.14 MB

     Estimated static dynamical RAM per process >     157.19 MB

     Estimated max dynamical RAM per process >     461.19 MB

     Estimated total dynamical RAM >       5.17 GB

     Initial potential from superposition of free atoms

     starting charge     153.8996, renormalised to     156.0000
     Starting wfcs are  106 randomized atomic wfcs
     Checking if some PAW data can be deallocated... 
       PAW data deallocated on   10 nodes for type:  1

     total cpu time spent up to now is     2413.1 secs

     Self-consistent Calculation

     iteration #  1     ecut=    90.00 Ry     beta= 0.30
     Davidson diagonalization with overlap

---- Real-time Memory Report at c_bands before calling an iterative solver
             0 MiB given to the printing process from OS
             0 MiB allocation reported by mallinfo(arena+hblkhd)
             0 MiB available memory on the node where the printing process lives
------------------
     c_bands:  2 eigenvalues not converged
     c_bands:  3 eigenvalues not converged
     c_bands:  5 eigenvalues not converged
     c_bands:  5 eigenvalues not converged
     c_bands:  1 eigenvalues not converged
     c_bands:  2 eigenvalues not converged
     ethr =  1.00E-06,  avg # of iterations = 25.6

     total cpu time spent up to now is     2518.0 secs

     total energy              =   -1566.60723764 Ry
     estimated scf accuracy    <       4.68571087 Ry

     iteration #  2     ecut=    90.00 Ry     beta= 0.30
     Davidson diagonalization with overlap

---- Real-time Memory Report at c_bands before calling an iterative solver
             0 MiB given to the printing process from OS
             0 MiB allocation reported by mallinfo(arena+hblkhd)
             0 MiB available memory on the node where the printing process lives
------------------
     ethr =  3.00E-03,  avg # of iterations =  4.0

     total cpu time spent up to now is     2542.1 secs

     total energy              =   -1568.12660097 Ry
     estimated scf accuracy    <       2.99722934 Ry

     iteration #  3     ecut=    90.00 Ry     beta= 0.30
     Davidson diagonalization with overlap

---- Real-time Memory Report at c_bands before calling an iterative solver
             0 MiB given to the printing process from OS
             0 MiB allocation reported by mallinfo(arena+hblkhd)
             0 MiB available memory on the node where the printing process lives
------------------
     ethr =  1.92E-03,  avg # of iterations =  2.0

     total cpu time spent up to now is     2562.1 secs

     total energy              =   -1567.97741065 Ry
     estimated scf accuracy    <       0.63497516 Ry

     iteration #  4     ecut=    90.00 Ry     beta= 0.30
     Davidson diagonalization with overlap

---- Real-time Memory Report at c_bands before calling an iterative solver
             0 MiB given to the printing process from OS
             0 MiB allocation reported by mallinfo(arena+hblkhd)
             0 MiB available memory on the node where the printing process lives
------------------
     ethr =  4.07E-04,  avg # of iterations =  6.0

     total cpu time spent up to now is     2589.2 secs

     total energy              =   -1568.10996684 Ry
     estimated scf accuracy    <       0.86034215 Ry

     iteration #  5     ecut=    90.00 Ry     beta= 0.30
     Davidson diagonalization with overlap

---- Real-time Memory Report at c_bands before calling an iterative solver
             0 MiB given to the printing process from OS
             0 MiB allocation reported by mallinfo(arena+hblkhd)
             0 MiB available memory on the node where the printing process lives
------------------
     ethr =  4.07E-04,  avg # of iterations =  3.5

     total cpu time spent up to now is     2610.6 secs

     total energy              =   -1568.22857108 Ry
     estimated scf accuracy    <       0.01805907 Ry

     iteration #  6     ecut=    90.00 Ry     beta= 0.30
     Davidson diagonalization with overlap

---- Real-time Memory Report at c_bands before calling an iterative solver
             0 MiB given to the printing process from OS
             0 MiB allocation reported by mallinfo(arena+hblkhd)
             0 MiB available memory on the node where the printing process lives
------------------
     ethr =  1.16E-05,  avg # of iterations =  5.4

     total cpu time spent up to now is     2637.6 secs

     total energy              =   -1568.23695144 Ry
     estimated scf accuracy    <       0.00802251 Ry

     iteration #  7     ecut=    90.00 Ry     beta= 0.30
     Davidson diagonalization with overlap

---- Real-time Memory Report at c_bands before calling an iterative solver
             0 MiB given to the printing process from OS
             0 MiB allocation reported by mallinfo(arena+hblkhd)
             0 MiB available memory on the node where the printing process lives
------------------
     ethr =  5.14E-06,  avg # of iterations =  4.8

     total cpu time spent up to now is     2661.4 secs

     total energy              =   -1568.23917132 Ry
     estimated scf accuracy    <       0.00332574 Ry

     iteration #  8     ecut=    90.00 Ry     beta= 0.30
     Davidson diagonalization with overlap

---- Real-time Memory Report at c_bands before calling an iterative solver
             0 MiB given to the printing process from OS
             0 MiB allocation reported by mallinfo(arena+hblkhd)
             0 MiB available memory on the node where the printing process lives
------------------
     ethr =  2.13E-06,  avg # of iterations =  5.0

     total cpu time spent up to now is     2686.9 secs

     total energy              =   -1568.23518513 Ry
     estimated scf accuracy    <       0.01562380 Ry

     iteration #  9     ecut=    90.00 Ry     beta= 0.30
     Davidson diagonalization with overlap

---- Real-time Memory Report at c_bands before calling an iterative solver
             0 MiB given to the printing process from OS
             0 MiB allocation reported by mallinfo(arena+hblkhd)
             0 MiB available memory on the node where the printing process lives
------------------
     ethr =  2.13E-06,  avg # of iterations =  5.0

     total cpu time spent up to now is     2713.7 secs

     total energy              =   -1568.23793511 Ry
     estimated scf accuracy    <       0.00045476 Ry

     iteration # 10     ecut=    90.00 Ry     beta= 0.30
     Davidson diagonalization with overlap

---- Real-time Memory Report at c_bands before calling an iterative solver
             0 MiB given to the printing process from OS
             0 MiB allocation reported by mallinfo(arena+hblkhd)
             0 MiB available memory on the node where the printing process lives
------------------
     ethr =  2.92E-07,  avg # of iterations =  4.2

     total cpu time spent up to now is     2737.9 secs

     total energy              =   -1568.23803069 Ry
     estimated scf accuracy    <       0.00032339 Ry

     iteration # 11     ecut=    90.00 Ry     beta= 0.30
     Davidson diagonalization with overlap

---- Real-time Memory Report at c_bands before calling an iterative solver
             0 MiB given to the printing process from OS
             0 MiB allocation reported by mallinfo(arena+hblkhd)
             0 MiB available memory on the node where the printing process lives
------------------
     ethr =  2.07E-07,  avg # of iterations =  2.5

     total cpu time spent up to now is     2758.1 secs

     total energy              =   -1568.23805729 Ry
     estimated scf accuracy    <       0.00003471 Ry

     iteration # 12     ecut=    90.00 Ry     beta= 0.30
     Davidson diagonalization with overlap

---- Real-time Memory Report at c_bands before calling an iterative solver
             0 MiB given to the printing process from OS
             0 MiB allocation reported by mallinfo(arena+hblkhd)
             0 MiB available memory on the node where the printing process lives
------------------
     ethr =  2.22E-08,  avg # of iterations =  7.5

     total cpu time spent up to now is     2785.7 secs

     total energy              =   -1568.23807455 Ry
     estimated scf accuracy    <       0.00000770 Ry

     iteration # 13     ecut=    90.00 Ry     beta= 0.30
     Davidson diagonalization with overlap

---- Real-time Memory Report at c_bands before calling an iterative solver
             0 MiB given to the printing process from OS
             0 MiB allocation reported by mallinfo(arena+hblkhd)
             0 MiB available memory on the node where the printing process lives
------------------
     ethr =  4.94E-09,  avg # of iterations =  2.7

     total cpu time spent up to now is     2804.9 secs

     total energy              =   -1568.23807385 Ry
     estimated scf accuracy    <       0.00000644 Ry

     iteration # 14     ecut=    90.00 Ry     beta= 0.30
     Davidson diagonalization with overlap

---- Real-time Memory Report at c_bands before calling an iterative solver
             0 MiB given to the printing process from OS
             0 MiB allocation reported by mallinfo(arena+hblkhd)
             0 MiB available memory on the node where the printing process lives
------------------
     ethr =  4.13E-09,  avg # of iterations =  2.5

     total cpu time spent up to now is     2825.2 secs

     total energy              =   -1568.23807470 Ry
     estimated scf accuracy    <       0.00000068 Ry

     iteration # 15     ecut=    90.00 Ry     beta= 0.30
     Davidson diagonalization with overlap

---- Real-time Memory Report at c_bands before calling an iterative solver
             0 MiB given to the printing process from OS
             0 MiB allocation reported by mallinfo(arena+hblkhd)
             0 MiB available memory on the node where the printing process lives
------------------
     ethr =  4.36E-10,  avg # of iterations =  5.8

     total cpu time spent up to now is     2851.9 secs

     total energy              =   -1568.23807506 Ry
     estimated scf accuracy    <       0.00000005 Ry

     iteration # 16     ecut=    90.00 Ry     beta= 0.30
     Davidson diagonalization with overlap

---- Real-time Memory Report at c_bands before calling an iterative solver
             0 MiB given to the printing process from OS
             0 MiB allocation reported by mallinfo(arena+hblkhd)
             0 MiB available memory on the node where the printing process lives
------------------
     ethr =  3.41E-11,  avg # of iterations =  5.8

     total cpu time spent up to now is     2877.8 secs

     total energy              =   -1568.23807514 Ry
     estimated scf accuracy    <       0.00000001 Ry

     iteration # 17     ecut=    90.00 Ry     beta= 0.30
     Davidson diagonalization with overlap

---- Real-time Memory Report at c_bands before calling an iterative solver
             0 MiB given to the printing process from OS
             0 MiB allocation reported by mallinfo(arena+hblkhd)
             0 MiB available memory on the node where the printing process lives
------------------
     ethr =  7.89E-12,  avg # of iterations =  4.1

     total cpu time spent up to now is     2900.8 secs

     total energy              =   -1568.23807518 Ry
     estimated scf accuracy    <          3.0E-09 Ry

     iteration # 18     ecut=    90.00 Ry     beta= 0.30
     Davidson diagonalization with overlap

---- Real-time Memory Report at c_bands before calling an iterative solver
             0 MiB given to the printing process from OS
             0 MiB allocation reported by mallinfo(arena+hblkhd)
             0 MiB available memory on the node where the printing process lives
------------------
     ethr =  1.95E-12,  avg # of iterations =  3.8

     total cpu time spent up to now is     2926.3 secs

     total energy              =   -1568.23807519 Ry
     estimated scf accuracy    <          1.0E-09 Ry

     iteration # 19     ecut=    90.00 Ry     beta= 0.30
     Davidson diagonalization with overlap

---- Real-time Memory Report at c_bands before calling an iterative solver
             0 MiB given to the printing process from OS
             0 MiB allocation reported by mallinfo(arena+hblkhd)
             0 MiB available memory on the node where the printing process lives
------------------
     ethr =  6.40E-13,  avg # of iterations =  5.3

     total cpu time spent up to now is     2950.2 secs

     total energy              =   -1568.23807520 Ry
     estimated scf accuracy    <          1.7E-09 Ry

     iteration # 20     ecut=    90.00 Ry     beta= 0.30
     Davidson diagonalization with overlap

---- Real-time Memory Report at c_bands before calling an iterative solver
             0 MiB given to the printing process from OS
             0 MiB allocation reported by mallinfo(arena+hblkhd)
             0 MiB available memory on the node where the printing process lives
------------------
     ethr =  6.40E-13,  avg # of iterations =  4.8

     total cpu time spent up to now is     2973.5 secs

     End of self-consistent calculation

          k = 0.0000 0.0000 0.0000 ( 43831 PWs)   bands (ev):

   -20.8198 -20.7952 -20.7917 -20.7674 -15.7455 -15.7454 -15.7367 -15.7366
   -15.7321 -15.7320 -15.6740 -15.6739 -15.6576 -15.6574  -7.2924  -6.9607
    -6.6549  -6.3200  -6.1608  -6.1545  -6.1527  -5.9307  -5.1756  -5.0979
    -4.9392  -4.9330  -4.8827  -4.8701  -4.8272  -4.8267  -4.7853  -4.7620
    -4.7616  -4.6862  -1.1000  -0.8945   1.4986   1.5796   1.8140   1.9549
     2.0368   2.0806   2.1475   2.4647   2.8301   2.9343   3.0686   3.1053
     3.2320   3.2586   3.3348   3.3393   3.3467   3.3927   3.5079   3.6155
     3.7307   3.7615   4.4928   4.5393   4.7491   4.7540   4.7662   4.8628
     4.8803   5.0962   5.1985   5.2220   5.2683   5.3279   5.4291   5.5198
     5.6467   5.8256   5.9418   6.1080   6.1478   6.2026

     occupation numbers 
     1.0000   1.0000   1.0000   1.0000   1.0000   1.0000   1.0000   1.0000
     1.0000   1.0000   1.0000   1.0000   1.0000   1.0000   1.0000   1.0000
     1.0000   1.0000   1.0000   1.0000   1.0000   1.0000   1.0000   1.0000
     1.0000   1.0000   1.0000   1.0000   1.0000   1.0000   1.0000   1.0000
     1.0000   1.0000   1.0000   1.0000   1.0000   1.0000   1.0000   1.0000
     1.0000   1.0000   1.0000   1.0000   1.0000   1.0000   1.0000   1.0000
     1.0000   1.0000   1.0000   1.0000   1.0000   1.0000   1.0000   1.0000
     1.0000   1.0000   1.0000   1.0000   1.0000   1.0000   1.0000   1.0000
     1.0000   1.0000   1.0000   1.0000   1.0000   1.0000   1.0000   1.0000
     1.0000   1.0000   1.0000   1.0000   1.0000   1.0000

          k = 0.0594 0.4016 0.2492 ( 43845 PWs)   bands (ev):

   -20.8112 -20.8008 -20.7855 -20.7754 -15.7455 -15.7455 -15.7368 -15.7368
   -15.7322 -15.7322 -15.6738 -15.6737 -15.6575 -15.6574  -7.1930  -6.9955
    -6.4622  -6.3136  -6.2720  -6.2426  -6.2163  -6.0405  -5.0990  -5.0169
    -4.9402  -4.8999  -4.8779  -4.8669  -4.8555  -4.8546  -4.8242  -4.7654
    -4.7570  -4.7461  -1.0418  -0.8912   1.2939   1.4692   1.5994   1.8978
     2.0038   2.1611   2.3775   2.5606   2.6245   2.9056   3.0071   3.1559
     3.2038   3.2391   3.2415   3.3323   3.3385   3.4668   3.6214   3.6587
     3.7024   3.7629   4.5994   4.6549   4.7350   4.7874   4.8392   4.9006
     4.9221   5.0316   5.1293   5.1686   5.1847   5.3392   5.6345   5.6848
     5.7477   5.8562   5.9596   6.0298   6.0874   6.1999

     occupation numbers 
     1.0000   1.0000   1.0000   1.0000   1.0000   1.0000   1.0000   1.0000
     1.0000   1.0000   1.0000   1.0000   1.0000   1.0000   1.0000   1.0000
     1.0000   1.0000   1.0000   1.0000   1.0000   1.0000   1.0000   1.0000
     1.0000   1.0000   1.0000   1.0000   1.0000   1.0000   1.0000   1.0000
     1.0000   1.0000   1.0000   1.0000   1.0000   1.0000   1.0000   1.0000
     1.0000   1.0000   1.0000   1.0000   1.0000   1.0000   1.0000   1.0000
     1.0000   1.0000   1.0000   1.0000   1.0000   1.0000   1.0000   1.0000
     1.0000   1.0000   1.0000   1.0000   1.0000   1.0000   1.0000   1.0000
     1.0000   1.0000   1.0000   1.0000   1.0000   1.0000   1.0000   1.0000
     1.0000   1.0000   1.0000   1.0000   1.0000   1.0000

          k =-0.1189-0.8033-0.4984 ( 43830 PWs)   bands (ev):

   -20.7988 -20.7986 -20.7872 -20.7869 -15.7455 -15.7455 -15.7370 -15.7370
   -15.7323 -15.7323 -15.6735 -15.6735 -15.6575 -15.6575  -7.0627  -6.9782
    -6.4777  -6.3553  -6.3392  -6.2878  -6.1668  -6.1079  -5.0224  -5.0112
    -4.9956  -4.9179  -4.8993  -4.8849  -4.8718  -4.8608  -4.7891  -4.7805
    -4.7595  -4.7380  -0.9723  -0.8931   1.2006   1.3535   1.4776   1.7035
     2.0939   2.2761   2.3489   2.3558   2.7110   2.9232   3.0095   3.1692
     3.1750   3.2506   3.2815   3.3072   3.3436   3.4975   3.6125   3.6617
     3.7376   3.7579   4.6863   4.7525   4.7684   4.8073   4.9081   4.9320
     4.9679   4.9975   5.0719   5.1186   5.1469   5.2691   5.6977   5.8664
     5.8949   5.9449   6.0156   6.0490   6.0799   6.1145

     occupation numbers 
     1.0000   1.0000   1.0000   1.0000   1.0000   1.0000   1.0000   1.0000
     1.0000   1.0000   1.0000   1.0000   1.0000   1.0000   1.0000   1.0000
     1.0000   1.0000   1.0000   1.0000   1.0000   1.0000   1.0000   1.0000
     1.0000   1.0000   1.0000   1.0000   1.0000   1.0000   1.0000   1.0000
     1.0000   1.0000   1.0000   1.0000   1.0000   1.0000   1.0000   1.0000
     1.0000   1.0000   1.0000   1.0000   1.0000   1.0000   1.0000   1.0000
     1.0000   1.0000   1.0000   1.0000   1.0000   1.0000   1.0000   1.0000
     1.0000   1.0000   1.0000   1.0000   1.0000   1.0000   1.0000   1.0000
     1.0000   1.0000   1.0000   1.0000   1.0000   1.0000   1.0000   1.0000
     1.0000   1.0000   1.0000   1.0000   1.0000   1.0000

          k =-0.0001 0.4644 0.0000 ( 43840 PWs)   bands (ev):

   -20.8126 -20.7952 -20.7911 -20.7739 -15.7455 -15.7454 -15.7368 -15.7368
   -15.7322 -15.7322 -15.6738 -15.6737 -15.6576 -15.6574  -7.2177  -6.9323
    -6.5653  -6.2786  -6.2571  -6.2294  -6.2033  -6.0479  -5.1234  -5.0041
    -4.9398  -4.9290  -4.8654  -4.8489  -4.8466  -4.8379  -4.8208  -4.7720
    -4.7710  -4.7483  -1.0517  -0.8821   1.2707   1.4443   1.6846   1.9452
     1.9813   2.1243   2.3286   2.5384   2.6035   3.0066   3.0155   3.0899
     3.2248   3.2582   3.2864   3.2934   3.3697   3.4233   3.5624   3.6617
     3.7552   3.7586   4.6048   4.6483   4.7162   4.8046   4.8454   4.8968
     4.9214   5.0553   5.0853   5.1805   5.1917   5.3490   5.6087   5.7506
     5.7748   5.8763   5.9305   6.0245   6.0479   6.1341

     occupation numbers 
     1.0000   1.0000   1.0000   1.0000   1.0000   1.0000   1.0000   1.0000
     1.0000   1.0000   1.0000   1.0000   1.0000   1.0000   1.0000   1.0000
     1.0000   1.0000   1.0000   1.0000   1.0000   1.0000   1.0000   1.0000
     1.0000   1.0000   1.0000   1.0000   1.0000   1.0000   1.0000   1.0000
     1.0000   1.0000   1.0000   1.0000   1.0000   1.0000   1.0000   1.0000
     1.0000   1.0000   1.0000   1.0000   1.0000   1.0000   1.0000   1.0000
     1.0000   1.0000   1.0000   1.0000   1.0000   1.0000   1.0000   1.0000
     1.0000   1.0000   1.0000   1.0000   1.0000   1.0000   1.0000   1.0000
     1.0000   1.0000   1.0000   1.0000   1.0000   1.0000   1.0000   1.0000
     1.0000   1.0000   1.0000   1.0000   1.0000   1.0000

          k = 0.0594 0.8661 0.2492 ( 43830 PWs)   bands (ev):

   -20.7988 -20.7986 -20.7872 -20.7869 -15.7455 -15.7455 -15.7370 -15.7370
   -15.7323 -15.7323 -15.6735 -15.6735 -15.6575 -15.6575  -7.0515  -6.9939
    -6.4788  -6.3889  -6.2992  -6.2401  -6.1872  -6.1361  -5.0233  -5.0185
    -4.9719  -4.9365  -4.9066  -4.8919  -4.8633  -4.8484  -4.8193  -4.7966
    -4.7303  -4.7242  -0.9615  -0.9054   1.1720   1.2968   1.6327   1.7685
     2.0817   2.2037   2.2616   2.2933   2.8157   2.9279   3.0521   3.1232
     3.1757   3.2123   3.2355   3.2761   3.3876   3.5149   3.6422   3.6810
     3.7153   3.7679   4.7002   4.7458   4.7658   4.8036   4.8989   4.9267
     4.9358   4.9714   5.1071   5.1465   5.1783   5.2526   5.7432   5.8577
     5.9068   5.9478   5.9886   6.0510   6.0772   6.1365

     occupation numbers 
     1.0000   1.0000   1.0000   1.0000   1.0000   1.0000   1.0000   1.0000
     1.0000   1.0000   1.0000   1.0000   1.0000   1.0000   1.0000   1.0000
     1.0000   1.0000   1.0000   1.0000   1.0000   1.0000   1.0000   1.0000
     1.0000   1.0000   1.0000   1.0000   1.0000   1.0000   1.0000   1.0000
     1.0000   1.0000   1.0000   1.0000   1.0000   1.0000   1.0000   1.0000
     1.0000   1.0000   1.0000   1.0000   1.0000   1.0000   1.0000   1.0000
     1.0000   1.0000   1.0000   1.0000   1.0000   1.0000   1.0000   1.0000
     1.0000   1.0000   1.0000   1.0000   1.0000   1.0000   1.0000   1.0000
     1.0000   1.0000   1.0000   1.0000   1.0000   1.0000   1.0000   1.0000
     1.0000   1.0000   1.0000   1.0000   1.0000   1.0000

          k =-0.1189-0.3388-0.4984 ( 43830 PWs)   bands (ev):

   -20.8070 -20.8069 -20.7795 -20.7794 -15.7455 -15.7455 -15.7368 -15.7368
   -15.7322 -15.7322 -15.6737 -15.6737 -15.6575 -15.6575  -7.1267  -7.1160
    -6.4142  -6.3413  -6.2498  -6.2164  -6.1633  -6.0622  -5.0642  -5.0479
    -4.9304  -4.9166  -4.9103  -4.8820  -4.8684  -4.8624  -4.8114  -4.7929
    -4.7400  -4.7361  -0.9908  -0.9476   1.4064   1.4707   1.5813   1.7179
     2.1583   2.2469   2.3598   2.4140   2.7349   2.8595   2.9635   3.0932
     3.1593   3.1917   3.2614   3.3533   3.3759   3.5454   3.6526   3.6863
     3.7061   3.7395   4.6038   4.6413   4.7511   4.7676   4.8486   4.8766
     4.9720   4.9862   5.1492   5.1723   5.2195   5.2783   5.6195   5.6738
     5.7682   5.8529   5.9503   5.9661   6.1778   6.2230

     occupation numbers 
     1.0000   1.0000   1.0000   1.0000   1.0000   1.0000   1.0000   1.0000
     1.0000   1.0000   1.0000   1.0000   1.0000   1.0000   1.0000   1.0000
     1.0000   1.0000   1.0000   1.0000   1.0000   1.0000   1.0000   1.0000
     1.0000   1.0000   1.0000   1.0000   1.0000   1.0000   1.0000   1.0000
     1.0000   1.0000   1.0000   1.0000   1.0000   1.0000   1.0000   1.0000
     1.0000   1.0000   1.0000   1.0000   1.0000   1.0000   1.0000   1.0000
     1.0000   1.0000   1.0000   1.0000   1.0000   1.0000   1.0000   1.0000
     1.0000   1.0000   1.0000   1.0000   1.0000   1.0000   1.0000   1.0000
     1.0000   1.0000   1.0000   1.0000   1.0000   1.0000   1.0000   1.0000
     1.0000   1.0000   1.0000   1.0000   1.0000   1.0000

          k =-0.0595 0.0628-0.2492 ( 43846 PWs)   bands (ev):

   -20.8178 -20.8036 -20.7833 -20.7694 -15.7455 -15.7454 -15.7367 -15.7366
   -15.7321 -15.7320 -15.6740 -15.6739 -15.6576 -15.6574  -7.2720  -7.0674
    -6.5333  -6.2858  -6.2188  -6.1779  -6.0984  -5.9484  -5.1442  -5.0892
    -4.9898  -4.9540  -4.8831  -4.8456  -4.8276  -4.8227  -4.7833  -4.7710
    -4.7642  -4.7091  -1.0750  -0.9262   1.5294   1.6442   1.7688   1.9241
     1.9840   2.0408   2.2528   2.6444   2.7820   2.8385   2.9724   3.1266
     3.1569   3.1790   3.3250   3.3386   3.4832   3.5094   3.5297   3.6144
     3.6923   3.7520   4.4951   4.5301   4.7562   4.7624   4.7852   4.8632
     4.8765   5.0039   5.2192   5.2705   5.2920   5.3146   5.3932   5.4944
     5.6918   5.8328   5.9598   5.9955   6.1143   6.1648

     occupation numbers 
     1.0000   1.0000   1.0000   1.0000   1.0000   1.0000   1.0000   1.0000
     1.0000   1.0000   1.0000   1.0000   1.0000   1.0000   1.0000   1.0000
     1.0000   1.0000   1.0000   1.0000   1.0000   1.0000   1.0000   1.0000
     1.0000   1.0000   1.0000   1.0000   1.0000   1.0000   1.0000   1.0000
     1.0000   1.0000   1.0000   1.0000   1.0000   1.0000   1.0000   1.0000
     1.0000   1.0000   1.0000   1.0000   1.0000   1.0000   1.0000   1.0000
     1.0000   1.0000   1.0000   1.0000   1.0000   1.0000   1.0000   1.0000
     1.0000   1.0000   1.0000   1.0000   1.0000   1.0000   1.0000   1.0000
     1.0000   1.0000   1.0000   1.0000   1.0000   1.0000   1.0000   1.0000
     1.0000   1.0000   1.0000   1.0000   1.0000   1.0000

          k = 0.0001-0.9289-0.0001 ( 43840 PWs)   bands (ev):

   -20.7988 -20.7986 -20.7872 -20.7869 -15.7455 -15.7455 -15.7370 -15.7370
   -15.7323 -15.7323 -15.6735 -15.6735 -15.6575 -15.6575  -7.0249  -7.0248
    -6.4468  -6.4460  -6.2230  -6.2229  -6.1933  -6.1926  -5.0274  -5.0272
    -4.9526  -4.9524  -4.9009  -4.9007  -4.8464  -4.8463  -4.8248  -4.8248
    -4.7143  -4.7142  -0.9344  -0.9343   1.2023   1.2028   1.8930   1.8932
     1.9778   1.9787   2.2395   2.2397   2.9540   2.9545   3.0538   3.0545
     3.1556   3.1565   3.2402   3.2405   3.4751   3.4757   3.6817   3.6820
     3.7378   3.7386   4.7275   4.7282   4.7807   4.7811   4.8977   4.8980
     4.9407   4.9408   5.1650   5.1650   5.2074   5.2075   5.8278   5.8280
     5.9009   5.9011   6.0349   6.0350   6.1134   6.1140

     occupation numbers 
     1.0000   1.0000   1.0000   1.0000   1.0000   1.0000   1.0000   1.0000
     1.0000   1.0000   1.0000   1.0000   1.0000   1.0000   1.0000   1.0000
     1.0000   1.0000   1.0000   1.0000   1.0000   1.0000   1.0000   1.0000
     1.0000   1.0000   1.0000   1.0000   1.0000   1.0000   1.0000   1.0000
     1.0000   1.0000   1.0000   1.0000   1.0000   1.0000   1.0000   1.0000
     1.0000   1.0000   1.0000   1.0000   1.0000   1.0000   1.0000   1.0000
     1.0000   1.0000   1.0000   1.0000   1.0000   1.0000   1.0000   1.0000
     1.0000   1.0000   1.0000   1.0000   1.0000   1.0000   1.0000   1.0000
     1.0000   1.0000   1.0000   1.0000   1.0000   1.0000   1.0000   1.0000
     1.0000   1.0000   1.0000   1.0000   1.0000   1.0000

          k = 0.0596-0.5272 0.2491 ( 43835 PWs)   bands (ev):

   -20.8111 -20.8008 -20.7855 -20.7754 -15.7455 -15.7455 -15.7368 -15.7368
   -15.7322 -15.7322 -15.6737 -15.6737 -15.6576 -15.6574  -7.1958  -7.0194
    -6.5211  -6.2739  -6.2419  -6.2165  -6.1369  -6.0809  -5.0991  -5.0240
    -4.9491  -4.9372  -4.8770  -4.8672  -4.8579  -4.8535  -4.8281  -4.7824
    -4.7504  -4.7397  -1.0154  -0.9237   1.3699   1.4341   1.6622   1.7913
     2.0739   2.2239   2.3228   2.5277   2.5859   2.9594   2.9928   3.0501
     3.1751   3.2325   3.2746   3.3349   3.3700   3.5023   3.6359   3.6459
     3.7303   3.7845   4.6148   4.6287   4.7192   4.7983   4.8564   4.8805
     4.9396   5.0182   5.1160   5.1826   5.2281   5.2888   5.6048   5.7122
     5.8080   5.8533   5.9338   5.9602   6.1463   6.1692

     occupation numbers 
     1.0000   1.0000   1.0000   1.0000   1.0000   1.0000   1.0000   1.0000
     1.0000   1.0000   1.0000   1.0000   1.0000   1.0000   1.0000   1.0000
     1.0000   1.0000   1.0000   1.0000   1.0000   1.0000   1.0000   1.0000
     1.0000   1.0000   1.0000   1.0000   1.0000   1.0000   1.0000   1.0000
     1.0000   1.0000   1.0000   1.0000   1.0000   1.0000   1.0000   1.0000
     1.0000   1.0000   1.0000   1.0000   1.0000   1.0000   1.0000   1.0000
     1.0000   1.0000   1.0000   1.0000   1.0000   1.0000   1.0000   1.0000
     1.0000   1.0000   1.0000   1.0000   1.0000   1.0000   1.0000   1.0000
     1.0000   1.0000   1.0000   1.0000   1.0000   1.0000   1.0000   1.0000
     1.0000   1.0000   1.0000   1.0000   1.0000   1.0000

          k =-0.1187-1.7321-0.4985 ( 43866 PWs)   bands (ev):

   -20.8121 -20.8120 -20.7751 -20.7749 -15.7455 -15.7455 -15.7366 -15.7366
   -15.7321 -15.7321 -15.6740 -15.6740 -15.6575 -15.6575  -7.1993  -7.1991
    -6.3586  -6.3585  -6.2192  -6.2190  -6.0110  -6.0108  -5.0869  -5.0869
    -5.0174  -5.0173  -4.8508  -4.8507  -4.8260  -4.8259  -4.7842  -4.7841
    -4.7457  -4.7456  -1.0041  -1.0040   1.6483   1.6485   1.7568   1.7568
     2.0277   2.0278   2.5112   2.5114   2.8344   2.8344   2.9361   2.9366
     3.1562   3.1562   3.3481   3.3485   3.5413   3.5413   3.6204   3.6206
     3.6892   3.6896   4.5089   4.5094   4.7602   4.7608   4.8679   4.8685
     4.8787   4.8791   5.2720   5.2725   5.2864   5.2870   5.4287   5.4291
     5.7689   5.7691   5.9784   5.9789   6.1047   6.1050

     occupation numbers 
     1.0000   1.0000   1.0000   1.0000   1.0000   1.0000   1.0000   1.0000
     1.0000   1.0000   1.0000   1.0000   1.0000   1.0000   1.0000   1.0000
     1.0000   1.0000   1.0000   1.0000   1.0000   1.0000   1.0000   1.0000
     1.0000   1.0000   1.0000   1.0000   1.0000   1.0000   1.0000   1.0000
     1.0000   1.0000   1.0000   1.0000   1.0000   1.0000   1.0000   1.0000
     1.0000   1.0000   1.0000   1.0000   1.0000   1.0000   1.0000   1.0000
     1.0000   1.0000   1.0000   1.0000   1.0000   1.0000   1.0000   1.0000
     1.0000   1.0000   1.0000   1.0000   1.0000   1.0000   1.0000   1.0000
     1.0000   1.0000   1.0000   1.0000   1.0000   1.0000   1.0000   1.0000
     1.0000   1.0000   1.0000   1.0000   1.0000   1.0000

          k =-0.5122-0.1256 0.0003 ( 43866 PWs)   bands (ev):

   -20.8121 -20.8120 -20.7751 -20.7749 -15.7455 -15.7455 -15.7366 -15.7366
   -15.7321 -15.7321 -15.6740 -15.6740 -15.6575 -15.6575  -7.1993  -7.1990
    -6.3585  -6.3584  -6.2194  -6.2192  -6.0111  -6.0109  -5.0869  -5.0868
    -5.0174  -5.0173  -4.8508  -4.8507  -4.8260  -4.8259  -4.7843  -4.7841
    -4.7456  -4.7454  -1.0041  -1.0040   1.6482   1.6484   1.7568   1.7568
     2.0277   2.0278   2.5111   2.5113   2.8344   2.8345   2.9362   2.9367
     3.1563   3.1564   3.3483   3.3485   3.5412   3.5414   3.6202   3.6203
     3.6892   3.6896   4.5089   4.5094   4.7602   4.7608   4.8681   4.8688
     4.8785   4.8789   5.2720   5.2726   5.2865   5.2869   5.4286   5.4289
     5.7690   5.7695   5.9786   5.9787   6.1045   6.1049

     occupation numbers 
     1.0000   1.0000   1.0000   1.0000   1.0000   1.0000   1.0000   1.0000
     1.0000   1.0000   1.0000   1.0000   1.0000   1.0000   1.0000   1.0000
     1.0000   1.0000   1.0000   1.0000   1.0000   1.0000   1.0000   1.0000
     1.0000   1.0000   1.0000   1.0000   1.0000   1.0000   1.0000   1.0000
     1.0000   1.0000   1.0000   1.0000   1.0000   1.0000   1.0000   1.0000
     1.0000   1.0000   1.0000   1.0000   1.0000   1.0000   1.0000   1.0000
     1.0000   1.0000   1.0000   1.0000   1.0000   1.0000   1.0000   1.0000
     1.0000   1.0000   1.0000   1.0000   1.0000   1.0000   1.0000   1.0000
     1.0000   1.0000   1.0000   1.0000   1.0000   1.0000   1.0000   1.0000
     1.0000   1.0000   1.0000   1.0000   1.0000   1.0000

          k =-0.4528 0.2761 0.2495 ( 43838 PWs)   bands (ev):

   -20.8111 -20.8008 -20.7855 -20.7754 -15.7455 -15.7455 -15.7368 -15.7368
   -15.7322 -15.7322 -15.6737 -15.6737 -15.6576 -15.6574  -7.1958  -7.0194
    -6.5210  -6.2736  -6.2422  -6.2165  -6.1369  -6.0810  -5.0991  -5.0240
    -4.9491  -4.9372  -4.8770  -4.8672  -4.8578  -4.8535  -4.8280  -4.7823
    -4.7505  -4.7397  -1.0153  -0.9237   1.3697   1.4343   1.6621   1.7914
     2.0739   2.2237   2.3227   2.5278   2.5861   2.9596   2.9931   3.0498
     3.1745   3.2323   3.2751   3.3347   3.3702   3.5021   3.6363   3.6457
     3.7306   3.7840   4.6154   4.6281   4.7192   4.7984   4.8562   4.8804
     4.9396   5.0182   5.1160   5.1827   5.2282   5.2888   5.6048   5.7121
     5.8082   5.8533   5.9339   5.9600   6.1463   6.1693

     occupation numbers 
     1.0000   1.0000   1.0000   1.0000   1.0000   1.0000   1.0000   1.0000
     1.0000   1.0000   1.0000   1.0000   1.0000   1.0000   1.0000   1.0000
     1.0000   1.0000   1.0000   1.0000   1.0000   1.0000   1.0000   1.0000
     1.0000   1.0000   1.0000   1.0000   1.0000   1.0000   1.0000   1.0000
     1.0000   1.0000   1.0000   1.0000   1.0000   1.0000   1.0000   1.0000
     1.0000   1.0000   1.0000   1.0000   1.0000   1.0000   1.0000   1.0000
     1.0000   1.0000   1.0000   1.0000   1.0000   1.0000   1.0000   1.0000
     1.0000   1.0000   1.0000   1.0000   1.0000   1.0000   1.0000   1.0000
     1.0000   1.0000   1.0000   1.0000   1.0000   1.0000   1.0000   1.0000
     1.0000   1.0000   1.0000   1.0000   1.0000   1.0000

          k =-0.6311-0.9288-0.4981 ( 43842 PWs)   bands (ev):

   -20.7988 -20.7986 -20.7872 -20.7869 -15.7455 -15.7455 -15.7370 -15.7370
   -15.7323 -15.7323 -15.6735 -15.6735 -15.6575 -15.6575  -7.0249  -7.0247
    -6.4468  -6.4462  -6.2228  -6.2227  -6.1932  -6.1929  -5.0273  -5.0273
    -4.9526  -4.9524  -4.9009  -4.9008  -4.8463  -4.8463  -4.8248  -4.8248
    -4.7143  -4.7142  -0.9344  -0.9343   1.2022   1.2028   1.8930   1.8932
     1.9778   1.9787   2.2395   2.2397   2.9542   2.9546   3.0538   3.0544
     3.1555   3.1563   3.2401   3.2406   3.4752   3.4758   3.6818   3.6821
     3.7377   3.7386   4.7275   4.7281   4.7808   4.7814   4.8976   4.8978
     4.9407   4.9408   5.1649   5.1650   5.2074   5.2075   5.8276   5.8276
     5.9012   5.9013   6.0347   6.0350   6.1136   6.1140

     occupation numbers 
     1.0000   1.0000   1.0000   1.0000   1.0000   1.0000   1.0000   1.0000
     1.0000   1.0000   1.0000   1.0000   1.0000   1.0000   1.0000   1.0000
     1.0000   1.0000   1.0000   1.0000   1.0000   1.0000   1.0000   1.0000
     1.0000   1.0000   1.0000   1.0000   1.0000   1.0000   1.0000   1.0000
     1.0000   1.0000   1.0000   1.0000   1.0000   1.0000   1.0000   1.0000
     1.0000   1.0000   1.0000   1.0000   1.0000   1.0000   1.0000   1.0000
     1.0000   1.0000   1.0000   1.0000   1.0000   1.0000   1.0000   1.0000
     1.0000   1.0000   1.0000   1.0000   1.0000   1.0000   1.0000   1.0000
     1.0000   1.0000   1.0000   1.0000   1.0000   1.0000   1.0000   1.0000
     1.0000   1.0000   1.0000   1.0000   1.0000   1.0000

          k =-0.5123 0.3389 0.0004 ( 43831 PWs)   bands (ev):

   -20.8070 -20.8069 -20.7795 -20.7794 -15.7455 -15.7455 -15.7368 -15.7368
   -15.7322 -15.7322 -15.6737 -15.6737 -15.6575 -15.6575  -7.1267  -7.1160
    -6.4142  -6.3410  -6.2500  -6.2165  -6.1634  -6.0624  -5.0643  -5.0478
    -4.9305  -4.9167  -4.9103  -4.8820  -4.8684  -4.8623  -4.8115  -4.7927
    -4.7400  -4.7361  -0.9908  -0.9476   1.4064   1.4705   1.5812   1.7181
     2.1583   2.2468   2.3598   2.4139   2.7351   2.8597   2.9637   3.0931
     3.1592   3.1912   3.2617   3.3534   3.3758   3.5454   3.6529   3.6869
     3.7055   3.7392   4.6038   4.6413   4.7511   4.7676   4.8486   4.8765
     4.9719   4.9863   5.1494   5.1721   5.2195   5.2784   5.6195   5.6737
     5.7683   5.8532   5.9500   5.9663   6.1777   6.2231

     occupation numbers 
     1.0000   1.0000   1.0000   1.0000   1.0000   1.0000   1.0000   1.0000
     1.0000   1.0000   1.0000   1.0000   1.0000   1.0000   1.0000   1.0000
     1.0000   1.0000   1.0000   1.0000   1.0000   1.0000   1.0000   1.0000
     1.0000   1.0000   1.0000   1.0000   1.0000   1.0000   1.0000   1.0000
     1.0000   1.0000   1.0000   1.0000   1.0000   1.0000   1.0000   1.0000
     1.0000   1.0000   1.0000   1.0000   1.0000   1.0000   1.0000   1.0000
     1.0000   1.0000   1.0000   1.0000   1.0000   1.0000   1.0000   1.0000
     1.0000   1.0000   1.0000   1.0000   1.0000   1.0000   1.0000   1.0000
     1.0000   1.0000   1.0000   1.0000   1.0000   1.0000   1.0000   1.0000
     1.0000   1.0000   1.0000   1.0000   1.0000   1.0000

          k =-0.4529 0.7405 0.2496 ( 43829 PWs)   bands (ev):

   -20.7988 -20.7986 -20.7871 -20.7869 -15.7455 -15.7455 -15.7370 -15.7370
   -15.7323 -15.7323 -15.6735 -15.6735 -15.6575 -15.6575  -7.0515  -6.9939
    -6.4789  -6.3889  -6.2992  -6.2399  -6.1871  -6.1363  -5.0234  -5.0184
    -4.9720  -4.9363  -4.9067  -4.8918  -4.8633  -4.8484  -4.8193  -4.7967
    -4.7303  -4.7242  -0.9615  -0.9054   1.1720   1.2967   1.6325   1.7687
     2.0818   2.2035   2.2616   2.2933   2.8157   2.9280   3.0521   3.1233
     3.1757   3.2120   3.2354   3.2762   3.3876   3.5149   3.6422   3.6812
     3.7152   3.7679   4.7002   4.7457   4.7659   4.8038   4.8989   4.9267
     4.9357   4.9713   5.1070   5.1465   5.1784   5.2526   5.7429   5.8577
     5.9072   5.9480   5.9884   6.0507   6.0772   6.1366

     occupation numbers 
     1.0000   1.0000   1.0000   1.0000   1.0000   1.0000   1.0000   1.0000
     1.0000   1.0000   1.0000   1.0000   1.0000   1.0000   1.0000   1.0000
     1.0000   1.0000   1.0000   1.0000   1.0000   1.0000   1.0000   1.0000
     1.0000   1.0000   1.0000   1.0000   1.0000   1.0000   1.0000   1.0000
     1.0000   1.0000   1.0000   1.0000   1.0000   1.0000   1.0000   1.0000
     1.0000   1.0000   1.0000   1.0000   1.0000   1.0000   1.0000   1.0000
     1.0000   1.0000   1.0000   1.0000   1.0000   1.0000   1.0000   1.0000
     1.0000   1.0000   1.0000   1.0000   1.0000   1.0000   1.0000   1.0000
     1.0000   1.0000   1.0000   1.0000   1.0000   1.0000   1.0000   1.0000
     1.0000   1.0000   1.0000   1.0000   1.0000   1.0000

          k =-0.6311-0.4644-0.4980 ( 43831 PWs)   bands (ev):

   -20.8126 -20.7952 -20.7911 -20.7739 -15.7455 -15.7454 -15.7368 -15.7368
   -15.7322 -15.7322 -15.6737 -15.6737 -15.6576 -15.6574  -7.2267  -6.9794
    -6.6225  -6.2364  -6.1989  -6.1394  -6.1333  -6.0932  -5.1194  -5.0265
    -4.9783  -4.9622  -4.8738  -4.8675  -4.8512  -4.8480  -4.8093  -4.7880
    -4.7711  -4.7389  -1.0178  -0.9273   1.3932   1.4014   1.7798   1.8654
     1.9911   2.2242   2.2722   2.5274   2.5734   2.9036   3.0017   3.0671
     3.1653   3.1886   3.2638   3.3318   3.4018   3.5572   3.5958   3.6283
     3.7091   3.8987   4.6018   4.6332   4.6915   4.8285   4.8586   4.8823
     4.9450   5.0184   5.0792   5.1929   5.2596   5.2736   5.5687   5.7194
     5.7681   5.9389   5.9515   5.9932   6.0608   6.1452

     occupation numbers 
     1.0000   1.0000   1.0000   1.0000   1.0000   1.0000   1.0000   1.0000
     1.0000   1.0000   1.0000   1.0000   1.0000   1.0000   1.0000   1.0000
     1.0000   1.0000   1.0000   1.0000   1.0000   1.0000   1.0000   1.0000
     1.0000   1.0000   1.0000   1.0000   1.0000   1.0000   1.0000   1.0000
     1.0000   1.0000   1.0000   1.0000   1.0000   1.0000   1.0000   1.0000
     1.0000   1.0000   1.0000   1.0000   1.0000   1.0000   1.0000   1.0000
     1.0000   1.0000   1.0000   1.0000   1.0000   1.0000   1.0000   1.0000
     1.0000   1.0000   1.0000   1.0000   1.0000   1.0000   1.0000   1.0000
     1.0000   1.0000   1.0000   1.0000   1.0000   1.0000   1.0000   1.0000
     1.0000   1.0000   1.0000   1.0000   1.0000   1.0000

          k =-0.5717-0.0628-0.2488 ( 43867 PWs)   bands (ev):

   -20.8177 -20.8036 -20.7833 -20.7694 -15.7455 -15.7454 -15.7367 -15.7366
   -15.7321 -15.7321 -15.6740 -15.6740 -15.6576 -15.6574  -7.3086  -7.0636
    -6.5581  -6.2050  -6.1869  -6.1802  -6.0379  -5.9925  -5.1389  -5.0948
    -4.9887  -4.9735  -4.8811  -4.8720  -4.8258  -4.8190  -4.7867  -4.7718
    -4.7623  -4.7586  -1.0623  -0.9561   1.5971   1.6230   1.7540   1.9305
     2.0016   2.1013   2.4414   2.6280   2.6478   2.7719   2.9464   3.0822
     3.1254   3.2061   3.2641   3.3795   3.4017   3.5181   3.5379   3.6402
     3.6504   3.9703   4.4945   4.5197   4.7539   4.7660   4.7980   4.8464
     4.9100   4.9836   5.2143   5.2644   5.2949   5.3328   5.3352   5.4952
     5.5967   5.8707   5.9495   6.0190   6.1079   6.1448

     occupation numbers 
     1.0000   1.0000   1.0000   1.0000   1.0000   1.0000   1.0000   1.0000
     1.0000   1.0000   1.0000   1.0000   1.0000   1.0000   1.0000   1.0000
     1.0000   1.0000   1.0000   1.0000   1.0000   1.0000   1.0000   1.0000
     1.0000   1.0000   1.0000   1.0000   1.0000   1.0000   1.0000   1.0000
     1.0000   1.0000   1.0000   1.0000   1.0000   1.0000   1.0000   1.0000
     1.0000   1.0000   1.0000   1.0000   1.0000   1.0000   1.0000   1.0000
     1.0000   1.0000   1.0000   1.0000   1.0000   1.0000   1.0000   1.0000
     1.0000   1.0000   1.0000   1.0000   1.0000   1.0000   1.0000   1.0000
     1.0000   1.0000   1.0000   1.0000   1.0000   1.0000   1.0000   1.0000
     1.0000   1.0000   1.0000   1.0000   1.0000   1.0000

          k =-0.5121-1.0544 0.0002 ( 43830 PWs)   bands (ev):

   -20.7988 -20.7986 -20.7871 -20.7869 -15.7455 -15.7455 -15.7370 -15.7370
   -15.7323 -15.7323 -15.6735 -15.6735 -15.6575 -15.6575  -7.0626  -6.9782
    -6.4778  -6.3554  -6.3390  -6.2877  -6.1667  -6.1081  -5.0224  -5.0114
    -4.9955  -4.9177  -4.8994  -4.8848  -4.8716  -4.8609  -4.7890  -4.7806
    -4.7596  -4.7379  -0.9723  -0.8931   1.2008   1.3534   1.4773   1.7037
     2.0939   2.2761   2.3488   2.3559   2.7110   2.9232   3.0095   3.1693
     3.1749   3.2507   3.2815   3.3071   3.3435   3.4975   3.6125   3.6618
     3.7377   3.7578   4.6863   4.7525   4.7683   4.8074   4.9082   4.9321
     4.9677   4.9974   5.0718   5.1187   5.1469   5.2692   5.6975   5.8667
     5.8952   5.9450   6.0152   6.0488   6.0799   6.1146

     occupation numbers 
     1.0000   1.0000   1.0000   1.0000   1.0000   1.0000   1.0000   1.0000
     1.0000   1.0000   1.0000   1.0000   1.0000   1.0000   1.0000   1.0000
     1.0000   1.0000   1.0000   1.0000   1.0000   1.0000   1.0000   1.0000
     1.0000   1.0000   1.0000   1.0000   1.0000   1.0000   1.0000   1.0000
     1.0000   1.0000   1.0000   1.0000   1.0000   1.0000   1.0000   1.0000
     1.0000   1.0000   1.0000   1.0000   1.0000   1.0000   1.0000   1.0000
     1.0000   1.0000   1.0000   1.0000   1.0000   1.0000   1.0000   1.0000
     1.0000   1.0000   1.0000   1.0000   1.0000   1.0000   1.0000   1.0000
     1.0000   1.0000   1.0000   1.0000   1.0000   1.0000   1.0000   1.0000
     1.0000   1.0000   1.0000   1.0000   1.0000   1.0000

          k =-0.4527-0.6528 0.2494 ( 43840 PWs)   bands (ev):

   -20.8111 -20.8008 -20.7855 -20.7754 -15.7455 -15.7454 -15.7368 -15.7368
   -15.7322 -15.7322 -15.6737 -15.6737 -15.6576 -15.6574  -7.1986  -7.0409
    -6.5605  -6.2396  -6.1915  -6.1724  -6.1661  -6.0635  -5.1007  -5.0367
    -4.9754  -4.9498  -4.8823  -4.8636  -4.8590  -4.8441  -4.8391  -4.7952
    -4.7502  -4.7351  -0.9891  -0.9554   1.3961   1.4555   1.7028   1.7576
     2.1071   2.2398   2.3342   2.4953   2.5436   2.8835   3.0741   3.0917
     3.0982   3.1854   3.2699   3.2799   3.3987   3.5570   3.6218   3.6740
     3.7034   3.8700   4.5947   4.6424   4.7048   4.8119   4.8641   4.8795
     4.9535   5.0013   5.1032   5.1937   5.2403   5.2722   5.5677   5.7081
     5.7447   5.8998   5.9560   5.9831   6.1312   6.1917

     occupation numbers 
     1.0000   1.0000   1.0000   1.0000   1.0000   1.0000   1.0000   1.0000
     1.0000   1.0000   1.0000   1.0000   1.0000   1.0000   1.0000   1.0000
     1.0000   1.0000   1.0000   1.0000   1.0000   1.0000   1.0000   1.0000
     1.0000   1.0000   1.0000   1.0000   1.0000   1.0000   1.0000   1.0000
     1.0000   1.0000   1.0000   1.0000   1.0000   1.0000   1.0000   1.0000
     1.0000   1.0000   1.0000   1.0000   1.0000   1.0000   1.0000   1.0000
     1.0000   1.0000   1.0000   1.0000   1.0000   1.0000   1.0000   1.0000
     1.0000   1.0000   1.0000   1.0000   1.0000   1.0000   1.0000   1.0000
     1.0000   1.0000   1.0000   1.0000   1.0000   1.0000   1.0000   1.0000
     1.0000   1.0000   1.0000   1.0000   1.0000   1.0000

          k =-0.6309-1.8577-0.4982 ( 43942 PWs)   bands (ev):

   -20.8197 -20.7952 -20.7918 -20.7674 -15.7456 -15.7454 -15.7367 -15.7366
   -15.7321 -15.7320 -15.6740 -15.6740 -15.6576 -15.6574  -7.3504  -6.9810
    -6.6684  -6.1871  -6.1225  -6.1048  -6.0944  -5.9809  -5.1684  -5.1044
    -4.9370  -4.9312  -4.9281  -4.9153  -4.8155  -4.8145  -4.7990  -4.7871
    -4.7625  -4.7623  -1.0923  -0.9365   1.5848   1.5851   1.8161   2.0043
     2.0341   2.1445   2.4250   2.5088   2.7280   2.8056   2.8217   3.0287
     3.1249   3.2237   3.2938   3.3699   3.4174   3.4567   3.5371   3.6452
     3.6563   4.0854   4.4886   4.5179   4.7513   4.7536   4.7784   4.8389
     4.9358   5.0670   5.1898   5.2023   5.2684   5.3479   5.3593   5.5131
     5.5229   5.8604   5.9957   6.0019   6.1348   6.1552

     occupation numbers 
     1.0000   1.0000   1.0000   1.0000   1.0000   1.0000   1.0000   1.0000
     1.0000   1.0000   1.0000   1.0000   1.0000   1.0000   1.0000   1.0000
     1.0000   1.0000   1.0000   1.0000   1.0000   1.0000   1.0000   1.0000
     1.0000   1.0000   1.0000   1.0000   1.0000   1.0000   1.0000   1.0000
     1.0000   1.0000   1.0000   1.0000   1.0000   1.0000   1.0000   1.0000
     1.0000   1.0000   1.0000   1.0000   1.0000   1.0000   1.0000   1.0000
     1.0000   1.0000   1.0000   1.0000   1.0000   1.0000   1.0000   1.0000
     1.0000   1.0000   1.0000   1.0000   1.0000   1.0000   1.0000   1.0000
     1.0000   1.0000   1.0000   1.0000   1.0000   1.0000   1.0000   1.0000
     1.0000   1.0000   1.0000   1.0000   1.0000   1.0000

     highest occupied level (ev):     6.2231

!    total energy              =   -1568.23807521 Ry
     estimated scf accuracy    <          7.2E-11 Ry

     The total energy is the sum of the following terms:
     one-electron contribution =    -586.28612853 Ry
     hartree contribution      =     401.40745391 Ry
     xc contribution           =    -371.69608353 Ry
     ewald contribution        =    -652.40126867 Ry
     one-center paw contrib.   =    -359.26204840 Ry
      -> PAW hartree energy AE =       0.00000000 Ry
      -> PAW hartree energy PS =       0.00000000 Ry
      -> PAW xc energy AE      =       0.00000000 Ry
      -> PAW xc energy PS      =       0.00000000 Ry
      -> total E_H with PAW    =     401.40745391 Ry
      -> total E_XC with PAW   =    -371.69608353 Ry

     convergence has been achieved in  20 iterations

     Forces acting on atoms (cartesian axes, Ry/au):

     atom    1 type  2   force =     0.00006498    0.00000483    0.00005439
     atom    2 type  2   force =    -0.00006498   -0.00000483   -0.00005439
     atom    3 type  2   force =    -0.00006330    0.00000336   -0.00004899
     atom    4 type  2   force =     0.00006330   -0.00000336    0.00004899
     atom    5 type  1   force =    -0.00014520    0.00000530   -0.00014387
     atom    6 type  1   force =     0.00014520   -0.00000530    0.00014387
     atom    7 type  1   force =     0.00015214   -0.00000224    0.00014779
     atom    8 type  1   force =    -0.00015214    0.00000224   -0.00014779
     atom    9 type  4   force =     0.00000272    0.00000285    0.00000312
     atom   10 type  4   force =    -0.00000272   -0.00000285   -0.00000312
     atom   11 type  3   force =    -0.00010232    0.00014071    0.00021748
     atom   12 type  3   force =     0.00010232   -0.00014071   -0.00021748
     atom   13 type  3   force =    -0.00007032   -0.00026738    0.00004367
     atom   14 type  3   force =     0.00007032    0.00026738   -0.00004367
     atom   15 type  3   force =     0.00000038    0.00026608   -0.00008889
     atom   16 type  3   force =    -0.00000038   -0.00026608    0.00008889
     atom   17 type  3   force =     0.00017028   -0.00014076   -0.00016809
     atom   18 type  3   force =    -0.00017028    0.00014076    0.00016809
     The non-local contrib.  to forces
     atom    1 type  2   force =    -0.00098073   -0.00529850   -0.00342890
     atom    2 type  2   force =     0.00098073    0.00529850    0.00342890
     atom    3 type  2   force =     0.00354758   -0.00528856    0.00013419
     atom    4 type  2   force =    -0.00354758    0.00528856   -0.00013419
     atom    5 type  1   force =    -0.06868541   -0.00007884   -0.05381016
     atom    6 type  1   force =     0.06868541    0.00007884    0.05381016
     atom    7 type  1   force =     0.06874012    0.00015890    0.05409989
     atom    8 type  1   force =    -0.06874012   -0.00015890   -0.05409989
     atom    9 type  4   force =     0.00004476   -0.00017899   -0.00002960
     atom   10 type  4   force =    -0.00004476    0.00017899    0.00002960
     atom   11 type  3   force =     0.12279289    0.12819883   -0.12573370
     atom   12 type  3   force =    -0.12279289   -0.12819883    0.12573370
     atom   13 type  3   force =     0.11872605    0.02596801   -0.18031428
     atom   14 type  3   force =    -0.11872605   -0.02596801    0.18031428
     atom   15 type  3   force =    -0.14780826   -0.02591601    0.15762678
     atom   16 type  3   force =     0.14780826    0.02591601   -0.15762678
     atom   17 type  3   force =    -0.09374950   -0.12808901    0.14858735
     atom   18 type  3   force =     0.09374950    0.12808901   -0.14858735
     The ionic contribution  to forces
     atom    1 type  2   force =    -0.78007654   -0.45141063   -0.84146191
     atom    2 type  2   force =     0.78007654    0.45141063    0.84146191
     atom    3 type  2   force =     0.99959242   -0.45052358    0.56178066
     atom    4 type  2   force =    -0.99959242    0.45052358   -0.56178066
     atom    5 type  1   force =     2.95329244   -0.00262833    2.32591117
     atom    6 type  1   force =    -2.95329244    0.00262833   -2.32591117
     atom    7 type  1   force =    -2.95021822   -0.00605087   -2.32653147
     atom    8 type  1   force =     2.95021822    0.00605087    2.32653147
     atom    9 type  4   force =    -0.00188130   -0.00031274    0.00077711
     atom   10 type  4   force =     0.00188130    0.00031274   -0.00077711
     atom   11 type  3   force =    -3.26763259   -4.80825034    7.49452408
     atom   12 type  3   force =     3.26763259    4.80825034   -7.49452408
     atom   13 type  3   force =    -7.23574766   -1.90283319    5.82519341
     atom   14 type  3   force =     7.23574766    1.90283319   -5.82519341
     atom   15 type  3   force =     3.97963029    1.90190528   -8.39691977
     atom   16 type  3   force =    -3.97963029   -1.90190528    8.39691977
     atom   17 type  3   force =     6.52445732    4.80538726   -4.92428502
     atom   18 type  3   force =    -6.52445732   -4.80538726    4.92428502
     The local contribution  to forces
     atom    1 type  2   force =     0.78112565    0.45671315    0.84494845
     atom    2 type  2   force =    -0.78112565   -0.45671315   -0.84494845
     atom    3 type  2   force =    -1.00320740    0.45581463   -0.56196649
     atom    4 type  2   force =     1.00320740   -0.45581463    0.56196649
     atom    5 type  1   force =    -2.88632742    0.00271473   -2.27343741
     atom    6 type  1   force =     2.88632742   -0.00271473    2.27343741
     atom    7 type  1   force =     2.88318589    0.00591803    2.27380757
     atom    8 type  1   force =    -2.88318589   -0.00591803   -2.27380757
     atom    9 type  4   force =     0.00183877    0.00048524   -0.00074353
     atom   10 type  4   force =    -0.00183877   -0.00048524    0.00074353
     atom   11 type  3   force =     3.15130419    4.68706008   -7.37552820
     atom   12 type  3   force =    -3.15130419   -4.68706008    7.37552820
     atom   13 type  3   force =     7.12350143    1.87810227   -5.65450055
     atom   14 type  3   force =    -7.12350143   -1.87810227    5.65450055
     atom   15 type  3   force =    -3.83970083   -1.87722492    8.24783487
     atom   16 type  3   force =     3.83970083    1.87722492   -8.24783487
     atom   17 type  3   force =    -6.43577624   -4.68430084    4.78352939
     atom   18 type  3   force =     6.43577624    4.68430084   -4.78352939
     The core correction contribution to forces
     atom    1 type  2   force =     0.00000000    0.00000000    0.00000000
     atom    2 type  2   force =     0.00000000    0.00000000    0.00000000
     atom    3 type  2   force =     0.00000000    0.00000000    0.00000000
     atom    4 type  2   force =     0.00000000    0.00000000    0.00000000
     atom    5 type  1   force =     0.00157465   -0.00000225    0.00119239
     atom    6 type  1   force =    -0.00157465    0.00000225   -0.00119239
     atom    7 type  1   force =    -0.00155439   -0.00002798   -0.00122711
     atom    8 type  1   force =     0.00155439    0.00002798    0.00122711
     atom    9 type  4   force =    -0.00000010    0.00000922   -0.00000123
     atom   10 type  4   force =     0.00000010   -0.00000922    0.00000123
     atom   11 type  3   force =    -0.00656715   -0.00686733    0.00695413
     atom   12 type  3   force =     0.00656715    0.00686733   -0.00695413
     atom   13 type  3   force =    -0.00654747   -0.00150386    0.00966440
     atom   14 type  3   force =     0.00654747    0.00150386   -0.00966440
     atom   15 type  3   force =     0.00787920    0.00150104   -0.00862794
     atom   16 type  3   force =    -0.00787920   -0.00150104    0.00862794
     atom   17 type  3   force =     0.00523740    0.00686125   -0.00799984
     atom   18 type  3   force =    -0.00523740   -0.00686125    0.00799984
     The Hubbard contrib.    to forces
     atom    1 type  2   force =     0.00000000    0.00000000    0.00000000
     atom    2 type  2   force =     0.00000000    0.00000000    0.00000000
     atom    3 type  2   force =     0.00000000    0.00000000    0.00000000
     atom    4 type  2   force =     0.00000000    0.00000000    0.00000000
     atom    5 type  1   force =     0.00000000    0.00000000    0.00000000
     atom    6 type  1   force =     0.00000000    0.00000000    0.00000000
     atom    7 type  1   force =     0.00000000    0.00000000    0.00000000
     atom    8 type  1   force =     0.00000000    0.00000000    0.00000000
     atom    9 type  4   force =     0.00000000    0.00000000    0.00000000
     atom   10 type  4   force =     0.00000000    0.00000000    0.00000000
     atom   11 type  3   force =     0.00000000    0.00000000    0.00000000
     atom   12 type  3   force =     0.00000000    0.00000000    0.00000000
     atom   13 type  3   force =     0.00000000    0.00000000    0.00000000
     atom   14 type  3   force =     0.00000000    0.00000000    0.00000000
     atom   15 type  3   force =     0.00000000    0.00000000    0.00000000
     atom   16 type  3   force =     0.00000000    0.00000000    0.00000000
     atom   17 type  3   force =     0.00000000    0.00000000    0.00000000
     atom   18 type  3   force =     0.00000000    0.00000000    0.00000000
     The SCF correction term to forces
     atom    1 type  2   force =    -0.00000340    0.00000081   -0.00000325
     atom    2 type  2   force =     0.00000340   -0.00000081    0.00000325
     atom    3 type  2   force =     0.00000410    0.00000087    0.00000266
     atom    4 type  2   force =    -0.00000410   -0.00000087   -0.00000266
     atom    5 type  1   force =     0.00000054   -0.00000001    0.00000014
     atom    6 type  1   force =    -0.00000054    0.00000001   -0.00000014
     atom    7 type  1   force =    -0.00000126   -0.00000032   -0.00000109
     atom    8 type  1   force =     0.00000126    0.00000032    0.00000109
     atom    9 type  4   force =     0.00000059    0.00000012    0.00000038
     atom   10 type  4   force =    -0.00000059   -0.00000012   -0.00000038
     atom   11 type  3   force =     0.00000035   -0.00000053    0.00000116
     atom   12 type  3   force =    -0.00000035    0.00000053   -0.00000116
     atom   13 type  3   force =    -0.00000267   -0.00000061    0.00000069
     atom   14 type  3   force =     0.00000267    0.00000061   -0.00000069
     atom   15 type  3   force =    -0.00000002    0.00000069   -0.00000284
     atom   16 type  3   force =     0.00000002   -0.00000069    0.00000284
     atom   17 type  3   force =     0.00000129    0.00000057    0.00000002
     atom   18 type  3   force =    -0.00000129   -0.00000057   -0.00000002

     Total force =     0.000908     Total SCF correction =     0.000012


     Computing stress (Cartesian axis) and pressure

          total   stress  (Ry/bohr**3)                   (kbar)     P=        0.07
   0.00000106   0.00000045  -0.00000004            0.16        0.07       -0.01
   0.00000045  -0.00000046  -0.00000054            0.07       -0.07       -0.08
  -0.00000004  -0.00000054   0.00000086           -0.01       -0.08        0.13

     kinetic stress (kbar)   7737.82     -3.93    -23.86
                               -3.93   7781.31      5.03
                              -23.86      5.03   7748.84

     local   stress (kbar)  -2157.34   3621.40  -6690.78
                             3621.40  -6144.85  -4590.91
                            -6690.78  -4590.91   1049.26

     nonloc. stress (kbar)   2074.46      0.41     -2.26
                                0.41   2075.80     -0.50
                               -2.26     -0.50   2075.41

     hartree stress (kbar)   6318.16  -1727.26   3137.50
                            -1727.26   8288.26   2189.85
                             3137.50   2189.85   4814.20

     exc-cor stress (kbar)   5862.66     -0.25      0.15
                               -0.25   5863.33      0.32
                                0.15      0.32   5862.59

     corecor stress (kbar)  -9228.41      0.30     -0.31
                                0.30  -9229.02     -0.39
                               -0.31     -0.39  -9228.22

     ewald   stress (kbar) -10607.20  -1890.60   3579.56
                            -1890.60  -8634.90   2396.52
                             3579.56   2396.52 -12321.95

     hubbard stress (kbar)      0.00      0.00      0.00
                                0.00      0.00      0.00
                                0.00      0.00      0.00

     DFT-D   stress (kbar)      0.00      0.00      0.00
                                0.00      0.00      0.00
                                0.00      0.00      0.00

     XDM     stress (kbar)      0.00      0.00      0.00
                                0.00      0.00      0.00
                                0.00      0.00      0.00

     dft-nl  stress (kbar)      0.00      0.00      0.00
                                0.00      0.00      0.00
                                0.00      0.00      0.00

     TS-vdW  stress (kbar)      0.00      0.00      0.00
                                0.00      0.00      0.00
                                0.00      0.00      0.00

     MDB     stress (kbar)      0.00      0.00      0.00
                                0.00      0.00      0.00
                                0.00      0.00      0.00

     3D-RISM stress (kbar)      0.00      0.00      0.00
                                0.00      0.00      0.00
                                0.00      0.00      0.00


     Writing all to output data dir ./tmp/relax/Rb2Cu2SnS4_relax.save/ :
     XML data file, charge density, pseudopotentials, collected wavefunctions

     init_run     :     17.11s CPU     18.23s WALL (       2 calls)
     electrons    :   2788.20s CPU   2823.86s WALL (      10 calls)
     update_pot   :      3.93s CPU      3.97s WALL (       8 calls)
     forces       :     30.39s CPU     30.97s WALL (      10 calls)
     stress       :    100.84s CPU    101.91s WALL (      10 calls)

     Called by init_run:
     wfcinit      :     14.88s CPU     15.21s WALL (       2 calls)
     wfcinit:atom :      0.03s CPU      0.03s WALL (      20 calls)
     wfcinit:wfcr :     14.46s CPU     14.65s WALL (      20 calls)
     potinit      :      0.87s CPU      0.90s WALL (       2 calls)
     hinit0       :      0.31s CPU      0.32s WALL (       2 calls)

     Called by electrons:
     c_bands      :   2337.81s CPU   2364.55s WALL (     117 calls)
     sum_band     :    363.61s CPU    371.07s WALL (     117 calls)
     v_of_rho     :     26.70s CPU     27.31s WALL (     119 calls)
     v_h          :      2.08s CPU      2.12s WALL (     119 calls)
     v_xc         :     28.71s CPU     29.34s WALL (     139 calls)
     newd         :     38.59s CPU     39.78s WALL (     119 calls)
     PAW_pot      :     23.97s CPU     24.13s WALL (     127 calls)
     mix_rho      :      3.03s CPU      3.22s WALL (     117 calls)

     Called by c_bands:
     init_us_2    :     11.56s CPU     11.84s WALL (    2640 calls)
     cegterg      :   2257.66s CPU   2280.01s WALL (    1175 calls)

     Called by sum_band:
     sum_band:wei :      0.01s CPU      0.01s WALL (     117 calls)
     sum_band:loo :    313.35s CPU    318.51s WALL (     117 calls)
     sum_band:buf :      0.01s CPU      1.93s WALL (    1170 calls)
     sum_band:ini :      4.79s CPU      4.85s WALL (    1170 calls)
     sum_band:cal :     57.84s CPU     58.30s WALL (    1250 calls)
     sum_band:bec :      0.13s CPU      0.13s WALL (    1250 calls)
     addusdens    :     46.11s CPU     48.33s WALL (     117 calls)
                                        0.00s GPU  (     117 calls)
     addusd:skk   :      0.20s CPU      0.24s WALL (     351 calls)
                                        0.00s GPU  (     351 calls)

     Called by *egterg:
     cdiaghg      :     29.20s CPU     29.44s WALL (    6187 calls)
     cegterg:over :    110.69s CPU    111.66s WALL (    5177 calls)
     cegterg:upda :     62.26s CPU     62.76s WALL (    5177 calls)
     cegterg:last :    146.65s CPU    147.77s WALL (    3113 calls)
     h_psi        :   1706.85s CPU   1724.58s WALL (    6372 calls)
     s_psi        :    179.03s CPU    180.55s WALL (    6372 calls)
     g_psi        :      1.54s CPU      1.55s WALL (    5177 calls)

     Called by h_psi:
     h_psi:calbec :    178.72s CPU    180.33s WALL (    6372 calls)
     vloc_psi     :   1345.13s CPU   1359.62s WALL (    6372 calls)
                                        0.00s GPU  (    6372 calls)
     add_vuspsi   :    181.13s CPU    182.70s WALL (    6372 calls)

     General routines
     calbec       :    317.05s CPU    319.88s WALL (    9322 calls)
     fft          :     26.87s CPU     27.26s WALL (    1793 calls)
     ffts         :      1.10s CPU      1.11s WALL (     236 calls)
     fftw         :   1463.64s CPU   1479.01s WALL (  655694 calls)
     interpolate  :      2.45s CPU      2.48s WALL (     119 calls)
     davcio       :      0.03s CPU      6.06s WALL (    5074 calls)

     Parallel routines

     PAW routines
     PAW_pot      :     23.97s CPU     24.13s WALL (     127 calls)
     PAW_symme    :      0.02s CPU      0.02s WALL (     244 calls)

     PWSCF        :  49m 9.23s CPU  49m48.16s WALL


   This run was terminated on:   2:53:37   3Jul2026            

=------------------------------------------------------------------------------=
   JOB DONE.
=------------------------------------------------------------------------------=
