
     Program PWSCF v.7.3.1 starts on 21Aug2026 at  4:28: 1 

     This program is part of the open-source Quantum ESPRESSO suite
     for quantum simulation of materials; please cite
         "P. Giannozzi et al., J. Phys.:Condens. Matter 21 395502 (2009);
         "P. Giannozzi et al., J. Phys.:Condens. Matter 29 465901 (2017);
         "P. Giannozzi et al., J. Chem. Phys. 152 154105 (2020);
          URL http://www.quantum-espresso.org", 
     in publications or presentations arising from this work. More details at
     http://www.quantum-espresso.org/quote

     Parallel version (MPI & OpenMP), running on      32 processor cores
     Number of MPI processes:                32
     Threads/MPI process:                     1

     MPI processes distributed on     1 nodes
     316313 MiB available memory on the printing compute node when the environment starts

     Reading input from scf.in

     Current dimensions of program PWSCF are:
     Max number of different atomic species (ntypx) = 10
     Max number of k-points (npk) =  40000
     Max angular momentum in pseudopotentials (lmaxx) =  4
     file Cu.paw.z_11.ld1.psl.v1.0.0-low.upf: wavefunction(s)  4S 3D renormalized

     K-points division:     npool     =       2
     R & G space division:  proc/nbgrp/npool/nimage =      16
     Subspace diagonalization in iterative solution of the eigenvalue problem:
     one sub-group per band group will be used
     scalapack distributed-memory algorithm (size of sub-group:  4*  4 procs)


     Parallelization info
     --------------------
     sticks:   dense  smooth     PW     G-vecs:    dense   smooth      PW
     Min        1193     597    157               163743    57882    7779
     Max        1194     599    158               163747    57885    7784
     Sum       19099    9565   2515              2619931   926125  124485

     Using Slab Decomposition



     bravais-lattice index     =            0
     lattice parameter (alat)  =      24.0273  a.u.
     unit-cell volume          =   14752.0463 (a.u.)^3
     number of atoms/cell      =           96
     number of atomic types    =            4
     number of electrons       =       840.00
     number of Kohn-Sham states=          420
     kinetic-energy cutoff     =      60.0000  Ry
     charge density cutoff     =     480.0000  Ry
     scf convergence threshold =      1.0E-09
     mixing beta               =       0.3000
     number of iterations used =            8  plain     mixing
     Exchange-correlation=  SLA  PW   PBX  PBC
                           (   1   4   3   4   0   0   0)

     celldm(1)=  24.027274  celldm(2)=   0.000000  celldm(3)=   0.000000
     celldm(4)=   0.000000  celldm(5)=   0.000000  celldm(6)=   0.000000

     crystal axes: (cart. coord. in units of alat)
               a(1) = (   1.000000   0.000000   0.000000 )  
               a(2) = (  -0.500000   0.866025   0.000000 )  
               a(3) = (   0.000000   0.000000   1.228028 )  

     reciprocal axes: (cart. coord. in units 2 pi/alat)
               b(1) = (  1.000000  0.577351 -0.000000 )  
               b(2) = (  0.000000  1.154701  0.000000 )  
               b(3) = (  0.000000 -0.000000  0.814314 )  


     PseudoPot. # 1 for Sr read from file:
     /home/yuhansun/pseudos/SSSP-1.3.0-PBE-precision/Sr_pbe_v1.uspp.F.UPF
     MD5 check sum: 6b418c05fbe9db5448babca5e47b7a5b
     Pseudo is Ultrasoft + core correction, Zval = 10.0
     Generated by new atomic code, or converted to UPF format
     Using radial grid of  883 points,  6 beta functions with: 
                l(1) =   0
                l(2) =   0
                l(3) =   1
                l(4) =   1
                l(5) =   2
                l(6) =   2
     Q(r) pseudized with  6 coefficients,  rinner =    1.400   1.400   1.400
                                                       1.400   1.400

     PseudoPot. # 2 for Cu read from file:
     /home/yuhansun/pseudos/SSSP-1.3.0-PBE-precision/Cu.paw.z_11.ld1.psl.v1.0.0-low.upf
     MD5 check sum: 619f40885d92a09a85a8b37550532d0c
     Pseudo is Projector augmented-wave + core cor, Zval = 11.0
     Generated using &quot;atomic&quot; code by A. Dal Corso  v.6.3MaX
     Shape of augmentation charge: PSQ
     Using radial grid of 1199 points,  6 beta functions with: 
                l(1) =   0
                l(2) =   0
                l(3) =   1
                l(4) =   1
                l(5) =   2
                l(6) =   2
     Q(r) pseudized with 0 coefficients 


     PseudoPot. # 3 for Sn read from file:
     /home/yuhansun/pseudos/SSSP-1.3.0-PBE-precision/Sn_pbe_v1.uspp.F.UPF
     MD5 check sum: 4cf58ce39ec5d5d420df3dd08604eb00
     Pseudo is Ultrasoft + core correction, Zval = 14.0
     Generated by new atomic code, or converted to UPF format
     Using radial grid of  891 points,  6 beta functions with: 
                l(1) =   0
                l(2) =   0
                l(3) =   1
                l(4) =   1
                l(5) =   2
                l(6) =   2
     Q(r) pseudized with  6 coefficients,  rinner =    1.200   1.200   1.200
                                                       1.200   1.200

     PseudoPot. # 4 for S  read from file:
     /home/yuhansun/pseudos/SSSP-1.3.0-PBE-precision/s_pbe_v1.4.uspp.F.UPF
     MD5 check sum: 88d86576ff6df21479756cfb9bdac1df
     Pseudo is Ultrasoft + core correction, Zval =  6.0
     Generated by new atomic code, or converted to UPF format
     Using radial grid of  907 points,  6 beta functions with: 
                l(1) =   0
                l(2) =   0
                l(3) =   1
                l(4) =   1
                l(5) =   2
                l(6) =   2
     Q(r) pseudized with  8 coefficients,  rinner =    1.300   1.300   1.300
                                                       1.300   1.300

     atomic species   valence    mass     pseudopotential
     Sr               10.00    87.62000     Sr( 1.00)
     Cu               11.00    63.54600     Cu( 1.00)
     Sn               14.00   118.71000     Sn( 1.00)
     S                 6.00    32.06500     S ( 1.00)

     No symmetry found



   Cartesian axes

     site n.     atom                  positions (alat units)
         1        Sr     tau(   1) = (  -0.1405753   0.2434834   0.2046717  )
         2        Sr     tau(   2) = (   0.3594247   0.2434834   0.2046717  )
         3        Sr     tau(   3) = (  -0.3905753   0.6764960   0.2046717  )
         4        Sr     tau(   4) = (   0.1094247   0.6764960   0.2046717  )
         5        Sr     tau(   5) = (   0.1094247   0.1895292   0.6140139  )
         6        Sr     tau(   6) = (   0.6094247   0.1895292   0.6140139  )
         7        Sr     tau(   7) = (  -0.1405753   0.6225418   0.6140139  )
         8        Sr     tau(   8) = (   0.3594247   0.6225418   0.6140139  )
         9        Sr     tau(   9) = (   0.2811505   0.0000000   1.0233574  )
        10        Sr     tau(  10) = (   0.7811505   0.0000000   1.0233574  )
        11        Sr     tau(  11) = (   0.0311505   0.4330126   1.0233574  )
        12        Sr     tau(  12) = (   0.5311505   0.4330126   1.0233574  )
        13        Cu     tau(  13) = (  -0.1226788   0.2753211   0.5061747  )
        14        Cu     tau(  14) = (   0.3773212   0.2753211   0.5061747  )
        15        Cu     tau(  15) = (  -0.3726788   0.7083337   0.5061747  )
        16        Cu     tau(  16) = (   0.1273212   0.7083337   0.5061747  )
        17        Cu     tau(  17) = (   0.0729045   0.1891087   0.9155169  )
        18        Cu     tau(  18) = (   0.5729045   0.1891087   0.9155169  )
        19        Cu     tau(  19) = (  -0.1770956   0.6221213   0.9155169  )
        20        Cu     tau(  20) = (   0.3229044   0.6221213   0.9155169  )
        21        Cu     tau(  21) = (   0.0497750   0.4015949   0.0968325  )
        22        Cu     tau(  22) = (   0.5497750   0.4015949   0.0968325  )
        23        Cu     tau(  23) = (  -0.2002251   0.8346075   0.0968325  )
        24        Cu     tau(  24) = (   0.2997749   0.8346075   0.0968325  )
        25        Cu     tau(  25) = (   0.2997745   0.0314177   0.7218532  )
        26        Cu     tau(  26) = (   0.7997745   0.0314177   0.7218532  )
        27        Cu     tau(  27) = (   0.0497745   0.4644302   0.7218532  )
        28        Cu     tau(  28) = (   0.5497745   0.4644302   0.7218532  )
        29        Cu     tau(  29) = (   0.1273207   0.1576915   0.3125110  )
        30        Cu     tau(  30) = (   0.6273207   0.1576915   0.3125110  )
        31        Cu     tau(  31) = (  -0.1226793   0.5907041   0.3125110  )
        32        Cu     tau(  32) = (   0.3773207   0.5907041   0.3125110  )
        33        Cu     tau(  33) = (   0.3229040   0.2439039   1.1311954  )
        34        Cu     tau(  34) = (   0.8229040   0.2439039   1.1311954  )
        35        Cu     tau(  35) = (   0.0729039   0.6769164   1.1311954  )
        36        Cu     tau(  36) = (   0.5729039   0.6769164   1.1311954  )
        37        Sn     tau(  37) = (  -0.1762580   0.3052877   0.8186857  )
        38        Sn     tau(  38) = (   0.3237420   0.3052877   0.8186857  )
        39        Sn     tau(  39) = (  -0.4262581   0.7383003   0.8186857  )
        40        Sn     tau(  40) = (   0.0737419   0.7383003   0.8186857  )
        41        Sn     tau(  41) = (   0.0737420   0.1277249   0.0000000  )
        42        Sn     tau(  42) = (   0.5737420   0.1277249   0.0000000  )
        43        Sn     tau(  43) = (  -0.1762581   0.5607374   0.0000000  )
        44        Sn     tau(  44) = (   0.3237419   0.5607374   0.0000000  )
        45        Sn     tau(  45) = (   0.3525160   0.0000000   0.4093422  )
        46        Sn     tau(  46) = (   0.8525160   0.0000000   0.4093422  )
        47        Sn     tau(  47) = (   0.1025160   0.4330126   0.4093422  )
        48        Sn     tau(  48) = (   0.6025160   0.4330126   0.4093422  )
        49        S      tau(  49) = (  -0.0988203   0.2103164   0.9671149  )
        50        S      tau(  50) = (   0.4011797   0.2103164   0.9671149  )
        51        S      tau(  51) = (  -0.3488203   0.6433290   0.9671149  )
        52        S      tau(  52) = (   0.1511797   0.6433290   0.9671149  )
        53        S      tau(  53) = (   0.1172707   0.2422736   0.1484293  )
        54        S      tau(  54) = (   0.6172707   0.2422736   0.1484293  )
        55        S      tau(  55) = (  -0.1327293   0.6752862   0.1484293  )
        56        S      tau(  56) = (   0.3672707   0.6752862   0.1484293  )
        57        S      tau(  57) = (  -0.0184505   0.4134352   0.5577727  )
        58        S      tau(  58) = (   0.4815495   0.4134352   0.5577727  )
        59        S      tau(  59) = (  -0.2684506   0.8464478   0.5577727  )
        60        S      tau(  60) = (   0.2315494   0.8464478   0.5577727  )
        61        S      tau(  61) = (   0.2315495   0.0195774   0.2609129  )
        62        S      tau(  62) = (   0.7315495   0.0195774   0.2609129  )
        63        S      tau(  63) = (  -0.0184505   0.4525899   0.2609129  )
        64        S      tau(  64) = (   0.4815495   0.4525899   0.2609129  )
        65        S      tau(  65) = (   0.1511797   0.2226962   1.0795986  )
        66        S      tau(  66) = (   0.6511797   0.2226962   1.0795986  )
        67        S      tau(  67) = (  -0.0988203   0.6557088   1.0795986  )
        68        S      tau(  68) = (   0.4011797   0.6557088   1.0795986  )
        69        S      tau(  69) = (   0.3672707   0.1907390   0.6702552  )
        70        S      tau(  70) = (   0.8672707   0.1907390   0.6702552  )
        71        S      tau(  71) = (   0.1172707   0.6237516   0.6702552  )
        72        S      tau(  72) = (   0.6172707   0.6237516   0.6702552  )
        73        S      tau(  73) = (  -0.0321469   0.1532012   0.4010942  )
        74        S      tau(  74) = (   0.4703502   0.1532012   0.4035914  )
        75        S      tau(  75) = (  -0.2796498   0.5862137   0.4035914  )
        76        S      tau(  76) = (   0.2203502   0.5862137   0.4035914  )
        77        S      tau(  77) = (   0.1321490   0.3307341   0.8129336  )
        78        S      tau(  78) = (   0.6321490   0.3307341   0.8129336  )
        79        S      tau(  79) = (  -0.1178511   0.7637467   0.8129336  )
        80        S      tau(  80) = (   0.3821489   0.7637467   0.8129336  )
        81        S      tau(  81) = (  -0.1024985   0.3820894   1.2222770  )
        82        S      tau(  82) = (   0.3975015   0.3820894   1.2222770  )
        83        S      tau(  83) = (  -0.3524986   0.8151020   1.2222770  )
        84        S      tau(  84) = (   0.1475014   0.8151020   1.2222770  )
        85        S      tau(  85) = (   0.1475010   0.0509231   0.8244365  )
        86        S      tau(  86) = (   0.6475010   0.0509231   0.8244365  )
        87        S      tau(  87) = (  -0.1024990   0.4839357   0.8244365  )
        88        S      tau(  88) = (   0.3975010   0.4839357   0.8244365  )
        89        S      tau(  89) = (   0.2203497   0.2798114   0.4150943  )
        90        S      tau(  90) = (   0.7203497   0.2798114   0.4150943  )
        91        S      tau(  91) = (  -0.0296503   0.7128240   0.4150943  )
        92        S      tau(  92) = (   0.4703497   0.7128240   0.4150943  )
        93        S      tau(  93) = (   0.3821485   0.1022784   0.0057509  )
        94        S      tau(  94) = (   0.8821485   0.1022784   0.0057509  )
        95        S      tau(  95) = (   0.1321485   0.5352910   0.0057509  )
        96        S      tau(  96) = (   0.6321485   0.5352910   0.0057509  )

     number of k points=    14
                       cart. coord. in units 2pi/alat
        k(    1) = (   0.0000000   0.0000000   0.0000000), wk =   0.0740741
        k(    2) = (   0.0000000   0.0000000   0.2714379), wk =   0.1481481
        k(    3) = (   0.0000000   0.3849003   0.0000000), wk =   0.1481481
        k(    4) = (   0.0000000   0.3849003   0.2714379), wk =   0.1481481
        k(    5) = (   0.3333333   0.5773505   0.0000000), wk =   0.1481481
        k(    6) = (   0.3333333   0.5773505   0.2714379), wk =   0.1481481
        k(    7) = (  -0.3333333   0.1924501   0.0000000), wk =   0.1481481
        k(    8) = (   0.3333333   0.1924502   0.0000000), wk =   0.1481481
        k(    9) = (   0.0000000  -0.3849003   0.2714379), wk =   0.1481481
        k(   10) = (  -0.3333333   0.1924501   0.2714379), wk =   0.1481481
        k(   11) = (   0.3333333   0.1924502   0.2714379), wk =   0.1481481
        k(   12) = (  -0.3333333  -0.1924502   0.2714379), wk =   0.1481481
        k(   13) = (   0.3333333  -0.1924501   0.2714379), wk =   0.1481481
        k(   14) = (  -0.3333333  -0.5773505   0.2714379), wk =   0.1481481

     Dense  grid:  2619931 G-vectors     FFT dimensions: ( 180, 180, 216)

     Smooth grid:   926125 G-vectors     FFT dimensions: ( 120, 120, 150)

     Estimated max dynamical RAM per process >       1.07 GB

     Estimated total dynamical RAM >      33.54 GB

     Initial potential from superposition of free atoms

     starting charge     827.5884, renormalised to     840.0000

     negative rho (up, down):  7.777E-01 0.000E+00
     Starting wfcs are  672 randomized atomic wfcs
     Checking if some PAW data can be deallocated... 

     total cpu time spent up to now is       41.8 secs

     Self-consistent Calculation

     iteration #  1     ecut=    60.00 Ry     beta= 0.30
     Davidson diagonalization with overlap
     ethr =  1.00E-02,  avg # of iterations =  2.0

     negative rho (up, down):  7.747E-01 0.000E+00

     total cpu time spent up to now is      118.4 secs

     total energy              =   -9070.30357843 Ry
     estimated scf accuracy    <      21.95040535 Ry

     iteration #  2     ecut=    60.00 Ry     beta= 0.30
     Davidson diagonalization with overlap
     ethr =  2.61E-03,  avg # of iterations =  4.9

     negative rho (up, down):  7.752E-01 0.000E+00

     total cpu time spent up to now is      215.4 secs

     total energy              =   -9076.61316336 Ry
     estimated scf accuracy    <       8.23609721 Ry

     iteration #  3     ecut=    60.00 Ry     beta= 0.30
     Davidson diagonalization with overlap
     ethr =  9.80E-04,  avg # of iterations =  2.0

     negative rho (up, down):  7.804E-01 0.000E+00

     total cpu time spent up to now is      293.1 secs

     total energy              =   -9076.48842891 Ry
     estimated scf accuracy    <       1.62235201 Ry

     iteration #  4     ecut=    60.00 Ry     beta= 0.30
     Davidson diagonalization with overlap
     ethr =  1.93E-04,  avg # of iterations =  6.4

     negative rho (up, down):  7.829E-01 0.000E+00

     total cpu time spent up to now is      406.0 secs

     total energy              =   -9076.69990446 Ry
     estimated scf accuracy    <       2.08021297 Ry

     iteration #  5     ecut=    60.00 Ry     beta= 0.30
     Davidson diagonalization with overlap
     ethr =  1.93E-04,  avg # of iterations =  5.6

     negative rho (up, down):  7.884E-01 0.000E+00

     total cpu time spent up to now is      498.5 secs

     total energy              =   -9077.13624626 Ry
     estimated scf accuracy    <       0.14757655 Ry

     iteration #  6     ecut=    60.00 Ry     beta= 0.30
     Davidson diagonalization with overlap
     ethr =  1.76E-05,  avg # of iterations =  6.1

     negative rho (up, down):  7.902E-01 0.000E+00

     total cpu time spent up to now is      594.3 secs

     total energy              =   -9077.18426660 Ry
     estimated scf accuracy    <       0.01291476 Ry

     iteration #  7     ecut=    60.00 Ry     beta= 0.30
     Davidson diagonalization with overlap
     ethr =  1.54E-06,  avg # of iterations =  5.0

     negative rho (up, down):  7.907E-01 0.000E+00

     total cpu time spent up to now is      702.2 secs

     total energy              =   -9077.18863416 Ry
     estimated scf accuracy    <       0.00565048 Ry

     iteration #  8     ecut=    60.00 Ry     beta= 0.30
     Davidson diagonalization with overlap
     ethr =  6.73E-07,  avg # of iterations =  6.5

     negative rho (up, down):  7.912E-01 0.000E+00

     total cpu time spent up to now is      825.3 secs

     total energy              =   -9077.17941661 Ry
     estimated scf accuracy    <       0.04780492 Ry

     iteration #  9     ecut=    60.00 Ry     beta= 0.30
     Davidson diagonalization with overlap
     ethr =  6.73E-07,  avg # of iterations =  6.4

     negative rho (up, down):  7.911E-01 0.000E+00

     total cpu time spent up to now is      955.3 secs

     total energy              =   -9077.18756747 Ry
     estimated scf accuracy    <       0.00179342 Ry

     iteration # 10     ecut=    60.00 Ry     beta= 0.30
     Davidson diagonalization with overlap
     ethr =  2.14E-07,  avg # of iterations =  2.0

     negative rho (up, down):  7.908E-01 0.000E+00

     total cpu time spent up to now is     1030.6 secs

     total energy              =   -9077.18738509 Ry
     estimated scf accuracy    <       0.00066711 Ry

     iteration # 11     ecut=    60.00 Ry     beta= 0.30
     Davidson diagonalization with overlap
     ethr =  7.94E-08,  avg # of iterations =  5.5

     negative rho (up, down):  7.905E-01 0.000E+00

     total cpu time spent up to now is     1136.2 secs

     total energy              =   -9077.18758571 Ry
     estimated scf accuracy    <       0.00019060 Ry

     iteration # 12     ecut=    60.00 Ry     beta= 0.30
     Davidson diagonalization with overlap
     ethr =  2.27E-08,  avg # of iterations =  4.1

     negative rho (up, down):  7.904E-01 0.000E+00

     total cpu time spent up to now is     1226.7 secs

     total energy              =   -9077.18760285 Ry
     estimated scf accuracy    <       0.00008345 Ry

     iteration # 13     ecut=    60.00 Ry     beta= 0.30
     Davidson diagonalization with overlap
     ethr =  9.93E-09,  avg # of iterations =  4.3

     negative rho (up, down):  7.903E-01 0.000E+00

     total cpu time spent up to now is     1317.6 secs

     total energy              =   -9077.18761499 Ry
     estimated scf accuracy    <       0.00001540 Ry

     iteration # 14     ecut=    60.00 Ry     beta= 0.30
     Davidson diagonalization with overlap
     ethr =  1.83E-09,  avg # of iterations =  5.3

     negative rho (up, down):  7.903E-01 0.000E+00

     total cpu time spent up to now is     1403.8 secs

     total energy              =   -9077.18761683 Ry
     estimated scf accuracy    <       0.00000291 Ry

     iteration # 15     ecut=    60.00 Ry     beta= 0.30
     Davidson diagonalization with overlap
     ethr =  3.46E-10,  avg # of iterations =  5.0

     negative rho (up, down):  7.902E-01 0.000E+00

     total cpu time spent up to now is     1512.0 secs

     total energy              =   -9077.18761798 Ry
     estimated scf accuracy    <       0.00000040 Ry

     iteration # 16     ecut=    60.00 Ry     beta= 0.30
     Davidson diagonalization with overlap
     ethr =  4.72E-11,  avg # of iterations =  6.1

     negative rho (up, down):  7.902E-01 0.000E+00

     total cpu time spent up to now is     1619.4 secs

     total energy              =   -9077.18761816 Ry
     estimated scf accuracy    <       0.00000006 Ry

     iteration # 17     ecut=    60.00 Ry     beta= 0.30
     Davidson diagonalization with overlap
     ethr =  6.61E-12,  avg # of iterations =  7.6

     negative rho (up, down):  7.902E-01 0.000E+00

     total cpu time spent up to now is     1744.8 secs

     total energy              =   -9077.18761821 Ry
     estimated scf accuracy    <       0.00000002 Ry

     iteration # 18     ecut=    60.00 Ry     beta= 0.30
     Davidson diagonalization with overlap
     ethr =  2.95E-12,  avg # of iterations =  2.5

     negative rho (up, down):  7.902E-01 0.000E+00

     total cpu time spent up to now is     1828.1 secs

     total energy              =   -9077.18761823 Ry
     estimated scf accuracy    <          6.8E-09 Ry

     iteration # 19     ecut=    60.00 Ry     beta= 0.30
     Davidson diagonalization with overlap
     ethr =  8.05E-13,  avg # of iterations =  8.1

     negative rho (up, down):  7.902E-01 0.000E+00

     total cpu time spent up to now is     1969.6 secs

     total energy              =   -9077.18761823 Ry
     estimated scf accuracy    <       0.00000002 Ry

     iteration # 20     ecut=    60.00 Ry     beta= 0.30
     Davidson diagonalization with overlap
     ethr =  8.05E-13,  avg # of iterations =  5.5

     negative rho (up, down):  7.902E-01 0.000E+00

     total cpu time spent up to now is     2065.9 secs

     total energy              =   -9077.18761824 Ry
     estimated scf accuracy    <          1.9E-09 Ry

     iteration # 21     ecut=    60.00 Ry     beta= 0.30
     Davidson diagonalization with overlap
     ethr =  2.31E-13,  avg # of iterations =  6.9

     negative rho (up, down):  7.902E-01 0.000E+00

     total cpu time spent up to now is     2202.7 secs

     total energy              =   -9077.18761824 Ry
     estimated scf accuracy    <          5.5E-09 Ry

     iteration # 22     ecut=    60.00 Ry     beta= 0.30
     Davidson diagonalization with overlap
     ethr =  2.31E-13,  avg # of iterations =  4.4

     negative rho (up, down):  7.902E-01 0.000E+00

     total cpu time spent up to now is     2295.2 secs

     End of self-consistent calculation

          k = 0.0000 0.0000 0.0000 (115723 PWs)   bands (ev):

   -28.2983 -28.2773 -28.2759 -28.2758 -28.2756 -28.2754 -28.2754 -28.2748
   -28.2747 -28.2746 -28.2713 -28.2475 -14.9257 -14.9252 -14.9240 -14.9238
   -14.9236 -14.9233 -14.9228 -14.9217 -14.9213 -14.9211 -14.9207 -14.9205
   -14.9194 -14.9184 -14.9182 -14.9179 -14.9177 -14.9175 -14.9170 -14.9157
   -14.9154 -14.9152 -14.9149 -14.9147 -14.9072 -14.9069 -14.9061 -14.9058
   -14.9056 -14.9055 -14.9049 -14.9037 -14.9033 -14.9031 -14.9029 -14.9026
   -14.8670 -14.8659 -14.8656 -14.8654 -14.8654 -14.8654 -14.8647 -14.8635
   -14.8632 -14.8629 -14.8627 -14.8624 -14.8219 -14.8208 -14.8204 -14.8202
   -14.8201 -14.8198 -14.8196 -14.8183 -14.8180 -14.8177 -14.8175 -14.8173
   -10.3566 -10.3392 -10.3378 -10.3371 -10.3366 -10.3358 -10.3356 -10.3340
   -10.3322 -10.3303 -10.3263 -10.3212 -10.3101 -10.3099 -10.3074 -10.3055
   -10.3031 -10.3015 -10.3012 -10.2980 -10.2938 -10.2912 -10.2856 -10.2836
   -10.2752 -10.2703 -10.2686 -10.2672 -10.2647 -10.2635 -10.2630 -10.2609
   -10.2597 -10.2572 -10.2556 -10.2402  -6.8637  -6.5570  -6.5544  -6.4199
    -6.4166  -6.4161  -6.3028  -6.2993  -6.2989  -6.2208  -6.2186  -6.2170
    -5.9913  -5.9905  -5.9882  -5.8503  -5.8495  -5.8485  -5.7978  -5.7958
    -5.7946  -5.7381  -5.7357  -5.6195  -5.6186  -5.6175  -5.6147  -5.6132
    -5.6122  -5.6005  -5.5604  -5.5588  -5.5571  -5.5480  -5.5447  -5.5434
    -5.5179  -5.5151  -5.4330  -5.4299  -5.4280  -5.4268  -5.3742  -5.3721
    -5.3466  -5.3452  -5.3427  -5.2506  -0.6126  -0.6110  -0.6101  -0.3896
    -0.3891  -0.3879  -0.3514  -0.3163  -0.3153  -0.3152  -0.3025  -0.3003
     1.3840   1.3854   1.3858   1.5922   1.5926   1.6569   1.7168   1.7170
     1.7174   1.8048   1.8067   1.8079   2.0193   2.0402   2.0414   2.0838
     2.0854   2.0867   2.2465   2.2473   2.2488   2.3083   2.3107   2.4025
     2.4047   2.4069   2.4593   2.4602   2.4614   2.5484   2.5501   2.6625
     2.6632   2.6660   2.7827   2.7842   2.7862   2.8709   2.8727   2.9243
     2.9255   2.9266   2.9534   2.9546   2.9562   3.0257   3.0273   3.0282
     3.0435   3.0463   3.0470   3.1653   3.2128   3.2144   3.2157   3.2278
     3.2287   3.2571   3.2582   3.2589   3.3779   3.3780   3.3790   3.3925
     3.3944   3.4264   3.4278   3.4284   3.4357   3.4362   3.4374   3.4752
     3.4760   3.4784   3.4934   3.4947   3.4952   3.4964   3.5171   3.5174
     3.5817   3.5857   3.5864   3.6251   3.6274   3.6279   3.6874   3.6906
     3.6908   3.6912   3.6934   3.7065   3.7943   3.7977   3.8255   3.8261
     3.8269   3.9633   4.0195   4.0210   4.0222   4.0363   4.0369   4.0377
     4.1245   4.1255   4.1265   4.1267   4.1716   4.1738   4.1749   4.2017
     4.2090   4.2103   4.2111   4.2443   4.2450   4.2470   4.2814   4.2824
     4.4236   4.4251   4.4259   4.5178   4.5186   4.5201   4.5354   4.5370
     4.6206   4.6214   4.6219   4.8563   5.1257   5.1559   5.1563   5.1566
     5.1750   5.1750   5.1753   5.1784   5.1807   5.2228   5.2264   5.2280
     5.2293   5.2295   5.2302   5.2523   5.2531   5.2532   5.2665   5.2674
     5.2690   5.2789   5.2793   5.2800   5.3107   5.3116   5.3127   5.3132
     5.3136   5.3254   5.3375   5.3385   5.3394   5.3754   5.3760   5.3767
     5.4392   5.4394   5.4712   5.4721   5.4728   5.4749   5.4773   5.4779
     5.4786   5.4987   5.4999   5.6011   5.6017   5.6024   5.6186   5.6191
     5.6198   5.6268   5.6465   5.6476   5.6488   5.6591   5.6602   5.6610
     5.7256   5.7265   5.7451   5.7820   5.7833   5.7846   5.8205   5.8216
     5.8225   5.9033   5.9041   5.9057   5.9275   5.9287   5.9300   5.9951
     5.9970   6.0261   6.0271   6.0281   6.1496   6.1501   6.1512   6.1525
     6.2606   6.2611   6.2632   6.2634   6.2637   6.2649   6.2900   6.2916
     6.3330   6.3352   6.3371   6.3624   6.3638   6.3654   6.3880   6.3895
     6.3898   6.5523   6.5703   6.5717   6.5726   6.6366   6.6375   6.6394
     6.7458   6.7479   6.7491   6.7648   6.7660   6.7809   6.7812   6.7830
     6.8074   6.9642   7.1795   7.1803

          k = 0.0000 0.0000 0.2714 (115879 PWs)   bands (ev):

   -28.2983 -28.2773 -28.2759 -28.2758 -28.2756 -28.2754 -28.2754 -28.2748
   -28.2747 -28.2746 -28.2713 -28.2475 -14.9257 -14.9252 -14.9240 -14.9238
   -14.9236 -14.9233 -14.9228 -14.9217 -14.9213 -14.9211 -14.9207 -14.9205
   -14.9194 -14.9184 -14.9182 -14.9179 -14.9177 -14.9175 -14.9170 -14.9157
   -14.9154 -14.9152 -14.9149 -14.9147 -14.9072 -14.9069 -14.9061 -14.9058
   -14.9056 -14.9055 -14.9049 -14.9037 -14.9033 -14.9031 -14.9029 -14.9026
   -14.8670 -14.8659 -14.8656 -14.8654 -14.8654 -14.8654 -14.8647 -14.8635
   -14.8632 -14.8629 -14.8627 -14.8624 -14.8219 -14.8208 -14.8204 -14.8202
   -14.8201 -14.8198 -14.8196 -14.8183 -14.8180 -14.8177 -14.8176 -14.8173
   -10.3567 -10.3400 -10.3387 -10.3379 -10.3369 -10.3360 -10.3343 -10.3330
   -10.3327 -10.3287 -10.3268 -10.3215 -10.3116 -10.3097 -10.3073 -10.3054
   -10.3031 -10.3017 -10.2992 -10.2956 -10.2931 -10.2926 -10.2874 -10.2831
   -10.2759 -10.2697 -10.2684 -10.2667 -10.2653 -10.2641 -10.2626 -10.2606
   -10.2594 -10.2571 -10.2566 -10.2403  -6.8245  -6.7139  -6.4127  -6.4088
    -6.4080  -6.4076  -6.3074  -6.3038  -6.3035  -6.2328  -6.2313  -6.2289
    -5.9935  -5.9920  -5.9900  -5.8534  -5.8358  -5.8349  -5.8335  -5.7746
    -5.7731  -5.7719  -5.6564  -5.6559  -5.6550  -5.6515  -5.6141  -5.6128
    -5.6117  -5.6106  -5.5559  -5.5535  -5.5522  -5.5513  -5.5462  -5.5446
    -5.5436  -5.4543  -5.4359  -5.4345  -5.4334  -5.4328  -5.3757  -5.3458
    -5.3386  -5.3374  -5.3348  -5.2810  -0.6047  -0.6031  -0.6022  -0.4130
    -0.4124  -0.4119  -0.3488  -0.3329  -0.3013  -0.3009  -0.3005  -0.2744
     1.4080   1.4095   1.4103   1.5707   1.6153   1.6184   1.6188   1.6202
     1.6577   1.9345   1.9358   1.9371   2.0040   2.0461   2.0521   2.0536
     2.0548   2.0681   2.2746   2.2757   2.2773   2.3049   2.3880   2.3895
     2.3898   2.3906   2.4151   2.4167   2.4183   2.4560   2.6220   2.6230
     2.6259   2.6679   2.7186   2.7911   2.7978   2.7983   2.7999   2.8706
     2.8732   2.8738   2.9749   2.9766   2.9771   3.0447   3.0463   3.0476
     3.1053   3.1069   3.1084   3.1764   3.1996   3.2030   3.2044   3.2056
     3.2732   3.2743   3.2753   3.2845   3.3751   3.3838   3.3845   3.3861
     3.4196   3.4207   3.4211   3.4385   3.4405   3.4418   3.4488   3.4498
     3.4510   3.4772   3.4990   3.5179   3.5191   3.5198   3.5380   3.5432
     3.5486   3.5510   3.5516   3.6388   3.6436   3.6454   3.6465   3.6514
     3.6799   3.6810   3.6820   3.7739   3.8307   3.8761   3.8764   3.8770
     3.9081   3.9219   3.9941   3.9958   3.9963   4.0558   4.0568   4.0576
     4.0755   4.1172   4.1181   4.1186   4.1464   4.1494   4.1501   4.1657
     4.1722   4.1734   4.1744   4.2119   4.2500   4.2515   4.2530   4.2683
     4.4214   4.4224   4.4231   4.4838   4.5593   4.5602   4.5613   4.6053
     4.6063   4.6067   4.6768   4.8067   5.1369   5.1482   5.1548   5.1551
     5.1555   5.1655   5.1874   5.1877   5.1886   5.2166   5.2173   5.2177
     5.2184   5.2483   5.2490   5.2495   5.2589   5.2600   5.2601   5.2610
     5.2768   5.2778   5.2781   5.2788   5.3295   5.3299   5.3310   5.3332
     5.3346   5.3361   5.3421   5.3432   5.3438   5.3658   5.3750   5.3752
     5.3762   5.3902   5.4034   5.4202   5.4208   5.4216   5.5262   5.5323
     5.5331   5.5343   5.5823   5.5877   5.5890   5.5894   5.5901   5.6199
     5.6206   5.6215   5.6515   5.6527   5.6531   5.6615   5.6823   5.6828
     5.6836   5.7540   5.7557   5.7569   5.7913   5.7995   5.8176   5.8180
     5.8198   5.8706   5.8832   5.8840   5.8862   5.9885   5.9893   5.9911
     6.0418   6.0432   6.0441   6.0965   6.0984   6.0991   6.1749   6.1916
     6.1924   6.1936   6.2369   6.2677   6.2692   6.2704   6.3240   6.3266
     6.3266   6.3591   6.3610   6.3697   6.3716   6.3726   6.3948   6.4282
     6.4300   6.4311   6.4808   6.6396   6.6413   6.6422   6.6425   6.6437
     6.6448   6.6707   6.7076   6.7093   6.7108   6.7517   6.7533   6.7548
     6.9404   7.0052   7.0937   7.1697

          k = 0.0000 0.3849 0.0000 (115797 PWs)   bands (ev):

   -28.2983 -28.2773 -28.2759 -28.2758 -28.2756 -28.2754 -28.2754 -28.2748
   -28.2747 -28.2746 -28.2713 -28.2475 -14.9257 -14.9252 -14.9240 -14.9237
   -14.9236 -14.9233 -14.9228 -14.9216 -14.9212 -14.9211 -14.9208 -14.9205
   -14.9194 -14.9184 -14.9182 -14.9179 -14.9177 -14.9175 -14.9170 -14.9157
   -14.9154 -14.9152 -14.9149 -14.9147 -14.9072 -14.9069 -14.9061 -14.9058
   -14.9056 -14.9055 -14.9049 -14.9037 -14.9033 -14.9031 -14.9029 -14.9026
   -14.8670 -14.8659 -14.8656 -14.8654 -14.8654 -14.8654 -14.8647 -14.8635
   -14.8632 -14.8629 -14.8627 -14.8624 -14.8219 -14.8208 -14.8204 -14.8202
   -14.8202 -14.8198 -14.8196 -14.8183 -14.8180 -14.8177 -14.8176 -14.8173
   -10.3562 -10.3385 -10.3371 -10.3363 -10.3358 -10.3347 -10.3342 -10.3334
   -10.3330 -10.3310 -10.3274 -10.3211 -10.3097 -10.3077 -10.3060 -10.3045
   -10.3026 -10.3020 -10.3012 -10.2980 -10.2951 -10.2923 -10.2870 -10.2834
   -10.2762 -10.2691 -10.2688 -10.2667 -10.2650 -10.2638 -10.2626 -10.2623
   -10.2610 -10.2591 -10.2565 -10.2408  -6.7884  -6.5901  -6.5003  -6.4986
    -6.4412  -6.4374  -6.3656  -6.3506  -6.2861  -6.2847  -6.2503  -6.2476
    -5.9119  -5.9096  -5.8206  -5.8191  -5.8174  -5.7779  -5.7690  -5.7663
    -5.7318  -5.7240  -5.7224  -5.6907  -5.6892  -5.6480  -5.6400  -5.6368
    -5.6292  -5.5953  -5.5849  -5.5834  -5.5680  -5.5280  -5.5202  -5.5182
    -5.5158  -5.5043  -5.4622  -5.4509  -5.4372  -5.4353  -5.4229  -5.4148
    -5.3486  -5.3463  -5.3129  -5.2700  -0.5718  -0.5701  -0.5619  -0.4360
    -0.4043  -0.4032  -0.3770  -0.3393  -0.3377  -0.3368  -0.3124  -0.3030
     1.4190   1.4861   1.4887   1.5011   1.6408   1.6519   1.6893   1.7228
     1.7252   1.8278   1.8769   1.8774   1.9553   1.9557   1.9568   2.0279
     2.1153   2.2055   2.2291   2.2308   2.3390   2.3637   2.3860   2.3878
     2.3926   2.4090   2.4499   2.5366   2.5395   2.6120   2.6129   2.6170
     2.6578   2.7334   2.8118   2.8140   2.8217   2.8410   2.8424   2.8445
     2.8539   2.8849   2.9080   2.9092   2.9148   2.9626   2.9633   3.0049
     3.0502   3.0565   3.0574   3.1234   3.1490   3.1763   3.2047   3.2111
     3.2128   3.2341   3.2609   3.2622   3.2693   3.3243   3.3306   3.3320
     3.3380   3.3718   3.3953   3.3959   3.4340   3.4404   3.4429   3.4499
     3.4980   3.4989   3.5003   3.5110   3.5123   3.5140   3.5229   3.5430
     3.5623   3.6056   3.6062   3.6110   3.6347   3.6464   3.6778   3.6804
     3.6949   3.7019   3.7053   3.7094   3.7785   3.7803   3.8496   3.8601
     3.8968   3.9747   3.9752   3.9786   3.9811   4.0305   4.0398   4.0404
     4.0922   4.1119   4.1207   4.1222   4.1262   4.1632   4.1636   4.1779
     4.2489   4.2666   4.2689   4.2837   4.3031   4.3226   4.3244   4.3687
     4.3788   4.4166   4.4184   4.4841   4.5180   4.5267   4.5286   4.5295
     4.5911   4.5921   4.6264   4.7481   5.1445   5.1447   5.1479   5.1561
     5.1610   5.1615   5.1705   5.1752   5.2153   5.2197   5.2204   5.2227
     5.2285   5.2382   5.2495   5.2496   5.2507   5.2616   5.2680   5.2721
     5.2729   5.2901   5.3043   5.3056   5.3144   5.3195   5.3273   5.3285
     5.3373   5.3502   5.3531   5.3545   5.3578   5.3664   5.4139   5.4150
     5.4337   5.4519   5.4613   5.4622   5.4861   5.4938   5.5006   5.5009
     5.5032   5.5138   5.5278   5.5443   5.5568   5.5574   5.5617   5.6031
     5.6049   5.6305   5.6311   5.6328   5.6679   5.6787   5.6953   5.6966
     5.6971   5.7188   5.7302   5.7568   5.7748   5.7767   5.8095   5.8191
     5.8206   5.8642   5.8753   5.8762   5.9509   5.9519   5.9651   5.9671
     5.9911   6.0075   6.0078   6.0207   6.1380   6.1402   6.1461   6.1611
     6.2252   6.2289   6.2303   6.2514   6.2704   6.2888   6.2906   6.2998
     6.3605   6.3623   6.3772   6.3891   6.3909   6.4419   6.4851   6.4876
     6.5243   6.5373   6.5395   6.5756   6.6051   6.6514   6.6823   6.6918
     6.6941   6.7303   6.7366   6.7388   6.7622   6.7778   6.7919   6.8117
     6.8130   6.9041   6.9088   7.0801

          k = 0.0000 0.3849 0.2714 (115773 PWs)   bands (ev):

   -28.2983 -28.2773 -28.2759 -28.2758 -28.2756 -28.2754 -28.2754 -28.2748
   -28.2747 -28.2746 -28.2713 -28.2475 -14.9257 -14.9252 -14.9240 -14.9237
   -14.9236 -14.9233 -14.9228 -14.9216 -14.9212 -14.9211 -14.9208 -14.9205
   -14.9194 -14.9184 -14.9182 -14.9179 -14.9177 -14.9175 -14.9170 -14.9157
   -14.9154 -14.9152 -14.9149 -14.9147 -14.9072 -14.9069 -14.9061 -14.9058
   -14.9056 -14.9055 -14.9049 -14.9037 -14.9033 -14.9031 -14.9029 -14.9026
   -14.8670 -14.8659 -14.8656 -14.8654 -14.8654 -14.8654 -14.8647 -14.8635
   -14.8632 -14.8629 -14.8627 -14.8624 -14.8219 -14.8208 -14.8204 -14.8202
   -14.8202 -14.8198 -14.8196 -14.8183 -14.8180 -14.8177 -14.8176 -14.8173
   -10.3563 -10.3392 -10.3380 -10.3373 -10.3355 -10.3346 -10.3338 -10.3329
   -10.3322 -10.3301 -10.3279 -10.3211 -10.3106 -10.3087 -10.3061 -10.3043
   -10.3022 -10.3014 -10.2986 -10.2967 -10.2950 -10.2930 -10.2886 -10.2831
   -10.2766 -10.2692 -10.2678 -10.2669 -10.2650 -10.2643 -10.2624 -10.2619
   -10.2608 -10.2593 -10.2572 -10.2409  -6.7514  -6.6473  -6.5607  -6.4729
    -6.4258  -6.4216  -6.3650  -6.3299  -6.3280  -6.2600  -6.2264  -6.2237
    -5.9060  -5.9034  -5.8241  -5.8213  -5.8089  -5.8066  -5.7918  -5.7615
    -5.7586  -5.7318  -5.7109  -5.7087  -5.6715  -5.6357  -5.6305  -5.6282
    -5.6262  -5.6077  -5.6001  -5.5993  -5.5696  -5.5288  -5.5233  -5.5215
    -5.5203  -5.4975  -5.4676  -5.4325  -5.4294  -5.4273  -5.4216  -5.3637
    -5.3483  -5.3456  -5.3220  -5.2993  -0.5597  -0.5591  -0.5576  -0.4366
    -0.4351  -0.4257  -0.3936  -0.3733  -0.3197  -0.3182  -0.2990  -0.2789
     1.4337   1.4841   1.4867   1.4874   1.6261   1.6423   1.7717   1.7748
     1.7823   1.7908   1.7999   1.8003   1.9146   1.9959   1.9964   2.0779
     2.1551   2.1990   2.2093   2.2471   2.2492   2.3603   2.3927   2.3940
     2.3981   2.4489   2.5116   2.5132   2.5467   2.5895   2.5918   2.6080
     2.6430   2.7110   2.7604   2.7677   2.7694   2.7889   2.8096   2.8099
     2.8390   2.8744   2.9155   2.9163   2.9191   2.9811   3.0236   3.0249
     3.0667   3.1066   3.1068   3.1331   3.1709   3.1910   3.1940   3.1950
     3.2007   3.2324   3.2647   3.2656   3.2770   3.3186   3.3217   3.3232
     3.3243   3.3890   3.3904   3.4113   3.4457   3.4466   3.4692   3.4707
     3.4720   3.4736   3.4757   3.4772   3.5337   3.5365   3.5375   3.5910
     3.6099   3.6124   3.6137   3.6333   3.6423   3.6485   3.6594   3.6599
     3.6677   3.7104   3.7118   3.7142   3.8353   3.8364   3.8802   3.8886
     3.9054   3.9500   3.9511   3.9752   3.9825   4.0201   4.0474   4.0501
     4.0505   4.0661   4.1107   4.1117   4.1198   4.1336   4.1338   4.1478
     4.1912   4.2559   4.2665   4.2697   4.2891   4.2908   4.2950   4.3877
     4.3980   4.4372   4.4395   4.4681   4.5240   4.5254   4.5358   4.5964
     4.6109   4.6119   4.6218   4.7208   5.1513   5.1515   5.1554   5.1581
     5.1730   5.1767   5.1774   5.1841   5.1916   5.1985   5.2020   5.2080
     5.2085   5.2350   5.2355   5.2356   5.2549   5.2643   5.2654   5.2672
     5.2798   5.2988   5.3081   5.3130   5.3141   5.3293   5.3367   5.3387
     5.3589   5.3592   5.3604   5.3645   5.3808   5.3931   5.4075   5.4077
     5.4134   5.4324   5.4341   5.4450   5.4458   5.4933   5.5021   5.5030
     5.5096   5.5166   5.5540   5.5601   5.5743   5.5754   5.6030   5.6103
     5.6121   5.6196   5.6243   5.6265   5.6430   5.6706   5.6822   5.7145
     5.7151   5.7181   5.7344   5.7729   5.7735   5.7745   5.8024   5.8038
     5.8106   5.8585   5.8751   5.8762   5.8789   5.9151   5.9595   5.9610
     6.0344   6.0353   6.0365   6.0597   6.0784   6.0804   6.1728   6.2066
     6.2115   6.2144   6.2660   6.2666   6.2695   6.2769   6.2855   6.3476
     6.3504   6.3663   6.3729   6.4161   6.4238   6.4253   6.4274   6.4715
     6.4964   6.5003   6.5461   6.5598   6.5956   6.5962   6.6661   6.6681
     6.6770   6.7195   6.7356   6.7375   6.7462   6.8131   6.8141   6.8438
     6.8693   6.9281   6.9367   7.0517

          k = 0.3333 0.5774 0.0000 (115752 PWs)   bands (ev):

   -28.2983 -28.2773 -28.2759 -28.2758 -28.2756 -28.2754 -28.2754 -28.2748
   -28.2747 -28.2746 -28.2713 -28.2475 -14.9257 -14.9252 -14.9240 -14.9237
   -14.9235 -14.9234 -14.9228 -14.9216 -14.9213 -14.9210 -14.9208 -14.9205
   -14.9194 -14.9184 -14.9182 -14.9179 -14.9176 -14.9176 -14.9170 -14.9157
   -14.9154 -14.9152 -14.9150 -14.9147 -14.9072 -14.9069 -14.9061 -14.9058
   -14.9056 -14.9055 -14.9049 -14.9036 -14.9033 -14.9031 -14.9029 -14.9026
   -14.8670 -14.8659 -14.8656 -14.8654 -14.8654 -14.8654 -14.8647 -14.8635
   -14.8632 -14.8629 -14.8627 -14.8624 -14.8219 -14.8208 -14.8204 -14.8202
   -14.8202 -14.8198 -14.8196 -14.8183 -14.8180 -14.8177 -14.8176 -14.8173
   -10.3560 -10.3382 -10.3362 -10.3358 -10.3352 -10.3348 -10.3347 -10.3333
   -10.3322 -10.3306 -10.3287 -10.3209 -10.3095 -10.3063 -10.3048 -10.3043
   -10.3030 -10.3017 -10.3010 -10.2995 -10.2954 -10.2905 -10.2896 -10.2833
   -10.2765 -10.2688 -10.2675 -10.2667 -10.2657 -10.2647 -10.2638 -10.2626
   -10.2611 -10.2584 -10.2576 -10.2414  -6.6524  -6.6502  -6.6499  -6.4047
    -6.3993  -6.3988  -6.3982  -6.3979  -6.3977  -6.2945  -6.2917  -6.1939
    -5.8653  -5.8523  -5.8501  -5.7501  -5.7484  -5.7472  -5.7332  -5.7318
    -5.7305  -5.7089  -5.7068  -5.6956  -5.6940  -5.6930  -5.6852  -5.6848
    -5.6832  -5.6445  -5.5432  -5.5410  -5.5405  -5.5306  -5.5297  -5.5276
    -5.5120  -5.4728  -5.4716  -5.4709  -5.4668  -5.4663  -5.4646  -5.3976
    -5.3951  -5.3022  -5.3016  -5.2996  -0.5441  -0.5153  -0.5143  -0.5135
    -0.3969  -0.3951  -0.3913  -0.3899  -0.3890  -0.3110  -0.3104  -0.3082
     1.4831   1.4845   1.4856   1.6744   1.6754   1.6765   1.6856   1.6865
     1.6893   1.7325   1.7352   1.7998   2.0805   2.0820   2.0826   2.0830
     2.0848   2.1429   2.1445   2.1456   2.2554   2.3968   2.3974   2.3979
     2.4929   2.4948   2.4952   2.5624   2.5637   2.5644   2.5966   2.5977
     2.7735   2.7743   2.7750   2.8361   2.8375   2.8421   2.8443   2.8450
     2.8486   2.8528   2.8530   2.8544   2.8694   3.0098   3.0111   3.0118
     3.0247   3.0254   3.0269   3.0622   3.1334   3.1345   3.1366   3.1972
     3.1976   3.1988   3.2598   3.2602   3.2611   3.2700   3.2725   3.3620
     3.3704   3.3707   3.3725   3.3735   3.4246   3.4258   3.4269   3.4870
     3.4887   3.5021   3.5034   3.5040   3.5296   3.5301   3.5309   3.5474
     3.5483   3.5800   3.5807   3.5816   3.6492   3.6511   3.6517   3.7197
     3.7209   3.7223   3.7279   3.7293   3.7572   3.8012   3.8021   3.8030
     3.9586   3.9599   3.9626   3.9872   3.9877   4.0296   4.0305   4.0315
     4.0841   4.0860   4.0862   4.1412   4.1512   4.1518   4.1524   4.2845
     4.2859   4.2936   4.3190   4.3196   4.3201   4.3214   4.3220   4.3234
     4.3852   4.3865   4.3884   4.4962   4.5144   4.5171   4.5199   4.5206
     4.5229   4.6532   4.6555   4.6573   5.1385   5.1445   5.1448   5.1456
     5.1738   5.1743   5.1886   5.1891   5.1896   5.1972   5.1975   5.1979
     5.2473   5.2477   5.2491   5.2656   5.2665   5.2670   5.2983   5.2988
     5.2998   5.3019   5.3033   5.3040   5.3144   5.3188   5.3198   5.3202
     5.3406   5.3412   5.3418   5.4025   5.4037   5.4044   5.4086   5.4087
     5.4554   5.4561   5.4570   5.4588   5.4836   5.4841   5.4848   5.4883
     5.4893   5.5349   5.5363   5.5377   5.5645   5.5652   5.5658   5.5711
     5.5718   5.5721   5.6415   5.6719   5.6739   5.6947   5.6954   5.6967
     5.7066   5.7078   5.7089   5.7793   5.7806   5.7819   5.7993   5.8000
     5.8008   5.8246   5.8248   5.8447   5.9300   5.9312   5.9325   6.0462
     6.0474   6.0481   6.0486   6.0509   6.1389   6.1393   6.1401   6.1588
     6.2184   6.2192   6.2202   6.2592   6.2603   6.2620   6.2842   6.2848
     6.3751   6.4097   6.4108   6.4116   6.4155   6.4172   6.4233   6.4512
     6.4525   6.4532   6.6149   6.6156   6.6162   6.6757   6.6764   6.6775
     6.7244   6.7403   6.7413   6.8049   6.8066   6.8072   6.8099   6.8101
     6.8115   6.9377   6.9390   6.9398

          k = 0.3333 0.5774 0.2714 (115827 PWs)   bands (ev):

   -28.2983 -28.2773 -28.2759 -28.2758 -28.2756 -28.2754 -28.2754 -28.2748
   -28.2747 -28.2746 -28.2713 -28.2475 -14.9257 -14.9252 -14.9240 -14.9237
   -14.9235 -14.9234 -14.9228 -14.9216 -14.9213 -14.9210 -14.9208 -14.9205
   -14.9194 -14.9184 -14.9182 -14.9179 -14.9176 -14.9176 -14.9170 -14.9157
   -14.9154 -14.9152 -14.9150 -14.9147 -14.9072 -14.9069 -14.9061 -14.9058
   -14.9056 -14.9055 -14.9049 -14.9036 -14.9033 -14.9031 -14.9029 -14.9026
   -14.8670 -14.8659 -14.8656 -14.8654 -14.8654 -14.8654 -14.8647 -14.8635
   -14.8632 -14.8629 -14.8627 -14.8624 -14.8219 -14.8208 -14.8204 -14.8202
   -14.8202 -14.8198 -14.8196 -14.8183 -14.8180 -14.8177 -14.8176 -14.8173
   -10.3560 -10.3386 -10.3374 -10.3368 -10.3361 -10.3340 -10.3332 -10.3330
   -10.3318 -10.3302 -10.3287 -10.3211 -10.3094 -10.3077 -10.3065 -10.3052
   -10.3024 -10.2995 -10.2985 -10.2972 -10.2948 -10.2919 -10.2912 -10.2834
   -10.2768 -10.2690 -10.2678 -10.2663 -10.2657 -10.2642 -10.2633 -10.2622
   -10.2609 -10.2594 -10.2583 -10.2415  -6.6203  -6.6181  -6.6178  -6.5269
    -6.5248  -6.5242  -6.3092  -6.2924  -6.2892  -6.2887  -6.2582  -6.2156
    -5.8750  -5.8574  -5.8460  -5.7801  -5.7793  -5.7779  -5.7435  -5.7417
    -5.7404  -5.7155  -5.6891  -5.6878  -5.6865  -5.6729  -5.6722  -5.6713
    -5.6699  -5.6434  -5.5586  -5.5560  -5.5554  -5.5262  -5.5245  -5.5234
    -5.5064  -5.5040  -5.5025  -5.5015  -5.4585  -5.3986  -5.3974  -5.3962
    -5.3575  -5.3232  -5.3226  -5.3202  -0.5203  -0.5065  -0.5053  -0.5045
    -0.4609  -0.4177  -0.4170  -0.4161  -0.3549  -0.2937  -0.2929  -0.2916
     1.4812   1.4825   1.4838   1.6379   1.6386   1.6405   1.6895   1.7752
     1.7761   1.7771   1.7775   1.7939   1.9807   1.9815   1.9830   2.0559
     2.1709   2.1916   2.1937   2.1939   2.2478   2.3961   2.3971   2.3982
     2.4876   2.4889   2.4901   2.5572   2.5868   2.5884   2.5895   2.5916
     2.6781   2.7368   2.7370   2.7377   2.8224   2.8234   2.8238   2.8274
     2.9012   2.9024   2.9043   2.9247   2.9373   2.9544   2.9552   2.9566
     3.0597   3.0614   3.0623   3.0882   3.0890   3.0896   3.1260   3.1812
     3.2444   3.2449   3.2456   3.2712   3.2719   3.2725   3.3216   3.3266
     3.3278   3.3293   3.3749   3.4073   3.4208   3.4651   3.4663   3.4668
     3.4933   3.4990   3.4997   3.5012   3.5360   3.5372   3.5383   3.5409
     3.5616   3.6156   3.6170   3.6178   3.6534   3.6552   3.6560   3.6974
     3.6978   3.7000   3.7198   3.7448   3.8214   3.8410   3.8420   3.8426
     3.9382   3.9405   3.9414   3.9439   4.0294   4.0304   4.0318   4.0404
     4.0673   4.0683   4.0698   4.1091   4.1139   4.1147   4.1154   4.1683
     4.2723   4.2737   4.2747   4.2902   4.3154   4.3614   4.3626   4.3628
     4.4166   4.4170   4.4194   4.4922   4.4940   4.4949   4.5075   4.5116
     4.5657   4.6665   4.6677   4.6695   5.1496   5.1579   5.1580   5.1584
     5.1587   5.1832   5.1833   5.1845   5.1984   5.1989   5.1996   5.2117
     5.2253   5.2256   5.2264   5.2517   5.2532   5.2536   5.2570   5.2692
     5.3015   5.3028   5.3032   5.3099   5.3297   5.3298   5.3306   5.3683
     5.3689   5.3693   5.3752   5.3941   5.3963   5.4092   5.4098   5.4101
     5.4330   5.4339   5.4344   5.4393   5.4849   5.4854   5.4862   5.4911
     5.5392   5.5402   5.5412   5.5439   5.5661   5.5671   5.5675   5.6054
     5.6064   5.6068   5.6381   5.6397   5.6722   5.6733   5.6743   5.7036
     5.7043   5.7055   5.7181   5.7584   5.7596   5.7607   5.8018   5.8082
     5.8214   5.8232   5.8246   5.8266   5.8899   5.8911   5.8928   6.0577
     6.0605   6.0614   6.0623   6.0776   6.1195   6.1209   6.1219   6.1356
     6.1954   6.2374   6.2382   6.2388   6.2844   6.3012   6.3019   6.3036
     6.3070   6.3849   6.3856   6.3869   6.4495   6.4679   6.4687   6.4696
     6.4906   6.4932   6.5590   6.5600   6.5608   6.6456   6.6845   6.6857
     6.6865   6.7605   6.7767   6.7779   6.7796   6.7924   6.8540   6.8546
     6.8559   6.9342   6.9362   6.9366

          k =-0.3333 0.1925 0.0000 (115797 PWs)   bands (ev):

   -28.2983 -28.2773 -28.2759 -28.2758 -28.2756 -28.2754 -28.2754 -28.2748
   -28.2747 -28.2746 -28.2713 -28.2475 -14.9257 -14.9252 -14.9240 -14.9238
   -14.9235 -14.9234 -14.9228 -14.9216 -14.9213 -14.9210 -14.9208 -14.9205
   -14.9194 -14.9184 -14.9182 -14.9179 -14.9176 -14.9175 -14.9170 -14.9157
   -14.9154 -14.9152 -14.9150 -14.9147 -14.9072 -14.9069 -14.9061 -14.9058
   -14.9056 -14.9055 -14.9049 -14.9036 -14.9033 -14.9031 -14.9029 -14.9026
   -14.8670 -14.8659 -14.8656 -14.8654 -14.8654 -14.8654 -14.8647 -14.8635
   -14.8632 -14.8629 -14.8627 -14.8624 -14.8219 -14.8208 -14.8204 -14.8202
   -14.8202 -14.8198 -14.8196 -14.8183 -14.8180 -14.8177 -14.8176 -14.8173
   -10.3560 -10.3384 -10.3371 -10.3361 -10.3358 -10.3352 -10.3346 -10.3335
   -10.3319 -10.3310 -10.3277 -10.3210 -10.3100 -10.3070 -10.3063 -10.3045
   -10.3033 -10.3015 -10.3005 -10.2986 -10.2958 -10.2918 -10.2876 -10.2834
   -10.2758 -10.2692 -10.2687 -10.2669 -10.2653 -10.2645 -10.2629 -10.2623
   -10.2598 -10.2585 -10.2568 -10.2408  -6.7885  -6.5908  -6.5014  -6.4974
    -6.4385  -6.4374  -6.3674  -6.3483  -6.2878  -6.2849  -6.2502  -6.2482
    -5.9130  -5.9116  -5.8204  -5.8187  -5.8173  -5.7775  -5.7679  -5.7670
    -5.7318  -5.7244  -5.7216  -5.6894  -5.6892  -5.6464  -5.6381  -5.6373
    -5.6288  -5.5939  -5.5851  -5.5839  -5.5703  -5.5294  -5.5191  -5.5183
    -5.5165  -5.5041  -5.4640  -5.4509  -5.4372  -5.4353  -5.4219  -5.4154
    -5.3479  -5.3459  -5.3135  -5.2701  -0.5722  -0.5708  -0.5610  -0.4349
    -0.4052  -0.4041  -0.3772  -0.3374  -0.3367  -0.3365  -0.3132  -0.3044
     1.4178   1.4881   1.4888   1.5007   1.6406   1.6519   1.6893   1.7241
     1.7256   1.8288   1.8758   1.8773   1.9535   1.9553   1.9567   2.0267
     2.1155   2.2073   2.2285   2.2296   2.3382   2.3630   2.3870   2.3882
     2.3935   2.4083   2.4494   2.5379   2.5399   2.6123   2.6138   2.6170
     2.6567   2.7361   2.8135   2.8145   2.8223   2.8401   2.8414   2.8448
     2.8543   2.8845   2.9066   2.9095   2.9147   2.9604   2.9629   3.0047
     3.0512   3.0558   3.0570   3.1256   3.1491   3.1767   3.2047   3.2119
     3.2127   3.2354   3.2609   3.2615   3.2690   3.3242   3.3309   3.3317
     3.3393   3.3719   3.3929   3.3953   3.4340   3.4402   3.4416   3.4494
     3.4979   3.4991   3.5007   3.5115   3.5124   3.5130   3.5235   3.5420
     3.5614   3.6033   3.6071   3.6120   3.6348   3.6468   3.6789   3.6808
     3.6937   3.7036   3.7041   3.7084   3.7794   3.7807   3.8493   3.8595
     3.8979   3.9734   3.9760   3.9796   3.9810   4.0309   4.0397   4.0401
     4.0934   4.1120   4.1208   4.1216   4.1259   4.1625   4.1631   4.1781
     4.2486   4.2667   4.2689   4.2830   4.3031   4.3230   4.3240   4.3682
     4.3788   4.4172   4.4186   4.4839   4.5168   4.5266   4.5284   4.5293
     4.5909   4.5917   4.6286   4.7495   5.1442   5.1449   5.1479   5.1557
     5.1612   5.1613   5.1701   5.1752   5.2151   5.2200   5.2205   5.2225
     5.2287   5.2381   5.2494   5.2501   5.2509   5.2616   5.2671   5.2725
     5.2732   5.2898   5.3049   5.3055   5.3136   5.3192   5.3281   5.3284
     5.3376   5.3501   5.3534   5.3538   5.3577   5.3664   5.4140   5.4150
     5.4342   5.4512   5.4614   5.4618   5.4858   5.4938   5.5006   5.5008
     5.5032   5.5137   5.5289   5.5451   5.5570   5.5581   5.5616   5.6037
     5.6045   5.6304   5.6317   5.6322   5.6681   5.6780   5.6959   5.6962
     5.6970   5.7179   5.7303   5.7570   5.7746   5.7761   5.8093   5.8199
     5.8205   5.8635   5.8768   5.8771   5.9490   5.9515   5.9655   5.9670
     5.9903   6.0075   6.0091   6.0211   6.1389   6.1407   6.1452   6.1609
     6.2257   6.2288   6.2304   6.2515   6.2708   6.2876   6.2897   6.3002
     6.3615   6.3628   6.3777   6.3902   6.3909   6.4412   6.4864   6.4871
     6.5239   6.5376   6.5390   6.5761   6.6044   6.6510   6.6842   6.6913
     6.6923   6.7299   6.7368   6.7383   6.7624   6.7776   6.7934   6.8110
     6.8133   6.9033   6.9088   7.0798

          k = 0.3333 0.1925 0.0000 (115797 PWs)   bands (ev):

   -28.2983 -28.2773 -28.2759 -28.2758 -28.2756 -28.2754 -28.2754 -28.2748
   -28.2747 -28.2746 -28.2713 -28.2475 -14.9257 -14.9252 -14.9240 -14.9237
   -14.9235 -14.9234 -14.9228 -14.9216 -14.9213 -14.9210 -14.9208 -14.9205
   -14.9194 -14.9184 -14.9182 -14.9179 -14.9177 -14.9175 -14.9170 -14.9157
   -14.9155 -14.9152 -14.9150 -14.9147 -14.9072 -14.9069 -14.9061 -14.9058
   -14.9056 -14.9055 -14.9049 -14.9037 -14.9034 -14.9031 -14.9029 -14.9026
   -14.8670 -14.8659 -14.8656 -14.8654 -14.8654 -14.8654 -14.8647 -14.8635
   -14.8632 -14.8629 -14.8627 -14.8624 -14.8219 -14.8208 -14.8204 -14.8202
   -14.8202 -14.8198 -14.8196 -14.8183 -14.8180 -14.8177 -14.8176 -14.8173
   -10.3562 -10.3379 -10.3375 -10.3368 -10.3365 -10.3348 -10.3340 -10.3333
   -10.3327 -10.3307 -10.3273 -10.3209 -10.3092 -10.3078 -10.3062 -10.3045
   -10.3030 -10.3019 -10.3012 -10.2989 -10.2939 -10.2917 -10.2874 -10.2834
   -10.2762 -10.2692 -10.2680 -10.2671 -10.2657 -10.2649 -10.2622 -10.2612
   -10.2606 -10.2587 -10.2568 -10.2414  -6.7884  -6.5904  -6.5009  -6.4981
    -6.4395  -6.4383  -6.3667  -6.3498  -6.2864  -6.2845  -6.2500  -6.2477
    -5.9116  -5.9091  -5.8211  -5.8185  -5.8180  -5.7772  -5.7684  -5.7675
    -5.7323  -5.7235  -5.7230  -5.6912  -5.6905  -5.6478  -5.6388  -5.6372
    -5.6294  -5.5962  -5.5847  -5.5832  -5.5673  -5.5273  -5.5203  -5.5183
    -5.5154  -5.5048  -5.4624  -5.4514  -5.4363  -5.4347  -5.4223  -5.4151
    -5.3490  -5.3479  -5.3119  -5.2697  -0.5707  -0.5697  -0.5631  -0.4362
    -0.4037  -0.4022  -0.3775  -0.3390  -0.3384  -0.3377  -0.3124  -0.3030
     1.4196   1.4861   1.4878   1.5017   1.6395   1.6525   1.6876   1.7235
     1.7248   1.8279   1.8773   1.8789   1.9542   1.9566   1.9578   2.0276
     2.1158   2.2055   2.2293   2.2309   2.3399   2.3645   2.3858   2.3862
     2.3936   2.4088   2.4502   2.5369   2.5384   2.6114   2.6132   2.6164
     2.6570   2.7345   2.8115   2.8131   2.8218   2.8414   2.8424   2.8439
     2.8537   2.8847   2.9082   2.9101   2.9146   2.9630   2.9646   3.0054
     3.0495   3.0563   3.0574   3.1238   3.1480   3.1762   3.2054   3.2120
     3.2133   3.2337   3.2607   3.2622   3.2699   3.3239   3.3306   3.3319
     3.3385   3.3731   3.3960   3.3978   3.4332   3.4398   3.4420   3.4501
     3.4971   3.4980   3.5007   3.5099   3.5111   3.5158   3.5219   3.5450
     3.5627   3.6042   3.6060   3.6114   3.6351   3.6455   3.6786   3.6804
     3.6951   3.7022   3.7034   3.7091   3.7787   3.7800   3.8497   3.8600
     3.8956   3.9749   3.9757   3.9781   3.9812   4.0303   4.0382   4.0391
     4.0934   4.1128   4.1207   4.1225   4.1271   4.1628   4.1651   4.1782
     4.2482   4.2662   4.2671   4.2822   4.3041   4.3220   4.3243   4.3685
     4.3794   4.4161   4.4171   4.4835   4.5192   4.5269   4.5284   4.5308
     4.5913   4.5942   4.6267   4.7486   5.1444   5.1452   5.1475   5.1544
     5.1610   5.1613   5.1703   5.1761   5.2159   5.2196   5.2205   5.2222
     5.2281   5.2376   5.2496   5.2504   5.2505   5.2614   5.2694   5.2724
     5.2733   5.2892   5.3044   5.3051   5.3154   5.3193   5.3272   5.3277
     5.3373   5.3502   5.3528   5.3533   5.3579   5.3656   5.4133   5.4149
     5.4339   5.4522   5.4619   5.4623   5.4858   5.4938   5.5006   5.5014
     5.5035   5.5131   5.5273   5.5435   5.5565   5.5574   5.5624   5.6030
     5.6041   5.6313   5.6323   5.6331   5.6681   5.6784   5.6959   5.6970
     5.6975   5.7183   5.7294   5.7567   5.7765   5.7768   5.8097   5.8194
     5.8196   5.8650   5.8756   5.8763   5.9500   5.9521   5.9650   5.9657
     5.9922   6.0068   6.0084   6.0205   6.1393   6.1398   6.1442   6.1614
     6.2247   6.2295   6.2305   6.2523   6.2712   6.2897   6.2904   6.2991
     6.3616   6.3629   6.3774   6.3892   6.3908   6.4408   6.4861   6.4865
     6.5240   6.5371   6.5384   6.5754   6.6051   6.6507   6.6832   6.6912
     6.6938   6.7297   6.7370   6.7383   6.7625   6.7780   6.7926   6.8111
     6.8129   6.9047   6.9090   7.0804

          k = 0.0000-0.3849 0.2714 (115773 PWs)   bands (ev):

   -28.2983 -28.2773 -28.2759 -28.2758 -28.2756 -28.2754 -28.2754 -28.2748
   -28.2747 -28.2746 -28.2713 -28.2475 -14.9257 -14.9252 -14.9240 -14.9237
   -14.9236 -14.9233 -14.9228 -14.9216 -14.9212 -14.9211 -14.9208 -14.9205
   -14.9194 -14.9184 -14.9182 -14.9179 -14.9177 -14.9175 -14.9170 -14.9157
   -14.9154 -14.9152 -14.9149 -14.9147 -14.9072 -14.9069 -14.9061 -14.9058
   -14.9056 -14.9055 -14.9049 -14.9037 -14.9033 -14.9031 -14.9029 -14.9026
   -14.8670 -14.8659 -14.8656 -14.8654 -14.8654 -14.8654 -14.8647 -14.8635
   -14.8632 -14.8629 -14.8627 -14.8624 -14.8219 -14.8208 -14.8204 -14.8202
   -14.8202 -14.8198 -14.8196 -14.8183 -14.8180 -14.8177 -14.8176 -14.8173
   -10.3563 -10.3393 -10.3379 -10.3372 -10.3355 -10.3346 -10.3343 -10.3331
   -10.3319 -10.3298 -10.3278 -10.3214 -10.3099 -10.3087 -10.3072 -10.3049
   -10.3024 -10.2998 -10.2984 -10.2969 -10.2948 -10.2934 -10.2889 -10.2833
   -10.2766 -10.2691 -10.2681 -10.2666 -10.2651 -10.2641 -10.2624 -10.2616
   -10.2606 -10.2599 -10.2572 -10.2409  -6.7515  -6.6473  -6.5616  -6.4693
    -6.4227  -6.4184  -6.3645  -6.3410  -6.3400  -6.2667  -6.2128  -6.2100
    -5.9146  -5.9121  -5.8246  -5.8223  -5.8188  -5.8166  -5.7654  -5.7636
    -5.7537  -5.7332  -5.6827  -5.6823  -5.6807  -5.6632  -5.6452  -5.6406
    -5.6372  -5.6074  -5.5858  -5.5848  -5.5728  -5.5313  -5.5282  -5.5264
    -5.5161  -5.4860  -5.4663  -5.4399  -5.4377  -5.4360  -5.3987  -5.3699
    -5.3445  -5.3420  -5.3313  -5.2958  -0.5630  -0.5611  -0.5515  -0.4339
    -0.4293  -0.4283  -0.4109  -0.3606  -0.3230  -0.3215  -0.2900  -0.2833
     1.4053   1.4927   1.4956   1.5156   1.6122   1.7111   1.7131   1.7228
     1.7380   1.7740   1.8449   1.8463   1.9662   1.9854   2.0215   2.0223
     2.1295   2.1982   2.2083   2.2103   2.2854   2.3342   2.3959   2.4267
     2.4290   2.5187   2.5289   2.5298   2.5559   2.5580   2.5585   2.5602
     2.5986   2.6786   2.7631   2.7656   2.8235   2.8250   2.8263   2.8292
     2.8501   2.8524   2.8955   2.8963   2.9061   3.0082   3.0179   3.0195
     3.0754   3.0788   3.1177   3.1189   3.1343   3.1803   3.1816   3.1888
     3.2139   3.2465   3.2665   3.2855   3.2866   3.2955   3.3308   3.3328
     3.3751   3.3769   3.3788   3.3797   3.4472   3.4490   3.4501   3.4771
     3.4804   3.4807   3.5063   3.5193   3.5344   3.5358   3.5365   3.5578
     3.5859   3.5877   3.6108   3.6312   3.6413   3.6451   3.6825   3.6852
     3.6870   3.6971   3.7037   3.7052   3.8354   3.8379   3.8789   3.8805
     3.9420   3.9459   3.9462   3.9493   3.9727   4.0321   4.0541   4.0568
     4.0616   4.0622   4.1004   4.1017   4.1220   4.1235   4.1302   4.1335
     4.2243   4.2408   4.2684   4.2707   4.2913   4.2934   4.3140   4.3675
     4.3924   4.4338   4.4357   4.4810   4.5212   4.5436   4.5456   4.5860
     4.5963   4.5981   4.6311   4.7291   5.1481   5.1486   5.1549   5.1656
     5.1692   5.1695   5.1700   5.1737   5.2002   5.2060   5.2130   5.2186
     5.2196   5.2295   5.2415   5.2423   5.2610   5.2643   5.2653   5.2659
     5.2668   5.2737   5.3102   5.3114   5.3194   5.3345   5.3471   5.3483
     5.3609   5.3635   5.3637   5.3689   5.3701   5.3810   5.3892   5.3900
     5.4104   5.4338   5.4484   5.4515   5.4525   5.4696   5.4966   5.4984
     5.5173   5.5244   5.5566   5.5577   5.5688   5.5695   5.6016   5.6035
     5.6081   5.6204   5.6316   5.6492   5.6512   5.6615   5.6752   5.7086
     5.7100   5.7392   5.7599   5.7616   5.7717   5.7852   5.8053   5.8069
     5.8151   5.8407   5.8673   5.8682   5.8754   5.8950   5.9689   5.9709
     6.0196   6.0255   6.0264   6.1011   6.1022   6.1127   6.1598   6.1880
     6.2015   6.2038   6.2047   6.2612   6.2643   6.2867   6.3183   6.3428
     6.3550   6.3689   6.3705   6.4124   6.4179   6.4210   6.4523   6.4803
     6.4830   6.5078   6.5583   6.5663   6.6070   6.6082   6.6476   6.6656
     6.6684   6.7366   6.7389   6.7396   6.7480   6.8038   6.8055   6.8505
     6.8659   6.9178   6.9452   7.0385

          k =-0.3333 0.1925 0.2714 (115773 PWs)   bands (ev):

   -28.2983 -28.2773 -28.2759 -28.2758 -28.2756 -28.2754 -28.2754 -28.2748
   -28.2747 -28.2746 -28.2713 -28.2475 -14.9257 -14.9252 -14.9240 -14.9238
   -14.9235 -14.9234 -14.9228 -14.9216 -14.9213 -14.9210 -14.9208 -14.9205
   -14.9194 -14.9184 -14.9182 -14.9179 -14.9176 -14.9175 -14.9170 -14.9157
   -14.9154 -14.9152 -14.9150 -14.9147 -14.9072 -14.9069 -14.9061 -14.9058
   -14.9056 -14.9055 -14.9049 -14.9036 -14.9033 -14.9031 -14.9029 -14.9026
   -14.8670 -14.8659 -14.8656 -14.8654 -14.8654 -14.8654 -14.8647 -14.8635
   -14.8632 -14.8629 -14.8627 -14.8624 -14.8219 -14.8208 -14.8204 -14.8202
   -14.8202 -14.8198 -14.8196 -14.8183 -14.8180 -14.8177 -14.8176 -14.8173
   -10.3561 -10.3392 -10.3378 -10.3367 -10.3363 -10.3349 -10.3338 -10.3334
   -10.3312 -10.3302 -10.3281 -10.3211 -10.3105 -10.3087 -10.3054 -10.3048
   -10.3032 -10.3010 -10.2982 -10.2969 -10.2946 -10.2938 -10.2891 -10.2831
   -10.2762 -10.2690 -10.2680 -10.2673 -10.2660 -10.2642 -10.2623 -10.2615
   -10.2604 -10.2587 -10.2577 -10.2408  -6.7516  -6.6472  -6.5626  -6.4689
    -6.4191  -6.4184  -6.3646  -6.3430  -6.3403  -6.2662  -6.2136  -6.2105
    -5.9156  -5.9139  -5.8246  -5.8207  -5.8190  -5.8169  -5.7651  -5.7641
    -5.7536  -5.7325  -5.6827  -5.6818  -5.6807  -5.6639  -5.6416  -5.6406
    -5.6363  -5.6062  -5.5864  -5.5854  -5.5746  -5.5303  -5.5275  -5.5264
    -5.5183  -5.4877  -5.4650  -5.4407  -5.4380  -5.4359  -5.3978  -5.3703
    -5.3437  -5.3419  -5.3324  -5.2958  -0.5633  -0.5620  -0.5503  -0.4324
    -0.4294  -0.4288  -0.4115  -0.3614  -0.3215  -0.3211  -0.2906  -0.2840
     1.4043   1.4948   1.4959   1.5150   1.6128   1.7116   1.7132   1.7228
     1.7375   1.7730   1.8449   1.8463   1.9670   1.9854   2.0204   2.0213
     2.1283   2.1995   2.2087   2.2097   2.2849   2.3331   2.3956   2.4272
     2.4283   2.5188   2.5286   2.5298   2.5573   2.5590   2.5593   2.5607
     2.5990   2.6783   2.7638   2.7644   2.8241   2.8253   2.8261   2.8308
     2.8504   2.8528   2.8934   2.8972   2.9060   3.0080   3.0171   3.0196
     3.0772   3.0797   3.1166   3.1185   3.1346   3.1796   3.1815   3.1887
     3.2151   3.2464   3.2665   3.2850   3.2857   3.2958   3.3314   3.3322
     3.3760   3.3774   3.3777   3.3790   3.4473   3.4485   3.4500   3.4777
     3.4797   3.4807   3.5062   3.5179   3.5341   3.5357   3.5363   3.5573
     3.5858   3.5887   3.6102   3.6322   3.6410   3.6449   3.6835   3.6845
     3.6865   3.6960   3.7037   3.7060   3.8365   3.8375   3.8784   3.8806
     3.9429   3.9449   3.9472   3.9495   3.9737   4.0321   4.0549   4.0561
     4.0610   4.0621   4.1001   4.1008   4.1219   4.1231   4.1297   4.1335
     4.2255   4.2410   4.2691   4.2698   4.2914   4.2927   4.3133   4.3677
     4.3916   4.4352   4.4356   4.4804   4.5198   4.5449   4.5465   4.5848
     4.5958   4.5973   4.6330   4.7308   5.1483   5.1487   5.1544   5.1653
     5.1692   5.1694   5.1702   5.1737   5.2004   5.2055   5.2134   5.2188
     5.2200   5.2290   5.2415   5.2420   5.2605   5.2653   5.2656   5.2659
     5.2667   5.2732   5.3101   5.3109   5.3192   5.3336   5.3474   5.3481
     5.3605   5.3635   5.3645   5.3691   5.3702   5.3809   5.3895   5.3898
     5.4106   5.4340   5.4487   5.4514   5.4517   5.4694   5.4976   5.4992
     5.5176   5.5248   5.5560   5.5581   5.5689   5.5693   5.6021   5.6029
     5.6084   5.6208   5.6314   5.6504   5.6507   5.6608   5.6749   5.7084
     5.7098   5.7397   5.7594   5.7612   5.7710   5.7856   5.8055   5.8071
     5.8148   5.8402   5.8682   5.8688   5.8754   5.8934   5.9693   5.9713
     6.0190   6.0260   6.0267   6.1012   6.1029   6.1122   6.1588   6.1877
     6.2028   6.2037   6.2043   6.2626   6.2633   6.2882   6.3186   6.3431
     6.3544   6.3676   6.3693   6.4125   6.4204   6.4209   6.4531   6.4814
     6.4831   6.5073   6.5582   6.5674   6.6059   6.6077   6.6467   6.6669
     6.6680   6.7351   6.7375   6.7402   6.7485   6.8041   6.8051   6.8507
     6.8651   6.9180   6.9459   7.0376

          k = 0.3333 0.1925 0.2714 (115773 PWs)   bands (ev):

   -28.2983 -28.2773 -28.2759 -28.2758 -28.2756 -28.2754 -28.2754 -28.2748
   -28.2747 -28.2746 -28.2713 -28.2475 -14.9257 -14.9252 -14.9240 -14.9237
   -14.9235 -14.9234 -14.9228 -14.9216 -14.9213 -14.9210 -14.9208 -14.9205
   -14.9194 -14.9184 -14.9182 -14.9179 -14.9177 -14.9175 -14.9170 -14.9157
   -14.9155 -14.9152 -14.9150 -14.9147 -14.9072 -14.9069 -14.9061 -14.9058
   -14.9056 -14.9055 -14.9049 -14.9037 -14.9034 -14.9031 -14.9029 -14.9026
   -14.8670 -14.8659 -14.8656 -14.8654 -14.8654 -14.8654 -14.8647 -14.8635
   -14.8632 -14.8629 -14.8627 -14.8624 -14.8219 -14.8208 -14.8204 -14.8202
   -14.8202 -14.8198 -14.8196 -14.8183 -14.8180 -14.8177 -14.8176 -14.8173
   -10.3563 -10.3387 -10.3383 -10.3373 -10.3369 -10.3349 -10.3339 -10.3324
   -10.3320 -10.3294 -10.3280 -10.3211 -10.3103 -10.3083 -10.3067 -10.3046
   -10.3034 -10.3017 -10.2984 -10.2952 -10.2943 -10.2933 -10.2887 -10.2833
   -10.2768 -10.2688 -10.2679 -10.2672 -10.2661 -10.2643 -10.2617 -10.2613
   -10.2607 -10.2588 -10.2577 -10.2415  -6.7516  -6.6471  -6.5618  -6.4696
    -6.4207  -6.4193  -6.3648  -6.3415  -6.3400  -6.2667  -6.2120  -6.2104
    -5.9143  -5.9117  -5.8243  -5.8226  -5.8180  -5.8171  -5.7662  -5.7645
    -5.7527  -5.7338  -5.6839  -5.6824  -5.6817  -5.6626  -5.6421  -5.6414
    -5.6388  -5.6077  -5.5865  -5.5848  -5.5721  -5.5309  -5.5280  -5.5266
    -5.5158  -5.4859  -5.4658  -5.4397  -5.4368  -5.4357  -5.4002  -5.3701
    -5.3448  -5.3438  -5.3295  -5.2954  -0.5618  -0.5608  -0.5527  -0.4340
    -0.4288  -0.4279  -0.4113  -0.3610  -0.3225  -0.3223  -0.2902  -0.2834
     1.4057   1.4927   1.4944   1.5160   1.6127   1.7117   1.7129   1.7221
     1.7363   1.7724   1.8453   1.8475   1.9663   1.9867   2.0226   2.0243
     2.1286   2.1982   2.2085   2.2093   2.2849   2.3352   2.3975   2.4263
     2.4272   2.5179   2.5281   2.5300   2.5566   2.5576   2.5585   2.5590
     2.6004   2.6790   2.7631   2.7652   2.8237   2.8243   2.8253   2.8292
     2.8499   2.8524   2.8963   2.8966   2.9063   3.0082   3.0191   3.0198
     3.0762   3.0784   3.1179   3.1192   3.1341   3.1805   3.1824   3.1890
     3.2130   3.2470   3.2666   3.2856   3.2863   3.2954   3.3307   3.3311
     3.3751   3.3775   3.3799   3.3820   3.4465   3.4479   3.4512   3.4767
     3.4788   3.4806   3.5059   3.5215   3.5337   3.5348   3.5381   3.5584
     3.5857   3.5877   3.6107   3.6309   3.6397   3.6444   3.6825   3.6833
     3.6882   3.6969   3.7036   3.7052   3.8360   3.8370   3.8786   3.8812
     3.9413   3.9459   3.9468   3.9485   3.9716   4.0332   4.0540   4.0575
     4.0600   4.0608   4.1005   4.1018   4.1225   4.1244   4.1315   4.1345
     4.2229   4.2393   4.2681   4.2693   4.2906   4.2924   4.3146   4.3690
     4.3920   4.4335   4.4351   4.4819   4.5234   4.5436   4.5453   4.5866
     4.5963   4.5995   4.6312   4.7293   5.1485   5.1491   5.1532   5.1650
     5.1692   5.1693   5.1709   5.1732   5.2003   5.2053   5.2130   5.2192
     5.2198   5.2305   5.2414   5.2421   5.2610   5.2643   5.2649   5.2651
     5.2662   5.2747   5.3104   5.3111   5.3189   5.3354   5.3467   5.3479
     5.3606   5.3633   5.3638   5.3681   5.3695   5.3818   5.3891   5.3899
     5.4106   5.4334   5.4476   5.4520   5.4528   5.4703   5.4965   5.4976
     5.5171   5.5240   5.5566   5.5578   5.5690   5.5696   5.6022   5.6032
     5.6075   5.6204   5.6318   5.6506   5.6522   5.6606   5.6754   5.7095
     5.7105   5.7396   5.7609   5.7613   5.7711   5.7844   5.8053   5.8060
     5.8157   5.8395   5.8669   5.8676   5.8749   5.8973   5.9686   5.9702
     6.0207   6.0259   6.0266   6.1016   6.1026   6.1115   6.1600   6.1876
     6.2020   6.2036   6.2043   6.2625   6.2638   6.2868   6.3184   6.3422
     6.3550   6.3688   6.3701   6.4134   6.4186   6.4200   6.4524   6.4808
     6.4824   6.5071   6.5583   6.5658   6.6074   6.6078   6.6480   6.6662
     6.6676   6.7361   6.7388   6.7393   6.7488   6.8031   6.8050   6.8504
     6.8669   6.9180   6.9455   7.0385

          k =-0.3333-0.1925 0.2714 (115773 PWs)   bands (ev):

   -28.2983 -28.2773 -28.2759 -28.2758 -28.2756 -28.2754 -28.2754 -28.2748
   -28.2747 -28.2746 -28.2713 -28.2475 -14.9257 -14.9252 -14.9240 -14.9237
   -14.9235 -14.9234 -14.9228 -14.9216 -14.9213 -14.9210 -14.9208 -14.9205
   -14.9194 -14.9184 -14.9182 -14.9179 -14.9177 -14.9175 -14.9170 -14.9157
   -14.9155 -14.9152 -14.9150 -14.9147 -14.9072 -14.9069 -14.9061 -14.9058
   -14.9056 -14.9055 -14.9049 -14.9037 -14.9034 -14.9031 -14.9029 -14.9026
   -14.8670 -14.8659 -14.8656 -14.8654 -14.8654 -14.8654 -14.8647 -14.8635
   -14.8632 -14.8629 -14.8627 -14.8624 -14.8219 -14.8208 -14.8204 -14.8202
   -14.8202 -14.8198 -14.8196 -14.8183 -14.8180 -14.8177 -14.8176 -14.8173
   -10.3563 -10.3387 -10.3381 -10.3374 -10.3370 -10.3348 -10.3333 -10.3330
   -10.3319 -10.3297 -10.3277 -10.3212 -10.3099 -10.3088 -10.3067 -10.3057
   -10.3017 -10.3004 -10.2993 -10.2963 -10.2947 -10.2924 -10.2892 -10.2831
   -10.2766 -10.2690 -10.2678 -10.2666 -10.2658 -10.2647 -10.2626 -10.2611
   -10.2597 -10.2593 -10.2579 -10.2415  -6.7513  -6.6474  -6.5611  -6.4727
    -6.4239  -6.4226  -6.3650  -6.3298  -6.3284  -6.2603  -6.2258  -6.2241
    -5.9055  -5.9032  -5.8241  -5.8214  -5.8083  -5.8070  -5.7912  -5.7611
    -5.7599  -5.7325  -5.7112  -5.7104  -5.6714  -5.6358  -5.6288  -5.6282
    -5.6270  -5.6084  -5.6009  -5.5987  -5.5688  -5.5291  -5.5232  -5.5215
    -5.5193  -5.4970  -5.4676  -5.4326  -5.4286  -5.4268  -5.4228  -5.3638
    -5.3487  -5.3474  -5.3205  -5.2987  -0.5604  -0.5583  -0.5573  -0.4358
    -0.4350  -0.4260  -0.3940  -0.3735  -0.3193  -0.3189  -0.2992  -0.2790
     1.4344   1.4842   1.4858   1.4878   1.6251   1.6414   1.7715   1.7726
     1.7825   1.7896   1.8010   1.8030   1.9144   1.9972   1.9986   2.0772
     2.1550   2.1991   2.2094   2.2472   2.2485   2.3615   2.3925   2.3932
     2.3994   2.4484   2.5110   2.5129   2.5480   2.5896   2.5906   2.6074
     2.6422   2.7107   2.7606   2.7669   2.7691   2.7896   2.8091   2.8097
     2.8386   2.8744   2.9163   2.9170   2.9183   2.9826   3.0249   3.0255
     3.0671   3.1066   3.1080   3.1318   3.1717   3.1928   3.1935   3.1939
     3.2000   3.2331   3.2646   3.2652   3.2769   3.3179   3.3219   3.3226
     3.3254   3.3899   3.3916   3.4103   3.4451   3.4466   3.4675   3.4697
     3.4720   3.4738   3.4770   3.4784   3.5342   3.5362   3.5369   3.5904
     3.6106   3.6123   3.6132   3.6336   3.6437   3.6470   3.6584   3.6599
     3.6690   3.7100   3.7111   3.7129   3.8354   3.8361   3.8805   3.8885
     3.9040   3.9505   3.9514   3.9760   3.9821   4.0192   4.0471   4.0490
     4.0496   4.0667   4.1107   4.1130   4.1217   4.1326   4.1344   4.1491
     4.1899   4.2549   4.2666   4.2673   4.2885   4.2900   4.2954   4.3888
     4.3980   4.4373   4.4387   4.4684   4.5238   4.5255   4.5376   4.5970
     4.6110   4.6132   4.6219   4.7212   5.1518   5.1526   5.1553   5.1571
     5.1722   5.1760   5.1765   5.1845   5.1915   5.1986   5.2016   5.2085
     5.2090   5.2351   5.2356   5.2362   5.2552   5.2641   5.2656   5.2665
     5.2800   5.2987   5.3083   5.3129   5.3139   5.3293   5.3364   5.3372
     5.3587   5.3592   5.3607   5.3639   5.3808   5.3929   5.4077   5.4085
     5.4134   5.4328   5.4336   5.4448   5.4457   5.4933   5.5013   5.5025
     5.5094   5.5159   5.5549   5.5598   5.5743   5.5751   5.6032   5.6114
     5.6119   5.6185   5.6259   5.6268   5.6430   5.6703   5.6819   5.7153
     5.7158   5.7175   5.7350   5.7727   5.7739   5.7748   5.8023   5.8028
     5.8114   5.8583   5.8748   5.8753   5.8808   5.9151   5.9593   5.9599
     6.0338   6.0352   6.0361   6.0606   6.0793   6.0799   6.1731   6.2074
     6.2132   6.2141   6.2666   6.2674   6.2695   6.2769   6.2857   6.3477
     6.3495   6.3652   6.3716   6.4148   6.4248   6.4255   6.4284   6.4709
     6.4975   6.4983   6.5458   6.5597   6.5949   6.5960   6.6668   6.6675
     6.6776   6.7200   6.7357   6.7369   6.7463   6.8126   6.8138   6.8441
     6.8697   6.9282   6.9369   7.0521

          k = 0.3333-0.1925 0.2714 (115773 PWs)   bands (ev):

   -28.2983 -28.2773 -28.2759 -28.2758 -28.2756 -28.2754 -28.2754 -28.2748
   -28.2747 -28.2746 -28.2713 -28.2475 -14.9257 -14.9252 -14.9240 -14.9238
   -14.9235 -14.9234 -14.9228 -14.9216 -14.9213 -14.9210 -14.9208 -14.9205
   -14.9194 -14.9184 -14.9182 -14.9179 -14.9176 -14.9175 -14.9170 -14.9157
   -14.9154 -14.9152 -14.9150 -14.9147 -14.9072 -14.9069 -14.9061 -14.9058
   -14.9056 -14.9055 -14.9049 -14.9036 -14.9033 -14.9031 -14.9029 -14.9026
   -14.8670 -14.8659 -14.8656 -14.8654 -14.8654 -14.8654 -14.8647 -14.8635
   -14.8632 -14.8629 -14.8627 -14.8624 -14.8219 -14.8208 -14.8204 -14.8202
   -14.8202 -14.8198 -14.8196 -14.8183 -14.8180 -14.8177 -14.8176 -14.8173
   -10.3561 -10.3392 -10.3377 -10.3368 -10.3364 -10.3349 -10.3340 -10.3334
   -10.3312 -10.3299 -10.3281 -10.3212 -10.3101 -10.3089 -10.3057 -10.3054
   -10.3023 -10.3004 -10.3000 -10.2974 -10.2941 -10.2919 -10.2894 -10.2835
   -10.2763 -10.2695 -10.2686 -10.2665 -10.2653 -10.2639 -10.2631 -10.2616
   -10.2598 -10.2586 -10.2580 -10.2409  -6.7515  -6.6472  -6.5617  -6.4725
    -6.4225  -6.4216  -6.3650  -6.3313  -6.3285  -6.2595  -6.2273  -6.2243
    -5.9068  -5.9054  -5.8219  -5.8212  -5.8104  -5.8074  -5.7923  -5.7595
    -5.7594  -5.7312  -5.7099  -5.7090  -5.6720  -5.6343  -5.6282  -5.6275
    -5.6262  -5.6072  -5.6003  -5.5992  -5.5706  -5.5278  -5.5239  -5.5224
    -5.5215  -5.4954  -5.4695  -5.4346  -5.4295  -5.4273  -5.4216  -5.3626
    -5.3474  -5.3454  -5.3225  -5.2997  -0.5600  -0.5586  -0.5581  -0.4365
    -0.4356  -0.4242  -0.3940  -0.3742  -0.3182  -0.3179  -0.2997  -0.2796
     1.4325   1.4860   1.4865   1.4875   1.6258   1.6425   1.7733   1.7746
     1.7822   1.7911   1.7991   1.8010   1.9139   1.9943   1.9960   2.0776
     2.1546   2.1993   2.2112   2.2467   2.2484   2.3590   2.3935   2.3946
     2.3973   2.4486   2.5117   2.5132   2.5466   2.5904   2.5916   2.6082
     2.6435   2.7117   2.7619   2.7683   2.7689   2.7894   2.8090   2.8103
     2.8389   2.8742   2.9135   2.9172   2.9189   2.9815   3.0232   3.0251
     3.0692   3.1046   3.1068   3.1332   3.1710   3.1922   3.1935   3.1950
     3.2014   3.2325   3.2641   3.2653   3.2775   3.3188   3.3219   3.3225
     3.3242   3.3880   3.3899   3.4114   3.4442   3.4459   3.4687   3.4707
     3.4725   3.4727   3.4751   3.4776   3.5335   3.5372   3.5378   3.5920
     3.6101   3.6125   3.6141   3.6329   3.6419   3.6487   3.6583   3.6611
     3.6666   3.7111   3.7122   3.7127   3.8356   3.8367   3.8797   3.8891
     3.9060   3.9489   3.9513   3.9742   3.9837   4.0212   4.0487   4.0501
     4.0514   4.0663   4.1103   4.1109   4.1190   4.1332   4.1339   4.1471
     4.1921   4.2566   4.2668   4.2685   4.2888   4.2906   4.2939   4.3879
     4.3965   4.4382   4.4392   4.4678   4.5251   4.5262   4.5343   4.5957
     4.6107   4.6118   4.6241   4.7222   5.1512   5.1515   5.1553   5.1575
     5.1724   5.1766   5.1772   5.1840   5.1911   5.1983   5.2020   5.2081
     5.2086   5.2351   5.2357   5.2364   5.2551   5.2649   5.2662   5.2671
     5.2791   5.2979   5.3079   5.3136   5.3141   5.3295   5.3372   5.3384
     5.3585   5.3595   5.3603   5.3641   5.3806   5.3933   5.4071   5.4075
     5.4138   5.4320   5.4342   5.4453   5.4458   5.4928   5.5025   5.5034
     5.5099   5.5165   5.5531   5.5610   5.5751   5.5756   5.6031   5.6112
     5.6118   5.6198   5.6250   5.6254   5.6438   5.6700   5.6828   5.7142
     5.7147   5.7176   5.7345   5.7724   5.7729   5.7742   5.8031   5.8041
     5.8096   5.8583   5.8763   5.8768   5.8778   5.9150   5.9593   5.9612
     6.0344   6.0353   6.0366   6.0589   6.0793   6.0804   6.1732   6.2065
     6.2126   6.2141   6.2661   6.2664   6.2704   6.2773   6.2861   6.3490
     6.3495   6.3665   6.3721   6.4148   6.4233   6.4251   6.4273   6.4717
     6.4984   6.4999   6.5465   6.5597   6.5951   6.5963   6.6659   6.6674
     6.6766   6.7191   6.7347   6.7374   6.7488   6.8118   6.8142   6.8447
     6.8677   6.9278   6.9369   7.0514

          k =-0.3333-0.5774 0.2714 (115827 PWs)   bands (ev):

   -28.2983 -28.2773 -28.2759 -28.2758 -28.2756 -28.2754 -28.2754 -28.2748
   -28.2747 -28.2746 -28.2713 -28.2475 -14.9257 -14.9252 -14.9240 -14.9237
   -14.9235 -14.9234 -14.9228 -14.9216 -14.9213 -14.9210 -14.9208 -14.9205
   -14.9194 -14.9184 -14.9182 -14.9179 -14.9176 -14.9176 -14.9170 -14.9157
   -14.9154 -14.9152 -14.9150 -14.9147 -14.9072 -14.9069 -14.9061 -14.9058
   -14.9056 -14.9055 -14.9049 -14.9036 -14.9033 -14.9031 -14.9029 -14.9026
   -14.8670 -14.8659 -14.8656 -14.8654 -14.8654 -14.8654 -14.8647 -14.8635
   -14.8632 -14.8629 -14.8627 -14.8624 -14.8219 -14.8208 -14.8204 -14.8202
   -14.8202 -14.8198 -14.8196 -14.8183 -14.8180 -14.8177 -14.8176 -14.8173
   -10.3560 -10.3384 -10.3376 -10.3368 -10.3360 -10.3342 -10.3332 -10.3329
   -10.3314 -10.3305 -10.3288 -10.3210 -10.3097 -10.3076 -10.3064 -10.3053
   -10.3020 -10.2997 -10.2983 -10.2974 -10.2946 -10.2928 -10.2908 -10.2833
   -10.2768 -10.2688 -10.2680 -10.2665 -10.2649 -10.2645 -10.2636 -10.2623
   -10.2612 -10.2592 -10.2581 -10.2415  -6.6204  -6.6181  -6.6177  -6.5269
    -6.5247  -6.5243  -6.3090  -6.2924  -6.2892  -6.2887  -6.2587  -6.2151
    -5.8756  -5.8584  -5.8443  -5.7798  -5.7794  -5.7782  -5.7433  -5.7420
    -5.7401  -5.7151  -5.6889  -5.6878  -5.6865  -5.6741  -5.6719  -5.6717
    -5.6699  -5.6428  -5.5585  -5.5561  -5.5552  -5.5266  -5.5242  -5.5239
    -5.5055  -5.5040  -5.5025  -5.5018  -5.4584  -5.3983  -5.3975  -5.3966
    -5.3575  -5.3229  -5.3226  -5.3204  -0.5202  -0.5065  -0.5053  -0.5046
    -0.4609  -0.4175  -0.4170  -0.4162  -0.3549  -0.2936  -0.2930  -0.2917
     1.4811   1.4826   1.4838   1.6376   1.6388   1.6406   1.6897   1.7749
     1.7758   1.7766   1.7778   1.7941   1.9809   1.9822   1.9828   2.0558
     2.1716   2.1911   2.1931   2.1943   2.2474   2.3960   2.3976   2.3980
     2.4878   2.4890   2.4899   2.5572   2.5872   2.5883   2.5889   2.5918
     2.6779   2.7365   2.7376   2.7380   2.8225   2.8234   2.8237   2.8274
     2.9011   2.9023   2.9037   2.9242   2.9372   2.9551   2.9556   2.9573
     3.0594   3.0605   3.0614   3.0880   3.0888   3.0903   3.1269   3.1808
     3.2447   3.2453   3.2471   3.2709   3.2716   3.2722   3.3215   3.3264
     3.3280   3.3292   3.3741   3.4080   3.4219   3.4650   3.4659   3.4668
     3.4920   3.4982   3.4999   3.5008   3.5370   3.5375   3.5379   3.5402
     3.5617   3.6158   3.6168   3.6177   3.6535   3.6551   3.6568   3.6972
     3.6987   3.7000   3.7207   3.7444   3.8216   3.8408   3.8417   3.8426
     3.9380   3.9407   3.9414   3.9435   4.0290   4.0305   4.0308   4.0404
     4.0672   4.0689   4.0696   4.1089   4.1139   4.1148   4.1162   4.1684
     4.2728   4.2736   4.2751   4.2901   4.3156   4.3612   4.3622   4.3632
     4.4152   4.4176   4.4191   4.4930   4.4935   4.4950   4.5072   4.5117
     4.5660   4.6663   4.6677   4.6697   5.1497   5.1576   5.1579   5.1583
     5.1588   5.1833   5.1836   5.1843   5.1983   5.1988   5.1995   5.2113
     5.2254   5.2258   5.2265   5.2520   5.2529   5.2538   5.2574   5.2693
     5.3016   5.3026   5.3033   5.3098   5.3293   5.3300   5.3302   5.3685
     5.3691   5.3697   5.3759   5.3937   5.3959   5.4090   5.4096   5.4107
     5.4326   5.4339   5.4347   5.4391   5.4844   5.4850   5.4860   5.4916
     5.5388   5.5397   5.5405   5.5440   5.5665   5.5672   5.5679   5.6063
     5.6068   5.6077   5.6382   5.6399   5.6720   5.6729   5.6736   5.7036
     5.7040   5.7055   5.7178   5.7592   5.7601   5.7609   5.8019   5.8085
     5.8211   5.8235   5.8248   5.8260   5.8892   5.8909   5.8929   6.0572
     6.0606   6.0610   6.0624   6.0779   6.1201   6.1207   6.1224   6.1351
     6.1959   6.2368   6.2383   6.2393   6.2843   6.3012   6.3023   6.3033
     6.3068   6.3851   6.3859   6.3867   6.4500   6.4668   6.4685   6.4695
     6.4909   6.4928   6.5590   6.5603   6.5613   6.6456   6.6840   6.6856
     6.6864   6.7595   6.7775   6.7784   6.7795   6.7929   6.8536   6.8549
     6.8555   6.9346   6.9357   6.9370

     highest occupied level (ev):     7.1803

!    total energy              =   -9077.18761824 Ry
     estimated scf accuracy    <          6.0E-10 Ry

     The total energy is the sum of the following terms:
     one-electron contribution =   -2776.68562239 Ry
     hartree contribution      =    2020.10559188 Ry
     xc contribution           =   -2269.39262304 Ry
     ewald contribution        =   -3895.41927743 Ry
     one-center paw contrib.   =   -2155.79568726 Ry

     convergence has been achieved in  22 iterations

     negative rho (up, down):  7.902E-01 0.000E+00

     Forces acting on atoms (cartesian axes, Ry/au):

     atom    1 type  1   force =    -0.00112865    0.00065007   -0.00131812
     atom    2 type  1   force =    -0.00011558    0.00025718   -0.00005413
     atom    3 type  1   force =    -0.00016514    0.00026237   -0.00004232
     atom    4 type  1   force =    -0.00007107    0.00047215    0.00000705
     atom    5 type  1   force =    -0.00025143   -0.00007949   -0.00026416
     atom    6 type  1   force =    -0.00019360   -0.00023946   -0.00008704
     atom    7 type  1   force =    -0.00018510   -0.00024500   -0.00000186
     atom    8 type  1   force =    -0.00015119   -0.00030157   -0.00000456
     atom    9 type  1   force =     0.00031946   -0.00000528    0.00005346
     atom   10 type  1   force =     0.00030471   -0.00000685    0.00008606
     atom   11 type  1   force =     0.00029040    0.00001857    0.00007981
     atom   12 type  1   force =     0.00030355    0.00000297    0.00004638
     atom   13 type  2   force =     0.00032369   -0.00058962    0.00041001
     atom   14 type  2   force =     0.00026530   -0.00043128    0.00021550
     atom   15 type  2   force =     0.00022791   -0.00042601    0.00019710
     atom   16 type  2   force =     0.00017825   -0.00041193    0.00014429
     atom   17 type  2   force =     0.00022685    0.00036378    0.00022179
     atom   18 type  2   force =     0.00022610    0.00036910    0.00020706
     atom   19 type  2   force =     0.00022817    0.00037431    0.00020521
     atom   20 type  2   force =     0.00022620    0.00036749    0.00020569
     atom   21 type  2   force =    -0.00043249    0.00001946    0.00018309
     atom   22 type  2   force =    -0.00042998   -0.00000217    0.00018570
     atom   23 type  2   force =    -0.00043309    0.00000628    0.00014651
     atom   24 type  2   force =    -0.00041822    0.00004326    0.00024932
     atom   25 type  2   force =    -0.00043153   -0.00000306   -0.00016628
     atom   26 type  2   force =    -0.00043355   -0.00006434   -0.00015547
     atom   27 type  2   force =    -0.00041950   -0.00000221   -0.00015067
     atom   28 type  2   force =    -0.00043533   -0.00001963   -0.00018786
     atom   29 type  2   force =    -0.00058831    0.00035625    0.00023827
     atom   30 type  2   force =     0.00027840    0.00035845   -0.00019560
     atom   31 type  2   force =     0.00021650    0.00037941   -0.00020329
     atom   32 type  2   force =     0.00015718    0.00035435   -0.00024197
     atom   33 type  2   force =     0.00024052   -0.00036554   -0.00017355
     atom   34 type  2   force =     0.00024536   -0.00038511   -0.00014806
     atom   35 type  2   force =     0.00023459   -0.00035024   -0.00016966
     atom   36 type  2   force =     0.00023532   -0.00036882   -0.00016904
     atom   37 type  3   force =     0.00027215   -0.00033663    0.00017918
     atom   38 type  3   force =     0.00034302   -0.00047298    0.00004172
     atom   39 type  3   force =     0.00026464   -0.00053991    0.00001278
     atom   40 type  3   force =     0.00028677   -0.00049075    0.00003163
     atom   41 type  3   force =     0.00014150    0.00046165    0.00005168
     atom   42 type  3   force =     0.00032304    0.00043619    0.00010632
     atom   43 type  3   force =     0.00028566    0.00039791   -0.00000671
     atom   44 type  3   force =     0.00027432    0.00048256    0.00005929
     atom   45 type  3   force =    -0.00043588    0.00003516   -0.00011427
     atom   46 type  3   force =    -0.00417532   -0.00394658   -0.00084740
     atom   47 type  3   force =    -0.00052066    0.00011369   -0.00017933
     atom   48 type  3   force =    -0.00048008   -0.00027043   -0.00000003
     atom   49 type  4   force =     0.00034395   -0.00008394   -0.00008145
     atom   50 type  4   force =     0.00035059   -0.00009365   -0.00001107
     atom   51 type  4   force =     0.00035260   -0.00007870   -0.00000638
     atom   52 type  4   force =     0.00034740   -0.00009875   -0.00001999
     atom   53 type  4   force =     0.00003307    0.00040530    0.00006362
     atom   54 type  4   force =    -0.00023365    0.00032393   -0.00001173
     atom   55 type  4   force =    -0.00010134    0.00035998    0.00003135
     atom   56 type  4   force =    -0.00008775    0.00035455   -0.00002991
     atom   57 type  4   force =    -0.00029632   -0.00083924   -0.00017504
     atom   58 type  4   force =    -0.00034591   -0.00020959    0.00003791
     atom   59 type  4   force =    -0.00050814   -0.00010660    0.00004769
     atom   60 type  4   force =    -0.00008969   -0.00019127   -0.00001519
     atom   61 type  4   force =    -0.00044987    0.00033957    0.00019079
     atom   62 type  4   force =    -0.00111114   -0.00050817   -0.00013684
     atom   63 type  4   force =    -0.00019244    0.00029527    0.00005062
     atom   64 type  4   force =    -0.00027709    0.00031013    0.00002416
     atom   65 type  4   force =     0.00036850    0.00011822   -0.00005381
     atom   66 type  4   force =     0.00034318    0.00012224   -0.00005423
     atom   67 type  4   force =     0.00035033    0.00012382   -0.00004555
     atom   68 type  4   force =     0.00035766    0.00010167   -0.00004167
     atom   69 type  4   force =    -0.00017728   -0.00035594   -0.00002963
     atom   70 type  4   force =     0.00019434   -0.00053910   -0.00044782
     atom   71 type  4   force =    -0.00011071   -0.00039957   -0.00002702
     atom   72 type  4   force =    -0.00007859   -0.00035058    0.00000197
     atom   73 type  4   force =     0.00757551    0.00470289    0.00224774
     atom   74 type  4   force =     0.00000318    0.00017261   -0.00021858
     atom   75 type  4   force =     0.00000772    0.00017685   -0.00022391
     atom   76 type  4   force =     0.00001957    0.00012526   -0.00019438
     atom   77 type  4   force =    -0.00016203   -0.00016125   -0.00041577
     atom   78 type  4   force =    -0.00010710   -0.00009018   -0.00029633
     atom   79 type  4   force =    -0.00015406   -0.00006267   -0.00026986
     atom   80 type  4   force =    -0.00012917   -0.00005038   -0.00026123
     atom   81 type  4   force =     0.00016745    0.00003365   -0.00037917
     atom   82 type  4   force =     0.00012881   -0.00009288   -0.00026511
     atom   83 type  4   force =     0.00014164   -0.00009758   -0.00025483
     atom   84 type  4   force =     0.00011753   -0.00007274   -0.00032908
     atom   85 type  4   force =     0.00009753    0.00015426    0.00016239
     atom   86 type  4   force =     0.00012328    0.00009721    0.00022756
     atom   87 type  4   force =     0.00013314    0.00009184    0.00021640
     atom   88 type  4   force =     0.00013020    0.00008288    0.00024343
     atom   89 type  4   force =    -0.00073741   -0.00071430    0.00027114
     atom   90 type  4   force =    -0.00079134    0.00032538    0.00023409
     atom   91 type  4   force =    -0.00002428   -0.00016577    0.00032368
     atom   92 type  4   force =     0.00002081    0.00013578    0.00045671
     atom   93 type  4   force =    -0.00017597    0.00005696    0.00023282
     atom   94 type  4   force =    -0.00010106    0.00000033    0.00008838
     atom   95 type  4   force =    -0.00014013    0.00005184    0.00021879
     atom   96 type  4   force =    -0.00014939    0.00007271    0.00024085

     Total force =     0.011938     Total SCF correction =     0.000073
     Message from routine punch:
     Nothing written, as per user request (disk_io='none')

     init_run     :     39.28s CPU     41.52s WALL (       1 calls)
     electrons    :   2154.44s CPU   2253.41s WALL (       1 calls)
     forces       :     19.56s CPU     20.09s WALL (       1 calls)

     Called by init_run:
     wfcinit      :     35.77s CPU     37.73s WALL (       1 calls)
     potinit      :      1.09s CPU      1.13s WALL (       1 calls)
     hinit0       :      1.07s CPU      1.10s WALL (       1 calls)

     Called by electrons:
     c_bands      :   1908.17s CPU   1987.77s WALL (      22 calls)
     sum_band     :    220.74s CPU    235.82s WALL (      22 calls)
     v_of_rho     :      4.01s CPU      4.43s WALL (      23 calls)
     newd         :     15.99s CPU     19.89s WALL (      23 calls)
     PAW_pot      :      5.46s CPU      5.49s WALL (      23 calls)
     mix_rho      :      0.67s CPU      0.72s WALL (      22 calls)

     Called by c_bands:
     init_us_2    :     24.92s CPU     25.20s WALL (     322 calls)
     cegterg      :   1842.90s CPU   1921.84s WALL (     154 calls)

     Called by *egterg:
     cdiaghg      :     90.18s CPU     92.97s WALL (     956 calls)
     h_psi        :   1011.70s CPU   1074.96s WALL (     963 calls)
     s_psi        :    236.97s CPU    239.17s WALL (     963 calls)
     g_psi        :      3.60s CPU      3.64s WALL (     802 calls)

     Called by h_psi:
     h_psi:calbec :    235.83s CPU    239.86s WALL (     963 calls)
     vloc_psi     :    533.60s CPU    587.94s WALL (     963 calls)
     add_vuspsi   :    237.82s CPU    240.12s WALL (     963 calls)

     General routines
     calbec       :    324.92s CPU    330.58s WALL (    1145 calls)
     fft          :      3.46s CPU      3.87s WALL (     308 calls)
     ffts         :      0.75s CPU      0.77s WALL (      45 calls)
     fftw         :    432.06s CPU    480.41s WALL (  456900 calls)
     interpolate  :      0.92s CPU      0.97s WALL (      23 calls)

     Parallel routines

     PWSCF        :  36m53.55s CPU  38m35.58s WALL


   This run was terminated on:   5: 6:37  21Aug2026            

=------------------------------------------------------------------------------=
   JOB DONE.
=------------------------------------------------------------------------------=
