
     Program PWSCF v.7.3.1 starts on 21Aug2026 at  1:39:49 

     This program is part of the open-source Quantum ESPRESSO suite
     for quantum simulation of materials; please cite
         "P. Giannozzi et al., J. Phys.:Condens. Matter 21 395502 (2009);
         "P. Giannozzi et al., J. Phys.:Condens. Matter 29 465901 (2017);
         "P. Giannozzi et al., J. Chem. Phys. 152 154105 (2020);
          URL http://www.quantum-espresso.org", 
     in publications or presentations arising from this work. More details at
     http://www.quantum-espresso.org/quote

     Parallel version (MPI & OpenMP), running on      32 processor cores
     Number of MPI processes:                32
     Threads/MPI process:                     1

     MPI processes distributed on     1 nodes
     488522 MiB available memory on the printing compute node when the environment starts

     Reading input from scf.in

     Current dimensions of program PWSCF are:
     Max number of different atomic species (ntypx) = 10
     Max number of k-points (npk) =  40000
     Max angular momentum in pseudopotentials (lmaxx) =  4
     file Cu.paw.z_11.ld1.psl.v1.0.0-low.upf: wavefunction(s)  4S 3D renormalized

     K-points division:     npool     =       2
     R & G space division:  proc/nbgrp/npool/nimage =      16
     Subspace diagonalization in iterative solution of the eigenvalue problem:
     one sub-group per band group will be used
     scalapack distributed-memory algorithm (size of sub-group:  4*  4 procs)


     Parallelization info
     --------------------
     sticks:   dense  smooth     PW     G-vecs:    dense   smooth      PW
     Min        1193     597    157               163743    57882    7779
     Max        1194     599    158               163747    57885    7784
     Sum       19099    9565   2515              2619931   926125  124485

     Using Slab Decomposition



     bravais-lattice index     =            0
     lattice parameter (alat)  =      24.0273  a.u.
     unit-cell volume          =   14752.0463 (a.u.)^3
     number of atoms/cell      =           96
     number of atomic types    =            4
     number of electrons       =       840.00
     number of Kohn-Sham states=          420
     kinetic-energy cutoff     =      60.0000  Ry
     charge density cutoff     =     480.0000  Ry
     scf convergence threshold =      1.0E-09
     mixing beta               =       0.3000
     number of iterations used =            8  plain     mixing
     Exchange-correlation=  SLA  PW   PBX  PBC
                           (   1   4   3   4   0   0   0)

     celldm(1)=  24.027274  celldm(2)=   0.000000  celldm(3)=   0.000000
     celldm(4)=   0.000000  celldm(5)=   0.000000  celldm(6)=   0.000000

     crystal axes: (cart. coord. in units of alat)
               a(1) = (   1.000000   0.000000   0.000000 )  
               a(2) = (  -0.500000   0.866025   0.000000 )  
               a(3) = (   0.000000   0.000000   1.228028 )  

     reciprocal axes: (cart. coord. in units 2 pi/alat)
               b(1) = (  1.000000  0.577351 -0.000000 )  
               b(2) = (  0.000000  1.154701  0.000000 )  
               b(3) = (  0.000000 -0.000000  0.814314 )  


     PseudoPot. # 1 for Sr read from file:
     /home/yuhansun/pseudos/SSSP-1.3.0-PBE-precision/Sr_pbe_v1.uspp.F.UPF
     MD5 check sum: 6b418c05fbe9db5448babca5e47b7a5b
     Pseudo is Ultrasoft + core correction, Zval = 10.0
     Generated by new atomic code, or converted to UPF format
     Using radial grid of  883 points,  6 beta functions with: 
                l(1) =   0
                l(2) =   0
                l(3) =   1
                l(4) =   1
                l(5) =   2
                l(6) =   2
     Q(r) pseudized with  6 coefficients,  rinner =    1.400   1.400   1.400
                                                       1.400   1.400

     PseudoPot. # 2 for Cu read from file:
     /home/yuhansun/pseudos/SSSP-1.3.0-PBE-precision/Cu.paw.z_11.ld1.psl.v1.0.0-low.upf
     MD5 check sum: 619f40885d92a09a85a8b37550532d0c
     Pseudo is Projector augmented-wave + core cor, Zval = 11.0
     Generated using &quot;atomic&quot; code by A. Dal Corso  v.6.3MaX
     Shape of augmentation charge: PSQ
     Using radial grid of 1199 points,  6 beta functions with: 
                l(1) =   0
                l(2) =   0
                l(3) =   1
                l(4) =   1
                l(5) =   2
                l(6) =   2
     Q(r) pseudized with 0 coefficients 


     PseudoPot. # 3 for Sn read from file:
     /home/yuhansun/pseudos/SSSP-1.3.0-PBE-precision/Sn_pbe_v1.uspp.F.UPF
     MD5 check sum: 4cf58ce39ec5d5d420df3dd08604eb00
     Pseudo is Ultrasoft + core correction, Zval = 14.0
     Generated by new atomic code, or converted to UPF format
     Using radial grid of  891 points,  6 beta functions with: 
                l(1) =   0
                l(2) =   0
                l(3) =   1
                l(4) =   1
                l(5) =   2
                l(6) =   2
     Q(r) pseudized with  6 coefficients,  rinner =    1.200   1.200   1.200
                                                       1.200   1.200

     PseudoPot. # 4 for S  read from file:
     /home/yuhansun/pseudos/SSSP-1.3.0-PBE-precision/s_pbe_v1.4.uspp.F.UPF
     MD5 check sum: 88d86576ff6df21479756cfb9bdac1df
     Pseudo is Ultrasoft + core correction, Zval =  6.0
     Generated by new atomic code, or converted to UPF format
     Using radial grid of  907 points,  6 beta functions with: 
                l(1) =   0
                l(2) =   0
                l(3) =   1
                l(4) =   1
                l(5) =   2
                l(6) =   2
     Q(r) pseudized with  8 coefficients,  rinner =    1.300   1.300   1.300
                                                       1.300   1.300

     atomic species   valence    mass     pseudopotential
     Sr               10.00    87.62000     Sr( 1.00)
     Cu               11.00    63.54600     Cu( 1.00)
     Sn               14.00   118.71000     Sn( 1.00)
     S                 6.00    32.06500     S ( 1.00)

     No symmetry found



   Cartesian axes

     site n.     atom                  positions (alat units)
         1        Sr     tau(   1) = (  -0.1405753   0.2434834   0.2071689  )
         2        Sr     tau(   2) = (   0.3594247   0.2434834   0.2046717  )
         3        Sr     tau(   3) = (  -0.3905753   0.6764960   0.2046717  )
         4        Sr     tau(   4) = (   0.1094247   0.6764960   0.2046717  )
         5        Sr     tau(   5) = (   0.1094247   0.1895292   0.6140139  )
         6        Sr     tau(   6) = (   0.6094247   0.1895292   0.6140139  )
         7        Sr     tau(   7) = (  -0.1405753   0.6225418   0.6140139  )
         8        Sr     tau(   8) = (   0.3594247   0.6225418   0.6140139  )
         9        Sr     tau(   9) = (   0.2811505   0.0000000   1.0233574  )
        10        Sr     tau(  10) = (   0.7811505   0.0000000   1.0233574  )
        11        Sr     tau(  11) = (   0.0311505   0.4330126   1.0233574  )
        12        Sr     tau(  12) = (   0.5311505   0.4330126   1.0233574  )
        13        Cu     tau(  13) = (  -0.1226788   0.2753211   0.5061747  )
        14        Cu     tau(  14) = (   0.3773212   0.2753211   0.5061747  )
        15        Cu     tau(  15) = (  -0.3726788   0.7083337   0.5061747  )
        16        Cu     tau(  16) = (   0.1273212   0.7083337   0.5061747  )
        17        Cu     tau(  17) = (   0.0729045   0.1891087   0.9155169  )
        18        Cu     tau(  18) = (   0.5729045   0.1891087   0.9155169  )
        19        Cu     tau(  19) = (  -0.1770956   0.6221213   0.9155169  )
        20        Cu     tau(  20) = (   0.3229044   0.6221213   0.9155169  )
        21        Cu     tau(  21) = (   0.0497750   0.4015949   0.0968325  )
        22        Cu     tau(  22) = (   0.5497750   0.4015949   0.0968325  )
        23        Cu     tau(  23) = (  -0.2002251   0.8346075   0.0968325  )
        24        Cu     tau(  24) = (   0.2997749   0.8346075   0.0968325  )
        25        Cu     tau(  25) = (   0.2997745   0.0314177   0.7218532  )
        26        Cu     tau(  26) = (   0.7997745   0.0314177   0.7218532  )
        27        Cu     tau(  27) = (   0.0497745   0.4644302   0.7218532  )
        28        Cu     tau(  28) = (   0.5497745   0.4644302   0.7218532  )
        29        Cu     tau(  29) = (   0.1273207   0.1576915   0.3125110  )
        30        Cu     tau(  30) = (   0.6273207   0.1576915   0.3125110  )
        31        Cu     tau(  31) = (  -0.1226793   0.5907041   0.3125110  )
        32        Cu     tau(  32) = (   0.3773207   0.5907041   0.3125110  )
        33        Cu     tau(  33) = (   0.3229040   0.2439039   1.1311954  )
        34        Cu     tau(  34) = (   0.8229040   0.2439039   1.1311954  )
        35        Cu     tau(  35) = (   0.0729039   0.6769164   1.1311954  )
        36        Cu     tau(  36) = (   0.5729039   0.6769164   1.1311954  )
        37        Sn     tau(  37) = (  -0.1762580   0.3052877   0.8186857  )
        38        Sn     tau(  38) = (   0.3237420   0.3052877   0.8186857  )
        39        Sn     tau(  39) = (  -0.4262581   0.7383003   0.8186857  )
        40        Sn     tau(  40) = (   0.0737419   0.7383003   0.8186857  )
        41        Sn     tau(  41) = (   0.0737420   0.1277249   0.0000000  )
        42        Sn     tau(  42) = (   0.5737420   0.1277249   0.0000000  )
        43        Sn     tau(  43) = (  -0.1762581   0.5607374   0.0000000  )
        44        Sn     tau(  44) = (   0.3237419   0.5607374   0.0000000  )
        45        Sn     tau(  45) = (   0.3525160   0.0000000   0.4093422  )
        46        Sn     tau(  46) = (   0.8525160   0.0000000   0.4093422  )
        47        Sn     tau(  47) = (   0.1025160   0.4330126   0.4093422  )
        48        Sn     tau(  48) = (   0.6025160   0.4330126   0.4093422  )
        49        S      tau(  49) = (  -0.0988203   0.2103164   0.9671149  )
        50        S      tau(  50) = (   0.4011797   0.2103164   0.9671149  )
        51        S      tau(  51) = (  -0.3488203   0.6433290   0.9671149  )
        52        S      tau(  52) = (   0.1511797   0.6433290   0.9671149  )
        53        S      tau(  53) = (   0.1172707   0.2422736   0.1484293  )
        54        S      tau(  54) = (   0.6172707   0.2422736   0.1484293  )
        55        S      tau(  55) = (  -0.1327293   0.6752862   0.1484293  )
        56        S      tau(  56) = (   0.3672707   0.6752862   0.1484293  )
        57        S      tau(  57) = (  -0.0184505   0.4134352   0.5577727  )
        58        S      tau(  58) = (   0.4815495   0.4134352   0.5577727  )
        59        S      tau(  59) = (  -0.2684506   0.8464478   0.5577727  )
        60        S      tau(  60) = (   0.2315494   0.8464478   0.5577727  )
        61        S      tau(  61) = (   0.2315495   0.0195774   0.2609129  )
        62        S      tau(  62) = (   0.7315495   0.0195774   0.2609129  )
        63        S      tau(  63) = (  -0.0184505   0.4525899   0.2609129  )
        64        S      tau(  64) = (   0.4815495   0.4525899   0.2609129  )
        65        S      tau(  65) = (   0.1511797   0.2226962   1.0795986  )
        66        S      tau(  66) = (   0.6511797   0.2226962   1.0795986  )
        67        S      tau(  67) = (  -0.0988203   0.6557088   1.0795986  )
        68        S      tau(  68) = (   0.4011797   0.6557088   1.0795986  )
        69        S      tau(  69) = (   0.3672707   0.1907390   0.6702552  )
        70        S      tau(  70) = (   0.8672707   0.1907390   0.6702552  )
        71        S      tau(  71) = (   0.1172707   0.6237516   0.6702552  )
        72        S      tau(  72) = (   0.6172707   0.6237516   0.6702552  )
        73        S      tau(  73) = (  -0.0296498   0.1532012   0.4035914  )
        74        S      tau(  74) = (   0.4703502   0.1532012   0.4035914  )
        75        S      tau(  75) = (  -0.2796498   0.5862137   0.4035914  )
        76        S      tau(  76) = (   0.2203502   0.5862137   0.4035914  )
        77        S      tau(  77) = (   0.1321490   0.3307341   0.8129336  )
        78        S      tau(  78) = (   0.6321490   0.3307341   0.8129336  )
        79        S      tau(  79) = (  -0.1178511   0.7637467   0.8129336  )
        80        S      tau(  80) = (   0.3821489   0.7637467   0.8129336  )
        81        S      tau(  81) = (  -0.1024985   0.3820894   1.2222770  )
        82        S      tau(  82) = (   0.3975015   0.3820894   1.2222770  )
        83        S      tau(  83) = (  -0.3524986   0.8151020   1.2222770  )
        84        S      tau(  84) = (   0.1475014   0.8151020   1.2222770  )
        85        S      tau(  85) = (   0.1475010   0.0509231   0.8244365  )
        86        S      tau(  86) = (   0.6475010   0.0509231   0.8244365  )
        87        S      tau(  87) = (  -0.1024990   0.4839357   0.8244365  )
        88        S      tau(  88) = (   0.3975010   0.4839357   0.8244365  )
        89        S      tau(  89) = (   0.2203497   0.2798114   0.4150943  )
        90        S      tau(  90) = (   0.7203497   0.2798114   0.4150943  )
        91        S      tau(  91) = (  -0.0296503   0.7128240   0.4150943  )
        92        S      tau(  92) = (   0.4703497   0.7128240   0.4150943  )
        93        S      tau(  93) = (   0.3821485   0.1022784   0.0057509  )
        94        S      tau(  94) = (   0.8821485   0.1022784   0.0057509  )
        95        S      tau(  95) = (   0.1321485   0.5352910   0.0057509  )
        96        S      tau(  96) = (   0.6321485   0.5352910   0.0057509  )

     number of k points=    14
                       cart. coord. in units 2pi/alat
        k(    1) = (   0.0000000   0.0000000   0.0000000), wk =   0.0740741
        k(    2) = (   0.0000000   0.0000000   0.2714379), wk =   0.1481481
        k(    3) = (   0.0000000   0.3849003   0.0000000), wk =   0.1481481
        k(    4) = (   0.0000000   0.3849003   0.2714379), wk =   0.1481481
        k(    5) = (   0.3333333   0.5773505   0.0000000), wk =   0.1481481
        k(    6) = (   0.3333333   0.5773505   0.2714379), wk =   0.1481481
        k(    7) = (  -0.3333333   0.1924501   0.0000000), wk =   0.1481481
        k(    8) = (   0.3333333   0.1924502   0.0000000), wk =   0.1481481
        k(    9) = (   0.0000000  -0.3849003   0.2714379), wk =   0.1481481
        k(   10) = (  -0.3333333   0.1924501   0.2714379), wk =   0.1481481
        k(   11) = (   0.3333333   0.1924502   0.2714379), wk =   0.1481481
        k(   12) = (  -0.3333333  -0.1924502   0.2714379), wk =   0.1481481
        k(   13) = (   0.3333333  -0.1924501   0.2714379), wk =   0.1481481
        k(   14) = (  -0.3333333  -0.5773505   0.2714379), wk =   0.1481481

     Dense  grid:  2619931 G-vectors     FFT dimensions: ( 180, 180, 216)

     Smooth grid:   926125 G-vectors     FFT dimensions: ( 120, 120, 150)

     Estimated max dynamical RAM per process >       1.07 GB

     Estimated total dynamical RAM >      33.54 GB

     Initial potential from superposition of free atoms

     starting charge     827.5884, renormalised to     840.0000

     negative rho (up, down):  7.778E-01 0.000E+00
     Starting wfcs are  672 randomized atomic wfcs
     Checking if some PAW data can be deallocated... 

     total cpu time spent up to now is       47.2 secs

     Self-consistent Calculation

     iteration #  1     ecut=    60.00 Ry     beta= 0.30
     Davidson diagonalization with overlap
     ethr =  1.00E-02,  avg # of iterations =  2.0

     negative rho (up, down):  7.748E-01 0.000E+00

     total cpu time spent up to now is      135.0 secs

     total energy              =   -9070.29197381 Ry
     estimated scf accuracy    <      21.97786102 Ry

     iteration #  2     ecut=    60.00 Ry     beta= 0.30
     Davidson diagonalization with overlap
     ethr =  2.62E-03,  avg # of iterations =  4.9

     negative rho (up, down):  7.753E-01 0.000E+00

     total cpu time spent up to now is      244.5 secs

     total energy              =   -9076.61454238 Ry
     estimated scf accuracy    <       8.22682345 Ry

     iteration #  3     ecut=    60.00 Ry     beta= 0.30
     Davidson diagonalization with overlap
     ethr =  9.79E-04,  avg # of iterations =  2.0

     negative rho (up, down):  7.805E-01 0.000E+00

     total cpu time spent up to now is      333.8 secs

     total energy              =   -9076.48883477 Ry
     estimated scf accuracy    <       1.62366209 Ry

     iteration #  4     ecut=    60.00 Ry     beta= 0.30
     Davidson diagonalization with overlap
     ethr =  1.93E-04,  avg # of iterations =  6.1

     negative rho (up, down):  7.830E-01 0.000E+00

     total cpu time spent up to now is      464.5 secs

     total energy              =   -9076.70006346 Ry
     estimated scf accuracy    <       2.07347676 Ry

     iteration #  5     ecut=    60.00 Ry     beta= 0.30
     Davidson diagonalization with overlap
     ethr =  1.93E-04,  avg # of iterations =  5.5

     negative rho (up, down):  7.884E-01 0.000E+00

     total cpu time spent up to now is      569.2 secs

     total energy              =   -9077.13666878 Ry
     estimated scf accuracy    <       0.14810979 Ry

     iteration #  6     ecut=    60.00 Ry     beta= 0.30
     Davidson diagonalization with overlap
     ethr =  1.76E-05,  avg # of iterations =  6.1

     negative rho (up, down):  7.903E-01 0.000E+00

     total cpu time spent up to now is      678.7 secs

     total energy              =   -9077.18443023 Ry
     estimated scf accuracy    <       0.01277434 Ry

     iteration #  7     ecut=    60.00 Ry     beta= 0.30
     Davidson diagonalization with overlap
     ethr =  1.52E-06,  avg # of iterations =  5.2

     negative rho (up, down):  7.908E-01 0.000E+00

     total cpu time spent up to now is      801.3 secs

     total energy              =   -9077.18872548 Ry
     estimated scf accuracy    <       0.00556083 Ry

     iteration #  8     ecut=    60.00 Ry     beta= 0.30
     Davidson diagonalization with overlap
     ethr =  6.62E-07,  avg # of iterations =  6.4

     negative rho (up, down):  7.913E-01 0.000E+00

     total cpu time spent up to now is      946.3 secs

     total energy              =   -9077.17933719 Ry
     estimated scf accuracy    <       0.04876871 Ry

     iteration #  9     ecut=    60.00 Ry     beta= 0.30
     Davidson diagonalization with overlap
     ethr =  6.62E-07,  avg # of iterations =  7.4

     negative rho (up, down):  7.912E-01 0.000E+00

     total cpu time spent up to now is     1095.8 secs

     total energy              =   -9077.18773018 Ry
     estimated scf accuracy    <       0.00153008 Ry

     iteration # 10     ecut=    60.00 Ry     beta= 0.30
     Davidson diagonalization with overlap
     ethr =  1.82E-07,  avg # of iterations =  2.9

     negative rho (up, down):  7.908E-01 0.000E+00

     total cpu time spent up to now is     1186.6 secs

     total energy              =   -9077.18761015 Ry
     estimated scf accuracy    <       0.00048948 Ry

     iteration # 11     ecut=    60.00 Ry     beta= 0.30
     Davidson diagonalization with overlap
     ethr =  5.83E-08,  avg # of iterations =  5.2

     negative rho (up, down):  7.906E-01 0.000E+00

     total cpu time spent up to now is     1310.5 secs

     total energy              =   -9077.18776914 Ry
     estimated scf accuracy    <       0.00017806 Ry

     iteration # 12     ecut=    60.00 Ry     beta= 0.30
     Davidson diagonalization with overlap
     ethr =  2.12E-08,  avg # of iterations =  3.7

     negative rho (up, down):  7.905E-01 0.000E+00

     total cpu time spent up to now is     1412.2 secs

     total energy              =   -9077.18779173 Ry
     estimated scf accuracy    <       0.00003660 Ry

     iteration # 13     ecut=    60.00 Ry     beta= 0.30
     Davidson diagonalization with overlap
     ethr =  4.36E-09,  avg # of iterations =  5.5

     negative rho (up, down):  7.904E-01 0.000E+00

     total cpu time spent up to now is     1526.1 secs

     total energy              =   -9077.18780058 Ry
     estimated scf accuracy    <       0.00000831 Ry

     iteration # 14     ecut=    60.00 Ry     beta= 0.30
     Davidson diagonalization with overlap
     ethr =  9.89E-10,  avg # of iterations =  3.9

     negative rho (up, down):  7.904E-01 0.000E+00

     total cpu time spent up to now is     1630.0 secs

     total energy              =   -9077.18780222 Ry
     estimated scf accuracy    <       0.00000232 Ry

     iteration # 15     ecut=    60.00 Ry     beta= 0.30
     Davidson diagonalization with overlap
     ethr =  2.76E-10,  avg # of iterations =  2.0

     negative rho (up, down):  7.903E-01 0.000E+00

     total cpu time spent up to now is     1722.0 secs

     total energy              =   -9077.18780260 Ry
     estimated scf accuracy    <       0.00000054 Ry

     iteration # 16     ecut=    60.00 Ry     beta= 0.30
     Davidson diagonalization with overlap
     ethr =  6.47E-11,  avg # of iterations =  7.1

     negative rho (up, down):  7.903E-01 0.000E+00

     total cpu time spent up to now is     1856.1 secs

     total energy              =   -9077.18780285 Ry
     estimated scf accuracy    <       0.00000024 Ry

     iteration # 17     ecut=    60.00 Ry     beta= 0.30
     Davidson diagonalization with overlap
     ethr =  2.80E-11,  avg # of iterations =  4.7

     negative rho (up, down):  7.903E-01 0.000E+00

     total cpu time spent up to now is     1959.3 secs

     total energy              =   -9077.18780290 Ry
     estimated scf accuracy    <       0.00000003 Ry

     iteration # 18     ecut=    60.00 Ry     beta= 0.30
     Davidson diagonalization with overlap
     ethr =  3.35E-12,  avg # of iterations =  7.0

     negative rho (up, down):  7.903E-01 0.000E+00

     total cpu time spent up to now is     2116.0 secs

     total energy              =   -9077.18780293 Ry
     estimated scf accuracy    <       0.00000003 Ry

     iteration # 19     ecut=    60.00 Ry     beta= 0.30
     Davidson diagonalization with overlap
     ethr =  3.35E-12,  avg # of iterations =  2.8

     negative rho (up, down):  7.903E-01 0.000E+00

     total cpu time spent up to now is     2203.7 secs

     total energy              =   -9077.18780293 Ry
     estimated scf accuracy    <          8.3E-09 Ry

     iteration # 20     ecut=    60.00 Ry     beta= 0.30
     Davidson diagonalization with overlap
     ethr =  9.82E-13,  avg # of iterations =  9.9

     negative rho (up, down):  7.903E-01 0.000E+00

     total cpu time spent up to now is     2335.1 secs

     total energy              =   -9077.18780294 Ry
     estimated scf accuracy    <          6.5E-09 Ry

     iteration # 21     ecut=    60.00 Ry     beta= 0.30
     Davidson diagonalization with overlap
     ethr =  7.70E-13,  avg # of iterations =  2.6

     negative rho (up, down):  7.903E-01 0.000E+00

     total cpu time spent up to now is     2416.7 secs

     total energy              =   -9077.18780294 Ry
     estimated scf accuracy    <          1.8E-09 Ry

     iteration # 22     ecut=    60.00 Ry     beta= 0.30
     Davidson diagonalization with overlap
     ethr =  2.20E-13,  avg # of iterations = 10.1

     negative rho (up, down):  7.903E-01 0.000E+00

     total cpu time spent up to now is     2542.3 secs

     total energy              =   -9077.18780294 Ry
     estimated scf accuracy    <          1.5E-09 Ry

     iteration # 23     ecut=    60.00 Ry     beta= 0.30
     Davidson diagonalization with overlap
     ethr =  1.79E-13,  avg # of iterations =  2.0

     negative rho (up, down):  7.903E-01 0.000E+00

     total cpu time spent up to now is     2608.7 secs

     End of self-consistent calculation

          k = 0.0000 0.0000 0.0000 (115723 PWs)   bands (ev):

   -28.2795 -28.2790 -28.2773 -28.2769 -28.2768 -28.2754 -28.2745 -28.2739
   -28.2738 -28.2734 -28.2717 -28.2712 -14.9288 -14.9283 -14.9255 -14.9247
   -14.9229 -14.9228 -14.9226 -14.9225 -14.9224 -14.9222 -14.9204 -14.9196
   -14.9195 -14.9188 -14.9169 -14.9168 -14.9167 -14.9167 -14.9164 -14.9163
   -14.9146 -14.9137 -14.9110 -14.9107 -14.9104 -14.9102 -14.9076 -14.9067
   -14.9047 -14.9046 -14.9046 -14.9044 -14.9025 -14.9016 -14.8990 -14.8985
   -14.8706 -14.8701 -14.8674 -14.8666 -14.8644 -14.8644 -14.8644 -14.8644
   -14.8623 -14.8614 -14.8588 -14.8583 -14.8255 -14.8249 -14.8222 -14.8214
   -14.8193 -14.8192 -14.8192 -14.8192 -14.8171 -14.8163 -14.8136 -14.8130
   -10.3408 -10.3402 -10.3386 -10.3377 -10.3363 -10.3357 -10.3347 -10.3338
   -10.3327 -10.3325 -10.3293 -10.3233 -10.3109 -10.3091 -10.3081 -10.3060
   -10.3026 -10.3022 -10.3009 -10.3005 -10.2934 -10.2917 -10.2908 -10.2819
   -10.2731 -10.2705 -10.2685 -10.2663 -10.2661 -10.2639 -10.2632 -10.2607
   -10.2606 -10.2600 -10.2569 -10.2532  -6.8630  -6.5572  -6.5524  -6.4188
    -6.4168  -6.4147  -6.3004  -6.2990  -6.2980  -6.2207  -6.2179  -6.2149
    -5.9938  -5.9896  -5.9856  -5.8514  -5.8496  -5.8474  -5.7978  -5.7957
    -5.7940  -5.7371  -5.7366  -5.6194  -5.6189  -5.6182  -5.6157  -5.6133
    -5.6105  -5.6005  -5.5635  -5.5586  -5.5540  -5.5475  -5.5441  -5.5417
    -5.5177  -5.5156  -5.4326  -5.4312  -5.4285  -5.4257  -5.3759  -5.3689
    -5.3472  -5.3451  -5.3432  -5.2508  -0.6151  -0.6113  -0.6076  -0.3899
    -0.3890  -0.3875  -0.3511  -0.3176  -0.3152  -0.3131  -0.3034  -0.2981
     1.3832   1.3850   1.3868   1.5903   1.5941   1.6564   1.7151   1.7171
     1.7190   1.8045   1.8060   1.8076   2.0194   2.0406   2.0419   2.0838
     2.0851   2.0864   2.2471   2.2480   2.2490   2.3086   2.3108   2.4022
     2.4046   2.4070   2.4601   2.4611   2.4621   2.5484   2.5505   2.6609
     2.6630   2.6652   2.7837   2.7842   2.7847   2.8698   2.8738   2.9219
     2.9253   2.9286   2.9529   2.9538   2.9548   3.0260   3.0276   3.0292
     3.0450   3.0463   3.0474   3.1645   3.2126   3.2149   3.2171   3.2264
     3.2291   3.2571   3.2577   3.2583   3.3774   3.3777   3.3782   3.3928
     3.3937   3.4270   3.4273   3.4276   3.4357   3.4363   3.4368   3.4746
     3.4762   3.4779   3.4932   3.4939   3.4952   3.4966   3.5172   3.5175
     3.5843   3.5850   3.5860   3.6247   3.6272   3.6295   3.6877   3.6898
     3.6905   3.6909   3.6939   3.7064   3.7939   3.7969   3.8253   3.8257
     3.8263   3.9630   4.0182   4.0210   4.0237   4.0351   4.0362   4.0373
     4.1230   4.1248   4.1254   4.1275   4.1730   4.1735   4.1739   4.2012
     4.2095   4.2100   4.2103   4.2438   4.2446   4.2453   4.2791   4.2837
     4.4222   4.4250   4.4274   4.5176   4.5187   4.5195   4.5353   4.5368
     4.6195   4.6209   4.6224   4.8567   5.1247   5.1542   5.1556   5.1568
     5.1740   5.1744   5.1749   5.1765   5.1810   5.2224   5.2258   5.2277
     5.2279   5.2296   5.2311   5.2519   5.2522   5.2525   5.2660   5.2670
     5.2681   5.2774   5.2789   5.2804   5.3100   5.3115   5.3120   5.3126
     5.3138   5.3245   5.3370   5.3378   5.3388   5.3744   5.3758   5.3773
     5.4389   5.4392   5.4711   5.4716   5.4720   5.4745   5.4770   5.4775
     5.4779   5.4988   5.4994   5.6009   5.6014   5.6021   5.6184   5.6186
     5.6190   5.6267   5.6464   5.6475   5.6486   5.6572   5.6599   5.6625
     5.7243   5.7263   5.7447   5.7822   5.7827   5.7839   5.8194   5.8217
     5.8235   5.9019   5.9038   5.9057   5.9276   5.9278   5.9280   5.9950
     5.9979   6.0265   6.0268   6.0271   6.1496   6.1510   6.1514   6.1517
     6.2621   6.2621   6.2626   6.2634   6.2640   6.2641   6.2882   6.2926
     6.3336   6.3349   6.3365   6.3631   6.3639   6.3644   6.3882   6.3897
     6.3911   6.5525   6.5694   6.5716   6.5737   6.6344   6.6381   6.6417
     6.7462   6.7476   6.7492   6.7641   6.7664   6.7807   6.7817   6.7827
     6.8085   6.9646   7.1801   7.1813

          k = 0.0000 0.0000 0.2714 (115879 PWs)   bands (ev):

   -28.2795 -28.2790 -28.2773 -28.2769 -28.2768 -28.2754 -28.2745 -28.2739
   -28.2738 -28.2734 -28.2717 -28.2712 -14.9288 -14.9283 -14.9255 -14.9247
   -14.9229 -14.9228 -14.9226 -14.9225 -14.9224 -14.9222 -14.9204 -14.9196
   -14.9195 -14.9188 -14.9169 -14.9168 -14.9167 -14.9167 -14.9164 -14.9163
   -14.9146 -14.9137 -14.9110 -14.9107 -14.9104 -14.9102 -14.9076 -14.9067
   -14.9047 -14.9046 -14.9046 -14.9044 -14.9025 -14.9016 -14.8990 -14.8985
   -14.8706 -14.8701 -14.8674 -14.8666 -14.8644 -14.8644 -14.8644 -14.8644
   -14.8623 -14.8614 -14.8588 -14.8583 -14.8255 -14.8249 -14.8222 -14.8214
   -14.8193 -14.8192 -14.8192 -14.8192 -14.8171 -14.8163 -14.8136 -14.8130
   -10.3412 -10.3410 -10.3391 -10.3384 -10.3367 -10.3357 -10.3342 -10.3331
   -10.3321 -10.3321 -10.3280 -10.3241 -10.3124 -10.3099 -10.3075 -10.3059
   -10.3028 -10.3020 -10.3008 -10.2946 -10.2931 -10.2928 -10.2919 -10.2843
   -10.2725 -10.2699 -10.2680 -10.2669 -10.2665 -10.2644 -10.2629 -10.2604
   -10.2603 -10.2599 -10.2570 -10.2541  -6.8239  -6.7132  -6.4109  -6.4088
    -6.4076  -6.4063  -6.3055  -6.3036  -6.3020  -6.2340  -6.2302  -6.2264
    -5.9949  -5.9915  -5.9882  -5.8535  -5.8368  -5.8347  -5.8323  -5.7737
    -5.7730  -5.7724  -5.6568  -5.6559  -5.6552  -5.6520  -5.6150  -5.6127
    -5.6122  -5.6089  -5.5563  -5.5557  -5.5517  -5.5507  -5.5450  -5.5432
    -5.5419  -5.4543  -5.4371  -5.4343  -5.4335  -5.4315  -5.3751  -5.3454
    -5.3392  -5.3372  -5.3354  -5.2812  -0.6076  -0.6035  -0.5994  -0.4143
    -0.4124  -0.4101  -0.3486  -0.3321  -0.3025  -0.3005  -0.2989  -0.2738
     1.4070   1.4093   1.4116   1.5702   1.6145   1.6185   1.6189   1.6194
     1.6581   1.9348   1.9355   1.9362   2.0041   2.0464   2.0525   2.0533
     2.0541   2.0687   2.2750   2.2764   2.2778   2.3053   2.3884   2.3896
     2.3905   2.3910   2.4148   2.4168   2.4186   2.4559   2.6204   2.6229
     2.6254   2.6677   2.7184   2.7913   2.7977   2.7984   2.7991   2.8701
     2.8726   2.8750   2.9742   2.9759   2.9777   3.0441   3.0462   3.0482
     3.1049   3.1069   3.1089   3.1754   3.1992   3.2042   3.2049   3.2055
     3.2742   3.2743   3.2746   3.2842   3.3749   3.3836   3.3842   3.3849
     3.4196   3.4200   3.4206   3.4392   3.4405   3.4411   3.4493   3.4497
     3.4500   3.4770   3.4988   3.5184   3.5189   3.5193   3.5380   3.5441
     3.5499   3.5504   3.5510   3.6388   3.6437   3.6451   3.6463   3.6509
     3.6800   3.6809   3.6823   3.7732   3.8300   3.8760   3.8763   3.8766
     3.9081   3.9214   3.9938   3.9954   3.9970   4.0545   4.0560   4.0575
     4.0750   4.1156   4.1174   4.1196   4.1484   4.1487   4.1496   4.1650
     4.1716   4.1724   4.1730   4.2115   4.2505   4.2515   4.2520   4.2678
     4.4197   4.4223   4.4245   4.4836   4.5583   4.5600   4.5613   4.6052
     4.6059   4.6067   4.6768   4.8070   5.1357   5.1474   5.1538   5.1544
     5.1549   5.1649   5.1863   5.1873   5.1884   5.2160   5.2166   5.2172
     5.2181   5.2476   5.2483   5.2492   5.2588   5.2594   5.2600   5.2605
     5.2759   5.2769   5.2776   5.2792   5.3285   5.3297   5.3309   5.3325
     5.3336   5.3357   5.3415   5.3424   5.3435   5.3659   5.3742   5.3748
     5.3753   5.3898   5.4029   5.4205   5.4207   5.4211   5.5262   5.5326
     5.5329   5.5333   5.5822   5.5882   5.5884   5.5893   5.5897   5.6197
     5.6204   5.6211   5.6498   5.6522   5.6545   5.6610   5.6817   5.6823
     5.6830   5.7548   5.7553   5.7560   5.7905   5.7992   5.8158   5.8180
     5.8199   5.8710   5.8819   5.8839   5.8858   5.9883   5.9890   5.9897
     6.0428   6.0430   6.0431   6.0975   6.0983   6.0991   6.1752   6.1907
     6.1923   6.1938   6.2363   6.2680   6.2691   6.2704   6.3248   6.3262
     6.3277   6.3577   6.3619   6.3704   6.3715   6.3725   6.3953   6.4290
     6.4299   6.4308   6.4804   6.6394   6.6400   6.6418   6.6434   6.6436
     6.6470   6.6706   6.7074   6.7093   6.7113   6.7523   6.7531   6.7540
     6.9414   7.0052   7.0946   7.1701

          k = 0.0000 0.3849 0.0000 (115797 PWs)   bands (ev):

   -28.2795 -28.2790 -28.2773 -28.2769 -28.2768 -28.2754 -28.2745 -28.2739
   -28.2738 -28.2734 -28.2717 -28.2712 -14.9288 -14.9283 -14.9255 -14.9247
   -14.9229 -14.9227 -14.9226 -14.9225 -14.9224 -14.9223 -14.9204 -14.9196
   -14.9195 -14.9188 -14.9169 -14.9168 -14.9167 -14.9166 -14.9165 -14.9163
   -14.9145 -14.9137 -14.9110 -14.9107 -14.9104 -14.9102 -14.9076 -14.9067
   -14.9047 -14.9046 -14.9046 -14.9045 -14.9025 -14.9016 -14.8990 -14.8985
   -14.8706 -14.8701 -14.8674 -14.8666 -14.8644 -14.8644 -14.8644 -14.8644
   -14.8623 -14.8614 -14.8588 -14.8583 -14.8255 -14.8249 -14.8222 -14.8214
   -14.8193 -14.8192 -14.8192 -14.8192 -14.8171 -14.8163 -14.8136 -14.8130
   -10.3406 -10.3386 -10.3382 -10.3375 -10.3358 -10.3350 -10.3340 -10.3328
   -10.3326 -10.3309 -10.3303 -10.3256 -10.3088 -10.3072 -10.3065 -10.3056
   -10.3031 -10.3017 -10.3013 -10.3005 -10.2934 -10.2928 -10.2912 -10.2850
   -10.2720 -10.2695 -10.2681 -10.2676 -10.2658 -10.2651 -10.2625 -10.2612
   -10.2607 -10.2601 -10.2594 -10.2558  -6.7877  -6.5892  -6.5005  -6.4967
    -6.4395  -6.4386  -6.3636  -6.3508  -6.2850  -6.2832  -6.2489  -6.2466
    -5.9105  -5.9071  -5.8227  -5.8187  -5.8167  -5.7768  -5.7701  -5.7688
    -5.7311  -5.7242  -5.7205  -5.6921  -5.6916  -5.6479  -5.6393  -5.6369
    -5.6291  -5.5962  -5.5843  -5.5813  -5.5657  -5.5283  -5.5197  -5.5182
    -5.5165  -5.5043  -5.4598  -5.4526  -5.4361  -5.4343  -5.4249  -5.4127
    -5.3493  -5.3480  -5.3123  -5.2701  -0.5705  -0.5678  -0.5654  -0.4376
    -0.4030  -0.4014  -0.3761  -0.3412  -0.3404  -0.3371  -0.3101  -0.3007
     1.4208   1.4853   1.4872   1.5029   1.6399   1.6532   1.6855   1.7233
     1.7241   1.8279   1.8772   1.8779   1.9544   1.9570   1.9581   2.0283
     2.1164   2.2048   2.2301   2.2307   2.3404   2.3648   2.3845   2.3851
     2.3936   2.4085   2.4504   2.5368   2.5387   2.6117   2.6127   2.6161
     2.6582   2.7333   2.8120   2.8124   2.8212   2.8408   2.8431   2.8434
     2.8542   2.8860   2.9096   2.9102   2.9140   2.9636   2.9642   3.0047
     3.0494   3.0569   3.0579   3.1223   3.1461   3.1757   3.2061   3.2123
     3.2140   3.2326   3.2607   3.2611   3.2702   3.3243   3.3303   3.3309
     3.3375   3.3718   3.3964   3.3971   3.4330   3.4409   3.4417   3.4503
     3.4978   3.4980   3.5003   3.5104   3.5109   3.5156   3.5210   3.5445
     3.5622   3.6063   3.6074   3.6105   3.6347   3.6438   3.6794   3.6802
     3.6952   3.7019   3.7030   3.7096   3.7785   3.7789   3.8501   3.8604
     3.8948   3.9761   3.9765   3.9768   3.9813   4.0307   4.0369   4.0378
     4.0918   4.1120   4.1199   4.1211   4.1275   4.1635   4.1641   4.1774
     4.2470   4.2652   4.2681   4.2800   4.3048   4.3229   4.3237   4.3684
     4.3806   4.4150   4.4173   4.4835   4.5194   4.5265   4.5281   4.5309
     4.5918   4.5946   4.6237   4.7476   5.1448   5.1451   5.1461   5.1526
     5.1604   5.1606   5.1695   5.1761   5.2158   5.2197   5.2201   5.2213
     5.2269   5.2372   5.2492   5.2496   5.2499   5.2614   5.2688   5.2722
     5.2729   5.2892   5.3036   5.3039   5.3150   5.3189   5.3269   5.3272
     5.3372   5.3492   5.3523   5.3525   5.3569   5.3644   5.4140   5.4155
     5.4336   5.4512   5.4611   5.4616   5.4858   5.4937   5.5013   5.5018
     5.5029   5.5125   5.5260   5.5446   5.5566   5.5573   5.5620   5.6028
     5.6036   5.6316   5.6320   5.6326   5.6680   5.6791   5.6958   5.6962
     5.6974   5.7174   5.7300   5.7562   5.7754   5.7775   5.8091   5.8181
     5.8185   5.8654   5.8744   5.8747   5.9512   5.9529   5.9643   5.9648
     5.9912   6.0068   6.0076   6.0199   6.1389   6.1392   6.1446   6.1605
     6.2255   6.2299   6.2302   6.2527   6.2710   6.2901   6.2911   6.2979
     6.3613   6.3619   6.3772   6.3895   6.3900   6.4410   6.4854   6.4864
     6.5246   6.5384   6.5388   6.5758   6.6054   6.6507   6.6817   6.6926
     6.6953   6.7295   6.7376   6.7381   6.7624   6.7787   6.7920   6.8117
     6.8129   6.9051   6.9093   7.0814

          k = 0.0000 0.3849 0.2714 (115773 PWs)   bands (ev):

   -28.2795 -28.2790 -28.2773 -28.2769 -28.2768 -28.2754 -28.2745 -28.2739
   -28.2738 -28.2734 -28.2717 -28.2712 -14.9288 -14.9283 -14.9255 -14.9247
   -14.9229 -14.9227 -14.9226 -14.9225 -14.9224 -14.9223 -14.9204 -14.9196
   -14.9195 -14.9188 -14.9169 -14.9168 -14.9167 -14.9166 -14.9165 -14.9163
   -14.9145 -14.9137 -14.9110 -14.9107 -14.9104 -14.9102 -14.9076 -14.9067
   -14.9047 -14.9046 -14.9046 -14.9045 -14.9025 -14.9016 -14.8990 -14.8985
   -14.8706 -14.8701 -14.8674 -14.8666 -14.8644 -14.8644 -14.8644 -14.8644
   -14.8623 -14.8614 -14.8588 -14.8583 -14.8255 -14.8249 -14.8222 -14.8214
   -14.8193 -14.8192 -14.8192 -14.8192 -14.8171 -14.8163 -14.8136 -14.8130
   -10.3409 -10.3392 -10.3388 -10.3381 -10.3365 -10.3352 -10.3330 -10.3324
   -10.3315 -10.3306 -10.3297 -10.3262 -10.3106 -10.3086 -10.3066 -10.3063
   -10.3020 -10.3003 -10.3001 -10.2951 -10.2947 -10.2937 -10.2919 -10.2871
   -10.2718 -10.2694 -10.2683 -10.2668 -10.2660 -10.2650 -10.2626 -10.2612
   -10.2605 -10.2601 -10.2593 -10.2569  -6.7506  -6.6466  -6.5595  -6.4723
    -6.4242  -6.4232  -6.3638  -6.3278  -6.3271  -6.2590  -6.2243  -6.2232
    -5.9049  -5.9014  -5.8266  -5.8216  -5.8082  -5.8050  -5.7905  -5.7614
    -5.7613  -5.7301  -5.7123  -5.7117  -5.6704  -5.6350  -5.6296  -5.6286
    -5.6275  -5.6097  -5.5988  -5.5973  -5.5687  -5.5307  -5.5225  -5.5212
    -5.5173  -5.4995  -5.4650  -5.4299  -5.4280  -5.4261  -5.4237  -5.3655
    -5.3491  -5.3476  -5.3210  -5.2988  -0.5630  -0.5581  -0.5548  -0.4368
    -0.4347  -0.4282  -0.3918  -0.3713  -0.3209  -0.3200  -0.2973  -0.2775
     1.4360   1.4833   1.4853   1.4890   1.6254   1.6409   1.7712   1.7724
     1.7814   1.7891   1.8007   1.8022   1.9150   1.9976   1.9987   2.0771
     2.1567   2.2006   2.2085   2.2474   2.2480   2.3621   2.3920   2.3925
     2.3997   2.4482   2.5116   2.5133   2.5478   2.5886   2.5902   2.6082
     2.6411   2.7091   2.7602   2.7676   2.7696   2.7894   2.8086   2.8100
     2.8380   2.8746   2.9167   2.9171   2.9196   2.9823   3.0248   3.0256
     3.0655   3.1076   3.1082   3.1304   3.1728   3.1916   3.1926   3.1945
     3.1996   3.2331   3.2648   3.2650   3.2760   3.3175   3.3213   3.3221
     3.3253   3.3906   3.3915   3.4109   3.4458   3.4464   3.4684   3.4689
     3.4715   3.4726   3.4773   3.4780   3.5344   3.5362   3.5368   3.5895
     3.6109   3.6124   3.6127   3.6342   3.6426   3.6450   3.6596   3.6605
     3.6690   3.7107   3.7116   3.7127   3.8351   3.8357   3.8801   3.8882
     3.9037   3.9506   3.9517   3.9759   3.9807   4.0188   4.0468   4.0480
     4.0487   4.0677   4.1111   4.1120   4.1220   4.1326   4.1334   4.1483
     4.1882   4.2550   4.2661   4.2674   4.2878   4.2899   4.2945   4.3894
     4.3982   4.4364   4.4389   4.4679   4.5240   4.5252   4.5371   4.5975
     4.6110   4.6138   4.6195   4.7200   5.1524   5.1526   5.1540   5.1556
     5.1706   5.1749   5.1753   5.1837   5.1909   5.1979   5.2021   5.2084
     5.2093   5.2347   5.2354   5.2358   5.2547   5.2630   5.2652   5.2662
     5.2794   5.2989   5.3081   5.3129   5.3131   5.3287   5.3351   5.3360
     5.3580   5.3582   5.3601   5.3636   5.3802   5.3918   5.4077   5.4084
     5.4130   5.4321   5.4330   5.4455   5.4458   5.4928   5.5022   5.5027
     5.5084   5.5154   5.5542   5.5605   5.5744   5.5750   5.6037   5.6116
     5.6119   5.6188   5.6251   5.6258   5.6426   5.6710   5.6824   5.7143
     5.7155   5.7165   5.7356   5.7718   5.7730   5.7750   5.8013   5.8018
     5.8114   5.8583   5.8734   5.8741   5.8803   5.9155   5.9585   5.9590
     6.0344   6.0349   6.0361   6.0609   6.0785   6.0794   6.1731   6.2082
     6.2128   6.2139   6.2668   6.2670   6.2688   6.2773   6.2844   6.3479
     6.3491   6.3639   6.3716   6.4159   6.4243   6.4256   6.4285   6.4718
     6.4977   6.4985   6.5460   6.5593   6.5961   6.5967   6.6672   6.6686
     6.6768   6.7198   6.7366   6.7372   6.7452   6.8133   6.8140   6.8440
     6.8707   6.9288   6.9365   7.0529

          k = 0.3333 0.5774 0.0000 (115752 PWs)   bands (ev):

   -28.2795 -28.2790 -28.2773 -28.2769 -28.2768 -28.2754 -28.2745 -28.2739
   -28.2738 -28.2734 -28.2717 -28.2712 -14.9288 -14.9283 -14.9255 -14.9247
   -14.9229 -14.9227 -14.9225 -14.9225 -14.9224 -14.9224 -14.9204 -14.9196
   -14.9195 -14.9188 -14.9169 -14.9168 -14.9166 -14.9166 -14.9166 -14.9163
   -14.9146 -14.9137 -14.9110 -14.9107 -14.9104 -14.9102 -14.9076 -14.9067
   -14.9047 -14.9046 -14.9046 -14.9045 -14.9025 -14.9016 -14.8990 -14.8985
   -14.8706 -14.8701 -14.8674 -14.8666 -14.8644 -14.8644 -14.8644 -14.8644
   -14.8623 -14.8614 -14.8588 -14.8583 -14.8255 -14.8249 -14.8222 -14.8214
   -14.8193 -14.8192 -14.8192 -14.8192 -14.8171 -14.8163 -14.8136 -14.8130
   -10.3404 -10.3379 -10.3374 -10.3364 -10.3359 -10.3345 -10.3339 -10.3336
   -10.3329 -10.3297 -10.3294 -10.3283 -10.3080 -10.3064 -10.3055 -10.3048
   -10.3030 -10.3013 -10.3009 -10.3006 -10.2980 -10.2902 -10.2896 -10.2888
   -10.2708 -10.2689 -10.2685 -10.2668 -10.2661 -10.2647 -10.2640 -10.2634
   -10.2629 -10.2590 -10.2583 -10.2567  -6.6510  -6.6502  -6.6493  -6.4025
    -6.4009  -6.3996  -6.3974  -6.3961  -6.3944  -6.2946  -6.2899  -6.1925
    -5.8659  -5.8525  -5.8483  -5.7507  -5.7488  -5.7468  -5.7335  -5.7317
    -5.7303  -5.7095  -5.7062  -5.6949  -5.6940  -5.6926  -5.6851  -5.6843
    -5.6835  -5.6447  -5.5445  -5.5412  -5.5382  -5.5334  -5.5288  -5.5240
    -5.5117  -5.4734  -5.4715  -5.4693  -5.4668  -5.4660  -5.4650  -5.3983
    -5.3949  -5.3021  -5.3014  -5.3007  -0.5441  -0.5160  -0.5143  -0.5125
    -0.3986  -0.3933  -0.3924  -0.3896  -0.3876  -0.3135  -0.3095  -0.3055
     1.4818   1.4845   1.4871   1.6745   1.6751   1.6758   1.6848   1.6868
     1.6890   1.7324   1.7361   1.7996   2.0793   2.0819   2.0826   2.0830
     2.0846   2.1423   2.1446   2.1469   2.2554   2.3964   2.3972   2.3982
     2.4933   2.4947   2.4960   2.5635   2.5638   2.5641   2.5963   2.5986
     2.7737   2.7745   2.7753   2.8362   2.8379   2.8435   2.8443   2.8454
     2.8500   2.8515   2.8530   2.8547   2.8683   3.0096   3.0104   3.0112
     3.0244   3.0258   3.0270   3.0621   3.1321   3.1344   3.1366   3.1963
     3.1975   3.1986   3.2592   3.2600   3.2606   3.2697   3.2727   3.3616
     3.3702   3.3711   3.3724   3.3739   3.4252   3.4257   3.4262   3.4870
     3.4876   3.5020   3.5028   3.5036   3.5294   3.5301   3.5309   3.5473
     3.5482   3.5790   3.5801   3.5812   3.6496   3.6509   3.6520   3.7187
     3.7210   3.7234   3.7281   3.7287   3.7566   3.8014   3.8017   3.8021
     3.9577   3.9596   3.9615   3.9856   3.9884   4.0293   4.0304   4.0314
     4.0828   4.0849   4.0868   4.1407   4.1508   4.1514   4.1521   4.2847
     4.2852   4.2941   4.3164   4.3191   4.3193   4.3209   4.3221   4.3250
     4.3853   4.3866   4.3882   4.4963   4.5128   4.5173   4.5200   4.5210
     4.5222   4.6523   4.6550   4.6579   5.1377   5.1435   5.1443   5.1450
     5.1734   5.1737   5.1877   5.1883   5.1890   5.1964   5.1970   5.1977
     5.2460   5.2474   5.2489   5.2655   5.2662   5.2668   5.2968   5.2988
     5.3005   5.3007   5.3028   5.3037   5.3141   5.3178   5.3192   5.3206
     5.3398   5.3406   5.3413   5.4022   5.4032   5.4043   5.4081   5.4086
     5.4546   5.4557   5.4569   5.4581   5.4828   5.4839   5.4849   5.4886
     5.4889   5.5345   5.5357   5.5370   5.5645   5.5648   5.5650   5.5706
     5.5713   5.5717   5.6412   5.6712   5.6738   5.6932   5.6952   5.6971
     5.7064   5.7075   5.7087   5.7797   5.7805   5.7816   5.7990   5.7999
     5.8007   5.8231   5.8252   5.8447   5.9300   5.9312   5.9325   6.0466
     6.0469   6.0475   6.0481   6.0492   6.1378   6.1389   6.1401   6.1585
     6.2185   6.2194   6.2202   6.2596   6.2604   6.2611   6.2838   6.2848
     6.3749   6.4100   6.4107   6.4115   6.4156   6.4180   6.4234   6.4515
     6.4524   6.4534   6.6152   6.6155   6.6159   6.6763   6.6766   6.6770
     6.7251   6.7406   6.7419   6.8064   6.8066   6.8067   6.8103   6.8107
     6.8111   6.9386   6.9395   6.9404

          k = 0.3333 0.5774 0.2714 (115827 PWs)   bands (ev):

   -28.2795 -28.2790 -28.2773 -28.2769 -28.2768 -28.2754 -28.2745 -28.2739
   -28.2738 -28.2734 -28.2717 -28.2712 -14.9288 -14.9283 -14.9255 -14.9247
   -14.9229 -14.9227 -14.9225 -14.9225 -14.9224 -14.9224 -14.9204 -14.9196
   -14.9195 -14.9188 -14.9169 -14.9168 -14.9166 -14.9166 -14.9166 -14.9163
   -14.9146 -14.9137 -14.9110 -14.9107 -14.9104 -14.9102 -14.9076 -14.9067
   -14.9047 -14.9046 -14.9046 -14.9045 -14.9025 -14.9016 -14.8990 -14.8985
   -14.8706 -14.8701 -14.8674 -14.8666 -14.8644 -14.8644 -14.8644 -14.8644
   -14.8623 -14.8614 -14.8588 -14.8583 -14.8255 -14.8249 -14.8222 -14.8214
   -14.8193 -14.8192 -14.8192 -14.8192 -14.8171 -14.8163 -14.8136 -14.8130
   -10.3407 -10.3384 -10.3379 -10.3373 -10.3369 -10.3338 -10.3329 -10.3327
   -10.3321 -10.3297 -10.3296 -10.3280 -10.3085 -10.3082 -10.3077 -10.3058
   -10.3019 -10.2993 -10.2982 -10.2969 -10.2967 -10.2919 -10.2913 -10.2902
   -10.2713 -10.2684 -10.2680 -10.2675 -10.2662 -10.2642 -10.2637 -10.2626
   -10.2622 -10.2599 -10.2593 -10.2572  -6.6191  -6.6181  -6.6171  -6.5254
    -6.5245  -6.5235  -6.3083  -6.2901  -6.2890  -6.2877  -6.2574  -6.2142
    -5.8753  -5.8574  -5.8446  -5.7799  -5.7794  -5.7787  -5.7430  -5.7425
    -5.7403  -5.7152  -5.6887  -5.6878  -5.6867  -5.6730  -5.6719  -5.6712
    -5.6699  -5.6431  -5.5591  -5.5561  -5.5543  -5.5266  -5.5244  -5.5222
    -5.5053  -5.5048  -5.5026  -5.4985  -5.4584  -5.3991  -5.3971  -5.3968
    -5.3578  -5.3230  -5.3224  -5.3214  -0.5203  -0.5074  -0.5056  -0.5031
    -0.4607  -0.4175  -0.4165  -0.4159  -0.3548  -0.2950  -0.2925  -0.2896
     1.4798   1.4824   1.4855   1.6363   1.6390   1.6407   1.6901   1.7751
     1.7764   1.7769   1.7771   1.7938   1.9804   1.9816   1.9829   2.0553
     2.1708   2.1910   2.1938   2.1950   2.2473   2.3963   2.3975   2.3991
     2.4876   2.4898   2.4904   2.5571   2.5874   2.5884   2.5885   2.5926
     2.6788   2.7364   2.7373   2.7381   2.8225   2.8233   2.8241   2.8276
     2.9009   2.9031   2.9040   2.9241   2.9368   2.9546   2.9553   2.9572
     3.0584   3.0608   3.0618   3.0873   3.0887   3.0904   3.1268   3.1809
     3.2439   3.2448   3.2462   3.2704   3.2715   3.2719   3.3215   3.3266
     3.3276   3.3296   3.3740   3.4073   3.4208   3.4655   3.4656   3.4662
     3.4928   3.4984   3.4997   3.5009   3.5364   3.5370   3.5386   3.5402
     3.5612   3.6148   3.6168   3.6179   3.6538   3.6548   3.6565   3.6967
     3.6983   3.6995   3.7198   3.7442   3.8216   3.8407   3.8416   3.8423
     3.9383   3.9395   3.9409   3.9428   4.0286   4.0293   4.0312   4.0403
     4.0652   4.0687   4.0708   4.1089   4.1130   4.1139   4.1166   4.1682
     4.2724   4.2730   4.2754   4.2894   4.3151   4.3608   4.3619   4.3629
     4.4153   4.4176   4.4185   4.4928   4.4934   4.4948   4.5072   4.5122
     4.5647   4.6652   4.6676   4.6703   5.1488   5.1566   5.1573   5.1579
     5.1585   5.1822   5.1829   5.1841   5.1971   5.1986   5.1993   5.2110
     5.2242   5.2256   5.2262   5.2520   5.2526   5.2529   5.2567   5.2688
     5.3008   5.3018   5.3037   5.3094   5.3289   5.3290   5.3305   5.3681
     5.3685   5.3688   5.3747   5.3934   5.3960   5.4086   5.4093   5.4107
     5.4328   5.4331   5.4342   5.4386   5.4844   5.4849   5.4855   5.4913
     5.5386   5.5394   5.5407   5.5437   5.5664   5.5667   5.5671   5.6052
     5.6062   5.6067   5.6375   5.6398   5.6720   5.6725   5.6741   5.7036
     5.7040   5.7045   5.7176   5.7583   5.7594   5.7612   5.8012   5.8079
     5.8212   5.8228   5.8246   5.8261   5.8899   5.8904   5.8923   6.0570
     6.0602   6.0611   6.0613   6.0773   6.1196   6.1204   6.1214   6.1352
     6.1957   6.2380   6.2383   6.2390   6.2843   6.3017   6.3029   6.3031
     6.3065   6.3850   6.3857   6.3866   6.4502   6.4673   6.4683   6.4694
     6.4919   6.4927   6.5592   6.5596   6.5605   6.6459   6.6846   6.6857
     6.6865   6.7609   6.7777   6.7785   6.7795   6.7929   6.8544   6.8549
     6.8559   6.9350   6.9365   6.9375

          k =-0.3333 0.1925 0.0000 (115797 PWs)   bands (ev):

   -28.2795 -28.2790 -28.2773 -28.2769 -28.2768 -28.2754 -28.2745 -28.2739
   -28.2738 -28.2734 -28.2717 -28.2712 -14.9288 -14.9283 -14.9255 -14.9247
   -14.9229 -14.9227 -14.9226 -14.9225 -14.9224 -14.9223 -14.9204 -14.9196
   -14.9195 -14.9188 -14.9169 -14.9168 -14.9167 -14.9166 -14.9165 -14.9163
   -14.9146 -14.9137 -14.9110 -14.9107 -14.9104 -14.9102 -14.9076 -14.9067
   -14.9047 -14.9046 -14.9046 -14.9045 -14.9025 -14.9016 -14.8990 -14.8985
   -14.8706 -14.8701 -14.8674 -14.8666 -14.8644 -14.8644 -14.8644 -14.8644
   -14.8623 -14.8614 -14.8588 -14.8583 -14.8255 -14.8249 -14.8222 -14.8214
   -14.8193 -14.8192 -14.8192 -14.8192 -14.8171 -14.8163 -14.8136 -14.8130
   -10.3399 -10.3395 -10.3377 -10.3365 -10.3356 -10.3348 -10.3343 -10.3339
   -10.3323 -10.3316 -10.3302 -10.3256 -10.3083 -10.3074 -10.3068 -10.3051
   -10.3027 -10.3020 -10.3009 -10.3002 -10.2956 -10.2942 -10.2894 -10.2847
   -10.2715 -10.2697 -10.2686 -10.2669 -10.2661 -10.2649 -10.2633 -10.2625
   -10.2618 -10.2594 -10.2582 -10.2549  -6.7879  -6.5903  -6.5016  -6.4954
    -6.4374  -6.4365  -6.3675  -6.3462  -6.2861  -6.2846  -6.2491  -6.2470
    -5.9148  -5.9112  -5.8204  -5.8184  -5.8168  -5.7772  -5.7661  -5.7651
    -5.7324  -5.7248  -5.7234  -5.6884  -5.6881  -5.6469  -5.6390  -5.6363
    -5.6292  -5.5935  -5.5868  -5.5837  -5.5707  -5.5278  -5.5190  -5.5176
    -5.5154  -5.5030  -5.4649  -5.4500  -5.4382  -5.4364  -5.4207  -5.4145
    -5.3477  -5.3465  -5.3138  -5.2703  -0.5740  -0.5712  -0.5585  -0.4333
    -0.4063  -0.4044  -0.3780  -0.3372  -0.3345  -0.3340  -0.3146  -0.3052
     1.4168   1.4882   1.4902   1.4992   1.6400   1.6503   1.6912   1.7241
     1.7251   1.8283   1.8763   1.8769   1.9538   1.9549   1.9557   2.0270
     2.1149   2.2090   2.2294   2.2299   2.3376   2.3627   2.3879   2.3884
     2.3938   2.4090   2.4492   2.5372   2.5391   2.6136   2.6146   2.6180
     2.6567   2.7363   2.8142   2.8147   2.8225   2.8400   2.8423   2.8454
     2.8539   2.8837   2.9068   2.9076   2.9160   2.9609   2.9615   3.0038
     3.0513   3.0560   3.0570   3.1260   3.1501   3.1757   3.2027   3.2105
     3.2120   3.2358   3.2611   3.2616   3.2679   3.3234   3.3309   3.3315
     3.3402   3.3725   3.3936   3.3942   3.4344   3.4405   3.4413   3.4492
     3.4980   3.4983   3.5006   3.5114   3.5118   3.5122   3.5240   3.5415
     3.5610   3.6035   3.6046   3.6113   3.6353   3.6488   3.6794   3.6803
     3.6935   3.7038   3.7048   3.7076   3.7797   3.7800   3.8485   3.8590
     3.8975   3.9721   3.9729   3.9793   3.9805   4.0293   4.0401   4.0410
     4.0936   4.1110   4.1209   4.1222   4.1246   4.1620   4.1626   4.1780
     4.2493   4.2667   4.2692   4.2850   4.3012   4.3228   4.3235   4.3681
     4.3768   4.4170   4.4191   4.4838   4.5164   4.5266   4.5281   4.5296
     4.5883   4.5908   4.6299   4.7499   5.1429   5.1431   5.1477   5.1564
     5.1606   5.1610   5.1700   5.1736   5.2140   5.2190   5.2195   5.2224
     5.2291   5.2379   5.2486   5.2491   5.2505   5.2611   5.2667   5.2716
     5.2721   5.2895   5.3051   5.3055   5.3130   5.3189   5.3279   5.3282
     5.3365   5.3502   5.3533   5.3535   5.3583   5.3668   5.4129   5.4143
     5.4339   5.4513   5.4612   5.4618   5.4856   5.4932   5.4991   5.4997
     5.5028   5.5131   5.5295   5.5432   5.5565   5.5573   5.5607   5.6035
     5.6042   5.6293   5.6310   5.6318   5.6683   5.6776   5.6951   5.6957
     5.6969   5.7181   5.7293   5.7568   5.7735   5.7757   5.8087   5.8205
     5.8208   5.8624   5.8774   5.8778   5.9500   5.9506   5.9657   5.9662
     5.9897   6.0067   6.0076   6.0217   6.1396   6.1399   6.1454   6.1605
     6.2256   6.2297   6.2300   6.2501   6.2707   6.2880   6.2891   6.3008
     6.3620   6.3626   6.3777   6.3905   6.3910   6.4413   6.4867   6.4876
     6.5239   6.5377   6.5382   6.5758   6.6041   6.6514   6.6860   6.6904
     6.6932   6.7303   6.7376   6.7381   6.7630   6.7773   6.7941   6.8119
     6.8132   6.9036   6.9090   7.0802

          k = 0.3333 0.1925 0.0000 (115797 PWs)   bands (ev):

   -28.2795 -28.2790 -28.2773 -28.2769 -28.2768 -28.2754 -28.2745 -28.2739
   -28.2738 -28.2734 -28.2717 -28.2712 -14.9288 -14.9282 -14.9255 -14.9247
   -14.9229 -14.9227 -14.9225 -14.9225 -14.9224 -14.9224 -14.9204 -14.9196
   -14.9195 -14.9188 -14.9169 -14.9167 -14.9167 -14.9167 -14.9165 -14.9163
   -14.9146 -14.9137 -14.9110 -14.9107 -14.9104 -14.9102 -14.9076 -14.9067
   -14.9046 -14.9046 -14.9046 -14.9045 -14.9025 -14.9016 -14.8990 -14.8985
   -14.8706 -14.8701 -14.8674 -14.8666 -14.8644 -14.8644 -14.8644 -14.8644
   -14.8623 -14.8614 -14.8588 -14.8583 -14.8255 -14.8249 -14.8222 -14.8214
   -14.8193 -14.8193 -14.8192 -14.8192 -14.8171 -14.8163 -14.8136 -14.8130
   -10.3402 -10.3397 -10.3378 -10.3363 -10.3357 -10.3348 -10.3341 -10.3334
   -10.3329 -10.3309 -10.3304 -10.3256 -10.3088 -10.3074 -10.3063 -10.3054
   -10.3023 -10.3020 -10.3011 -10.3008 -10.2950 -10.2932 -10.2900 -10.2849
   -10.2719 -10.2694 -10.2690 -10.2669 -10.2651 -10.2644 -10.2635 -10.2622
   -10.2615 -10.2602 -10.2586 -10.2550  -6.7878  -6.5898  -6.5010  -6.4961
    -6.4388  -6.4371  -6.3656  -6.3484  -6.2864  -6.2832  -6.2502  -6.2456
    -5.9143  -5.9077  -5.8206  -5.8197  -5.8160  -5.7773  -5.7687  -5.7664
    -5.7319  -5.7239  -5.7223  -5.6905  -5.6896  -5.6473  -5.6408  -5.6351
    -5.6290  -5.5950  -5.5870  -5.5812  -5.5686  -5.5272  -5.5197  -5.5176
    -5.5160  -5.5040  -5.4626  -5.4512  -5.4378  -5.4347  -5.4221  -5.4139
    -5.3488  -5.3469  -5.3131  -5.2702  -0.5736  -0.5683  -0.5619  -0.4353
    -0.4053  -0.4020  -0.3774  -0.3385  -0.3376  -0.3367  -0.3121  -0.3025
     1.4187   1.4858   1.4896   1.5009   1.6400   1.6519   1.6884   1.7232
     1.7250   1.8282   1.8769   1.8772   1.9546   1.9557   1.9567   2.0277
     2.1156   2.2070   2.2296   2.2304   2.3390   2.3638   2.3860   2.3871
     2.3935   2.4087   2.4498   2.5361   2.5399   2.6122   2.6141   2.6171
     2.6574   2.7348   2.8128   2.8140   2.8219   2.8396   2.8434   2.8444
     2.8540   2.8848   2.9079   2.9093   2.9150   2.9623   2.9627   3.0043
     3.0503   3.0564   3.0575   3.1241   3.1482   3.1756   3.2043   3.2106
     3.2139   3.2341   3.2609   3.2614   3.2691   3.3238   3.3306   3.3313
     3.3389   3.3722   3.3949   3.3958   3.4337   3.4402   3.4420   3.4498
     3.4978   3.4980   3.5004   3.5110   3.5115   3.5139   3.5225   3.5430
     3.5616   3.6046   3.6062   3.6110   3.6348   3.6463   3.6796   3.6804
     3.6943   3.7025   3.7042   3.7087   3.7791   3.7795   3.8493   3.8597
     3.8961   3.9743   3.9747   3.9783   3.9806   4.0300   4.0381   4.0398
     4.0927   4.1114   4.1206   4.1218   4.1260   4.1625   4.1636   4.1777
     4.2482   4.2663   4.2682   4.2823   4.3033   4.3230   4.3234   4.3683
     4.3787   4.4151   4.4189   4.4836   4.5178   4.5267   4.5288   4.5295
     4.5894   4.5936   4.6268   4.7487   5.1438   5.1442   5.1470   5.1546
     5.1603   5.1608   5.1697   5.1746   5.2149   5.2194   5.2198   5.2219
     5.2280   5.2375   5.2488   5.2495   5.2504   5.2613   5.2678   5.2716
     5.2727   5.2894   5.3044   5.3046   5.3140   5.3189   5.3272   5.3278
     5.3368   5.3499   5.3528   5.3530   5.3574   5.3656   5.4128   5.4155
     5.4338   5.4512   5.4614   5.4614   5.4857   5.4934   5.5003   5.5006
     5.5028   5.5128   5.5278   5.5439   5.5563   5.5576   5.5613   5.6026
     5.6043   5.6305   5.6315   5.6322   5.6680   5.6783   5.6945   5.6960
     5.6981   5.7178   5.7296   5.7565   5.7737   5.7775   5.8090   5.8194
     5.8196   5.8640   5.8759   5.8762   5.9502   5.9521   5.9651   5.9654
     5.9905   6.0064   6.0078   6.0208   6.1392   6.1396   6.1450   6.1605
     6.2255   6.2295   6.2304   6.2514   6.2708   6.2888   6.2905   6.2994
     6.3619   6.3620   6.3774   6.3895   6.3909   6.4412   6.4861   6.4870
     6.5243   6.5381   6.5385   6.5758   6.6047   6.6511   6.6839   6.6902
     6.6956   6.7300   6.7374   6.7383   6.7627   6.7779   6.7930   6.8113
     6.8136   6.9044   6.9092   7.0808

          k = 0.0000-0.3849 0.2714 (115773 PWs)   bands (ev):

   -28.2795 -28.2790 -28.2773 -28.2769 -28.2768 -28.2754 -28.2745 -28.2739
   -28.2738 -28.2734 -28.2717 -28.2712 -14.9288 -14.9283 -14.9255 -14.9247
   -14.9229 -14.9227 -14.9226 -14.9225 -14.9224 -14.9223 -14.9204 -14.9196
   -14.9195 -14.9188 -14.9169 -14.9168 -14.9167 -14.9166 -14.9165 -14.9163
   -14.9145 -14.9137 -14.9110 -14.9107 -14.9104 -14.9102 -14.9076 -14.9067
   -14.9047 -14.9046 -14.9046 -14.9045 -14.9025 -14.9016 -14.8990 -14.8985
   -14.8706 -14.8701 -14.8674 -14.8666 -14.8644 -14.8644 -14.8644 -14.8644
   -14.8623 -14.8614 -14.8588 -14.8583 -14.8255 -14.8249 -14.8222 -14.8214
   -14.8193 -14.8192 -14.8192 -14.8192 -14.8171 -14.8163 -14.8136 -14.8130
   -10.3409 -10.3391 -10.3388 -10.3380 -10.3364 -10.3353 -10.3338 -10.3320
   -10.3315 -10.3303 -10.3293 -10.3265 -10.3104 -10.3078 -10.3075 -10.3050
   -10.3040 -10.3022 -10.2972 -10.2947 -10.2942 -10.2936 -10.2931 -10.2871
   -10.2717 -10.2692 -10.2685 -10.2677 -10.2662 -10.2640 -10.2624 -10.2612
   -10.2606 -10.2601 -10.2590 -10.2573  -6.7508  -6.6465  -6.5603  -6.4689
    -6.4212  -6.4200  -6.3635  -6.3394  -6.3385  -6.2656  -6.2105  -6.2095
    -5.9132  -5.9100  -5.8248  -5.8241  -5.8188  -5.8166  -5.7656  -5.7648
    -5.7520  -5.7331  -5.6837  -5.6827  -5.6808  -5.6618  -5.6446  -5.6436
    -5.6403  -5.6062  -5.5844  -5.5824  -5.5714  -5.5329  -5.5279  -5.5267
    -5.5136  -5.4846  -5.4676  -5.4385  -5.4364  -5.4349  -5.4014  -5.3694
    -5.3452  -5.3438  -5.3298  -5.2961  -0.5616  -0.5585  -0.5556  -0.4359
    -0.4297  -0.4273  -0.4088  -0.3590  -0.3242  -0.3234  -0.2884  -0.2820
     1.4070   1.4917   1.4938   1.5175   1.6125   1.7115   1.7122   1.7230
     1.7349   1.7725   1.8459   1.8472   1.9655   1.9862   2.0227   2.0237
     2.1307   2.1978   2.2087   2.2090   2.2860   2.3359   2.3975   2.4254
     2.4269   2.5168   2.5295   2.5302   2.5565   2.5577   2.5579   2.5585
     2.5995   2.6793   2.7635   2.7659   2.8228   2.8233   2.8243   2.8286
     2.8494   2.8524   2.8967   2.8972   2.9075   3.0086   3.0193   3.0202
     3.0746   3.0774   3.1183   3.1193   3.1335   3.1817   3.1826   3.1891
     3.2120   3.2462   3.2664   3.2856   3.2860   3.2944   3.3301   3.3305
     3.3757   3.3774   3.3804   3.3815   3.4469   3.4469   3.4505   3.4757
     3.4800   3.4807   3.5060   3.5212   3.5341   3.5349   3.5381   3.5579
     3.5867   3.5878   3.6122   3.6296   3.6389   3.6424   3.6826   3.6835
     3.6879   3.6963   3.7041   3.7060   3.8354   3.8360   3.8788   3.8812
     3.9403   3.9468   3.9472   3.9496   3.9706   4.0334   4.0527   4.0573
     4.0588   4.0598   4.1002   4.1012   4.1229   4.1235   4.1314   4.1344
     4.2207   4.2382   4.2670   4.2694   4.2906   4.2928   4.3151   4.3699
     4.3924   4.4333   4.4349   4.4815   4.5225   4.5437   4.5447   4.5870
     4.5966   4.5999   4.6288   4.7280   5.1486   5.1490   5.1513   5.1638
     5.1686   5.1689   5.1704   5.1720   5.1994   5.2046   5.2139   5.2187
     5.2200   5.2301   5.2410   5.2417   5.2611   5.2632   5.2640   5.2644
     5.2651   5.2743   5.3104   5.3108   5.3186   5.3350   5.3463   5.3466
     5.3603   5.3629   5.3633   5.3671   5.3684   5.3811   5.3887   5.3897
     5.4104   5.4325   5.4478   5.4519   5.4529   5.4698   5.4965   5.4983
     5.5170   5.5231   5.5563   5.5577   5.5691   5.5694   5.6024   5.6028
     5.6074   5.6200   5.6323   5.6499   5.6507   5.6605   5.6756   5.7091
     5.7106   5.7406   5.7600   5.7610   5.7706   5.7845   5.8039   5.8050
     5.8154   5.8399   5.8661   5.8667   5.8754   5.8969   5.9682   5.9693
     6.0201   6.0254   6.0260   6.1017   6.1020   6.1114   6.1603   6.1865
     6.2031   6.2035   6.2040   6.2620   6.2636   6.2862   6.3197   6.3411
     6.3555   6.3701   6.3717   6.4134   6.4180   6.4185   6.4523   6.4814
     6.4822   6.5073   6.5575   6.5659   6.6067   6.6086   6.6472   6.6662
     6.6673   6.7377   6.7387   6.7407   6.7484   6.8036   6.8056   6.8510
     6.8674   6.9178   6.9452   7.0399

          k =-0.3333 0.1925 0.2714 (115773 PWs)   bands (ev):

   -28.2795 -28.2790 -28.2773 -28.2769 -28.2768 -28.2754 -28.2745 -28.2739
   -28.2738 -28.2734 -28.2717 -28.2712 -14.9288 -14.9283 -14.9255 -14.9247
   -14.9229 -14.9227 -14.9226 -14.9225 -14.9224 -14.9223 -14.9204 -14.9196
   -14.9195 -14.9188 -14.9169 -14.9168 -14.9167 -14.9166 -14.9165 -14.9163
   -14.9146 -14.9137 -14.9110 -14.9107 -14.9104 -14.9102 -14.9076 -14.9067
   -14.9047 -14.9046 -14.9046 -14.9045 -14.9025 -14.9016 -14.8990 -14.8985
   -14.8706 -14.8701 -14.8674 -14.8666 -14.8644 -14.8644 -14.8644 -14.8644
   -14.8623 -14.8614 -14.8588 -14.8583 -14.8255 -14.8249 -14.8222 -14.8214
   -14.8193 -14.8192 -14.8192 -14.8192 -14.8171 -14.8163 -14.8136 -14.8130
   -10.3405 -10.3402 -10.3384 -10.3367 -10.3356 -10.3348 -10.3346 -10.3334
   -10.3318 -10.3306 -10.3296 -10.3259 -10.3104 -10.3092 -10.3057 -10.3050
   -10.3029 -10.3015 -10.2979 -10.2966 -10.2952 -10.2949 -10.2917 -10.2860
   -10.2708 -10.2695 -10.2687 -10.2674 -10.2662 -10.2646 -10.2629 -10.2622
   -10.2614 -10.2598 -10.2588 -10.2555  -6.7511  -6.6463  -6.5623  -6.4679
    -6.4181  -6.4167  -6.3634  -6.3416  -6.3408  -6.2651  -6.2111  -6.2102
    -5.9170  -5.9136  -5.8247  -5.8198  -5.8185  -5.8164  -5.7639  -5.7634
    -5.7543  -5.7337  -5.6829  -5.6818  -5.6807  -5.6651  -5.6402  -5.6389
    -5.6338  -5.6080  -5.5886  -5.5865  -5.5745  -5.5285  -5.5269  -5.5256
    -5.5175  -5.4880  -5.4630  -5.4399  -5.4388  -5.4371  -5.3967  -5.3708
    -5.3436  -5.3423  -5.3331  -5.2957  -0.5657  -0.5624  -0.5474  -0.4310
    -0.4296  -0.4277  -0.4132  -0.3621  -0.3199  -0.3193  -0.2917  -0.2843
     1.4032   1.4951   1.4973   1.5132   1.6122   1.7118   1.7126   1.7218
     1.7391   1.7734   1.8441   1.8454   1.9675   1.9855   2.0201   2.0210
     2.1280   2.2006   2.2097   2.2101   2.2847   2.3323   2.3958   2.4275
     2.4290   2.5198   2.5289   2.5296   2.5580   2.5589   2.5596   2.5611
     2.5997   2.6773   2.7631   2.7655   2.8248   2.8258   2.8275   2.8304
     2.8513   2.8532   2.8944   2.8948   2.9044   3.0078   3.0169   3.0178
     3.0780   3.0798   3.1178   3.1187   3.1340   3.1794   3.1805   3.1877
     3.2151   3.2462   3.2662   3.2850   3.2854   3.2961   3.3317   3.3320
     3.3751   3.3764   3.3774   3.3778   3.4480   3.4481   3.4497   3.4786
     3.4798   3.4804   3.5061   3.5176   3.5344   3.5350   3.5353   3.5583
     3.5858   3.5870   3.6095   3.6332   3.6415   3.6465   3.6835   3.6844
     3.6856   3.6957   3.7032   3.7047   3.8372   3.8378   3.8780   3.8794
     3.9424   3.9441   3.9448   3.9484   3.9732   4.0312   4.0547   4.0558
     4.0614   4.0628   4.1002   4.1013   4.1216   4.1223   4.1280   4.1331
     4.2268   4.2424   4.2688   4.2712   4.2901   4.2923   4.3122   4.3645
     4.3920   4.4348   4.4363   4.4802   4.5201   4.5449   4.5459   4.5840
     4.5937   4.5963   4.6339   4.7317   5.1468   5.1471   5.1551   5.1654
     5.1681   5.1690   5.1693   5.1736   5.2002   5.2055   5.2115   5.2174
     5.2186   5.2283   5.2410   5.2416   5.2602   5.2652   5.2656   5.2661
     5.2672   5.2724   5.3100   5.3105   5.3186   5.3331   5.3472   5.3476
     5.3599   5.3632   5.3633   5.3693   5.3708   5.3806   5.3885   5.3894
     5.4098   5.4340   5.4477   5.4508   5.4516   5.4687   5.4964   5.4983
     5.5169   5.5255   5.5560   5.5572   5.5685   5.5688   5.6020   5.6024
     5.6077   5.6209   5.6302   5.6499   5.6507   5.6614   5.6742   5.7076
     5.7091   5.7380   5.7597   5.7608   5.7709   5.7845   5.8061   5.8071
     5.8140   5.8397   5.8686   5.8692   5.8754   5.8927   5.9693   5.9703
     6.0185   6.0253   6.0258   6.1016   6.1019   6.1124   6.1590   6.1882
     6.2031   6.2038   6.2041   6.2624   6.2638   6.2887   6.3171   6.3434
     6.3544   6.3672   6.3688   6.4130   6.4213   6.4218   6.4523   6.4817
     6.4825   6.5068   6.5584   6.5672   6.6061   6.6080   6.6477   6.6672
     6.6683   6.7352   6.7381   6.7410   6.7487   6.8037   6.8057   6.8513
     6.8654   6.9187   6.9463   7.0378

          k = 0.3333 0.1925 0.2714 (115773 PWs)   bands (ev):

   -28.2795 -28.2790 -28.2773 -28.2769 -28.2768 -28.2754 -28.2745 -28.2739
   -28.2738 -28.2734 -28.2717 -28.2712 -14.9288 -14.9282 -14.9255 -14.9247
   -14.9229 -14.9227 -14.9225 -14.9225 -14.9224 -14.9224 -14.9204 -14.9196
   -14.9195 -14.9188 -14.9169 -14.9167 -14.9167 -14.9167 -14.9165 -14.9163
   -14.9146 -14.9137 -14.9110 -14.9107 -14.9104 -14.9102 -14.9076 -14.9067
   -14.9046 -14.9046 -14.9046 -14.9045 -14.9025 -14.9016 -14.8990 -14.8985
   -14.8706 -14.8701 -14.8674 -14.8666 -14.8644 -14.8644 -14.8644 -14.8644
   -14.8623 -14.8614 -14.8588 -14.8583 -14.8255 -14.8249 -14.8222 -14.8214
   -14.8193 -14.8193 -14.8192 -14.8192 -14.8171 -14.8163 -14.8136 -14.8130
   -10.3407 -10.3402 -10.3385 -10.3368 -10.3361 -10.3348 -10.3344 -10.3327
   -10.3318 -10.3300 -10.3298 -10.3262 -10.3104 -10.3085 -10.3072 -10.3053
   -10.3021 -10.3018 -10.2982 -10.2961 -10.2949 -10.2939 -10.2921 -10.2865
   -10.2716 -10.2695 -10.2688 -10.2668 -10.2656 -10.2641 -10.2630 -10.2618
   -10.2612 -10.2605 -10.2591 -10.2558  -6.7509  -6.6464  -6.5613  -6.4684
    -6.4202  -6.4178  -6.3635  -6.3403  -6.3400  -6.2653  -6.2112  -6.2094
    -5.9166  -5.9104  -5.8245  -5.8216  -5.8200  -5.8154  -5.7651  -5.7638
    -5.7534  -5.7334  -5.6828  -5.6821  -5.6814  -5.6634  -5.6432  -5.6400
    -5.6376  -5.6070  -5.5875  -5.5837  -5.5732  -5.5304  -5.5278  -5.5260
    -5.5154  -5.4865  -5.4649  -5.4392  -5.4384  -5.4353  -5.3991  -5.3700
    -5.3447  -5.3428  -5.3314  -5.2959  -0.5653  -0.5589  -0.5515  -0.4331
    -0.4309  -0.4263  -0.4111  -0.3608  -0.3225  -0.3211  -0.2899  -0.2830
     1.4050   1.4924   1.4966   1.5152   1.6125   1.7114   1.7127   1.7225
     1.7371   1.7729   1.8445   1.8468   1.9665   1.9858   2.0217   2.0220
     2.1293   2.1993   2.2091   2.2095   2.2853   2.3342   2.3966   2.4260
     2.4284   2.5184   2.5289   2.5302   2.5573   2.5578   2.5584   2.5605
     2.5996   2.6783   2.7624   2.7666   2.8236   2.8251   2.8254   2.8296
     2.8503   2.8528   2.8954   2.8962   2.9059   3.0082   3.0176   3.0196
     3.0766   3.0783   3.1177   3.1194   3.1337   3.1802   3.1818   3.1884
     3.2135   3.2463   3.2663   3.2852   3.2858   3.2952   3.3306   3.3315
     3.3755   3.3771   3.3781   3.3803   3.4472   3.4476   3.4502   3.4771
     3.4797   3.4809   3.5061   3.5194   3.5344   3.5349   3.5366   3.5581
     3.5857   3.5879   3.6107   3.6314   3.6402   3.6444   3.6830   3.6839
     3.6868   3.6960   3.7029   3.7063   3.8365   3.8367   3.8785   3.8802
     3.9416   3.9453   3.9463   3.9488   3.9719   4.0323   4.0539   4.0565
     4.0598   4.0614   4.0996   4.1018   4.1217   4.1235   4.1299   4.1338
     4.2238   4.2403   4.2683   4.2699   4.2909   4.2919   4.3137   4.3673
     4.3922   4.4331   4.4366   4.4809   4.5214   4.5441   4.5455   4.5855
     4.5951   4.5983   4.6314   4.7298   5.1477   5.1481   5.1534   5.1645
     5.1677   5.1689   5.1702   5.1729   5.1998   5.2049   5.2128   5.2176
     5.2199   5.2292   5.2406   5.2421   5.2606   5.2647   5.2649   5.2651
     5.2659   5.2734   5.3100   5.3108   5.3187   5.3340   5.3467   5.3470
     5.3601   5.3631   5.3633   5.3683   5.3696   5.3807   5.3884   5.3899
     5.4101   5.4332   5.4478   5.4511   5.4526   5.4692   5.4956   5.4991
     5.5170   5.5242   5.5562   5.5574   5.5689   5.5690   5.6024   5.6025
     5.6076   5.6204   5.6311   5.6500   5.6506   5.6610   5.6749   5.7074
     5.7107   5.7392   5.7597   5.7611   5.7707   5.7846   5.8043   5.8069
     5.8147   5.8398   5.8676   5.8677   5.8753   5.8948   5.9684   5.9702
     6.0193   6.0255   6.0258   6.1018   6.1019   6.1119   6.1597   6.1874
     6.2028   6.2036   6.2044   6.2616   6.2644   6.2874   6.3184   6.3423
     6.3549   6.3679   6.3710   6.4133   6.4196   6.4202   6.4523   6.4812
     6.4827   6.5070   6.5580   6.5666   6.6056   6.6092   6.6475   6.6662
     6.6683   6.7350   6.7398   6.7409   6.7485   6.8026   6.8067   6.8511
     6.8663   6.9183   6.9457   7.0388

          k =-0.3333-0.1925 0.2714 (115773 PWs)   bands (ev):

   -28.2795 -28.2790 -28.2773 -28.2769 -28.2768 -28.2754 -28.2745 -28.2739
   -28.2738 -28.2734 -28.2717 -28.2712 -14.9288 -14.9282 -14.9255 -14.9247
   -14.9229 -14.9227 -14.9225 -14.9225 -14.9224 -14.9224 -14.9204 -14.9196
   -14.9195 -14.9188 -14.9169 -14.9167 -14.9167 -14.9167 -14.9165 -14.9163
   -14.9146 -14.9137 -14.9110 -14.9107 -14.9104 -14.9102 -14.9076 -14.9067
   -14.9046 -14.9046 -14.9046 -14.9045 -14.9025 -14.9016 -14.8990 -14.8985
   -14.8706 -14.8701 -14.8674 -14.8666 -14.8644 -14.8644 -14.8644 -14.8644
   -14.8623 -14.8614 -14.8588 -14.8583 -14.8255 -14.8249 -14.8222 -14.8214
   -14.8193 -14.8193 -14.8192 -14.8192 -14.8171 -14.8163 -14.8136 -14.8130
   -10.3406 -10.3402 -10.3386 -10.3368 -10.3363 -10.3348 -10.3341 -10.3325
   -10.3319 -10.3304 -10.3299 -10.3260 -10.3107 -10.3084 -10.3063 -10.3062
   -10.3015 -10.3004 -10.3000 -10.2968 -10.2953 -10.2938 -10.2906 -10.2870
   -10.2719 -10.2694 -10.2682 -10.2670 -10.2652 -10.2649 -10.2633 -10.2619
   -10.2612 -10.2600 -10.2589 -10.2559  -6.7508  -6.6465  -6.5605  -6.4718
    -6.4234  -6.4211  -6.3638  -6.3285  -6.3284  -6.2587  -6.2251  -6.2231
    -5.9081  -5.9016  -5.8229  -5.8215  -5.8107  -5.8047  -5.7921  -5.7603
    -5.7595  -5.7317  -5.7104  -5.7099  -5.6718  -5.6350  -5.6295  -5.6281
    -5.6259  -5.6078  -5.5999  -5.5990  -5.5696  -5.5291  -5.5222  -5.5219
    -5.5189  -5.4964  -5.4683  -5.4317  -5.4300  -5.4266  -5.4222  -5.3634
    -5.3486  -5.3462  -5.3219  -5.2995  -0.5619  -0.5592  -0.5553  -0.4379
    -0.4332  -0.4250  -0.3938  -0.3734  -0.3193  -0.3178  -0.2988  -0.2786
     1.4334   1.4839   1.4870   1.4878   1.6255   1.6417   1.7723   1.7737
     1.7822   1.7903   1.7998   1.8010   1.9145   1.9960   1.9964   2.0772
     2.1552   2.2000   2.2109   2.2478   2.2482   2.3602   2.3929   2.3939
     2.3984   2.4486   2.5107   2.5137   2.5471   2.5891   2.5925   2.6078
     2.6428   2.7111   2.7615   2.7667   2.7706   2.7890   2.8082   2.8106
     2.8388   2.8745   2.9158   2.9161   2.9187   2.9815   3.0234   3.0251
     3.0678   3.1068   3.1069   3.1324   3.1706   3.1910   3.1940   3.1955
     3.2002   3.2323   3.2646   3.2647   3.2769   3.3182   3.3213   3.3225
     3.3242   3.3888   3.3904   3.4109   3.4457   3.4458   3.4687   3.4699
     3.4721   3.4735   3.4759   3.4773   3.5338   3.5364   3.5367   3.5912
     3.6107   3.6127   3.6129   3.6331   3.6423   3.6478   3.6585   3.6601
     3.6678   3.7110   3.7113   3.7123   3.8356   3.8362   3.8797   3.8885
     3.9044   3.9499   3.9505   3.9748   3.9821   4.0199   4.0471   4.0491
     4.0501   4.0661   4.1105   4.1114   4.1193   4.1330   4.1341   4.1477
     4.1910   4.2555   4.2667   4.2677   4.2889   4.2896   4.2944   4.3874
     4.3977   4.4359   4.4404   4.4679   4.5243   4.5254   4.5357   4.5963
     4.6096   4.6126   4.6223   4.7213   5.1508   5.1511   5.1546   5.1568
     5.1720   5.1756   5.1765   5.1833   5.1908   5.1979   5.2014   5.2074
     5.2087   5.2343   5.2350   5.2358   5.2548   5.2641   5.2650   5.2668
     5.2792   5.2982   5.3076   5.3132   5.3132   5.3288   5.3357   5.3378
     5.3583   5.3587   5.3602   5.3636   5.3802   5.3927   5.4067   5.4077
     5.4131   5.4321   5.4333   5.4451   5.4453   5.4928   5.5014   5.5032
     5.5094   5.5159   5.5537   5.5598   5.5745   5.5751   5.6027   5.6109
     5.6117   5.6190   5.6249   5.6256   5.6430   5.6702   5.6820   5.7133
     5.7159   5.7174   5.7343   5.7711   5.7728   5.7751   5.8021   5.8032
     5.8103   5.8585   5.8750   5.8762   5.8786   5.9148   5.9590   5.9599
     6.0335   6.0351   6.0362   6.0596   6.0782   6.0803   6.1732   6.2065
     6.2123   6.2144   6.2667   6.2669   6.2698   6.2773   6.2856   6.3482
     6.3503   6.3657   6.3722   6.4153   6.4235   6.4262   6.4274   6.4712
     6.4983   6.4989   6.5460   6.5594   6.5951   6.5967   6.6658   6.6684
     6.6771   6.7197   6.7365   6.7369   6.7475   6.8132   6.8142   6.8447
     6.8691   6.9284   6.9371   7.0524

          k = 0.3333-0.1925 0.2714 (115773 PWs)   bands (ev):

   -28.2795 -28.2790 -28.2773 -28.2769 -28.2768 -28.2754 -28.2745 -28.2739
   -28.2738 -28.2734 -28.2717 -28.2712 -14.9288 -14.9283 -14.9255 -14.9247
   -14.9229 -14.9227 -14.9226 -14.9225 -14.9224 -14.9223 -14.9204 -14.9196
   -14.9195 -14.9188 -14.9169 -14.9168 -14.9167 -14.9166 -14.9165 -14.9163
   -14.9146 -14.9137 -14.9110 -14.9107 -14.9104 -14.9102 -14.9076 -14.9067
   -14.9047 -14.9046 -14.9046 -14.9045 -14.9025 -14.9016 -14.8990 -14.8985
   -14.8706 -14.8701 -14.8674 -14.8666 -14.8644 -14.8644 -14.8644 -14.8644
   -14.8623 -14.8614 -14.8588 -14.8583 -14.8255 -14.8249 -14.8222 -14.8214
   -14.8193 -14.8192 -14.8192 -14.8192 -14.8171 -14.8163 -14.8136 -14.8130
   -10.3404 -10.3402 -10.3384 -10.3367 -10.3357 -10.3350 -10.3347 -10.3333
   -10.3317 -10.3306 -10.3295 -10.3259 -10.3108 -10.3075 -10.3068 -10.3060
   -10.3014 -10.3009 -10.2998 -10.2974 -10.2955 -10.2940 -10.2897 -10.2871
   -10.2711 -10.2700 -10.2692 -10.2666 -10.2655 -10.2646 -10.2630 -10.2629
   -10.2616 -10.2592 -10.2584 -10.2559  -6.7510  -6.6464  -6.5615  -6.4713
    -6.4214  -6.4202  -6.3639  -6.3296  -6.3289  -6.2585  -6.2249  -6.2240
    -5.9082  -5.9046  -5.8215  -5.8194  -5.8106  -5.8073  -5.7936  -5.7584
    -5.7581  -5.7333  -5.7086  -5.7081  -5.6732  -5.6353  -5.6293  -5.6271
    -5.6253  -5.6055  -5.6014  -5.6000  -5.5701  -5.5262  -5.5228  -5.5224
    -5.5211  -5.4930  -5.4705  -5.4349  -5.4305  -5.4285  -5.4208  -5.3612
    -5.3472  -5.3458  -5.3228  -5.3002  -0.5623  -0.5590  -0.5556  -0.4370
    -0.4345  -0.4218  -0.3954  -0.3751  -0.3168  -0.3161  -0.3007  -0.2800
     1.4311   1.4852   1.4864   1.4883   1.6256   1.6422   1.7737   1.7745
     1.7832   1.7913   1.7989   1.8001   1.9139   1.9937   1.9948   2.0774
     2.1539   2.1995   2.2129   2.2481   2.2487   2.3583   2.3943   2.3948
     2.3971   2.4491   2.5112   2.5129   2.5464   2.5914   2.5930   2.6076
     2.6446   2.7131   2.7628   2.7675   2.7697   2.7886   2.8089   2.8103
     2.8397   2.8745   2.9150   2.9152   2.9178   2.9808   3.0229   3.0237
     3.0702   3.1055   3.1060   3.1344   3.1688   3.1919   3.1939   3.1963
     3.2007   3.2313   3.2645   3.2646   3.2776   3.3188   3.3215   3.3224
     3.3233   3.3876   3.3886   3.4109   3.4450   3.4457   3.4697   3.4703
     3.4726   3.4730   3.4743   3.4780   3.5332   3.5364   3.5369   3.5928
     3.6102   3.6131   3.6135   3.6323   3.6420   3.6506   3.6581   3.6591
     3.6665   3.7103   3.7114   3.7120   3.8361   3.8366   3.8795   3.8888
     3.9051   3.9487   3.9496   3.9735   3.9835   4.0210   4.0480   4.0503
     4.0510   4.0641   4.1093   4.1108   4.1177   4.1334   4.1340   4.1471
     4.1938   4.2558   4.2670   4.2683   4.2888   4.2903   4.2950   4.3851
     4.3973   4.4377   4.4400   4.4678   4.5246   4.5256   4.5342   4.5948
     4.6086   4.6111   4.6252   4.7227   5.1494   5.1496   5.1549   5.1578
     5.1735   5.1769   5.1774   5.1832   5.1908   5.1980   5.2008   5.2067
     5.2075   5.2343   5.2345   5.2354   5.2548   5.2651   5.2656   5.2667
     5.2790   5.2975   5.3071   5.3133   5.3136   5.3290   5.3375   5.3385
     5.3587   5.3588   5.3604   5.3636   5.3803   5.3937   5.4061   5.4067
     5.4133   5.4315   5.4340   5.4446   5.4449   5.4927   5.5019   5.5025
     5.5104   5.5164   5.5532   5.5592   5.5745   5.5750   5.6018   5.6107
     5.6109   5.6192   5.6246   5.6255   5.6436   5.6695   5.6818   5.7137
     5.7149   5.7181   5.7328   5.7711   5.7732   5.7738   5.8035   5.8040
     5.8090   5.8587   5.8764   5.8774   5.8780   5.9141   5.9598   5.9603
     6.0336   6.0349   6.0357   6.0584   6.0790   6.0800   6.1732   6.2050
     6.2128   6.2138   6.2664   6.2667   6.2709   6.2773   6.2867   6.3494
     6.3506   6.3675   6.3728   6.4148   6.4241   6.4254   6.4263   6.4706
     6.4987   6.4995   6.5458   6.5595   6.5949   6.5957   6.6657   6.6672
     6.6773   6.7197   6.7362   6.7367   6.7499   6.8134   6.8141   6.8455
     6.8675   6.9280   6.9377   7.0518

          k =-0.3333-0.5774 0.2714 (115827 PWs)   bands (ev):

   -28.2795 -28.2790 -28.2773 -28.2769 -28.2768 -28.2754 -28.2745 -28.2739
   -28.2738 -28.2734 -28.2717 -28.2712 -14.9288 -14.9283 -14.9255 -14.9247
   -14.9229 -14.9227 -14.9225 -14.9225 -14.9224 -14.9224 -14.9204 -14.9196
   -14.9195 -14.9188 -14.9169 -14.9168 -14.9166 -14.9166 -14.9166 -14.9163
   -14.9146 -14.9137 -14.9110 -14.9107 -14.9104 -14.9102 -14.9076 -14.9067
   -14.9047 -14.9046 -14.9046 -14.9045 -14.9025 -14.9016 -14.8990 -14.8985
   -14.8706 -14.8701 -14.8674 -14.8666 -14.8644 -14.8644 -14.8644 -14.8644
   -14.8623 -14.8614 -14.8588 -14.8583 -14.8255 -14.8249 -14.8222 -14.8214
   -14.8193 -14.8192 -14.8192 -14.8192 -14.8171 -14.8163 -14.8136 -14.8130
   -10.3407 -10.3384 -10.3379 -10.3373 -10.3370 -10.3336 -10.3332 -10.3326
   -10.3322 -10.3298 -10.3295 -10.3281 -10.3085 -10.3082 -10.3077 -10.3058
   -10.3019 -10.2993 -10.2979 -10.2976 -10.2963 -10.2920 -10.2911 -10.2903
   -10.2713 -10.2684 -10.2681 -10.2674 -10.2665 -10.2642 -10.2631 -10.2629
   -10.2621 -10.2604 -10.2590 -10.2572  -6.6191  -6.6180  -6.6171  -6.5254
    -6.5245  -6.5235  -6.3082  -6.2902  -6.2889  -6.2877  -6.2577  -6.2140
    -5.8753  -5.8576  -5.8445  -5.7800  -5.7792  -5.7787  -5.7437  -5.7413
    -5.7409  -5.7154  -5.6891  -5.6873  -5.6867  -5.6727  -5.6717  -5.6709
    -5.6702  -5.6434  -5.5590  -5.5565  -5.5541  -5.5268  -5.5243  -5.5219
    -5.5056  -5.5042  -5.5022  -5.4990  -5.4587  -5.3985  -5.3981  -5.3961
    -5.3577  -5.3232  -5.3221  -5.3215  -0.5203  -0.5076  -0.5054  -0.5032
    -0.4608  -0.4174  -0.4166  -0.4159  -0.3548  -0.2951  -0.2924  -0.2897
     1.4797   1.4827   1.4853   1.6366   1.6383   1.6410   1.6901   1.7754
     1.7761   1.7764   1.7775   1.7938   1.9803   1.9817   1.9829   2.0553
     2.1706   2.1916   2.1927   2.1956   2.2474   2.3960   2.3976   2.3988
     2.4882   2.4888   2.4909   2.5571   2.5877   2.5879   2.5890   2.5924
     2.6791   2.7364   2.7372   2.7381   2.8225   2.8233   2.8241   2.8276
     2.9015   2.9024   2.9045   2.9242   2.9365   2.9541   2.9560   2.9568
     3.0591   3.0600   3.0624   3.0870   3.0887   3.0901   3.1267   3.1810
     3.2436   3.2451   3.2461   3.2707   3.2713   3.2722   3.3215   3.3262
     3.3283   3.3292   3.3741   3.4073   3.4209   3.4654   3.4659   3.4660
     3.4927   3.4984   3.4996   3.5010   3.5361   3.5377   3.5383   3.5401
     3.5612   3.6150   3.6161   3.6181   3.6536   3.6553   3.6565   3.6968
     3.6980   3.6996   3.7200   3.7440   3.8216   3.8405   3.8413   3.8422
     3.9382   3.9394   3.9415   3.9427   4.0288   4.0303   4.0313   4.0405
     4.0652   4.0674   4.0709   4.1084   4.1126   4.1150   4.1160   4.1682
     4.2719   4.2740   4.2748   4.2903   4.3146   4.3608   4.3618   4.3628
     4.4159   4.4169   4.4192   4.4924   4.4939   4.4944   4.5075   4.5117
     4.5647   4.6651   4.6676   4.6703   5.1488   5.1566   5.1573   5.1579
     5.1585   5.1820   5.1832   5.1839   5.1975   5.1981   5.1996   5.2110
     5.2244   5.2251   5.2265   5.2521   5.2524   5.2529   5.2568   5.2689
     5.3004   5.3023   5.3034   5.3094   5.3284   5.3299   5.3300   5.3682
     5.3685   5.3689   5.3747   5.3934   5.3960   5.4081   5.4096   5.4103
     5.4326   5.4337   5.4340   5.4387   5.4843   5.4851   5.4855   5.4912
     5.5384   5.5398   5.5406   5.5436   5.5664   5.5668   5.5672   5.6056
     5.6059   5.6069   5.6377   5.6398   5.6715   5.6730   5.6736   5.7037
     5.7040   5.7045   5.7173   5.7582   5.7600   5.7611   5.8015   5.8078
     5.8214   5.8228   5.8243   5.8262   5.8894   5.8913   5.8919   6.0569
     6.0602   6.0604   6.0614   6.0773   6.1198   6.1209   6.1216   6.1350
     6.1958   6.2377   6.2385   6.2388   6.2843   6.3021   6.3022   6.3034
     6.3065   6.3849   6.3859   6.3865   6.4502   6.4671   6.4682   6.4691
     6.4920   6.4927   6.5591   6.5599   6.5605   6.6459   6.6848   6.6856
     6.6866   6.7606   6.7777   6.7786   6.7794   6.7931   6.8543   6.8552
     6.8558   6.9351   6.9362   6.9376

     highest occupied level (ev):     7.1813

!    total energy              =   -9077.18780294 Ry
     estimated scf accuracy    <          6.4E-10 Ry

     The total energy is the sum of the following terms:
     one-electron contribution =   -2776.56668296 Ry
     hartree contribution      =    2020.04044721 Ry
     xc contribution           =   -2269.38703497 Ry
     ewald contribution        =   -3895.47817715 Ry
     one-center paw contrib.   =   -2155.79635507 Ry

     convergence has been achieved in  23 iterations

     negative rho (up, down):  7.903E-01 0.000E+00

     Forces acting on atoms (cartesian axes, Ry/au):

     atom    1 type  1   force =    -0.00008146    0.00036931   -0.00338765
     atom    2 type  1   force =    -0.00014605    0.00026517   -0.00013928
     atom    3 type  1   force =    -0.00014773    0.00027072   -0.00014873
     atom    4 type  1   force =    -0.00015103    0.00027375   -0.00013563
     atom    5 type  1   force =    -0.00004461   -0.00023449    0.00017787
     atom    6 type  1   force =    -0.00022813   -0.00034125    0.00017882
     atom    7 type  1   force =    -0.00014862   -0.00024279    0.00006900
     atom    8 type  1   force =    -0.00016555   -0.00025651    0.00006501
     atom    9 type  1   force =     0.00030970   -0.00001094    0.00006730
     atom   10 type  1   force =     0.00039254    0.00007867    0.00017764
     atom   11 type  1   force =     0.00020807   -0.00002970    0.00017842
     atom   12 type  1   force =     0.00032931   -0.00000794    0.00007193
     atom   13 type  2   force =     0.00018745   -0.00034506    0.00038595
     atom   14 type  2   force =     0.00020155   -0.00038859    0.00021176
     atom   15 type  2   force =     0.00019492   -0.00038674    0.00021049
     atom   16 type  2   force =     0.00020275   -0.00039246    0.00020634
     atom   17 type  2   force =     0.00020183    0.00037214    0.00020565
     atom   18 type  2   force =     0.00022797    0.00037269    0.00022456
     atom   19 type  2   force =     0.00022833    0.00036813    0.00021190
     atom   20 type  2   force =     0.00022725    0.00037040    0.00020619
     atom   21 type  2   force =    -0.00067603   -0.00013638    0.00012310
     atom   22 type  2   force =    -0.00042931   -0.00000910    0.00017557
     atom   23 type  2   force =    -0.00044009    0.00002606    0.00013701
     atom   24 type  2   force =    -0.00034549    0.00007273    0.00004963
     atom   25 type  2   force =    -0.00043583   -0.00002886   -0.00016674
     atom   26 type  2   force =    -0.00045102   -0.00004722   -0.00016808
     atom   27 type  2   force =    -0.00043766   -0.00001828   -0.00014725
     atom   28 type  2   force =    -0.00043761   -0.00002136   -0.00015975
     atom   29 type  2   force =     0.00029538    0.00044177   -0.00032439
     atom   30 type  2   force =    -0.00005787    0.00025547   -0.00025136
     atom   31 type  2   force =     0.00018235    0.00040150   -0.00019578
     atom   32 type  2   force =     0.00020893    0.00037382   -0.00023264
     atom   33 type  2   force =     0.00023145   -0.00036118   -0.00017334
     atom   34 type  2   force =     0.00026162   -0.00039522   -0.00000064
     atom   35 type  2   force =     0.00022812   -0.00036877   -0.00017143
     atom   36 type  2   force =     0.00023333   -0.00037761   -0.00017370
     atom   37 type  3   force =     0.00032067   -0.00043718    0.00017754
     atom   38 type  3   force =     0.00027169   -0.00047752    0.00006359
     atom   39 type  3   force =     0.00028459   -0.00047498    0.00007228
     atom   40 type  3   force =     0.00025908   -0.00048011    0.00006990
     atom   41 type  3   force =    -0.00047000    0.00049686    0.00017277
     atom   42 type  3   force =     0.00040305    0.00051879    0.00007098
     atom   43 type  3   force =     0.00048346   -0.00006809   -0.00011878
     atom   44 type  3   force =     0.00022198    0.00046136   -0.00004519
     atom   45 type  3   force =    -0.00057719   -0.00003809   -0.00003303
     atom   46 type  3   force =    -0.00090003   -0.00066348    0.00017986
     atom   47 type  3   force =    -0.00043742    0.00009408    0.00007290
     atom   48 type  3   force =    -0.00090717    0.00045652   -0.00010479
     atom   49 type  4   force =     0.00031304   -0.00005633   -0.00011935
     atom   50 type  4   force =     0.00035378   -0.00007524   -0.00004139
     atom   51 type  4   force =     0.00034322   -0.00008497   -0.00003526
     atom   52 type  4   force =     0.00035108   -0.00007834   -0.00002811
     atom   53 type  4   force =     0.00007860    0.00040948    0.00017849
     atom   54 type  4   force =    -0.00003477    0.00034726    0.00016340
     atom   55 type  4   force =    -0.00005519    0.00039872    0.00008799
     atom   56 type  4   force =    -0.00007393    0.00035613    0.00010369
     atom   57 type  4   force =    -0.00026245   -0.00027937   -0.00000069
     atom   58 type  4   force =    -0.00013472   -0.00035161   -0.00004944
     atom   59 type  4   force =    -0.00027275   -0.00024026   -0.00000174
     atom   60 type  4   force =    -0.00024346   -0.00021732    0.00001100
     atom   61 type  4   force =    -0.00025602    0.00026860    0.00007189
     atom   62 type  4   force =    -0.00013319    0.00036713    0.00014927
     atom   63 type  4   force =    -0.00023504    0.00031315    0.00013431
     atom   64 type  4   force =    -0.00020868    0.00026455    0.00005581
     atom   65 type  4   force =     0.00039327    0.00009670   -0.00001699
     atom   66 type  4   force =     0.00033061    0.00011078   -0.00002806
     atom   67 type  4   force =     0.00033287    0.00025760   -0.00007466
     atom   68 type  4   force =     0.00035933    0.00008285   -0.00002772
     atom   69 type  4   force =    -0.00007345   -0.00036745   -0.00005378
     atom   70 type  4   force =    -0.00007142   -0.00041261   -0.00014645
     atom   71 type  4   force =    -0.00006811   -0.00036601   -0.00006879
     atom   72 type  4   force =    -0.00008292   -0.00036943   -0.00006189
     atom   73 type  4   force =     0.00060411   -0.00006250    0.00042157
     atom   74 type  4   force =     0.00001471    0.00017562   -0.00019135
     atom   75 type  4   force =     0.00004327    0.00008010   -0.00023562
     atom   76 type  4   force =     0.00000461    0.00013759   -0.00024316
     atom   77 type  4   force =    -0.00012938   -0.00008272   -0.00030640
     atom   78 type  4   force =    -0.00013066   -0.00008516   -0.00030949
     atom   79 type  4   force =    -0.00013413   -0.00006316   -0.00029124
     atom   80 type  4   force =    -0.00013780   -0.00007058   -0.00029298
     atom   81 type  4   force =     0.00005523   -0.00001583    0.00008829
     atom   82 type  4   force =     0.00013458   -0.00008994   -0.00023724
     atom   83 type  4   force =     0.00021997   -0.00012349   -0.00021978
     atom   84 type  4   force =     0.00009660   -0.00011121   -0.00019318
     atom   85 type  4   force =     0.00012438    0.00010039    0.00020044
     atom   86 type  4   force =     0.00012012    0.00011266    0.00018604
     atom   87 type  4   force =     0.00011687    0.00011077    0.00018338
     atom   88 type  4   force =     0.00013273    0.00009817    0.00020208
     atom   89 type  4   force =    -0.00001659   -0.00017223    0.00030029
     atom   90 type  4   force =     0.00000153   -0.00024788    0.00065288
     atom   91 type  4   force =     0.00002137   -0.00014864    0.00025596
     atom   92 type  4   force =     0.00003589   -0.00005740    0.00027266
     atom   93 type  4   force =    -0.00016396    0.00006364    0.00025011
     atom   94 type  4   force =    -0.00002591    0.00059770    0.00080431
     atom   95 type  4   force =    -0.00012537    0.00005419    0.00030414
     atom   96 type  4   force =    -0.00019333    0.00012583    0.00026094

     Total force =     0.005621     Total SCF correction =     0.000087
     Message from routine punch:
     Nothing written, as per user request (disk_io='none')

     init_run     :     44.63s CPU     46.92s WALL (       1 calls)
     electrons    :   2460.91s CPU   2561.44s WALL (       1 calls)
     forces       :     15.81s CPU     16.31s WALL (       1 calls)

     Called by init_run:
     wfcinit      :     40.67s CPU     42.71s WALL (       1 calls)
     potinit      :      1.17s CPU      1.21s WALL (       1 calls)
     hinit0       :      1.05s CPU      1.08s WALL (       1 calls)

     Called by electrons:
     c_bands      :   2171.79s CPU   2253.33s WALL (      23 calls)
     sum_band     :    258.16s CPU    273.36s WALL (      23 calls)
     v_of_rho     :      5.06s CPU      5.49s WALL (      24 calls)
     newd         :     19.19s CPU     22.53s WALL (      24 calls)
     PAW_pot      :      6.19s CPU      6.23s WALL (      24 calls)
     mix_rho      :      0.84s CPU      0.89s WALL (      23 calls)

     Called by c_bands:
     init_us_2    :     29.03s CPU     29.30s WALL (     336 calls)
     cegterg      :   2101.53s CPU   2182.49s WALL (     161 calls)

     Called by *egterg:
     cdiaghg      :     97.96s CPU    100.83s WALL (    1002 calls)
     h_psi        :   1157.74s CPU   1224.20s WALL (    1009 calls)
     s_psi        :    270.20s CPU    272.24s WALL (    1009 calls)
     g_psi        :      4.33s CPU      4.36s WALL (     841 calls)

     Called by h_psi:
     h_psi:calbec :    267.30s CPU    271.20s WALL (    1009 calls)
     vloc_psi     :    613.69s CPU    671.89s WALL (    1009 calls)
     add_vuspsi   :    270.90s CPU    273.09s WALL (    1009 calls)

     General routines
     calbec       :    364.53s CPU    369.92s WALL (    1198 calls)
     fft          :      4.51s CPU      4.97s WALL (     321 calls)
     ffts         :      0.77s CPU      0.80s WALL (      47 calls)
     fftw         :    488.72s CPU    543.90s WALL (  460648 calls)
     interpolate  :      1.04s CPU      1.10s WALL (      24 calls)

     Parallel routines

     PWSCF        :  42m 1.62s CPU  43m45.31s WALL


   This run was terminated on:   2:23:34  21Aug2026            

=------------------------------------------------------------------------------=
   JOB DONE.
=------------------------------------------------------------------------------=
