
     Program PWSCF v.7.3.1 starts on 21Aug2026 at  1:47: 8 

     This program is part of the open-source Quantum ESPRESSO suite
     for quantum simulation of materials; please cite
         "P. Giannozzi et al., J. Phys.:Condens. Matter 21 395502 (2009);
         "P. Giannozzi et al., J. Phys.:Condens. Matter 29 465901 (2017);
         "P. Giannozzi et al., J. Chem. Phys. 152 154105 (2020);
          URL http://www.quantum-espresso.org", 
     in publications or presentations arising from this work. More details at
     http://www.quantum-espresso.org/quote

     Parallel version (MPI & OpenMP), running on      32 processor cores
     Number of MPI processes:                32
     Threads/MPI process:                     1

     MPI processes distributed on     1 nodes
     424798 MiB available memory on the printing compute node when the environment starts

     Reading input from scf.in

     Current dimensions of program PWSCF are:
     Max number of different atomic species (ntypx) = 10
     Max number of k-points (npk) =  40000
     Max angular momentum in pseudopotentials (lmaxx) =  4
     file Cu.paw.z_11.ld1.psl.v1.0.0-low.upf: wavefunction(s)  4S 3D renormalized

     K-points division:     npool     =       2
     R & G space division:  proc/nbgrp/npool/nimage =      16
     Subspace diagonalization in iterative solution of the eigenvalue problem:
     one sub-group per band group will be used
     scalapack distributed-memory algorithm (size of sub-group:  4*  4 procs)


     Parallelization info
     --------------------
     sticks:   dense  smooth     PW     G-vecs:    dense   smooth      PW
     Min        1193     597    157               163743    57882    7779
     Max        1194     599    158               163747    57885    7784
     Sum       19099    9565   2515              2619931   926125  124485

     Using Slab Decomposition



     bravais-lattice index     =            0
     lattice parameter (alat)  =      24.0273  a.u.
     unit-cell volume          =   14752.0463 (a.u.)^3
     number of atoms/cell      =           96
     number of atomic types    =            4
     number of electrons       =       840.00
     number of Kohn-Sham states=          420
     kinetic-energy cutoff     =      60.0000  Ry
     charge density cutoff     =     480.0000  Ry
     scf convergence threshold =      1.0E-09
     mixing beta               =       0.3000
     number of iterations used =            8  plain     mixing
     Exchange-correlation=  SLA  PW   PBX  PBC
                           (   1   4   3   4   0   0   0)

     celldm(1)=  24.027274  celldm(2)=   0.000000  celldm(3)=   0.000000
     celldm(4)=   0.000000  celldm(5)=   0.000000  celldm(6)=   0.000000

     crystal axes: (cart. coord. in units of alat)
               a(1) = (   1.000000   0.000000   0.000000 )  
               a(2) = (  -0.500000   0.866025   0.000000 )  
               a(3) = (   0.000000   0.000000   1.228028 )  

     reciprocal axes: (cart. coord. in units 2 pi/alat)
               b(1) = (  1.000000  0.577351 -0.000000 )  
               b(2) = (  0.000000  1.154701  0.000000 )  
               b(3) = (  0.000000 -0.000000  0.814314 )  


     PseudoPot. # 1 for Sr read from file:
     /home/yuhansun/pseudos/SSSP-1.3.0-PBE-precision/Sr_pbe_v1.uspp.F.UPF
     MD5 check sum: 6b418c05fbe9db5448babca5e47b7a5b
     Pseudo is Ultrasoft + core correction, Zval = 10.0
     Generated by new atomic code, or converted to UPF format
     Using radial grid of  883 points,  6 beta functions with: 
                l(1) =   0
                l(2) =   0
                l(3) =   1
                l(4) =   1
                l(5) =   2
                l(6) =   2
     Q(r) pseudized with  6 coefficients,  rinner =    1.400   1.400   1.400
                                                       1.400   1.400

     PseudoPot. # 2 for Cu read from file:
     /home/yuhansun/pseudos/SSSP-1.3.0-PBE-precision/Cu.paw.z_11.ld1.psl.v1.0.0-low.upf
     MD5 check sum: 619f40885d92a09a85a8b37550532d0c
     Pseudo is Projector augmented-wave + core cor, Zval = 11.0
     Generated using &quot;atomic&quot; code by A. Dal Corso  v.6.3MaX
     Shape of augmentation charge: PSQ
     Using radial grid of 1199 points,  6 beta functions with: 
                l(1) =   0
                l(2) =   0
                l(3) =   1
                l(4) =   1
                l(5) =   2
                l(6) =   2
     Q(r) pseudized with 0 coefficients 


     PseudoPot. # 3 for Sn read from file:
     /home/yuhansun/pseudos/SSSP-1.3.0-PBE-precision/Sn_pbe_v1.uspp.F.UPF
     MD5 check sum: 4cf58ce39ec5d5d420df3dd08604eb00
     Pseudo is Ultrasoft + core correction, Zval = 14.0
     Generated by new atomic code, or converted to UPF format
     Using radial grid of  891 points,  6 beta functions with: 
                l(1) =   0
                l(2) =   0
                l(3) =   1
                l(4) =   1
                l(5) =   2
                l(6) =   2
     Q(r) pseudized with  6 coefficients,  rinner =    1.200   1.200   1.200
                                                       1.200   1.200

     PseudoPot. # 4 for S  read from file:
     /home/yuhansun/pseudos/SSSP-1.3.0-PBE-precision/s_pbe_v1.4.uspp.F.UPF
     MD5 check sum: 88d86576ff6df21479756cfb9bdac1df
     Pseudo is Ultrasoft + core correction, Zval =  6.0
     Generated by new atomic code, or converted to UPF format
     Using radial grid of  907 points,  6 beta functions with: 
                l(1) =   0
                l(2) =   0
                l(3) =   1
                l(4) =   1
                l(5) =   2
                l(6) =   2
     Q(r) pseudized with  8 coefficients,  rinner =    1.300   1.300   1.300
                                                       1.300   1.300

     atomic species   valence    mass     pseudopotential
     Sr               10.00    87.62000     Sr( 1.00)
     Cu               11.00    63.54600     Cu( 1.00)
     Sn               14.00   118.71000     Sn( 1.00)
     S                 6.00    32.06500     S ( 1.00)

     No symmetry found



   Cartesian axes

     site n.     atom                  positions (alat units)
         1        Sr     tau(   1) = (  -0.1405753   0.2434834   0.2046717  )
         2        Sr     tau(   2) = (   0.3594247   0.2434834   0.2046717  )
         3        Sr     tau(   3) = (  -0.3905753   0.6764960   0.2046717  )
         4        Sr     tau(   4) = (   0.1094247   0.6764960   0.2046717  )
         5        Sr     tau(   5) = (   0.1094247   0.1895292   0.6140139  )
         6        Sr     tau(   6) = (   0.6094247   0.1895292   0.6140139  )
         7        Sr     tau(   7) = (  -0.1405753   0.6225418   0.6140139  )
         8        Sr     tau(   8) = (   0.3594247   0.6225418   0.6140139  )
         9        Sr     tau(   9) = (   0.2811505   0.0000000   1.0233574  )
        10        Sr     tau(  10) = (   0.7811505   0.0000000   1.0233574  )
        11        Sr     tau(  11) = (   0.0311505   0.4330126   1.0233574  )
        12        Sr     tau(  12) = (   0.5311505   0.4330126   1.0233574  )
        13        Cu     tau(  13) = (  -0.1226788   0.2753211   0.5061747  )
        14        Cu     tau(  14) = (   0.3773212   0.2753211   0.5061747  )
        15        Cu     tau(  15) = (  -0.3726788   0.7083337   0.5061747  )
        16        Cu     tau(  16) = (   0.1273212   0.7083337   0.5061747  )
        17        Cu     tau(  17) = (   0.0729045   0.1891087   0.9155169  )
        18        Cu     tau(  18) = (   0.5729045   0.1891087   0.9155169  )
        19        Cu     tau(  19) = (  -0.1770956   0.6221213   0.9155169  )
        20        Cu     tau(  20) = (   0.3229044   0.6221213   0.9155169  )
        21        Cu     tau(  21) = (   0.0497750   0.4015949   0.0968325  )
        22        Cu     tau(  22) = (   0.5497750   0.4015949   0.0968325  )
        23        Cu     tau(  23) = (  -0.2002251   0.8346075   0.0968325  )
        24        Cu     tau(  24) = (   0.2997749   0.8346075   0.0968325  )
        25        Cu     tau(  25) = (   0.2997745   0.0314177   0.7218532  )
        26        Cu     tau(  26) = (   0.7997745   0.0314177   0.7218532  )
        27        Cu     tau(  27) = (   0.0497745   0.4644302   0.7218532  )
        28        Cu     tau(  28) = (   0.5497745   0.4644302   0.7218532  )
        29        Cu     tau(  29) = (   0.1273207   0.1576915   0.3125110  )
        30        Cu     tau(  30) = (   0.6273207   0.1576915   0.3125110  )
        31        Cu     tau(  31) = (  -0.1226793   0.5907041   0.3125110  )
        32        Cu     tau(  32) = (   0.3773207   0.5907041   0.3125110  )
        33        Cu     tau(  33) = (   0.3229040   0.2439039   1.1311954  )
        34        Cu     tau(  34) = (   0.8229040   0.2439039   1.1311954  )
        35        Cu     tau(  35) = (   0.0729039   0.6769164   1.1311954  )
        36        Cu     tau(  36) = (   0.5729039   0.6769164   1.1311954  )
        37        Sn     tau(  37) = (  -0.1762580   0.3052877   0.8186857  )
        38        Sn     tau(  38) = (   0.3237420   0.3052877   0.8186857  )
        39        Sn     tau(  39) = (  -0.4262581   0.7383003   0.8186857  )
        40        Sn     tau(  40) = (   0.0737419   0.7383003   0.8186857  )
        41        Sn     tau(  41) = (   0.0737420   0.1277249   0.0000000  )
        42        Sn     tau(  42) = (   0.5737420   0.1277249   0.0000000  )
        43        Sn     tau(  43) = (  -0.1762581   0.5607374   0.0000000  )
        44        Sn     tau(  44) = (   0.3237419   0.5607374   0.0000000  )
        45        Sn     tau(  45) = (   0.3525160   0.0000000   0.4093422  )
        46        Sn     tau(  46) = (   0.8525160   0.0000000   0.4093422  )
        47        Sn     tau(  47) = (   0.1025160   0.4330126   0.4093422  )
        48        Sn     tau(  48) = (   0.6025160   0.4330126   0.4093422  )
        49        S      tau(  49) = (  -0.0988203   0.2103164   0.9671149  )
        50        S      tau(  50) = (   0.4011797   0.2103164   0.9671149  )
        51        S      tau(  51) = (  -0.3488203   0.6433290   0.9671149  )
        52        S      tau(  52) = (   0.1511797   0.6433290   0.9671149  )
        53        S      tau(  53) = (   0.1172707   0.2422736   0.1484293  )
        54        S      tau(  54) = (   0.6172707   0.2422736   0.1484293  )
        55        S      tau(  55) = (  -0.1327293   0.6752862   0.1484293  )
        56        S      tau(  56) = (   0.3672707   0.6752862   0.1484293  )
        57        S      tau(  57) = (  -0.0184505   0.4134352   0.5577727  )
        58        S      tau(  58) = (   0.4815495   0.4134352   0.5577727  )
        59        S      tau(  59) = (  -0.2684506   0.8464478   0.5577727  )
        60        S      tau(  60) = (   0.2315494   0.8464478   0.5577727  )
        61        S      tau(  61) = (   0.2315495   0.0195774   0.2609129  )
        62        S      tau(  62) = (   0.7315495   0.0195774   0.2609129  )
        63        S      tau(  63) = (  -0.0184505   0.4525899   0.2609129  )
        64        S      tau(  64) = (   0.4815495   0.4525899   0.2609129  )
        65        S      tau(  65) = (   0.1511797   0.2226962   1.0795986  )
        66        S      tau(  66) = (   0.6511797   0.2226962   1.0795986  )
        67        S      tau(  67) = (  -0.0988203   0.6557088   1.0795986  )
        68        S      tau(  68) = (   0.4011797   0.6557088   1.0795986  )
        69        S      tau(  69) = (   0.3672707   0.1907390   0.6702552  )
        70        S      tau(  70) = (   0.8672707   0.1907390   0.6702552  )
        71        S      tau(  71) = (   0.1172707   0.6237516   0.6702552  )
        72        S      tau(  72) = (   0.6172707   0.6237516   0.6702552  )
        73        S      tau(  73) = (  -0.0284012   0.1510385   0.4035914  )
        74        S      tau(  74) = (   0.4703502   0.1532012   0.4035914  )
        75        S      tau(  75) = (  -0.2796498   0.5862137   0.4035914  )
        76        S      tau(  76) = (   0.2203502   0.5862137   0.4035914  )
        77        S      tau(  77) = (   0.1321490   0.3307341   0.8129336  )
        78        S      tau(  78) = (   0.6321490   0.3307341   0.8129336  )
        79        S      tau(  79) = (  -0.1178511   0.7637467   0.8129336  )
        80        S      tau(  80) = (   0.3821489   0.7637467   0.8129336  )
        81        S      tau(  81) = (  -0.1024985   0.3820894   1.2222770  )
        82        S      tau(  82) = (   0.3975015   0.3820894   1.2222770  )
        83        S      tau(  83) = (  -0.3524986   0.8151020   1.2222770  )
        84        S      tau(  84) = (   0.1475014   0.8151020   1.2222770  )
        85        S      tau(  85) = (   0.1475010   0.0509231   0.8244365  )
        86        S      tau(  86) = (   0.6475010   0.0509231   0.8244365  )
        87        S      tau(  87) = (  -0.1024990   0.4839357   0.8244365  )
        88        S      tau(  88) = (   0.3975010   0.4839357   0.8244365  )
        89        S      tau(  89) = (   0.2203497   0.2798114   0.4150943  )
        90        S      tau(  90) = (   0.7203497   0.2798114   0.4150943  )
        91        S      tau(  91) = (  -0.0296503   0.7128240   0.4150943  )
        92        S      tau(  92) = (   0.4703497   0.7128240   0.4150943  )
        93        S      tau(  93) = (   0.3821485   0.1022784   0.0057509  )
        94        S      tau(  94) = (   0.8821485   0.1022784   0.0057509  )
        95        S      tau(  95) = (   0.1321485   0.5352910   0.0057509  )
        96        S      tau(  96) = (   0.6321485   0.5352910   0.0057509  )

     number of k points=    14
                       cart. coord. in units 2pi/alat
        k(    1) = (   0.0000000   0.0000000   0.0000000), wk =   0.0740741
        k(    2) = (   0.0000000   0.0000000   0.2714379), wk =   0.1481481
        k(    3) = (   0.0000000   0.3849003   0.0000000), wk =   0.1481481
        k(    4) = (   0.0000000   0.3849003   0.2714379), wk =   0.1481481
        k(    5) = (   0.3333333   0.5773505   0.0000000), wk =   0.1481481
        k(    6) = (   0.3333333   0.5773505   0.2714379), wk =   0.1481481
        k(    7) = (  -0.3333333   0.1924501   0.0000000), wk =   0.1481481
        k(    8) = (   0.3333333   0.1924502   0.0000000), wk =   0.1481481
        k(    9) = (   0.0000000  -0.3849003   0.2714379), wk =   0.1481481
        k(   10) = (  -0.3333333   0.1924501   0.2714379), wk =   0.1481481
        k(   11) = (   0.3333333   0.1924502   0.2714379), wk =   0.1481481
        k(   12) = (  -0.3333333  -0.1924502   0.2714379), wk =   0.1481481
        k(   13) = (   0.3333333  -0.1924501   0.2714379), wk =   0.1481481
        k(   14) = (  -0.3333333  -0.5773505   0.2714379), wk =   0.1481481

     Dense  grid:  2619931 G-vectors     FFT dimensions: ( 180, 180, 216)

     Smooth grid:   926125 G-vectors     FFT dimensions: ( 120, 120, 150)

     Estimated max dynamical RAM per process >       1.07 GB

     Estimated total dynamical RAM >      33.54 GB

     Initial potential from superposition of free atoms

     starting charge     827.5884, renormalised to     840.0000

     negative rho (up, down):  7.777E-01 0.000E+00
     Starting wfcs are  672 randomized atomic wfcs
     Checking if some PAW data can be deallocated... 

     total cpu time spent up to now is       45.2 secs

     Self-consistent Calculation

     iteration #  1     ecut=    60.00 Ry     beta= 0.30
     Davidson diagonalization with overlap
     ethr =  1.00E-02,  avg # of iterations =  2.0

     negative rho (up, down):  7.747E-01 0.000E+00

     total cpu time spent up to now is      129.8 secs

     total energy              =   -9070.29988298 Ry
     estimated scf accuracy    <      21.95946880 Ry

     iteration #  2     ecut=    60.00 Ry     beta= 0.30
     Davidson diagonalization with overlap
     ethr =  2.61E-03,  avg # of iterations =  4.8

     negative rho (up, down):  7.752E-01 0.000E+00

     total cpu time spent up to now is      235.4 secs

     total energy              =   -9076.61937727 Ry
     estimated scf accuracy    <       8.15242206 Ry

     iteration #  3     ecut=    60.00 Ry     beta= 0.30
     Davidson diagonalization with overlap
     ethr =  9.71E-04,  avg # of iterations =  2.0

     negative rho (up, down):  7.804E-01 0.000E+00

     total cpu time spent up to now is      320.9 secs

     total energy              =   -9076.49175334 Ry
     estimated scf accuracy    <       1.61774776 Ry

     iteration #  4     ecut=    60.00 Ry     beta= 0.30
     Davidson diagonalization with overlap
     ethr =  1.93E-04,  avg # of iterations =  6.1

     negative rho (up, down):  7.829E-01 0.000E+00

     total cpu time spent up to now is      444.5 secs

     total energy              =   -9076.69814712 Ry
     estimated scf accuracy    <       2.06992714 Ry

     iteration #  5     ecut=    60.00 Ry     beta= 0.30
     Davidson diagonalization with overlap
     ethr =  1.93E-04,  avg # of iterations =  5.4

     negative rho (up, down):  7.883E-01 0.000E+00

     total cpu time spent up to now is      545.8 secs

     total energy              =   -9077.13715612 Ry
     estimated scf accuracy    <       0.15362162 Ry

     iteration #  6     ecut=    60.00 Ry     beta= 0.30
     Davidson diagonalization with overlap
     ethr =  1.83E-05,  avg # of iterations =  6.1

     negative rho (up, down):  7.902E-01 0.000E+00

     total cpu time spent up to now is      648.9 secs

     total energy              =   -9077.18381889 Ry
     estimated scf accuracy    <       0.01225900 Ry

     iteration #  7     ecut=    60.00 Ry     beta= 0.30
     Davidson diagonalization with overlap
     ethr =  1.46E-06,  avg # of iterations =  5.3

     negative rho (up, down):  7.907E-01 0.000E+00

     total cpu time spent up to now is      774.5 secs

     total energy              =   -9077.18839867 Ry
     estimated scf accuracy    <       0.00540334 Ry

     iteration #  8     ecut=    60.00 Ry     beta= 0.30
     Davidson diagonalization with overlap
     ethr =  6.43E-07,  avg # of iterations =  6.4

     negative rho (up, down):  7.912E-01 0.000E+00

     total cpu time spent up to now is      915.4 secs

     total energy              =   -9077.17926329 Ry
     estimated scf accuracy    <       0.04853806 Ry

     iteration #  9     ecut=    60.00 Ry     beta= 0.30
     Davidson diagonalization with overlap
     ethr =  6.43E-07,  avg # of iterations =  8.2

     negative rho (up, down):  7.911E-01 0.000E+00

     total cpu time spent up to now is     1061.4 secs

     total energy              =   -9077.18763578 Ry
     estimated scf accuracy    <       0.00151057 Ry

     iteration # 10     ecut=    60.00 Ry     beta= 0.30
     Davidson diagonalization with overlap
     ethr =  1.80E-07,  avg # of iterations =  2.0

     negative rho (up, down):  7.907E-01 0.000E+00

     total cpu time spent up to now is     1144.4 secs

     total energy              =   -9077.18748103 Ry
     estimated scf accuracy    <       0.00055423 Ry

     iteration # 11     ecut=    60.00 Ry     beta= 0.30
     Davidson diagonalization with overlap
     ethr =  6.60E-08,  avg # of iterations =  5.8

     negative rho (up, down):  7.905E-01 0.000E+00

     total cpu time spent up to now is     1255.6 secs

     total energy              =   -9077.18765579 Ry
     estimated scf accuracy    <       0.00015897 Ry

     iteration # 12     ecut=    60.00 Ry     beta= 0.30
     Davidson diagonalization with overlap
     ethr =  1.89E-08,  avg # of iterations =  3.7

     negative rho (up, down):  7.904E-01 0.000E+00

     total cpu time spent up to now is     1354.7 secs

     total energy              =   -9077.18766362 Ry
     estimated scf accuracy    <       0.00007123 Ry

     iteration # 13     ecut=    60.00 Ry     beta= 0.30
     Davidson diagonalization with overlap
     ethr =  8.48E-09,  avg # of iterations =  5.2

     negative rho (up, down):  7.903E-01 0.000E+00

     total cpu time spent up to now is     1457.3 secs

     total energy              =   -9077.18767767 Ry
     estimated scf accuracy    <       0.00001018 Ry

     iteration # 14     ecut=    60.00 Ry     beta= 0.30
     Davidson diagonalization with overlap
     ethr =  1.21E-09,  avg # of iterations =  4.3

     negative rho (up, down):  7.903E-01 0.000E+00

     total cpu time spent up to now is     1557.4 secs

     total energy              =   -9077.18767944 Ry
     estimated scf accuracy    <       0.00000193 Ry

     iteration # 15     ecut=    60.00 Ry     beta= 0.30
     Davidson diagonalization with overlap
     ethr =  2.29E-10,  avg # of iterations =  5.1

     negative rho (up, down):  7.902E-01 0.000E+00

     total cpu time spent up to now is     1674.4 secs

     total energy              =   -9077.18768011 Ry
     estimated scf accuracy    <       0.00000073 Ry

     iteration # 16     ecut=    60.00 Ry     beta= 0.30
     Davidson diagonalization with overlap
     ethr =  8.66E-11,  avg # of iterations =  5.5

     negative rho (up, down):  7.902E-01 0.000E+00

     total cpu time spent up to now is     1777.6 secs

     total energy              =   -9077.18768035 Ry
     estimated scf accuracy    <       0.00000006 Ry

     iteration # 17     ecut=    60.00 Ry     beta= 0.30
     Davidson diagonalization with overlap
     ethr =  6.79E-12,  avg # of iterations =  6.6

     negative rho (up, down):  7.902E-01 0.000E+00

     total cpu time spent up to now is     1927.0 secs

     total energy              =   -9077.18768039 Ry
     estimated scf accuracy    <       0.00000009 Ry

     iteration # 18     ecut=    60.00 Ry     beta= 0.30
     Davidson diagonalization with overlap
     ethr =  6.79E-12,  avg # of iterations =  3.6

     negative rho (up, down):  7.902E-01 0.000E+00

     total cpu time spent up to now is     2030.2 secs

     total energy              =   -9077.18768041 Ry
     estimated scf accuracy    <       0.00000001 Ry

     iteration # 19     ecut=    60.00 Ry     beta= 0.30
     Davidson diagonalization with overlap
     ethr =  1.39E-12,  avg # of iterations = 10.6

     negative rho (up, down):  7.902E-01 0.000E+00

     total cpu time spent up to now is     2188.4 secs

     total energy              =   -9077.18768042 Ry
     estimated scf accuracy    <       0.00000005 Ry

     iteration # 20     ecut=    60.00 Ry     beta= 0.30
     Davidson diagonalization with overlap
     ethr =  1.39E-12,  avg # of iterations =  6.0

     negative rho (up, down):  7.902E-01 0.000E+00

     total cpu time spent up to now is     2294.1 secs

     total energy              =   -9077.18768042 Ry
     estimated scf accuracy    <          8.1E-09 Ry

     iteration # 21     ecut=    60.00 Ry     beta= 0.30
     Davidson diagonalization with overlap
     ethr =  9.62E-13,  avg # of iterations =  5.6

     negative rho (up, down):  7.902E-01 0.000E+00

     total cpu time spent up to now is     2408.5 secs

     total energy              =   -9077.18768043 Ry
     estimated scf accuracy    <          2.9E-09 Ry

     iteration # 22     ecut=    60.00 Ry     beta= 0.30
     Davidson diagonalization with overlap
     ethr =  3.50E-13,  avg # of iterations =  2.0

     negative rho (up, down):  7.902E-01 0.000E+00

     total cpu time spent up to now is     2485.1 secs

     total energy              =   -9077.18768043 Ry
     estimated scf accuracy    <          1.4E-09 Ry

     iteration # 23     ecut=    60.00 Ry     beta= 0.30
     Davidson diagonalization with overlap
     ethr =  1.68E-13,  avg # of iterations =  5.6

     negative rho (up, down):  7.902E-01 0.000E+00

     total cpu time spent up to now is     2575.0 secs

     End of self-consistent calculation

          k = 0.0000 0.0000 0.0000 (115723 PWs)   bands (ev):

   -28.2867 -28.2759 -28.2758 -28.2757 -28.2756 -28.2756 -28.2755 -28.2754
   -28.2753 -28.2743 -28.2742 -28.2722 -14.9253 -14.9234 -14.9234 -14.9230
   -14.9227 -14.9227 -14.9227 -14.9227 -14.9226 -14.9223 -14.9222 -14.9216
   -14.9192 -14.9177 -14.9175 -14.9172 -14.9169 -14.9169 -14.9168 -14.9168
   -14.9167 -14.9165 -14.9163 -14.9158 -14.9071 -14.9055 -14.9054 -14.9050
   -14.9047 -14.9047 -14.9047 -14.9047 -14.9045 -14.9044 -14.9043 -14.9037
   -14.8671 -14.8653 -14.8652 -14.8648 -14.8646 -14.8645 -14.8645 -14.8645
   -14.8644 -14.8642 -14.8642 -14.8635 -14.8217 -14.8202 -14.8200 -14.8197
   -14.8194 -14.8194 -14.8193 -14.8193 -14.8192 -14.8190 -14.8184 -14.8178
   -10.3454 -10.3384 -10.3381 -10.3370 -10.3367 -10.3360 -10.3357 -10.3355
   -10.3341 -10.3313 -10.3301 -10.3241 -10.3133 -10.3090 -10.3086 -10.3059
   -10.3039 -10.3021 -10.3013 -10.3009 -10.2937 -10.2927 -10.2916 -10.2824
   -10.2753 -10.2706 -10.2697 -10.2668 -10.2651 -10.2648 -10.2632 -10.2627
   -10.2613 -10.2588 -10.2578 -10.2543  -6.8632  -6.5553  -6.5550  -6.4173
    -6.4169  -6.4167  -6.3008  -6.2996  -6.2989  -6.2202  -6.2181  -6.2179
    -5.9901  -5.9897  -5.9874  -5.8505  -5.8495  -5.8484  -5.7967  -5.7961
    -5.7951  -5.7373  -5.7368  -5.6189  -5.6186  -5.6180  -5.6136  -5.6135
    -5.6121  -5.6008  -5.5593  -5.5588  -5.5586  -5.5452  -5.5450  -5.5438
    -5.5170  -5.5167  -5.4324  -5.4289  -5.4286  -5.4282  -5.3728  -5.3722
    -5.3458  -5.3455  -5.3447  -5.2510  -0.6124  -0.6114  -0.6112  -0.3896
    -0.3887  -0.3884  -0.3514  -0.3164  -0.3156  -0.3149  -0.3020  -0.3012
     1.3841   1.3849   1.3857   1.5914   1.5933   1.6566   1.7160   1.7166
     1.7172   1.8054   1.8061   1.8079   2.0207   2.0405   2.0424   2.0849
     2.0850   2.0882   2.2468   2.2479   2.2482   2.3087   2.3104   2.4034
     2.4044   2.4045   2.4605   2.4614   2.4629   2.5486   2.5507   2.6626
     2.6629   2.6651   2.7830   2.7843   2.7864   2.8716   2.8729   2.9248
     2.9250   2.9254   2.9521   2.9538   2.9548   3.0275   3.0277   3.0293
     3.0434   3.0461   3.0466   3.1651   3.2117   3.2144   3.2155   3.2278
     3.2285   3.2572   3.2577   3.2590   3.3777   3.3778   3.3781   3.3933
     3.3940   3.4267   3.4275   3.4276   3.4361   3.4367   3.4388   3.4757
     3.4762   3.4771   3.4933   3.4943   3.4950   3.4963   3.5171   3.5180
     3.5848   3.5851   3.5868   3.6268   3.6277   3.6301   3.6897   3.6900
     3.6907   3.6915   3.6969   3.7087   3.7947   3.7960   3.8256   3.8262
     3.8273   3.9631   4.0203   4.0218   4.0226   4.0352   4.0367   4.0368
     4.1235   4.1252   4.1256   4.1274   4.1734   4.1735   4.1748   4.2018
     4.2082   4.2101   4.2116   4.2437   4.2446   4.2458   4.2806   4.2813
     4.4245   4.4248   4.4262   4.5175   4.5185   4.5203   4.5356   4.5362
     4.6203   4.6208   4.6218   4.8578   5.1250   5.1555   5.1556   5.1566
     5.1742   5.1746   5.1762   5.1784   5.1791   5.2229   5.2275   5.2278
     5.2290   5.2297   5.2303   5.2521   5.2523   5.2537   5.2667   5.2672
     5.2678   5.2787   5.2791   5.2817   5.3112   5.3114   5.3125   5.3133
     5.3141   5.3247   5.3370   5.3380   5.3389   5.3753   5.3761   5.3772
     5.4393   5.4399   5.4709   5.4715   5.4720   5.4750   5.4768   5.4778
     5.4786   5.4987   5.4996   5.6011   5.6018   5.6020   5.6184   5.6192
     5.6197   5.6267   5.6473   5.6476   5.6478   5.6595   5.6600   5.6608
     5.7246   5.7257   5.7438   5.7824   5.7833   5.7837   5.8206   5.8213
     5.8219   5.9036   5.9039   5.9047   5.9272   5.9275   5.9287   5.9964
     5.9975   6.0261   6.0267   6.0273   6.1487   6.1508   6.1518   6.1524
     6.2619   6.2626   6.2629   6.2632   6.2638   6.2640   6.2901   6.2908
     6.3346   6.3351   6.3354   6.3633   6.3638   6.3647   6.3890   6.3899
     6.3908   6.5527   6.5711   6.5717   6.5726   6.6356   6.6381   6.6382
     6.7461   6.7476   6.7480   6.7634   6.7651   6.7811   6.7814   6.7827
     6.8089   6.9644   7.1803   7.1806

          k = 0.0000 0.0000 0.2714 (115879 PWs)   bands (ev):

   -28.2867 -28.2759 -28.2758 -28.2757 -28.2756 -28.2756 -28.2755 -28.2754
   -28.2753 -28.2743 -28.2742 -28.2722 -14.9253 -14.9234 -14.9234 -14.9230
   -14.9227 -14.9227 -14.9227 -14.9227 -14.9226 -14.9223 -14.9222 -14.9216
   -14.9192 -14.9177 -14.9175 -14.9172 -14.9169 -14.9169 -14.9168 -14.9168
   -14.9167 -14.9165 -14.9163 -14.9158 -14.9071 -14.9055 -14.9054 -14.9050
   -14.9047 -14.9047 -14.9047 -14.9047 -14.9045 -14.9044 -14.9043 -14.9037
   -14.8671 -14.8653 -14.8652 -14.8648 -14.8646 -14.8645 -14.8645 -14.8645
   -14.8644 -14.8642 -14.8642 -14.8635 -14.8217 -14.8202 -14.8200 -14.8197
   -14.8194 -14.8194 -14.8193 -14.8193 -14.8192 -14.8190 -14.8184 -14.8178
   -10.3457 -10.3394 -10.3390 -10.3377 -10.3373 -10.3365 -10.3346 -10.3340
   -10.3332 -10.3319 -10.3281 -10.3251 -10.3142 -10.3103 -10.3077 -10.3069
   -10.3032 -10.3019 -10.3015 -10.2954 -10.2939 -10.2932 -10.2925 -10.2849
   -10.2748 -10.2701 -10.2692 -10.2671 -10.2658 -10.2652 -10.2631 -10.2622
   -10.2610 -10.2585 -10.2576 -10.2556  -6.8240  -6.7135  -6.4092  -6.4090
    -6.4086  -6.4078  -6.3049  -6.3043  -6.3036  -6.2325  -6.2304  -6.2302
    -5.9922  -5.9916  -5.9893  -5.8537  -5.8359  -5.8347  -5.8337  -5.7736
    -5.7732  -5.7721  -5.6563  -5.6559  -5.6556  -5.6521  -5.6132  -5.6120
    -5.6120  -5.6107  -5.5563  -5.5529  -5.5519  -5.5514  -5.5450  -5.5449
    -5.5438  -5.4541  -5.4348  -5.4345  -5.4342  -5.4335  -5.3750  -5.3456
    -5.3380  -5.3375  -5.3369  -5.2814  -0.6045  -0.6036  -0.6034  -0.4132
    -0.4124  -0.4119  -0.3488  -0.3330  -0.3016  -0.3009  -0.3003  -0.2746
     1.4085   1.4091   1.4099   1.5704   1.6148   1.6175   1.6190   1.6196
     1.6580   1.9351   1.9356   1.9373   2.0037   2.0476   2.0530   2.0533
     2.0558   2.0695   2.2756   2.2763   2.2766   2.3051   2.3890   2.3895
     2.3899   2.3917   2.4155   2.4165   2.4170   2.4558   2.6216   2.6228
     2.6246   2.6689   2.7184   2.7916   2.7978   2.7985   2.8002   2.8718
     2.8728   2.8748   2.9747   2.9756   2.9767   3.0441   3.0462   3.0467
     3.1047   3.1069   3.1074   3.1762   3.1991   3.2036   3.2046   3.2056
     3.2732   3.2743   3.2759   3.2847   3.3753   3.3837   3.3842   3.3845
     3.4195   3.4203   3.4207   3.4402   3.4408   3.4432   3.4491   3.4495
     3.4509   3.4776   3.4988   3.5178   3.5192   3.5196   3.5384   3.5449
     3.5498   3.5506   3.5526   3.6391   3.6447   3.6456   3.6470   3.6530
     3.6803   3.6808   3.6855   3.7728   3.8301   3.8761   3.8765   3.8781
     3.9090   3.9215   3.9949   3.9961   3.9972   4.0549   4.0564   4.0569
     4.0752   4.1173   4.1178   4.1203   4.1484   4.1486   4.1502   4.1647
     4.1711   4.1725   4.1734   4.2110   4.2508   4.2511   4.2526   4.2671
     4.4215   4.4220   4.4240   4.4834   4.5590   4.5599   4.5612   4.6054
     4.6057   4.6067   4.6770   4.8077   5.1363   5.1477   5.1544   5.1548
     5.1555   5.1647   5.1872   5.1879   5.1883   5.2165   5.2168   5.2175
     5.2192   5.2483   5.2490   5.2491   5.2593   5.2597   5.2605   5.2621
     5.2765   5.2773   5.2782   5.2801   5.3294   5.3299   5.3307   5.3324
     5.3344   5.3354   5.3419   5.3423   5.3435   5.3666   5.3736   5.3749
     5.3755   5.3900   5.4029   5.4202   5.4215   5.4221   5.5263   5.5325
     5.5332   5.5336   5.5822   5.5883   5.5892   5.5894   5.5902   5.6201
     5.6207   5.6214   5.6519   5.6522   5.6528   5.6610   5.6817   5.6821
     5.6828   5.7547   5.7558   5.7562   5.7905   5.7985   5.8169   5.8178
     5.8182   5.8715   5.8833   5.8838   5.8849   5.9882   5.9888   5.9896
     6.0425   6.0430   6.0440   6.0978   6.0986   6.0992   6.1756   6.1920
     6.1922   6.1934   6.2353   6.2685   6.2690   6.2697   6.3255   6.3262
     6.3275   6.3593   6.3604   6.3712   6.3719   6.3729   6.3955   6.4286
     6.4300   6.4305   6.4794   6.6404   6.6418   6.6419   6.6426   6.6433
     6.6437   6.6705   6.7086   6.7092   6.7099   6.7520   6.7531   6.7535
     6.9417   7.0043   7.0947   7.1697

          k = 0.0000 0.3849 0.0000 (115797 PWs)   bands (ev):

   -28.2867 -28.2759 -28.2757 -28.2757 -28.2756 -28.2756 -28.2755 -28.2754
   -28.2753 -28.2743 -28.2742 -28.2722 -14.9253 -14.9234 -14.9233 -14.9230
   -14.9228 -14.9227 -14.9227 -14.9226 -14.9226 -14.9224 -14.9222 -14.9216
   -14.9192 -14.9176 -14.9175 -14.9172 -14.9169 -14.9169 -14.9168 -14.9168
   -14.9167 -14.9165 -14.9164 -14.9158 -14.9071 -14.9055 -14.9054 -14.9050
   -14.9047 -14.9047 -14.9047 -14.9047 -14.9045 -14.9044 -14.9043 -14.9037
   -14.8671 -14.8653 -14.8652 -14.8648 -14.8646 -14.8645 -14.8645 -14.8645
   -14.8644 -14.8642 -14.8642 -14.8635 -14.8217 -14.8202 -14.8200 -14.8197
   -14.8194 -14.8194 -14.8193 -14.8193 -14.8192 -14.8190 -14.8184 -14.8178
   -10.3449 -10.3378 -10.3373 -10.3362 -10.3361 -10.3352 -10.3346 -10.3342
   -10.3330 -10.3322 -10.3309 -10.3264 -10.3121 -10.3070 -10.3064 -10.3050
   -10.3032 -10.3024 -10.3016 -10.3011 -10.2953 -10.2944 -10.2908 -10.2854
   -10.2749 -10.2692 -10.2688 -10.2675 -10.2663 -10.2646 -10.2629 -10.2628
   -10.2623 -10.2606 -10.2593 -10.2561  -6.7879  -6.5899  -6.4994  -6.4984
    -6.4385  -6.4380  -6.3657  -6.3496  -6.2852  -6.2850  -6.2487  -6.2485
    -5.9112  -5.9108  -5.8197  -5.8187  -5.8173  -5.7772  -5.7683  -5.7671
    -5.7320  -5.7240  -5.7227  -5.6903  -5.6894  -5.6477  -5.6383  -5.6367
    -5.6293  -5.5949  -5.5843  -5.5839  -5.5682  -5.5279  -5.5188  -5.5184
    -5.5164  -5.5045  -5.4624  -5.4510  -5.4365  -5.4363  -5.4216  -5.4150
    -5.3485  -5.3474  -5.3133  -5.2704  -0.5713  -0.5710  -0.5626  -0.4361
    -0.4040  -0.4038  -0.3772  -0.3392  -0.3376  -0.3368  -0.3126  -0.3033
     1.4185   1.4867   1.4884   1.5008   1.6407   1.6516   1.6897   1.7232
     1.7248   1.8287   1.8768   1.8779   1.9548   1.9559   1.9568   2.0276
     2.1156   2.2079   2.2297   2.2301   2.3389   2.3635   2.3850   2.3868
     2.3939   2.4083   2.4494   2.5375   2.5380   2.6132   2.6151   2.6176
     2.6579   2.7347   2.8119   2.8139   2.8221   2.8410   2.8417   2.8453
     2.8540   2.8849   2.9085   2.9090   2.9146   2.9623   2.9628   3.0039
     3.0503   3.0567   3.0577   3.1251   3.1491   3.1759   3.2043   3.2117
     3.2121   3.2332   3.2611   3.2623   3.2690   3.3238   3.3308   3.3317
     3.3399   3.3725   3.3952   3.3955   3.4341   3.4410   3.4417   3.4498
     3.4982   3.4992   3.5005   3.5110   3.5116   3.5139   3.5227   3.5431
     3.5618   3.6052   3.6058   3.6129   3.6356   3.6498   3.6796   3.6825
     3.6943   3.7034   3.7053   3.7091   3.7791   3.7821   3.8492   3.8596
     3.8971   3.9741   3.9751   3.9786   3.9803   4.0301   4.0378   4.0403
     4.0937   4.1114   4.1217   4.1223   4.1257   4.1630   4.1633   4.1783
     4.2479   4.2660   4.2695   4.2820   4.3029   4.3225   4.3238   4.3684
     4.3785   4.4166   4.4192   4.4835   4.5178   4.5278   4.5284   4.5290
     4.5908   4.5916   4.6272   4.7496   5.1440   5.1443   5.1475   5.1550
     5.1606   5.1621   5.1699   5.1747   5.2154   5.2192   5.2203   5.2230
     5.2291   5.2379   5.2491   5.2496   5.2509   5.2615   5.2683   5.2720
     5.2731   5.2896   5.3052   5.3054   5.3138   5.3192   5.3273   5.3287
     5.3371   5.3496   5.3524   5.3542   5.3580   5.3657   5.4141   5.4149
     5.4344   5.4516   5.4617   5.4618   5.4859   5.4938   5.5002   5.5003
     5.5030   5.5125   5.5288   5.5443   5.5570   5.5575   5.5615   5.6036
     5.6040   5.6308   5.6317   5.6324   5.6683   5.6784   5.6957   5.6961
     5.6969   5.7175   5.7297   5.7568   5.7753   5.7759   5.8085   5.8191
     5.8203   5.8638   5.8760   5.8766   5.9505   5.9515   5.9644   5.9649
     5.9904   6.0068   6.0077   6.0213   6.1393   6.1397   6.1449   6.1601
     6.2261   6.2297   6.2307   6.2517   6.2712   6.2891   6.2897   6.2991
     6.3609   6.3625   6.3771   6.3900   6.3906   6.4405   6.4864   6.4878
     6.5243   6.5378   6.5386   6.5759   6.6048   6.6510   6.6830   6.6927
     6.6932   6.7287   6.7374   6.7381   6.7627   6.7779   6.7932   6.8122
     6.8128   6.9040   6.9090   7.0806

          k = 0.0000 0.3849 0.2714 (115773 PWs)   bands (ev):

   -28.2867 -28.2759 -28.2757 -28.2757 -28.2756 -28.2756 -28.2755 -28.2754
   -28.2753 -28.2743 -28.2742 -28.2722 -14.9253 -14.9234 -14.9233 -14.9230
   -14.9228 -14.9227 -14.9227 -14.9226 -14.9226 -14.9224 -14.9222 -14.9216
   -14.9192 -14.9177 -14.9175 -14.9172 -14.9169 -14.9169 -14.9168 -14.9168
   -14.9167 -14.9165 -14.9164 -14.9158 -14.9071 -14.9055 -14.9054 -14.9050
   -14.9047 -14.9047 -14.9047 -14.9047 -14.9045 -14.9044 -14.9043 -14.9037
   -14.8671 -14.8653 -14.8652 -14.8648 -14.8646 -14.8645 -14.8645 -14.8645
   -14.8644 -14.8642 -14.8642 -14.8635 -14.8217 -14.8202 -14.8200 -14.8197
   -14.8194 -14.8194 -14.8193 -14.8193 -14.8192 -14.8190 -14.8184 -14.8178
   -10.3452 -10.3387 -10.3381 -10.3373 -10.3365 -10.3348 -10.3340 -10.3333
   -10.3328 -10.3314 -10.3297 -10.3271 -10.3130 -10.3091 -10.3063 -10.3058
   -10.3024 -10.3012 -10.3002 -10.2971 -10.2963 -10.2942 -10.2912 -10.2877
   -10.2747 -10.2691 -10.2684 -10.2677 -10.2663 -10.2648 -10.2628 -10.2624
   -10.2620 -10.2605 -10.2591 -10.2575  -6.7509  -6.6468  -6.5606  -6.4723
    -6.4228  -6.4223  -6.3643  -6.3289  -6.3287  -6.2595  -6.2250  -6.2246
    -5.9053  -5.9047  -5.8223  -5.8214  -5.8083  -5.8073  -5.7921  -5.7604
    -5.7587  -5.7320  -5.7108  -5.7100  -5.6718  -5.6350  -5.6289  -5.6278
    -5.6258  -5.6076  -5.5999  -5.5994  -5.5694  -5.5287  -5.5223  -5.5217
    -5.5206  -5.4965  -5.4678  -5.4327  -5.4286  -5.4284  -5.4223  -5.3631
    -5.3481  -5.3470  -5.3221  -5.2997  -0.5601  -0.5587  -0.5586  -0.4364
    -0.4356  -0.4259  -0.3938  -0.3735  -0.3196  -0.3180  -0.2992  -0.2791
     1.4334   1.4847   1.4863   1.4871   1.6255   1.6425   1.7719   1.7741
     1.7826   1.7922   1.7999   1.8005   1.9141   1.9960   1.9962   2.0778
     2.1551   2.2000   2.2116   2.2475   2.2480   2.3601   2.3927   2.3934
     2.3983   2.4481   2.5120   2.5124   2.5469   2.5903   2.5933   2.6086
     2.6428   2.7122   2.7614   2.7680   2.7696   2.7888   2.8079   2.8099
     2.8384   2.8746   2.9157   2.9166   2.9183   2.9815   3.0239   3.0247
     3.0685   3.1066   3.1071   3.1328   3.1709   3.1918   3.1930   3.1946
     3.2005   3.2325   3.2647   3.2660   3.2773   3.3187   3.3216   3.3229
     3.3244   3.3897   3.3899   3.4111   3.4455   3.4463   3.4695   3.4702
     3.4720   3.4737   3.4760   3.4774   3.5339   3.5363   3.5371   3.5935
     3.6105   3.6129   3.6158   3.6335   3.6422   3.6509   3.6590   3.6609
     3.6681   3.7106   3.7117   3.7129   3.8359   3.8382   3.8799   3.8887
     3.9045   3.9499   3.9511   3.9742   3.9823   4.0211   4.0483   4.0490
     4.0505   4.0656   4.1112   4.1117   4.1195   4.1334   4.1347   4.1478
     4.1910   4.2549   4.2665   4.2688   4.2883   4.2907   4.2941   4.3873
     4.3977   4.4380   4.4391   4.4677   4.5250   4.5256   4.5356   4.5962
     4.6104   4.6114   4.6226   4.7221   5.1509   5.1513   5.1553   5.1572
     5.1723   5.1763   5.1776   5.1841   5.1908   5.1989   5.2016   5.2081
     5.2084   5.2349   5.2351   5.2363   5.2553   5.2640   5.2661   5.2671
     5.2792   5.2981   5.3077   5.3133   5.3145   5.3294   5.3360   5.3381
     5.3586   5.3592   5.3606   5.3638   5.3804   5.3932   5.4073   5.4076
     5.4139   5.4320   5.4333   5.4450   5.4457   5.4930   5.5023   5.5026
     5.5103   5.5159   5.5541   5.5600   5.5748   5.5756   5.6027   5.6112
     5.6118   5.6193   5.6253   5.6257   5.6431   5.6704   5.6825   5.7142
     5.7150   5.7175   5.7342   5.7718   5.7732   5.7738   5.8023   5.8033
     5.8100   5.8588   5.8753   5.8759   5.8784   5.9147   5.9585   5.9592
     6.0346   6.0353   6.0358   6.0597   6.0789   6.0797   6.1733   6.2065
     6.2130   6.2140   6.2663   6.2669   6.2706   6.2776   6.2857   6.3486
     6.3495   6.3654   6.3713   6.4149   6.4245   6.4254   6.4275   6.4707
     6.4985   6.4992   6.5457   6.5588   6.5952   6.5960   6.6669   6.6678
     6.6774   6.7194   6.7363   6.7373   6.7469   6.8130   6.8143   6.8449
     6.8688   6.9280   6.9369   7.0521

          k = 0.3333 0.5774 0.0000 (115752 PWs)   bands (ev):

   -28.2867 -28.2759 -28.2757 -28.2757 -28.2756 -28.2756 -28.2755 -28.2754
   -28.2753 -28.2743 -28.2742 -28.2722 -14.9253 -14.9234 -14.9233 -14.9230
   -14.9228 -14.9227 -14.9227 -14.9226 -14.9226 -14.9224 -14.9223 -14.9216
   -14.9192 -14.9176 -14.9175 -14.9172 -14.9169 -14.9168 -14.9168 -14.9167
   -14.9167 -14.9166 -14.9164 -14.9158 -14.9071 -14.9055 -14.9054 -14.9050
   -14.9047 -14.9047 -14.9047 -14.9047 -14.9045 -14.9044 -14.9043 -14.9037
   -14.8671 -14.8653 -14.8652 -14.8648 -14.8646 -14.8645 -14.8645 -14.8645
   -14.8644 -14.8642 -14.8642 -14.8635 -14.8217 -14.8202 -14.8200 -14.8197
   -14.8194 -14.8194 -14.8193 -14.8193 -14.8192 -14.8190 -14.8184 -14.8178
   -10.3446 -10.3380 -10.3358 -10.3355 -10.3352 -10.3351 -10.3348 -10.3342
   -10.3337 -10.3308 -10.3299 -10.3293 -10.3116 -10.3065 -10.3047 -10.3044
   -10.3031 -10.3024 -10.3015 -10.3004 -10.2996 -10.2913 -10.2896 -10.2895
   -10.2746 -10.2687 -10.2673 -10.2668 -10.2661 -10.2656 -10.2647 -10.2640
   -10.2634 -10.2597 -10.2585 -10.2581  -6.6507  -6.6503  -6.6500  -6.4004
    -6.3989  -6.3988  -6.3986  -6.3984  -6.3983  -6.2931  -6.2924  -6.1935
    -5.8647  -5.8513  -5.8493  -5.7487  -5.7484  -5.7479  -5.7326  -5.7319
    -5.7316  -5.7086  -5.7077  -5.6948  -5.6940  -5.6934  -5.6853  -5.6847
    -5.6839  -5.6450  -5.5421  -5.5410  -5.5402  -5.5293  -5.5291  -5.5277
    -5.5117  -5.4722  -5.4716  -5.4705  -5.4667  -5.4663  -5.4654  -5.3969
    -5.3966  -5.3020  -5.3016  -5.3010  -0.5445  -0.5152  -0.5145  -0.5141
    -0.3961  -0.3960  -0.3907  -0.3904  -0.3902  -0.3104  -0.3097  -0.3096
     1.4837   1.4845   1.4852   1.6740   1.6756   1.6773   1.6862   1.6867
     1.6878   1.7335   1.7346   1.8007   2.0798   2.0816   2.0821   2.0830
     2.0844   2.1437   2.1448   2.1459   2.2548   2.3964   2.3973   2.3976
     2.4936   2.4948   2.4957   2.5628   2.5638   2.5643   2.5969   2.5982
     2.7738   2.7746   2.7761   2.8365   2.8372   2.8423   2.8444   2.8454
     2.8496   2.8526   2.8532   2.8567   2.8685   3.0095   3.0104   3.0116
     3.0253   3.0259   3.0263   3.0618   3.1335   3.1342   3.1362   3.1969
     3.1979   3.1981   3.2594   3.2599   3.2614   3.2710   3.2713   3.3621
     3.3704   3.3723   3.3726   3.3733   3.4249   3.4258   3.4267   3.4869
     3.4879   3.5025   3.5030   3.5037   3.5298   3.5304   3.5308   3.5477
     3.5491   3.5796   3.5802   3.5831   3.6505   3.6507   3.6546   3.7208
     3.7212   3.7240   3.7284   3.7310   3.7576   3.8015   3.8020   3.8031
     3.9585   3.9598   3.9604   3.9871   3.9884   4.0298   4.0308   4.0323
     4.0832   4.0852   4.0861   4.1410   4.1511   4.1515   4.1529   4.2846
     4.2855   4.2940   4.3172   4.3196   4.3200   4.3207   4.3215   4.3232
     4.3863   4.3866   4.3877   4.4964   4.5151   4.5159   4.5203   4.5210
     4.5216   4.6541   4.6553   4.6569   5.1384   5.1442   5.1447   5.1455
     5.1737   5.1743   5.1880   5.1884   5.1896   5.1968   5.1975   5.1981
     5.2474   5.2477   5.2487   5.2659   5.2667   5.2671   5.2984   5.2991
     5.2999   5.3016   5.3028   5.3033   5.3146   5.3192   5.3194   5.3205
     5.3399   5.3408   5.3414   5.4027   5.4035   5.4043   5.4084   5.4093
     5.4550   5.4559   5.4562   5.4584   5.4837   5.4843   5.4848   5.4889
     5.4894   5.5352   5.5360   5.5364   5.5644   5.5649   5.5655   5.5707
     5.5712   5.5723   5.6413   5.6725   5.6732   5.6942   5.6949   5.6960
     5.7065   5.7077   5.7083   5.7804   5.7810   5.7815   5.7994   5.7999
     5.8005   5.8241   5.8246   5.8441   5.9298   5.9315   5.9317   6.0464
     6.0474   6.0476   6.0485   6.0490   6.1385   6.1389   6.1393   6.1583
     6.2190   6.2197   6.2208   6.2581   6.2604   6.2611   6.2839   6.2849
     6.3746   6.4097   6.4110   6.4113   6.4169   6.4174   6.4234   6.4516
     6.4523   6.4529   6.6138   6.6154   6.6158   6.6761   6.6767   6.6777
     6.7260   6.7404   6.7415   6.8056   6.8066   6.8073   6.8102   6.8107
     6.8111   6.9383   6.9395   6.9398

          k = 0.3333 0.5774 0.2714 (115827 PWs)   bands (ev):

   -28.2867 -28.2759 -28.2757 -28.2757 -28.2756 -28.2756 -28.2755 -28.2754
   -28.2753 -28.2743 -28.2742 -28.2722 -14.9253 -14.9234 -14.9233 -14.9230
   -14.9228 -14.9227 -14.9227 -14.9226 -14.9226 -14.9224 -14.9223 -14.9216
   -14.9192 -14.9176 -14.9175 -14.9172 -14.9169 -14.9169 -14.9168 -14.9167
   -14.9167 -14.9166 -14.9164 -14.9158 -14.9071 -14.9055 -14.9054 -14.9050
   -14.9047 -14.9047 -14.9047 -14.9047 -14.9045 -14.9044 -14.9043 -14.9037
   -14.8671 -14.8653 -14.8652 -14.8648 -14.8646 -14.8645 -14.8645 -14.8645
   -14.8644 -14.8642 -14.8642 -14.8635 -14.8217 -14.8202 -14.8200 -14.8197
   -14.8194 -14.8194 -14.8193 -14.8193 -14.8192 -14.8190 -14.8184 -14.8178
   -10.3448 -10.3385 -10.3374 -10.3367 -10.3363 -10.3344 -10.3334 -10.3329
   -10.3328 -10.3304 -10.3301 -10.3292 -10.3123 -10.3077 -10.3073 -10.3055
   -10.3023 -10.3007 -10.2985 -10.2974 -10.2970 -10.2925 -10.2915 -10.2913
   -10.2746 -10.2691 -10.2676 -10.2667 -10.2664 -10.2646 -10.2641 -10.2633
   -10.2630 -10.2601 -10.2595 -10.2588  -6.6186  -6.6182  -6.6178  -6.5253
    -6.5247  -6.5244  -6.3085  -6.2903  -6.2893  -6.2889  -6.2582  -6.2150
    -5.8741  -5.8576  -5.8444  -5.7798  -5.7794  -5.7789  -5.7422  -5.7417
    -5.7413  -5.7158  -5.6885  -5.6875  -5.6871  -5.6731  -5.6719  -5.6714
    -5.6709  -5.6435  -5.5572  -5.5563  -5.5549  -5.5254  -5.5246  -5.5235
    -5.5048  -5.5032  -5.5029  -5.5010  -5.4588  -5.3982  -5.3978  -5.3971
    -5.3579  -5.3229  -5.3224  -5.3219  -0.5205  -0.5063  -0.5056  -0.5052
    -0.4612  -0.4176  -0.4171  -0.4165  -0.3550  -0.2934  -0.2928  -0.2923
     1.4818   1.4828   1.4835   1.6376   1.6388   1.6402   1.6897   1.7749
     1.7761   1.7766   1.7782   1.7945   1.9807   1.9817   1.9836   2.0553
     2.1706   2.1925   2.1934   2.1940   2.2469   2.3966   2.3976   2.3984
     2.4882   2.4894   2.4898   2.5569   2.5861   2.5883   2.5888   2.5925
     2.6796   2.7363   2.7373   2.7391   2.8224   2.8232   2.8239   2.8283
     2.9018   2.9026   2.9053   2.9237   2.9361   2.9552   2.9558   2.9566
     3.0597   3.0606   3.0620   3.0885   3.0888   3.0896   3.1268   3.1808
     3.2447   3.2453   3.2465   3.2710   3.2714   3.2732   3.3214   3.3264
     3.3279   3.3285   3.3738   3.4078   3.4211   3.4653   3.4660   3.4666
     3.4937   3.4992   3.4998   3.5004   3.5370   3.5375   3.5387   3.5407
     3.5617   3.6162   3.6165   3.6206   3.6547   3.6550   3.6583   3.6980
     3.6983   3.7002   3.7201   3.7453   3.8224   3.8413   3.8420   3.8427
     3.9387   3.9404   3.9410   3.9420   4.0296   4.0301   4.0315   4.0407
     4.0669   4.0681   4.0699   4.1090   4.1142   4.1148   4.1158   4.1686
     4.2729   4.2737   4.2749   4.2897   4.3150   4.3603   4.3614   4.3626
     4.4166   4.4170   4.4185   4.4929   4.4936   4.4943   4.5074   4.5122
     4.5648   4.6673   4.6679   4.6690   5.1495   5.1573   5.1579   5.1580
     5.1594   5.1828   5.1835   5.1843   5.1980   5.1986   5.1993   5.2109
     5.2253   5.2256   5.2265   5.2522   5.2527   5.2534   5.2574   5.2692
     5.3016   5.3026   5.3032   5.3099   5.3285   5.3295   5.3309   5.3685
     5.3686   5.3695   5.3751   5.3945   5.3956   5.4092   5.4097   5.4106
     5.4326   5.4331   5.4343   5.4387   5.4848   5.4855   5.4858   5.4920
     5.5390   5.5397   5.5402   5.5440   5.5665   5.5669   5.5681   5.6057
     5.6063   5.6065   5.6388   5.6396   5.6722   5.6724   5.6733   5.7031
     5.7042   5.7050   5.7175   5.7592   5.7600   5.7606   5.8018   5.8077
     5.8205   5.8235   5.8246   5.8257   5.8896   5.8911   5.8913   6.0571
     6.0601   6.0608   6.0615   6.0771   6.1204   6.1207   6.1213   6.1350
     6.1960   6.2375   6.2384   6.2397   6.2846   6.3015   6.3026   6.3032
     6.3068   6.3848   6.3856   6.3864   6.4499   6.4669   6.4682   6.4684
     6.4917   6.4927   6.5583   6.5597   6.5606   6.6462   6.6849   6.6857
     6.6862   6.7613   6.7774   6.7788   6.7791   6.7926   6.8543   6.8551
     6.8559   6.9351   6.9363   6.9368

          k =-0.3333 0.1925 0.0000 (115797 PWs)   bands (ev):

   -28.2867 -28.2759 -28.2758 -28.2757 -28.2756 -28.2756 -28.2755 -28.2754
   -28.2753 -28.2743 -28.2742 -28.2722 -14.9253 -14.9234 -14.9233 -14.9230
   -14.9227 -14.9227 -14.9227 -14.9226 -14.9226 -14.9224 -14.9222 -14.9216
   -14.9192 -14.9176 -14.9175 -14.9172 -14.9169 -14.9168 -14.9168 -14.9168
   -14.9167 -14.9166 -14.9164 -14.9158 -14.9071 -14.9055 -14.9054 -14.9050
   -14.9047 -14.9047 -14.9047 -14.9047 -14.9045 -14.9044 -14.9043 -14.9037
   -14.8671 -14.8653 -14.8652 -14.8648 -14.8646 -14.8645 -14.8645 -14.8645
   -14.8644 -14.8642 -14.8642 -14.8635 -14.8217 -14.8202 -14.8200 -14.8197
   -14.8194 -14.8194 -14.8193 -14.8193 -14.8192 -14.8190 -14.8184 -14.8178
   -10.3449 -10.3380 -10.3372 -10.3366 -10.3362 -10.3355 -10.3347 -10.3334
   -10.3328 -10.3323 -10.3310 -10.3264 -10.3121 -10.3071 -10.3065 -10.3051
   -10.3033 -10.3025 -10.3017 -10.3011 -10.2953 -10.2936 -10.2913 -10.2854
   -10.2748 -10.2696 -10.2686 -10.2672 -10.2667 -10.2647 -10.2630 -10.2624
   -10.2611 -10.2608 -10.2600 -10.2564  -6.7879  -6.5899  -6.4998  -6.4980
    -6.4385  -6.4379  -6.3661  -6.3490  -6.2859  -6.2847  -6.2492  -6.2482
    -5.9108  -5.9092  -5.8202  -5.8187  -5.8176  -5.7775  -5.7681  -5.7672
    -5.7320  -5.7241  -5.7227  -5.6902  -5.6900  -5.6475  -5.6384  -5.6378
    -5.6293  -5.5952  -5.5846  -5.5839  -5.5672  -5.5277  -5.5191  -5.5183
    -5.5164  -5.5041  -5.4620  -5.4515  -5.4364  -5.4361  -5.4221  -5.4145
    -5.3482  -5.3480  -5.3131  -5.2703  -0.5713  -0.5708  -0.5624  -0.4358
    -0.4039  -0.4035  -0.3777  -0.3380  -0.3378  -0.3375  -0.3132  -0.3038
     1.4188   1.4874   1.4880   1.5011   1.6396   1.6525   1.6881   1.7239
     1.7249   1.8286   1.8768   1.8777   1.9544   1.9554   1.9587   2.0279
     2.1163   2.2071   2.2292   2.2304   2.3389   2.3638   2.3860   2.3868
     2.3943   2.4085   2.4500   2.5369   2.5379   2.6129   2.6133   2.6170
     2.6570   2.7358   2.8127   2.8139   2.8234   2.8413   2.8418   2.8457
     2.8536   2.8848   2.9070   2.9092   2.9151   2.9601   2.9632   3.0047
     3.0500   3.0571   3.0584   3.1239   3.1483   3.1759   3.2052   3.2115
     3.2125   3.2344   3.2603   3.2613   3.2698   3.3239   3.3304   3.3310
     3.3391   3.3723   3.3949   3.3957   3.4335   3.4415   3.4420   3.4498
     3.4973   3.4989   3.5007   3.5106   3.5109   3.5148   3.5224   3.5437
     3.5625   3.6061   3.6090   3.6127   3.6363   3.6467   3.6796   3.6805
     3.6947   3.7031   3.7049   3.7119   3.7791   3.7803   3.8501   3.8609
     3.8961   3.9745   3.9753   3.9784   3.9810   4.0306   4.0386   4.0394
     4.0931   4.1111   4.1209   4.1217   4.1272   4.1627   4.1638   4.1784
     4.2484   4.2670   4.2678   4.2824   4.3020   4.3228   4.3238   4.3685
     4.3780   4.4164   4.4179   4.4837   4.5180   4.5276   4.5288   4.5294
     4.5905   4.5926   4.6268   4.7496   5.1448   5.1450   5.1474   5.1548
     5.1603   5.1614   5.1701   5.1755   5.2154   5.2195   5.2213   5.2220
     5.2282   5.2377   5.2490   5.2500   5.2505   5.2617   5.2689   5.2719
     5.2730   5.2899   5.3045   5.3050   5.3149   5.3193   5.3276   5.3282
     5.3369   5.3501   5.3523   5.3534   5.3581   5.3658   5.4142   5.4159
     5.4337   5.4515   5.4613   5.4618   5.4859   5.4931   5.5002   5.5011
     5.5029   5.5126   5.5275   5.5438   5.5568   5.5577   5.5616   5.6036
     5.6043   5.6302   5.6318   5.6327   5.6680   5.6778   5.6948   5.6966
     5.6972   5.7182   5.7299   5.7564   5.7754   5.7761   5.8086   5.8194
     5.8199   5.8646   5.8758   5.8763   5.9504   5.9523   5.9651   5.9657
     5.9907   6.0067   6.0072   6.0208   6.1389   6.1393   6.1453   6.1603
     6.2256   6.2300   6.2307   6.2519   6.2708   6.2892   6.2903   6.2988
     6.3615   6.3621   6.3768   6.3898   6.3905   6.4413   6.4863   6.4866
     6.5243   6.5380   6.5384   6.5758   6.6045   6.6514   6.6839   6.6918
     6.6933   6.7298   6.7366   6.7384   6.7627   6.7778   6.7926   6.8122
     6.8130   6.9040   6.9090   7.0804

          k = 0.3333 0.1925 0.0000 (115797 PWs)   bands (ev):

   -28.2867 -28.2759 -28.2757 -28.2757 -28.2756 -28.2756 -28.2755 -28.2754
   -28.2753 -28.2743 -28.2742 -28.2722 -14.9253 -14.9234 -14.9233 -14.9230
   -14.9228 -14.9227 -14.9227 -14.9226 -14.9226 -14.9224 -14.9222 -14.9216
   -14.9192 -14.9176 -14.9175 -14.9172 -14.9169 -14.9168 -14.9168 -14.9168
   -14.9167 -14.9165 -14.9164 -14.9158 -14.9071 -14.9055 -14.9054 -14.9050
   -14.9047 -14.9047 -14.9047 -14.9047 -14.9045 -14.9044 -14.9043 -14.9037
   -14.8671 -14.8653 -14.8652 -14.8648 -14.8646 -14.8645 -14.8645 -14.8645
   -14.8644 -14.8642 -14.8642 -14.8635 -14.8217 -14.8202 -14.8200 -14.8197
   -14.8194 -14.8194 -14.8193 -14.8193 -14.8192 -14.8190 -14.8184 -14.8178
   -10.3447 -10.3380 -10.3370 -10.3365 -10.3361 -10.3355 -10.3348 -10.3340
   -10.3327 -10.3320 -10.3311 -10.3264 -10.3119 -10.3072 -10.3063 -10.3046
   -10.3038 -10.3021 -10.3016 -10.3013 -10.2957 -10.2946 -10.2904 -10.2853
   -10.2748 -10.2695 -10.2688 -10.2673 -10.2664 -10.2648 -10.2634 -10.2626
   -10.2620 -10.2601 -10.2594 -10.2560  -6.7879  -6.5899  -6.4997  -6.4981
    -6.4388  -6.4375  -6.3659  -6.3490  -6.2863  -6.2845  -6.2496  -6.2481
    -5.9113  -5.9091  -5.8196  -5.8187  -5.8175  -5.7772  -5.7680  -5.7672
    -5.7319  -5.7241  -5.7230  -5.6905  -5.6899  -5.6476  -5.6383  -5.6374
    -5.6295  -5.5952  -5.5849  -5.5839  -5.5678  -5.5274  -5.5189  -5.5182
    -5.5160  -5.5043  -5.4622  -5.4514  -5.4365  -5.4361  -5.4220  -5.4147
    -5.3481  -5.3479  -5.3133  -5.2704  -0.5722  -0.5708  -0.5620  -0.4355
    -0.4047  -0.4037  -0.3771  -0.3380  -0.3378  -0.3375  -0.3124  -0.3036
     1.4188   1.4872   1.4881   1.5016   1.6401   1.6517   1.6879   1.7237
     1.7257   1.8276   1.8757   1.8776   1.9540   1.9560   1.9578   2.0278
     2.1158   2.2073   2.2299   2.2309   2.3385   2.3628   2.3859   2.3873
     2.3937   2.4088   2.4495   2.5372   2.5381   2.6128   2.6151   2.6165
     2.6580   2.7354   2.8134   2.8147   2.8222   2.8404   2.8416   2.8444
     2.8543   2.8858   2.9076   2.9091   2.9149   2.9624   2.9632   3.0045
     3.0507   3.0568   3.0573   3.1247   3.1486   3.1761   3.2045   3.2115
     3.2124   3.2341   3.2607   3.2614   3.2690   3.3244   3.3308   3.3312
     3.3389   3.3724   3.3947   3.3957   3.4340   3.4410   3.4430   3.4511
     3.4977   3.4987   3.5004   3.5105   3.5119   3.5141   3.5225   3.5427
     3.5619   3.6051   3.6067   3.6117   3.6359   3.6470   3.6801   3.6816
     3.6970   3.7031   3.7040   3.7124   3.7791   3.7801   3.8504   3.8608
     3.8962   3.9748   3.9759   3.9784   3.9804   4.0299   4.0389   4.0407
     4.0923   4.1107   4.1210   4.1215   4.1263   4.1623   4.1633   4.1782
     4.2483   4.2670   4.2678   4.2822   4.3029   4.3228   4.3236   4.3685
     4.3794   4.4168   4.4172   4.4836   4.5179   4.5276   4.5285   4.5295
     4.5903   4.5930   4.6268   4.7493   5.1437   5.1456   5.1476   5.1548
     5.1609   5.1613   5.1703   5.1750   5.2150   5.2203   5.2204   5.2225
     5.2284   5.2380   5.2491   5.2497   5.2505   5.2616   5.2673   5.2725
     5.2729   5.2897   5.3043   5.3056   5.3141   5.3192   5.3272   5.3288
     5.3373   5.3508   5.3523   5.3539   5.3576   5.3659   5.4141   5.4146
     5.4345   5.4511   5.4608   5.4619   5.4863   5.4936   5.5001   5.5015
     5.5031   5.5134   5.5283   5.5440   5.5568   5.5574   5.5615   5.6033
     5.6042   5.6305   5.6313   5.6322   5.6684   5.6790   5.6957   5.6967
     5.6971   5.7175   5.7296   5.7563   5.7750   5.7754   5.8085   5.8192
     5.8197   5.8639   5.8761   5.8765   5.9503   5.9522   5.9648   5.9657
     5.9900   6.0072   6.0074   6.0211   6.1391   6.1399   6.1455   6.1601
     6.2258   6.2300   6.2310   6.2515   6.2703   6.2892   6.2902   6.2996
     6.3612   6.3622   6.3776   6.3895   6.3907   6.4407   6.4858   6.4866
     6.5243   6.5383   6.5391   6.5759   6.6044   6.6509   6.6835   6.6925
     6.6933   6.7292   6.7372   6.7380   6.7624   6.7784   6.7931   6.8118
     6.8131   6.9042   6.9091   7.0807

          k = 0.0000-0.3849 0.2714 (115773 PWs)   bands (ev):

   -28.2867 -28.2759 -28.2757 -28.2757 -28.2756 -28.2756 -28.2755 -28.2754
   -28.2753 -28.2743 -28.2742 -28.2722 -14.9253 -14.9234 -14.9233 -14.9230
   -14.9228 -14.9227 -14.9227 -14.9226 -14.9226 -14.9224 -14.9222 -14.9216
   -14.9192 -14.9177 -14.9175 -14.9172 -14.9169 -14.9169 -14.9168 -14.9168
   -14.9167 -14.9165 -14.9164 -14.9158 -14.9071 -14.9055 -14.9054 -14.9050
   -14.9047 -14.9047 -14.9047 -14.9047 -14.9045 -14.9044 -14.9043 -14.9037
   -14.8671 -14.8653 -14.8652 -14.8648 -14.8646 -14.8645 -14.8645 -14.8645
   -14.8644 -14.8642 -14.8642 -14.8635 -14.8217 -14.8202 -14.8200 -14.8197
   -14.8194 -14.8194 -14.8193 -14.8193 -14.8192 -14.8190 -14.8184 -14.8178
   -10.3452 -10.3388 -10.3382 -10.3371 -10.3363 -10.3349 -10.3341 -10.3334
   -10.3330 -10.3310 -10.3296 -10.3273 -10.3129 -10.3088 -10.3071 -10.3047
   -10.3034 -10.3027 -10.2982 -10.2964 -10.2954 -10.2948 -10.2928 -10.2872
   -10.2747 -10.2688 -10.2684 -10.2678 -10.2669 -10.2641 -10.2626 -10.2623
   -10.2620 -10.2608 -10.2597 -10.2572  -6.7511  -6.6467  -6.5614  -6.4688
    -6.4196  -6.4191  -6.3639  -6.3405  -6.3403  -6.2662  -6.2112  -6.2108
    -5.9138  -5.9134  -5.8247  -5.8211  -5.8184  -5.8164  -5.7651  -5.7641
    -5.7535  -5.7335  -5.6830  -5.6821  -5.6816  -5.6634  -5.6423  -5.6398
    -5.6371  -5.6075  -5.5857  -5.5855  -5.5731  -5.5306  -5.5273  -5.5264
    -5.5165  -5.4862  -5.4652  -5.4395  -5.4372  -5.4370  -5.3988  -5.3702
    -5.3444  -5.3433  -5.3317  -5.2960  -0.5624  -0.5621  -0.5522  -0.4340
    -0.4293  -0.4287  -0.4111  -0.3608  -0.3229  -0.3212  -0.2903  -0.2836
     1.4049   1.4935   1.4951   1.5154   1.6125   1.7109   1.7126   1.7229
     1.7377   1.7738   1.8453   1.8462   1.9676   1.9859   2.0216   2.0222
     2.1293   2.2000   2.2089   2.2094   2.2850   2.3338   2.3968   2.4255
     2.4275   2.5182   2.5297   2.5308   2.5568   2.5582   2.5586   2.5604
     2.5999   2.6784   2.7640   2.7665   2.8210   2.8248   2.8254   2.8302
     2.8506   2.8533   2.8957   2.8963   2.9059   3.0081   3.0183   3.0188
     3.0767   3.0792   3.1182   3.1194   3.1340   3.1807   3.1811   3.1886
     3.2128   3.2464   3.2664   3.2853   3.2866   3.2963   3.3308   3.3322
     3.3757   3.3775   3.3790   3.3795   3.4474   3.4479   3.4502   3.4772
     3.4803   3.4818   3.5059   3.5194   3.5346   3.5351   3.5365   3.5592
     3.5864   3.5886   3.6108   3.6334   3.6405   3.6483   3.6837   3.6845
     3.6866   3.6960   3.7041   3.7067   3.8357   3.8394   3.8785   3.8802
     3.9429   3.9460   3.9462   3.9483   3.9718   4.0326   4.0552   4.0563
     4.0597   4.0618   4.1010   4.1024   4.1225   4.1232   4.1298   4.1332
     4.2231   4.2401   4.2678   4.2711   4.2908   4.2930   4.3134   4.3671
     4.3922   4.4346   4.4356   4.4807   4.5213   4.5448   4.5458   4.5856
     4.5958   4.5967   4.6318   4.7308   5.1480   5.1484   5.1540   5.1650
     5.1686   5.1696   5.1700   5.1736   5.2003   5.2054   5.2128   5.2185
     5.2195   5.2296   5.2414   5.2419   5.2609   5.2642   5.2655   5.2661
     5.2676   5.2734   5.3102   5.3117   5.3184   5.3345   5.3463   5.3476
     5.3595   5.3634   5.3638   5.3689   5.3701   5.3810   5.3889   5.3899
     5.4106   5.4338   5.4480   5.4517   5.4525   5.4695   5.4970   5.4979
     5.5170   5.5252   5.5566   5.5578   5.5688   5.5695   5.6025   5.6030
     5.6075   5.6204   5.6314   5.6504   5.6509   5.6608   5.6751   5.7088
     5.7095   5.7395   5.7599   5.7608   5.7705   5.7845   5.8051   5.8062
     5.8144   5.8397   5.8674   5.8678   5.8755   5.8947   5.9685   5.9692
     6.0194   6.0253   6.0263   6.1016   6.1024   6.1121   6.1598   6.1873
     6.2029   6.2041   6.2046   6.2626   6.2633   6.2883   6.3184   6.3415
     6.3546   6.3691   6.3694   6.4133   6.4190   6.4203   6.4522   6.4819
     6.4827   6.5062   6.5574   6.5665   6.6070   6.6082   6.6472   6.6666
     6.6678   6.7375   6.7382   6.7393   6.7485   6.8044   6.8051   6.8515
     6.8662   6.9182   6.9451   7.0385

          k =-0.3333 0.1925 0.2714 (115773 PWs)   bands (ev):

   -28.2867 -28.2759 -28.2758 -28.2757 -28.2756 -28.2756 -28.2755 -28.2754
   -28.2753 -28.2743 -28.2742 -28.2722 -14.9253 -14.9234 -14.9233 -14.9230
   -14.9227 -14.9227 -14.9227 -14.9226 -14.9226 -14.9224 -14.9222 -14.9216
   -14.9192 -14.9176 -14.9175 -14.9172 -14.9169 -14.9168 -14.9168 -14.9168
   -14.9167 -14.9166 -14.9164 -14.9158 -14.9071 -14.9055 -14.9054 -14.9050
   -14.9047 -14.9047 -14.9047 -14.9047 -14.9045 -14.9044 -14.9043 -14.9037
   -14.8671 -14.8653 -14.8652 -14.8648 -14.8646 -14.8645 -14.8645 -14.8645
   -14.8644 -14.8642 -14.8642 -14.8635 -14.8217 -14.8202 -14.8200 -14.8197
   -14.8194 -14.8194 -14.8193 -14.8193 -14.8192 -14.8190 -14.8184 -14.8178
   -10.3452 -10.3389 -10.3381 -10.3372 -10.3368 -10.3350 -10.3340 -10.3333
   -10.3323 -10.3315 -10.3292 -10.3275 -10.3129 -10.3087 -10.3070 -10.3052
   -10.3035 -10.3027 -10.2980 -10.2963 -10.2950 -10.2943 -10.2934 -10.2874
   -10.2747 -10.2692 -10.2683 -10.2677 -10.2671 -10.2641 -10.2626 -10.2618
   -10.2615 -10.2606 -10.2600 -10.2577  -6.7511  -6.6467  -6.5615  -6.4688
    -6.4195  -6.4190  -6.3639  -6.3411  -6.3399  -6.2660  -6.2119  -6.2106
    -5.9134  -5.9118  -5.8247  -5.8219  -5.8179  -5.8172  -5.7653  -5.7640
    -5.7534  -5.7335  -5.6830  -5.6822  -5.6814  -5.6634  -5.6419  -5.6416
    -5.6379  -5.6073  -5.5864  -5.5850  -5.5720  -5.5304  -5.5274  -5.5267
    -5.5158  -5.4860  -5.4654  -5.4393  -5.4372  -5.4367  -5.3993  -5.3700
    -5.3440  -5.3439  -5.3314  -5.2960  -0.5625  -0.5619  -0.5518  -0.4336
    -0.4289  -0.4286  -0.4118  -0.3612  -0.3221  -0.3218  -0.2908  -0.2839
     1.4050   1.4942   1.4946   1.5155   1.6130   1.7116   1.7127   1.7221
     1.7365   1.7730   1.8455   1.8471   1.9673   1.9861   2.0214   2.0240
     2.1302   2.1996   2.2083   2.2093   2.2859   2.3339   2.3962   2.4269
     2.4277   2.5183   2.5291   2.5295   2.5564   2.5581   2.5586   2.5594
     2.5997   2.6797   2.7637   2.7647   2.8244   2.8248   2.8254   2.8298
     2.8508   2.8528   2.8946   2.8970   2.9077   3.0084   3.0164   3.0191
     3.0767   3.0781   3.1183   3.1192   3.1339   3.1805   3.1814   3.1891
     3.2135   3.2464   3.2665   3.2849   3.2862   3.2956   3.3310   3.3314
     3.3755   3.3767   3.3787   3.3794   3.4473   3.4479   3.4506   3.4770
     3.4800   3.4826   3.5060   3.5202   3.5336   3.5346   3.5373   3.5593
     3.5874   3.5899   3.6129   3.6316   3.6401   3.6445   3.6833   3.6842
     3.6882   3.6965   3.7041   3.7082   3.8366   3.8371   3.8794   3.8810
     3.9416   3.9459   3.9466   3.9486   3.9718   4.0335   4.0541   4.0572
     4.0602   4.0614   4.1008   4.1020   4.1221   4.1231   4.1312   4.1336
     4.2234   4.2402   4.2690   4.2695   4.2909   4.2919   4.3129   4.3669
     4.3930   4.4344   4.4358   4.4809   4.5215   4.5447   4.5451   4.5858
     4.5955   4.5979   4.6313   4.7304   5.1487   5.1491   5.1537   5.1648
     5.1687   5.1697   5.1700   5.1732   5.2000   5.2055   5.2131   5.2188
     5.2207   5.2301   5.2414   5.2416   5.2609   5.2644   5.2649   5.2655
     5.2666   5.2743   5.3103   5.3110   5.3190   5.3345   5.3464   5.3472
     5.3602   5.3630   5.3638   5.3684   5.3700   5.3816   5.3887   5.3903
     5.4099   5.4331   5.4484   5.4520   5.4531   5.4690   5.4973   5.4979
     5.5167   5.5242   5.5563   5.5573   5.5693   5.5697   5.6026   5.6030
     5.6074   5.6201   5.6309   5.6503   5.6513   5.6608   5.6752   5.7089
     5.7096   5.7393   5.7602   5.7609   5.7707   5.7842   5.8052   5.8057
     5.8147   5.8401   5.8672   5.8678   5.8756   5.8950   5.9690   5.9697
     6.0196   6.0253   6.0258   6.1016   6.1021   6.1117   6.1599   6.1870
     6.2031   6.2040   6.2048   6.2627   6.2640   6.2874   6.3191   6.3417
     6.3544   6.3689   6.3698   6.4130   6.4192   6.4201   6.4517   6.4814
     6.4821   6.5075   6.5577   6.5663   6.6068   6.6076   6.6477   6.6664
     6.6676   6.7374   6.7379   6.7404   6.7483   6.8041   6.8051   6.8513
     6.8661   6.9183   6.9453   7.0385

          k = 0.3333 0.1925 0.2714 (115773 PWs)   bands (ev):

   -28.2867 -28.2759 -28.2757 -28.2757 -28.2756 -28.2756 -28.2755 -28.2754
   -28.2753 -28.2743 -28.2742 -28.2722 -14.9253 -14.9234 -14.9233 -14.9230
   -14.9228 -14.9227 -14.9226 -14.9226 -14.9226 -14.9224 -14.9222 -14.9216
   -14.9192 -14.9176 -14.9175 -14.9172 -14.9169 -14.9169 -14.9168 -14.9168
   -14.9167 -14.9165 -14.9164 -14.9158 -14.9071 -14.9055 -14.9054 -14.9050
   -14.9047 -14.9047 -14.9047 -14.9047 -14.9045 -14.9044 -14.9043 -14.9037
   -14.8671 -14.8653 -14.8652 -14.8648 -14.8646 -14.8645 -14.8645 -14.8645
   -14.8644 -14.8642 -14.8642 -14.8635 -14.8217 -14.8202 -14.8200 -14.8197
   -14.8194 -14.8194 -14.8193 -14.8193 -14.8192 -14.8190 -14.8184 -14.8178
   -10.3450 -10.3389 -10.3376 -10.3371 -10.3365 -10.3358 -10.3343 -10.3333
   -10.3326 -10.3310 -10.3298 -10.3271 -10.3129 -10.3093 -10.3057 -10.3051
   -10.3034 -10.3027 -10.2993 -10.2964 -10.2955 -10.2944 -10.2929 -10.2870
   -10.2745 -10.2691 -10.2684 -10.2677 -10.2671 -10.2646 -10.2628 -10.2621
   -10.2615 -10.2605 -10.2599 -10.2570  -6.7511  -6.6466  -6.5615  -6.4687
    -6.4196  -6.4187  -6.3639  -6.3419  -6.3397  -6.2659  -6.2121  -6.2104
    -5.9139  -5.9117  -5.8246  -5.8216  -5.8181  -5.8173  -5.7649  -5.7638
    -5.7533  -5.7336  -5.6833  -5.6822  -5.6814  -5.6636  -5.6418  -5.6414
    -5.6378  -5.6074  -5.5864  -5.5848  -5.5725  -5.5302  -5.5273  -5.5270
    -5.5161  -5.4861  -5.4652  -5.4395  -5.4372  -5.4366  -5.3992  -5.3701
    -5.3439  -5.3438  -5.3317  -5.2961  -0.5634  -0.5620  -0.5515  -0.4331
    -0.4296  -0.4287  -0.4110  -0.3613  -0.3222  -0.3219  -0.2901  -0.2837
     1.4052   1.4943   1.4948   1.5161   1.6121   1.7110   1.7130   1.7225
     1.7369   1.7724   1.8445   1.8475   1.9659   1.9850   2.0218   2.0229
     2.1300   2.1998   2.2088   2.2103   2.2855   2.3338   2.3960   2.4268
     2.4279   2.5181   2.5290   2.5302   2.5573   2.5584   2.5588   2.5607
     2.5985   2.6796   2.7631   2.7648   2.8242   2.8249   2.8259   2.8303
     2.8498   2.8528   2.8955   2.8966   2.9056   3.0093   3.0185   3.0196
     3.0765   3.0791   3.1180   3.1186   3.1344   3.1799   3.1814   3.1887
     3.2137   3.2471   3.2666   3.2847   3.2863   3.2955   3.3309   3.3314
     3.3757   3.3775   3.3787   3.3792   3.4477   3.4482   3.4507   3.4773
     3.4803   3.4813   3.5065   3.5190   3.5341   3.5352   3.5371   3.5587
     3.5866   3.5888   3.6127   3.6317   3.6403   3.6452   3.6836   3.6840
     3.6878   3.6975   3.7042   3.7071   3.8365   3.8376   3.8794   3.8814
     3.9422   3.9460   3.9470   3.9491   3.9718   4.0323   4.0537   4.0563
     4.0608   4.0615   4.1007   4.1017   4.1217   4.1234   4.1307   4.1329
     4.2239   4.2406   4.2688   4.2695   4.2911   4.2917   4.3133   4.3681
     4.3920   4.4344   4.4348   4.4806   4.5215   4.5445   4.5450   4.5861
     4.5957   4.5984   4.6315   4.7300   5.1476   5.1495   5.1535   5.1650
     5.1688   5.1693   5.1700   5.1734   5.2002   5.2050   5.2134   5.2183
     5.2206   5.2296   5.2415   5.2425   5.2611   5.2648   5.2652   5.2657
     5.2661   5.2736   5.3104   5.3119   5.3189   5.3341   5.3462   5.3479
     5.3605   5.3628   5.3638   5.3685   5.3700   5.3806   5.3886   5.3892
     5.4104   5.4335   5.4479   5.4517   5.4524   5.4695   5.4976   5.4984
     5.5174   5.5250   5.5565   5.5576   5.5688   5.5695   5.6022   5.6032
     5.6081   5.6207   5.6315   5.6492   5.6508   5.6614   5.6749   5.7087
     5.7096   5.7388   5.7599   5.7606   5.7706   5.7848   5.8051   5.8059
     5.8144   5.8403   5.8675   5.8678   5.8759   5.8943   5.9691   5.9696
     6.0192   6.0256   6.0262   6.1015   6.1024   6.1118   6.1595   6.1873
     6.2032   6.2039   6.2042   6.2624   6.2633   6.2872   6.3185   6.3421
     6.3552   6.3691   6.3702   6.4133   6.4196   6.4201   6.4522   6.4815
     6.4821   6.5066   6.5575   6.5668   6.6071   6.6075   6.6473   6.6669
     6.6676   6.7372   6.7382   6.7401   6.7485   6.8044   6.8051   6.8511
     6.8661   6.9180   6.9450   7.0389

          k =-0.3333-0.1925 0.2714 (115773 PWs)   bands (ev):

   -28.2867 -28.2759 -28.2757 -28.2757 -28.2756 -28.2756 -28.2755 -28.2754
   -28.2753 -28.2743 -28.2742 -28.2722 -14.9253 -14.9234 -14.9233 -14.9230
   -14.9228 -14.9227 -14.9226 -14.9226 -14.9226 -14.9224 -14.9222 -14.9216
   -14.9192 -14.9176 -14.9175 -14.9172 -14.9169 -14.9169 -14.9168 -14.9168
   -14.9167 -14.9165 -14.9164 -14.9158 -14.9071 -14.9055 -14.9054 -14.9050
   -14.9047 -14.9047 -14.9047 -14.9047 -14.9045 -14.9044 -14.9043 -14.9037
   -14.8671 -14.8653 -14.8652 -14.8648 -14.8646 -14.8645 -14.8645 -14.8645
   -14.8644 -14.8642 -14.8642 -14.8635 -14.8217 -14.8202 -14.8200 -14.8197
   -14.8194 -14.8194 -14.8193 -14.8193 -14.8192 -14.8190 -14.8184 -14.8178
   -10.3450 -10.3387 -10.3378 -10.3371 -10.3366 -10.3357 -10.3341 -10.3331
   -10.3328 -10.3313 -10.3297 -10.3271 -10.3130 -10.3085 -10.3066 -10.3060
   -10.3030 -10.3006 -10.3002 -10.2978 -10.2963 -10.2939 -10.2908 -10.2878
   -10.2748 -10.2695 -10.2688 -10.2669 -10.2664 -10.2646 -10.2637 -10.2623
   -10.2618 -10.2599 -10.2591 -10.2575  -6.7509  -6.6468  -6.5607  -6.4721
    -6.4230  -6.4219  -6.3643  -6.3301  -6.3280  -6.2593  -6.2259  -6.2242
    -5.9051  -5.9031  -5.8230  -5.8217  -5.8081  -5.8070  -5.7917  -5.7600
    -5.7598  -5.7321  -5.7106  -5.7101  -5.6717  -5.6355  -5.6291  -5.6277
    -5.6268  -5.6079  -5.6006  -5.5990  -5.5689  -5.5283  -5.5225  -5.5220
    -5.5200  -5.4964  -5.4676  -5.4325  -5.4287  -5.4278  -5.4225  -5.3635
    -5.3477  -5.3474  -5.3221  -5.2996  -0.5599  -0.5592  -0.5585  -0.4365
    -0.4357  -0.4251  -0.3938  -0.3738  -0.3190  -0.3186  -0.2990  -0.2793
     1.4335   1.4854   1.4861   1.4880   1.6256   1.6416   1.7727   1.7737
     1.7814   1.7897   1.7993   1.8016   1.9140   1.9959   1.9980   2.0772
     2.1561   2.1996   2.2109   2.2478   2.2490   2.3601   2.3925   2.3937
     2.3981   2.4483   2.5111   2.5126   2.5463   2.5906   2.5925   2.6088
     2.6427   2.7115   2.7614   2.7682   2.7700   2.7896   2.8091   2.8095
     2.8388   2.8746   2.9157   2.9168   2.9188   2.9824   3.0238   3.0252
     3.0680   3.1058   3.1069   3.1327   3.1710   3.1920   3.1933   3.1942
     3.2011   3.2324   3.2644   3.2648   3.2772   3.3191   3.3217   3.3223
     3.3243   3.3891   3.3901   3.4119   3.4460   3.4468   3.4692   3.4701
     3.4729   3.4737   3.4759   3.4773   3.5337   3.5359   3.5372   3.5917
     3.6111   3.6131   3.6156   3.6335   3.6425   3.6477   3.6591   3.6604
     3.6702   3.7105   3.7113   3.7156   3.8359   3.8368   3.8806   3.8893
     3.9044   3.9502   3.9520   3.9746   3.9824   4.0201   4.0474   4.0494
     4.0516   4.0661   4.1100   4.1115   4.1190   4.1330   4.1345   4.1478
     4.1915   4.2557   4.2671   4.2676   4.2890   4.2894   4.2938   4.3880
     4.3978   4.4376   4.4383   4.4676   4.5246   4.5250   4.5358   4.5966
     4.6104   4.6128   4.6227   4.7219   5.1505   5.1527   5.1550   5.1569
     5.1722   5.1763   5.1769   5.1840   5.1908   5.1983   5.2019   5.2084
     5.2089   5.2344   5.2356   5.2365   5.2548   5.2643   5.2660   5.2670
     5.2792   5.2985   5.3079   5.3131   5.3146   5.3289   5.3365   5.3371
     5.3583   5.3589   5.3601   5.3643   5.3806   5.3929   5.4069   5.4074
     5.4143   5.4324   5.4339   5.4457   5.4459   5.4929   5.5024   5.5033
     5.5097   5.5161   5.5537   5.5596   5.5746   5.5753   5.6035   5.6112
     5.6118   5.6197   5.6248   5.6258   5.6431   5.6709   5.6825   5.7142
     5.7147   5.7173   5.7337   5.7721   5.7731   5.7734   5.8022   5.8031
     5.8096   5.8588   5.8753   5.8758   5.8782   5.9150   5.9592   5.9601
     6.0339   6.0351   6.0360   6.0598   6.0788   6.0801   6.1732   6.2067
     6.2132   6.2135   6.2662   6.2672   6.2701   6.2775   6.2852   6.3489
     6.3500   6.3657   6.3720   6.4149   6.4248   6.4255   6.4267   6.4714
     6.4976   6.4989   6.5456   6.5594   6.5951   6.5962   6.6662   6.6679
     6.6769   6.7197   6.7360   6.7374   6.7472   6.8131   6.8144   6.8448
     6.8691   6.9282   6.9368   7.0522

          k = 0.3333-0.1925 0.2714 (115773 PWs)   bands (ev):

   -28.2867 -28.2759 -28.2758 -28.2757 -28.2756 -28.2756 -28.2755 -28.2754
   -28.2753 -28.2743 -28.2742 -28.2722 -14.9253 -14.9234 -14.9233 -14.9230
   -14.9227 -14.9227 -14.9227 -14.9226 -14.9226 -14.9224 -14.9222 -14.9216
   -14.9192 -14.9176 -14.9175 -14.9172 -14.9169 -14.9168 -14.9168 -14.9168
   -14.9167 -14.9166 -14.9164 -14.9158 -14.9071 -14.9055 -14.9054 -14.9050
   -14.9047 -14.9047 -14.9047 -14.9047 -14.9045 -14.9044 -14.9043 -14.9037
   -14.8671 -14.8653 -14.8652 -14.8648 -14.8646 -14.8645 -14.8645 -14.8645
   -14.8644 -14.8642 -14.8642 -14.8635 -14.8217 -14.8202 -14.8200 -14.8197
   -14.8194 -14.8194 -14.8193 -14.8193 -14.8192 -14.8190 -14.8184 -14.8178
   -10.3452 -10.3388 -10.3380 -10.3374 -10.3370 -10.3347 -10.3338 -10.3330
   -10.3326 -10.3316 -10.3297 -10.3271 -10.3130 -10.3091 -10.3066 -10.3059
   -10.3022 -10.3011 -10.3005 -10.2968 -10.2957 -10.2942 -10.2918 -10.2877
   -10.2747 -10.2696 -10.2679 -10.2674 -10.2667 -10.2649 -10.2627 -10.2623
   -10.2611 -10.2606 -10.2596 -10.2578  -6.7509  -6.6468  -6.5606  -6.4722
    -6.4227  -6.4222  -6.3643  -6.3294  -6.3283  -6.2594  -6.2257  -6.2243
    -5.9048  -5.9032  -5.8232  -5.8216  -5.8083  -5.8071  -5.7922  -5.7601
    -5.7595  -5.7319  -5.7105  -5.7102  -5.6720  -5.6351  -5.6287  -5.6278
    -5.6273  -5.6081  -5.6004  -5.5991  -5.5686  -5.5284  -5.5226  -5.5219
    -5.5199  -5.4965  -5.4674  -5.4324  -5.4286  -5.4281  -5.4224  -5.3635
    -5.3477  -5.3476  -5.3220  -5.2996  -0.5599  -0.5588  -0.5584  -0.4359
    -0.4356  -0.4254  -0.3944  -0.3740  -0.3188  -0.3185  -0.2998  -0.2794
     1.4337   1.4855   1.4858   1.4875   1.6246   1.6417   1.7726   1.7735
     1.7829   1.7906   1.8001   1.8017   1.9141   1.9954   1.9988   2.0776
     2.1562   2.2010   2.2109   2.2474   2.2482   2.3600   2.3930   2.3935
     2.3981   2.4491   2.5113   2.5125   2.5468   2.5899   2.5908   2.6074
     2.6433   2.7111   2.7621   2.7669   2.7688   2.7902   2.8093   2.8097
     2.8390   2.8746   2.9150   2.9169   2.9196   2.9823   3.0223   3.0245
     3.0675   3.1069   3.1080   3.1322   3.1718   3.1928   3.1932   3.1943
     3.2000   3.2330   3.2640   3.2654   3.2769   3.3182   3.3214   3.3222
     3.3250   3.3883   3.3902   3.4112   3.4458   3.4479   3.4686   3.4702
     3.4722   3.4738   3.4766   3.4773   3.5341   3.5358   3.5367   3.5914
     3.6114   3.6125   3.6149   3.6344   3.6425   3.6475   3.6595   3.6630
     3.6682   3.7109   3.7118   3.7164   3.8358   3.8360   3.8806   3.8892
     3.9045   3.9500   3.9511   3.9761   3.9822   4.0197   4.0469   4.0490
     4.0496   4.0673   4.1112   4.1123   4.1208   4.1330   4.1338   4.1479
     4.1908   4.2548   4.2670   4.2678   4.2888   4.2898   4.2939   4.3870
     4.3981   4.4380   4.4393   4.4679   4.5242   4.5252   4.5357   4.5970
     4.6104   4.6121   4.6223   4.7214   5.1512   5.1528   5.1554   5.1571
     5.1722   5.1758   5.1765   5.1840   5.1912   5.1983   5.2018   5.2080
     5.2104   5.2351   5.2353   5.2362   5.2553   5.2641   5.2657   5.2666
     5.2803   5.2991   5.3083   5.3129   5.3141   5.3288   5.3364   5.3373
     5.3582   5.3584   5.3606   5.3635   5.3806   5.3932   5.4071   5.4078
     5.4128   5.4315   5.4331   5.4455   5.4464   5.4933   5.5022   5.5031
     5.5094   5.5162   5.5541   5.5594   5.5749   5.5753   5.6021   5.6114
     5.6119   5.6189   5.6256   5.6262   5.6428   5.6704   5.6817   5.7143
     5.7152   5.7174   5.7346   5.7724   5.7731   5.7735   5.8025   5.8027
     5.8101   5.8590   5.8755   5.8758   5.8786   5.9150   5.9591   5.9597
     6.0342   6.0350   6.0356   6.0600   6.0787   6.0795   6.1732   6.2070
     6.2134   6.2146   6.2662   6.2671   6.2697   6.2776   6.2853   6.3490
     6.3497   6.3651   6.3721   6.4154   6.4244   6.4251   6.4277   6.4704
     6.4981   6.4986   6.5461   6.5588   6.5945   6.5962   6.6664   6.6674
     6.6776   6.7197   6.7363   6.7369   6.7475   6.8135   6.8139   6.8449
     6.8688   6.9275   6.9374   7.0520

          k =-0.3333-0.5774 0.2714 (115827 PWs)   bands (ev):

   -28.2867 -28.2759 -28.2757 -28.2757 -28.2756 -28.2756 -28.2755 -28.2754
   -28.2753 -28.2743 -28.2742 -28.2722 -14.9253 -14.9234 -14.9233 -14.9230
   -14.9228 -14.9227 -14.9227 -14.9226 -14.9226 -14.9224 -14.9223 -14.9216
   -14.9192 -14.9176 -14.9175 -14.9172 -14.9169 -14.9168 -14.9168 -14.9167
   -14.9167 -14.9166 -14.9164 -14.9158 -14.9071 -14.9055 -14.9054 -14.9050
   -14.9047 -14.9047 -14.9047 -14.9047 -14.9045 -14.9044 -14.9043 -14.9037
   -14.8671 -14.8653 -14.8652 -14.8648 -14.8646 -14.8645 -14.8645 -14.8645
   -14.8644 -14.8642 -14.8642 -14.8635 -14.8217 -14.8202 -14.8200 -14.8197
   -14.8194 -14.8194 -14.8193 -14.8193 -14.8192 -14.8190 -14.8184 -14.8178
   -10.3448 -10.3383 -10.3375 -10.3368 -10.3363 -10.3347 -10.3334 -10.3328
   -10.3321 -10.3312 -10.3299 -10.3291 -10.3122 -10.3077 -10.3074 -10.3052
   -10.3026 -10.3008 -10.2984 -10.2974 -10.2968 -10.2930 -10.2913 -10.2912
   -10.2746 -10.2690 -10.2678 -10.2667 -10.2661 -10.2653 -10.2641 -10.2629
   -10.2628 -10.2605 -10.2594 -10.2587  -6.6186  -6.6182  -6.6178  -6.5253
    -6.5247  -6.5244  -6.3086  -6.2903  -6.2893  -6.2890  -6.2581  -6.2150
    -5.8740  -5.8573  -5.8448  -5.7797  -5.7794  -5.7790  -5.7422  -5.7417
    -5.7410  -5.7158  -5.6887  -5.6876  -5.6871  -5.6731  -5.6718  -5.6713
    -5.6709  -5.6433  -5.5571  -5.5563  -5.5548  -5.5254  -5.5246  -5.5236
    -5.5050  -5.5031  -5.5030  -5.5016  -5.4586  -5.3982  -5.3977  -5.3968
    -5.3579  -5.3228  -5.3224  -5.3221  -0.5205  -0.5062  -0.5055  -0.5053
    -0.4611  -0.4177  -0.4171  -0.4165  -0.3550  -0.2934  -0.2928  -0.2923
     1.4817   1.4827   1.4833   1.6383   1.6388   1.6405   1.6898   1.7745
     1.7759   1.7767   1.7778   1.7949   1.9799   1.9816   1.9832   2.0552
     2.1708   2.1928   2.1933   2.1940   2.2472   2.3970   2.3976   2.3983
     2.4882   2.4895   2.4900   2.5569   2.5874   2.5880   2.5889   2.5930
     2.6782   2.7361   2.7374   2.7384   2.8221   2.8234   2.8240   2.8284
     2.9019   2.9029   2.9040   2.9239   2.9366   2.9547   2.9556   2.9574
     3.0599   3.0606   3.0615   3.0879   3.0887   3.0906   3.1264   3.1810
     3.2446   3.2450   3.2460   3.2710   3.2714   3.2724   3.3214   3.3269
     3.3278   3.3298   3.3743   3.4084   3.4205   3.4655   3.4660   3.4664
     3.4934   3.4992   3.4998   3.5003   3.5370   3.5375   3.5383   3.5417
     3.5609   3.6161   3.6169   3.6190   3.6548   3.6551   3.6588   3.6977
     3.6982   3.7014   3.7208   3.7442   3.8222   3.8414   3.8419   3.8434
     3.9386   3.9399   3.9411   3.9416   4.0299   4.0303   4.0315   4.0411
     4.0675   4.0685   4.0700   4.1093   4.1134   4.1147   4.1154   4.1682
     4.2728   4.2733   4.2747   4.2901   4.3144   4.3600   4.3617   4.3626
     4.4166   4.4173   4.4190   4.4932   4.4937   4.4942   4.5084   4.5116
     4.5648   4.6670   4.6679   4.6688   5.1496   5.1573   5.1576   5.1583
     5.1595   5.1828   5.1834   5.1839   5.1982   5.1987   5.2002   5.2117
     5.2254   5.2256   5.2264   5.2518   5.2527   5.2534   5.2569   5.2693
     5.3012   5.3023   5.3032   5.3096   5.3293   5.3297   5.3306   5.3678
     5.3684   5.3695   5.3748   5.3946   5.3960   5.4089   5.4098   5.4103
     5.4328   5.4335   5.4346   5.4395   5.4843   5.4852   5.4862   5.4912
     5.5398   5.5400   5.5408   5.5440   5.5664   5.5668   5.5673   5.6055
     5.6063   5.6068   5.6389   5.6392   5.6723   5.6729   5.6736   5.7029
     5.7039   5.7044   5.7177   5.7593   5.7598   5.7608   5.8015   5.8077
     5.8205   5.8240   5.8243   5.8251   5.8898   5.8912   5.8917   6.0573
     6.0604   6.0608   6.0616   6.0774   6.1197   6.1208   6.1212   6.1349
     6.1959   6.2374   6.2385   6.2389   6.2843   6.3016   6.3025   6.3041
     6.3066   6.3851   6.3858   6.3863   6.4500   6.4668   6.4681   6.4689
     6.4920   6.4928   6.5580   6.5594   6.5603   6.6457   6.6850   6.6856
     6.6863   6.7610   6.7779   6.7786   6.7788   6.7935   6.8546   6.8551
     6.8557   6.9354   6.9362   6.9366

     highest occupied level (ev):     7.1806

!    total energy              =   -9077.18768043 Ry
     estimated scf accuracy    <          1.8E-10 Ry

     The total energy is the sum of the following terms:
     one-electron contribution =   -2776.36338374 Ry
     hartree contribution      =    2019.93734684 Ry
     xc contribution           =   -2269.38738100 Ry
     ewald contribution        =   -3895.57834260 Ry
     one-center paw contrib.   =   -2155.79591993 Ry

     convergence has been achieved in  23 iterations

     negative rho (up, down):  7.902E-01 0.000E+00

     Forces acting on atoms (cartesian axes, Ry/au):

     atom    1 type  1   force =     0.00014267   -0.00001088    0.00042014
     atom    2 type  1   force =    -0.00013357    0.00024122   -0.00001569
     atom    3 type  1   force =    -0.00019742    0.00030829    0.00008153
     atom    4 type  1   force =    -0.00014800    0.00026784    0.00001104
     atom    5 type  1   force =    -0.00013044   -0.00042083    0.00007476
     atom    6 type  1   force =    -0.00014020   -0.00030031    0.00002872
     atom    7 type  1   force =    -0.00019747   -0.00021126   -0.00000819
     atom    8 type  1   force =    -0.00010008   -0.00021514   -0.00009549
     atom    9 type  1   force =     0.00030719   -0.00000572   -0.00000550
     atom   10 type  1   force =     0.00030250   -0.00001342   -0.00001285
     atom   11 type  1   force =     0.00031733    0.00000896   -0.00001046
     atom   12 type  1   force =     0.00030839    0.00000504    0.00000300
     atom   13 type  2   force =     0.00096076   -0.00184529   -0.00104194
     atom   14 type  2   force =     0.00023002   -0.00041755    0.00021577
     atom   15 type  2   force =     0.00021724   -0.00034105    0.00019266
     atom   16 type  2   force =     0.00018938   -0.00039442    0.00017803
     atom   17 type  2   force =     0.00023425    0.00036540    0.00018743
     atom   18 type  2   force =     0.00022779    0.00037001    0.00018988
     atom   19 type  2   force =     0.00023203    0.00037687    0.00018833
     atom   20 type  2   force =     0.00023712    0.00037772    0.00018990
     atom   21 type  2   force =    -0.00042797    0.00002664    0.00017926
     atom   22 type  2   force =    -0.00044182    0.00002442    0.00019091
     atom   23 type  2   force =    -0.00043836    0.00003812    0.00025250
     atom   24 type  2   force =    -0.00042082    0.00000426    0.00018694
     atom   25 type  2   force =    -0.00044127   -0.00002756   -0.00021139
     atom   26 type  2   force =    -0.00044545   -0.00001506   -0.00020387
     atom   27 type  2   force =    -0.00041182   -0.00001315   -0.00014952
     atom   28 type  2   force =    -0.00044568   -0.00001225   -0.00016840
     atom   29 type  2   force =     0.00150343    0.00010090   -0.00104360
     atom   30 type  2   force =     0.00014783    0.00038428   -0.00021984
     atom   31 type  2   force =     0.00018659    0.00040428   -0.00018226
     atom   32 type  2   force =     0.00023845    0.00041936   -0.00011356
     atom   33 type  2   force =     0.00023785   -0.00037219   -0.00018624
     atom   34 type  2   force =     0.00022681   -0.00036719   -0.00018741
     atom   35 type  2   force =     0.00023326   -0.00036683   -0.00018522
     atom   36 type  2   force =     0.00023443   -0.00036590   -0.00018619
     atom   37 type  3   force =     0.00026301   -0.00040032   -0.00001778
     atom   38 type  3   force =     0.00026789   -0.00048245   -0.00000753
     atom   39 type  3   force =     0.00027803   -0.00047590   -0.00002575
     atom   40 type  3   force =     0.00025416   -0.00047892    0.00000497
     atom   41 type  3   force =     0.00029510    0.00042464   -0.00002505
     atom   42 type  3   force =     0.00025903    0.00046270   -0.00001573
     atom   43 type  3   force =     0.00026580    0.00050886    0.00002414
     atom   44 type  3   force =     0.00027927    0.00048880    0.00001812
     atom   45 type  3   force =    -0.00062763   -0.00003557   -0.00003360
     atom   46 type  3   force =    -0.00200727   -0.00287157    0.00009950
     atom   47 type  3   force =    -0.00055965    0.00006619    0.00001513
     atom   48 type  3   force =    -0.00056000    0.00036856   -0.00002891
     atom   49 type  4   force =     0.00035306   -0.00010412   -0.00002007
     atom   50 type  4   force =     0.00035083   -0.00009842    0.00001340
     atom   51 type  4   force =     0.00035556   -0.00010504    0.00002423
     atom   52 type  4   force =     0.00035869   -0.00010338    0.00001664
     atom   53 type  4   force =    -0.00008799    0.00046155    0.00000820
     atom   54 type  4   force =    -0.00003094    0.00036645    0.00001123
     atom   55 type  4   force =    -0.00008375    0.00032019   -0.00000868
     atom   56 type  4   force =    -0.00009472    0.00031703    0.00001995
     atom   57 type  4   force =    -0.00033249   -0.00083757   -0.00038486
     atom   58 type  4   force =    -0.00019333   -0.00035753   -0.00004075
     atom   59 type  4   force =    -0.00015743   -0.00029946    0.00001552
     atom   60 type  4   force =    -0.00024127   -0.00018613    0.00001665
     atom   61 type  4   force =     0.00025066    0.00002922   -0.00022769
     atom   62 type  4   force =    -0.00018396    0.00037068    0.00006775
     atom   63 type  4   force =    -0.00032751    0.00013462   -0.00001209
     atom   64 type  4   force =    -0.00022522    0.00013530   -0.00002895
     atom   65 type  4   force =     0.00034378    0.00010519    0.00000449
     atom   66 type  4   force =     0.00035784    0.00010269   -0.00002083
     atom   67 type  4   force =     0.00035307    0.00008873   -0.00001815
     atom   68 type  4   force =     0.00034970    0.00009839   -0.00002701
     atom   69 type  4   force =    -0.00008282   -0.00034747   -0.00000703
     atom   70 type  4   force =     0.00002484   -0.00051730   -0.00037052
     atom   71 type  4   force =    -0.00010603   -0.00038018   -0.00002398
     atom   72 type  4   force =    -0.00007831   -0.00035182    0.00000241
     atom   73 type  4   force =    -0.00223068    0.00711589    0.00222036
     atom   74 type  4   force =     0.00002922    0.00020014   -0.00024041
     atom   75 type  4   force =     0.00003326    0.00011169   -0.00024271
     atom   76 type  4   force =     0.00001856    0.00010470   -0.00027940
     atom   77 type  4   force =    -0.00014131   -0.00005145   -0.00021440
     atom   78 type  4   force =    -0.00013678   -0.00007230   -0.00024459
     atom   79 type  4   force =    -0.00013716   -0.00006624   -0.00023849
     atom   80 type  4   force =    -0.00015219   -0.00006243   -0.00023529
     atom   81 type  4   force =     0.00011382   -0.00015082   -0.00020891
     atom   82 type  4   force =     0.00012385   -0.00009067   -0.00024580
     atom   83 type  4   force =     0.00012863   -0.00008078   -0.00025800
     atom   84 type  4   force =     0.00012993   -0.00009361   -0.00024346
     atom   85 type  4   force =     0.00013536    0.00007985    0.00026506
     atom   86 type  4   force =     0.00013559    0.00009021    0.00023825
     atom   87 type  4   force =     0.00013581    0.00008740    0.00024406
     atom   88 type  4   force =     0.00014291    0.00008592    0.00023430
     atom   89 type  4   force =    -0.00011980   -0.00019309    0.00012565
     atom   90 type  4   force =     0.00093847   -0.00080423    0.00030887
     atom   91 type  4   force =     0.00003881   -0.00017691    0.00023952
     atom   92 type  4   force =    -0.00028874   -0.00074929    0.00019136
     atom   93 type  4   force =    -0.00012652    0.00007465    0.00024186
     atom   94 type  4   force =    -0.00015548    0.00009970    0.00029708
     atom   95 type  4   force =    -0.00015232    0.00006000    0.00024461
     atom   96 type  4   force =    -0.00013821    0.00005736    0.00023995

     Total force =     0.009993     Total SCF correction =     0.000041
     Message from routine punch:
     Nothing written, as per user request (disk_io='none')

     init_run     :     43.18s CPU     44.89s WALL (       1 calls)
     electrons    :   2455.92s CPU   2529.88s WALL (       1 calls)
     forces       :     20.93s CPU     21.42s WALL (       1 calls)

     Called by init_run:
     wfcinit      :     39.33s CPU     40.81s WALL (       1 calls)
     potinit      :      1.19s CPU      1.22s WALL (       1 calls)
     hinit0       :      1.07s CPU      1.09s WALL (       1 calls)

     Called by electrons:
     c_bands      :   2147.85s CPU   2205.71s WALL (      23 calls)
     sum_band     :    275.13s CPU    287.20s WALL (      23 calls)
     v_of_rho     :      5.87s CPU      6.28s WALL (      24 calls)
     newd         :     20.69s CPU     24.31s WALL (      24 calls)
     PAW_pot      :      6.18s CPU      6.20s WALL (      24 calls)
     mix_rho      :      0.77s CPU      0.82s WALL (      23 calls)

     Called by c_bands:
     init_us_2    :     41.01s CPU     41.35s WALL (     336 calls)
     cegterg      :   2078.07s CPU   2135.45s WALL (     161 calls)

     Called by *egterg:
     cdiaghg      :     87.19s CPU     88.87s WALL (    1019 calls)
     h_psi        :   1129.86s CPU   1175.59s WALL (    1026 calls)
     s_psi        :    274.06s CPU    275.74s WALL (    1026 calls)
     g_psi        :      5.34s CPU      5.37s WALL (     858 calls)

     Called by h_psi:
     h_psi:calbec :    268.53s CPU    271.14s WALL (    1026 calls)
     vloc_psi     :    578.52s CPU    618.06s WALL (    1026 calls)
     add_vuspsi   :    273.97s CPU    275.75s WALL (    1026 calls)

     General routines
     calbec       :    367.45s CPU    371.08s WALL (    1215 calls)
     fft          :      6.20s CPU      6.60s WALL (     321 calls)
     ffts         :      0.76s CPU      0.78s WALL (      47 calls)
     fftw         :    425.93s CPU    458.27s WALL (  469688 calls)
     interpolate  :      1.09s CPU      1.13s WALL (      24 calls)

     Parallel routines

     PWSCF        :  42m 0.30s CPU  43m16.77s WALL


   This run was terminated on:   2:30:24  21Aug2026            

=------------------------------------------------------------------------------=
   JOB DONE.
=------------------------------------------------------------------------------=
