
     Program PWSCF v.7.3.1 starts on 21Aug2026 at  2:19:55 

     This program is part of the open-source Quantum ESPRESSO suite
     for quantum simulation of materials; please cite
         "P. Giannozzi et al., J. Phys.:Condens. Matter 21 395502 (2009);
         "P. Giannozzi et al., J. Phys.:Condens. Matter 29 465901 (2017);
         "P. Giannozzi et al., J. Chem. Phys. 152 154105 (2020);
          URL http://www.quantum-espresso.org", 
     in publications or presentations arising from this work. More details at
     http://www.quantum-espresso.org/quote

     Parallel version (MPI & OpenMP), running on      32 processor cores
     Number of MPI processes:                32
     Threads/MPI process:                     1

     MPI processes distributed on     1 nodes
     135292 MiB available memory on the printing compute node when the environment starts

     Reading input from scf.in

     Current dimensions of program PWSCF are:
     Max number of different atomic species (ntypx) = 10
     Max number of k-points (npk) =  40000
     Max angular momentum in pseudopotentials (lmaxx) =  4
     file Cu.paw.z_11.ld1.psl.v1.0.0-low.upf: wavefunction(s)  4S 3D renormalized

     K-points division:     npool     =       2
     R & G space division:  proc/nbgrp/npool/nimage =      16
     Subspace diagonalization in iterative solution of the eigenvalue problem:
     one sub-group per band group will be used
     scalapack distributed-memory algorithm (size of sub-group:  4*  4 procs)


     Parallelization info
     --------------------
     sticks:   dense  smooth     PW     G-vecs:    dense   smooth      PW
     Min        1193     597    157               163743    57882    7779
     Max        1194     599    158               163747    57885    7784
     Sum       19099    9565   2515              2619931   926125  124485

     Using Slab Decomposition



     bravais-lattice index     =            0
     lattice parameter (alat)  =      24.0273  a.u.
     unit-cell volume          =   14752.0463 (a.u.)^3
     number of atoms/cell      =           96
     number of atomic types    =            4
     number of electrons       =       840.00
     number of Kohn-Sham states=          420
     kinetic-energy cutoff     =      60.0000  Ry
     charge density cutoff     =     480.0000  Ry
     scf convergence threshold =      1.0E-09
     mixing beta               =       0.3000
     number of iterations used =            8  plain     mixing
     Exchange-correlation=  SLA  PW   PBX  PBC
                           (   1   4   3   4   0   0   0)

     celldm(1)=  24.027274  celldm(2)=   0.000000  celldm(3)=   0.000000
     celldm(4)=   0.000000  celldm(5)=   0.000000  celldm(6)=   0.000000

     crystal axes: (cart. coord. in units of alat)
               a(1) = (   1.000000   0.000000   0.000000 )  
               a(2) = (  -0.500000   0.866025   0.000000 )  
               a(3) = (   0.000000   0.000000   1.228028 )  

     reciprocal axes: (cart. coord. in units 2 pi/alat)
               b(1) = (  1.000000  0.577351 -0.000000 )  
               b(2) = (  0.000000  1.154701  0.000000 )  
               b(3) = (  0.000000 -0.000000  0.814314 )  


     PseudoPot. # 1 for Sr read from file:
     /home/yuhansun/pseudos/SSSP-1.3.0-PBE-precision/Sr_pbe_v1.uspp.F.UPF
     MD5 check sum: 6b418c05fbe9db5448babca5e47b7a5b
     Pseudo is Ultrasoft + core correction, Zval = 10.0
     Generated by new atomic code, or converted to UPF format
     Using radial grid of  883 points,  6 beta functions with: 
                l(1) =   0
                l(2) =   0
                l(3) =   1
                l(4) =   1
                l(5) =   2
                l(6) =   2
     Q(r) pseudized with  6 coefficients,  rinner =    1.400   1.400   1.400
                                                       1.400   1.400

     PseudoPot. # 2 for Cu read from file:
     /home/yuhansun/pseudos/SSSP-1.3.0-PBE-precision/Cu.paw.z_11.ld1.psl.v1.0.0-low.upf
     MD5 check sum: 619f40885d92a09a85a8b37550532d0c
     Pseudo is Projector augmented-wave + core cor, Zval = 11.0
     Generated using &quot;atomic&quot; code by A. Dal Corso  v.6.3MaX
     Shape of augmentation charge: PSQ
     Using radial grid of 1199 points,  6 beta functions with: 
                l(1) =   0
                l(2) =   0
                l(3) =   1
                l(4) =   1
                l(5) =   2
                l(6) =   2
     Q(r) pseudized with 0 coefficients 


     PseudoPot. # 3 for Sn read from file:
     /home/yuhansun/pseudos/SSSP-1.3.0-PBE-precision/Sn_pbe_v1.uspp.F.UPF
     MD5 check sum: 4cf58ce39ec5d5d420df3dd08604eb00
     Pseudo is Ultrasoft + core correction, Zval = 14.0
     Generated by new atomic code, or converted to UPF format
     Using radial grid of  891 points,  6 beta functions with: 
                l(1) =   0
                l(2) =   0
                l(3) =   1
                l(4) =   1
                l(5) =   2
                l(6) =   2
     Q(r) pseudized with  6 coefficients,  rinner =    1.200   1.200   1.200
                                                       1.200   1.200

     PseudoPot. # 4 for S  read from file:
     /home/yuhansun/pseudos/SSSP-1.3.0-PBE-precision/s_pbe_v1.4.uspp.F.UPF
     MD5 check sum: 88d86576ff6df21479756cfb9bdac1df
     Pseudo is Ultrasoft + core correction, Zval =  6.0
     Generated by new atomic code, or converted to UPF format
     Using radial grid of  907 points,  6 beta functions with: 
                l(1) =   0
                l(2) =   0
                l(3) =   1
                l(4) =   1
                l(5) =   2
                l(6) =   2
     Q(r) pseudized with  8 coefficients,  rinner =    1.300   1.300   1.300
                                                       1.300   1.300

     atomic species   valence    mass     pseudopotential
     Sr               10.00    87.62000     Sr( 1.00)
     Cu               11.00    63.54600     Cu( 1.00)
     Sn               14.00   118.71000     Sn( 1.00)
     S                 6.00    32.06500     S ( 1.00)

     No symmetry found



   Cartesian axes

     site n.     atom                  positions (alat units)
         1        Sr     tau(   1) = (   0.8569276   0.2434834   0.2021746  )
         2        Sr     tau(   2) = (   0.3594247   0.2434834   0.2046717  )
         3        Sr     tau(   3) = (  -0.3905753   0.6764960   0.2046717  )
         4        Sr     tau(   4) = (   0.1094247   0.6764960   0.2046717  )
         5        Sr     tau(   5) = (   0.1094247   0.1895292   0.6140139  )
         6        Sr     tau(   6) = (   0.6094247   0.1895292   0.6140139  )
         7        Sr     tau(   7) = (  -0.1405753   0.6225418   0.6140139  )
         8        Sr     tau(   8) = (   0.3594247   0.6225418   0.6140139  )
         9        Sr     tau(   9) = (   0.2811505   0.0000000   1.0233574  )
        10        Sr     tau(  10) = (   0.7811505   0.0000000   1.0233574  )
        11        Sr     tau(  11) = (   0.0311505   0.4330126   1.0233574  )
        12        Sr     tau(  12) = (   0.5311505   0.4330126   1.0233574  )
        13        Cu     tau(  13) = (  -0.1226788   0.2753211   0.5061747  )
        14        Cu     tau(  14) = (   0.3773212   0.2753211   0.5061747  )
        15        Cu     tau(  15) = (  -0.3726788   0.7083337   0.5061747  )
        16        Cu     tau(  16) = (   0.1273212   0.7083337   0.5061747  )
        17        Cu     tau(  17) = (   0.0729045   0.1891087   0.9155169  )
        18        Cu     tau(  18) = (   0.5729045   0.1891087   0.9155169  )
        19        Cu     tau(  19) = (  -0.1770956   0.6221213   0.9155169  )
        20        Cu     tau(  20) = (   0.3229044   0.6221213   0.9155169  )
        21        Cu     tau(  21) = (   0.0497750   0.4015949   0.0968325  )
        22        Cu     tau(  22) = (   0.5497750   0.4015949   0.0968325  )
        23        Cu     tau(  23) = (  -0.2002251   0.8346075   0.0968325  )
        24        Cu     tau(  24) = (   0.2997749   0.8346075   0.0968325  )
        25        Cu     tau(  25) = (   0.2997745   0.0314177   0.7218532  )
        26        Cu     tau(  26) = (   0.7997745   0.0314177   0.7218532  )
        27        Cu     tau(  27) = (   0.0497745   0.4644302   0.7218532  )
        28        Cu     tau(  28) = (   0.5497745   0.4644302   0.7218532  )
        29        Cu     tau(  29) = (   0.1273207   0.1576915   0.3125110  )
        30        Cu     tau(  30) = (   0.6273207   0.1576915   0.3125110  )
        31        Cu     tau(  31) = (  -0.1226793   0.5907041   0.3125110  )
        32        Cu     tau(  32) = (   0.3773207   0.5907041   0.3125110  )
        33        Cu     tau(  33) = (   0.3229040   0.2439039   1.1311954  )
        34        Cu     tau(  34) = (   0.8229040   0.2439039   1.1311954  )
        35        Cu     tau(  35) = (   0.0729039   0.6769164   1.1311954  )
        36        Cu     tau(  36) = (   0.5729039   0.6769164   1.1311954  )
        37        Sn     tau(  37) = (  -0.1762580   0.3052877   0.8186857  )
        38        Sn     tau(  38) = (   0.3237420   0.3052877   0.8186857  )
        39        Sn     tau(  39) = (  -0.4262581   0.7383003   0.8186857  )
        40        Sn     tau(  40) = (   0.0737419   0.7383003   0.8186857  )
        41        Sn     tau(  41) = (   0.0737420   0.1277249   0.0000000  )
        42        Sn     tau(  42) = (   0.5737420   0.1277249   0.0000000  )
        43        Sn     tau(  43) = (  -0.1762581   0.5607374   0.0000000  )
        44        Sn     tau(  44) = (   0.3237419   0.5607374   0.0000000  )
        45        Sn     tau(  45) = (   0.3525160   0.0000000   0.4093422  )
        46        Sn     tau(  46) = (   0.8525160   0.0000000   0.4093422  )
        47        Sn     tau(  47) = (   0.1025160   0.4330126   0.4093422  )
        48        Sn     tau(  48) = (   0.6025160   0.4330126   0.4093422  )
        49        S      tau(  49) = (  -0.0988203   0.2103164   0.9671149  )
        50        S      tau(  50) = (   0.4011797   0.2103164   0.9671149  )
        51        S      tau(  51) = (  -0.3488203   0.6433290   0.9671149  )
        52        S      tau(  52) = (   0.1511797   0.6433290   0.9671149  )
        53        S      tau(  53) = (   0.1172707   0.2422736   0.1484293  )
        54        S      tau(  54) = (   0.6172707   0.2422736   0.1484293  )
        55        S      tau(  55) = (  -0.1327293   0.6752862   0.1484293  )
        56        S      tau(  56) = (   0.3672707   0.6752862   0.1484293  )
        57        S      tau(  57) = (  -0.0184505   0.4134352   0.5577727  )
        58        S      tau(  58) = (   0.4815495   0.4134352   0.5577727  )
        59        S      tau(  59) = (  -0.2684506   0.8464478   0.5577727  )
        60        S      tau(  60) = (   0.2315494   0.8464478   0.5577727  )
        61        S      tau(  61) = (   0.2315495   0.0195774   0.2609129  )
        62        S      tau(  62) = (   0.7315495   0.0195774   0.2609129  )
        63        S      tau(  63) = (  -0.0184505   0.4525899   0.2609129  )
        64        S      tau(  64) = (   0.4815495   0.4525899   0.2609129  )
        65        S      tau(  65) = (   0.1511797   0.2226962   1.0795986  )
        66        S      tau(  66) = (   0.6511797   0.2226962   1.0795986  )
        67        S      tau(  67) = (  -0.0988203   0.6557088   1.0795986  )
        68        S      tau(  68) = (   0.4011797   0.6557088   1.0795986  )
        69        S      tau(  69) = (   0.3672707   0.1907390   0.6702552  )
        70        S      tau(  70) = (   0.8672707   0.1907390   0.6702552  )
        71        S      tau(  71) = (   0.1172707   0.6237516   0.6702552  )
        72        S      tau(  72) = (   0.6172707   0.6237516   0.6702552  )
        73        S      tau(  73) = (  -0.0296498   0.1532012   0.4035914  )
        74        S      tau(  74) = (   0.4703502   0.1532012   0.4035914  )
        75        S      tau(  75) = (  -0.2796498   0.5862137   0.4035914  )
        76        S      tau(  76) = (   0.2203502   0.5862137   0.4035914  )
        77        S      tau(  77) = (   0.1321490   0.3307341   0.8129336  )
        78        S      tau(  78) = (   0.6321490   0.3307341   0.8129336  )
        79        S      tau(  79) = (  -0.1178511   0.7637467   0.8129336  )
        80        S      tau(  80) = (   0.3821489   0.7637467   0.8129336  )
        81        S      tau(  81) = (  -0.1024985   0.3820894   1.2222770  )
        82        S      tau(  82) = (   0.3975015   0.3820894   1.2222770  )
        83        S      tau(  83) = (  -0.3524986   0.8151020   1.2222770  )
        84        S      tau(  84) = (   0.1475014   0.8151020   1.2222770  )
        85        S      tau(  85) = (   0.1475010   0.0509231   0.8244365  )
        86        S      tau(  86) = (   0.6475010   0.0509231   0.8244365  )
        87        S      tau(  87) = (  -0.1024990   0.4839357   0.8244365  )
        88        S      tau(  88) = (   0.3975010   0.4839357   0.8244365  )
        89        S      tau(  89) = (   0.2203497   0.2798114   0.4150943  )
        90        S      tau(  90) = (   0.7203497   0.2798114   0.4150943  )
        91        S      tau(  91) = (  -0.0296503   0.7128240   0.4150943  )
        92        S      tau(  92) = (   0.4703497   0.7128240   0.4150943  )
        93        S      tau(  93) = (   0.3821485   0.1022784   0.0057509  )
        94        S      tau(  94) = (   0.8821485   0.1022784   0.0057509  )
        95        S      tau(  95) = (   0.1321485   0.5352910   0.0057509  )
        96        S      tau(  96) = (   0.6321485   0.5352910   0.0057509  )

     number of k points=    14
                       cart. coord. in units 2pi/alat
        k(    1) = (   0.0000000   0.0000000   0.0000000), wk =   0.0740741
        k(    2) = (   0.0000000   0.0000000   0.2714379), wk =   0.1481481
        k(    3) = (   0.0000000   0.3849003   0.0000000), wk =   0.1481481
        k(    4) = (   0.0000000   0.3849003   0.2714379), wk =   0.1481481
        k(    5) = (   0.3333333   0.5773505   0.0000000), wk =   0.1481481
        k(    6) = (   0.3333333   0.5773505   0.2714379), wk =   0.1481481
        k(    7) = (  -0.3333333   0.1924501   0.0000000), wk =   0.1481481
        k(    8) = (   0.3333333   0.1924502   0.0000000), wk =   0.1481481
        k(    9) = (   0.0000000  -0.3849003   0.2714379), wk =   0.1481481
        k(   10) = (  -0.3333333   0.1924501   0.2714379), wk =   0.1481481
        k(   11) = (   0.3333333   0.1924502   0.2714379), wk =   0.1481481
        k(   12) = (  -0.3333333  -0.1924502   0.2714379), wk =   0.1481481
        k(   13) = (   0.3333333  -0.1924501   0.2714379), wk =   0.1481481
        k(   14) = (  -0.3333333  -0.5773505   0.2714379), wk =   0.1481481

     Dense  grid:  2619931 G-vectors     FFT dimensions: ( 180, 180, 216)

     Smooth grid:   926125 G-vectors     FFT dimensions: ( 120, 120, 150)

     Estimated max dynamical RAM per process >       1.07 GB

     Estimated total dynamical RAM >      33.54 GB

     Initial potential from superposition of free atoms

     starting charge     827.5884, renormalised to     840.0000

     negative rho (up, down):  7.778E-01 0.000E+00
     Starting wfcs are  672 randomized atomic wfcs
     Checking if some PAW data can be deallocated... 

     total cpu time spent up to now is       41.7 secs

     Self-consistent Calculation

     iteration #  1     ecut=    60.00 Ry     beta= 0.30
     Davidson diagonalization with overlap
     ethr =  1.00E-02,  avg # of iterations =  2.0

     negative rho (up, down):  7.747E-01 0.000E+00

     total cpu time spent up to now is      117.4 secs

     total energy              =   -9070.29224793 Ry
     estimated scf accuracy    <      21.97695527 Ry

     iteration #  2     ecut=    60.00 Ry     beta= 0.30
     Davidson diagonalization with overlap
     ethr =  2.62E-03,  avg # of iterations =  4.8

     negative rho (up, down):  7.752E-01 0.000E+00

     total cpu time spent up to now is      213.0 secs

     total energy              =   -9076.61395701 Ry
     estimated scf accuracy    <       8.22940962 Ry

     iteration #  3     ecut=    60.00 Ry     beta= 0.30
     Davidson diagonalization with overlap
     ethr =  9.80E-04,  avg # of iterations =  2.0

     negative rho (up, down):  7.804E-01 0.000E+00

     total cpu time spent up to now is      289.7 secs

     total energy              =   -9076.48757642 Ry
     estimated scf accuracy    <       1.62534862 Ry

     iteration #  4     ecut=    60.00 Ry     beta= 0.30
     Davidson diagonalization with overlap
     ethr =  1.93E-04,  avg # of iterations =  6.1

     negative rho (up, down):  7.830E-01 0.000E+00

     total cpu time spent up to now is      401.4 secs

     total energy              =   -9076.69996037 Ry
     estimated scf accuracy    <       2.07701237 Ry

     iteration #  5     ecut=    60.00 Ry     beta= 0.30
     Davidson diagonalization with overlap
     ethr =  1.93E-04,  avg # of iterations =  5.3

     negative rho (up, down):  7.884E-01 0.000E+00

     total cpu time spent up to now is      492.6 secs

     total energy              =   -9077.13681166 Ry
     estimated scf accuracy    <       0.14679269 Ry

     iteration #  6     ecut=    60.00 Ry     beta= 0.30
     Davidson diagonalization with overlap
     ethr =  1.75E-05,  avg # of iterations =  6.0

     negative rho (up, down):  7.902E-01 0.000E+00

     total cpu time spent up to now is      587.8 secs

     total energy              =   -9077.18446061 Ry
     estimated scf accuracy    <       0.01288629 Ry

     iteration #  7     ecut=    60.00 Ry     beta= 0.30
     Davidson diagonalization with overlap
     ethr =  1.53E-06,  avg # of iterations =  5.0

     negative rho (up, down):  7.908E-01 0.000E+00

     total cpu time spent up to now is      694.2 secs

     total energy              =   -9077.18876700 Ry
     estimated scf accuracy    <       0.00566624 Ry

     iteration #  8     ecut=    60.00 Ry     beta= 0.30
     Davidson diagonalization with overlap
     ethr =  6.75E-07,  avg # of iterations =  6.4

     negative rho (up, down):  7.912E-01 0.000E+00

     total cpu time spent up to now is      818.4 secs

     total energy              =   -9077.17915544 Ry
     estimated scf accuracy    <       0.04916385 Ry

     iteration #  9     ecut=    60.00 Ry     beta= 0.30
     Davidson diagonalization with overlap
     ethr =  6.75E-07,  avg # of iterations =  6.6

     negative rho (up, down):  7.911E-01 0.000E+00

     total cpu time spent up to now is      949.7 secs

     total energy              =   -9077.18762877 Ry
     estimated scf accuracy    <       0.00172914 Ry

     iteration # 10     ecut=    60.00 Ry     beta= 0.30
     Davidson diagonalization with overlap
     ethr =  2.06E-07,  avg # of iterations =  2.6

     negative rho (up, down):  7.908E-01 0.000E+00

     total cpu time spent up to now is     1030.3 secs

     total energy              =   -9077.18753106 Ry
     estimated scf accuracy    <       0.00048357 Ry

     iteration # 11     ecut=    60.00 Ry     beta= 0.30
     Davidson diagonalization with overlap
     ethr =  5.76E-08,  avg # of iterations =  5.5

     negative rho (up, down):  7.905E-01 0.000E+00

     total cpu time spent up to now is     1141.9 secs

     total energy              =   -9077.18769932 Ry
     estimated scf accuracy    <       0.00018361 Ry

     iteration # 12     ecut=    60.00 Ry     beta= 0.30
     Davidson diagonalization with overlap
     ethr =  2.19E-08,  avg # of iterations =  3.6

     negative rho (up, down):  7.904E-01 0.000E+00

     total cpu time spent up to now is     1235.1 secs

     total energy              =   -9077.18772250 Ry
     estimated scf accuracy    <       0.00003888 Ry

     iteration # 13     ecut=    60.00 Ry     beta= 0.30
     Davidson diagonalization with overlap
     ethr =  4.63E-09,  avg # of iterations =  5.7

     negative rho (up, down):  7.904E-01 0.000E+00

     total cpu time spent up to now is     1332.6 secs

     total energy              =   -9077.18773123 Ry
     estimated scf accuracy    <       0.00000822 Ry

     iteration # 14     ecut=    60.00 Ry     beta= 0.30
     Davidson diagonalization with overlap
     ethr =  9.78E-10,  avg # of iterations =  3.2

     negative rho (up, down):  7.903E-01 0.000E+00

     total cpu time spent up to now is     1420.8 secs

     total energy              =   -9077.18773250 Ry
     estimated scf accuracy    <       0.00000193 Ry

     iteration # 15     ecut=    60.00 Ry     beta= 0.30
     Davidson diagonalization with overlap
     ethr =  2.29E-10,  avg # of iterations =  4.7

     negative rho (up, down):  7.902E-01 0.000E+00

     total cpu time spent up to now is     1514.5 secs

     total energy              =   -9077.18773307 Ry
     estimated scf accuracy    <       0.00000029 Ry

     iteration # 16     ecut=    60.00 Ry     beta= 0.30
     Davidson diagonalization with overlap
     ethr =  3.40E-11,  avg # of iterations =  6.4

     negative rho (up, down):  7.902E-01 0.000E+00

     total cpu time spent up to now is     1633.6 secs

     total energy              =   -9077.18773325 Ry
     estimated scf accuracy    <       0.00000004 Ry

     iteration # 17     ecut=    60.00 Ry     beta= 0.30
     Davidson diagonalization with overlap
     ethr =  4.23E-12,  avg # of iterations =  6.4

     negative rho (up, down):  7.902E-01 0.000E+00

     total cpu time spent up to now is     1752.9 secs

     total energy              =   -9077.18773329 Ry
     estimated scf accuracy    <       0.00000001 Ry

     iteration # 18     ecut=    60.00 Ry     beta= 0.30
     Davidson diagonalization with overlap
     ethr =  1.71E-12,  avg # of iterations =  5.4

     negative rho (up, down):  7.902E-01 0.000E+00

     total cpu time spent up to now is     1854.7 secs

     total energy              =   -9077.18773330 Ry
     estimated scf accuracy    <          5.2E-09 Ry

     iteration # 19     ecut=    60.00 Ry     beta= 0.30
     Davidson diagonalization with overlap
     ethr =  6.19E-13,  avg # of iterations =  4.4

     negative rho (up, down):  7.902E-01 0.000E+00

     total cpu time spent up to now is     1953.6 secs

     total energy              =   -9077.18773331 Ry
     estimated scf accuracy    <          2.2E-09 Ry

     iteration # 20     ecut=    60.00 Ry     beta= 0.30
     Davidson diagonalization with overlap
     ethr =  2.58E-13,  avg # of iterations =  4.6

     negative rho (up, down):  7.902E-01 0.000E+00

     total cpu time spent up to now is     2046.3 secs

     End of self-consistent calculation

          k = 0.0000 0.0000 0.0000 (115723 PWs)   bands (ev):

   -28.2790 -28.2787 -28.2774 -28.2772 -28.2764 -28.2762 -28.2754 -28.2737
   -28.2736 -28.2734 -28.2734 -28.2702 -14.9306 -14.9278 -14.9249 -14.9245
   -14.9240 -14.9228 -14.9225 -14.9224 -14.9221 -14.9218 -14.9205 -14.9196
   -14.9187 -14.9181 -14.9168 -14.9167 -14.9167 -14.9166 -14.9163 -14.9161
   -14.9146 -14.9138 -14.9126 -14.9108 -14.9103 -14.9097 -14.9066 -14.9061
   -14.9047 -14.9046 -14.9045 -14.9043 -14.9026 -14.9018 -14.8987 -14.8983
   -14.8724 -14.8695 -14.8664 -14.8658 -14.8645 -14.8644 -14.8643 -14.8642
   -14.8624 -14.8616 -14.8585 -14.8581 -14.8273 -14.8243 -14.8213 -14.8206
   -14.8194 -14.8192 -14.8191 -14.8190 -14.8172 -14.8164 -14.8133 -14.8129
   -10.3404 -10.3402 -10.3388 -10.3376 -10.3372 -10.3356 -10.3347 -10.3343
   -10.3328 -10.3325 -10.3294 -10.3234 -10.3107 -10.3094 -10.3081 -10.3059
   -10.3027 -10.3021 -10.3014 -10.3004 -10.2935 -10.2921 -10.2906 -10.2820
   -10.2729 -10.2706 -10.2686 -10.2663 -10.2662 -10.2644 -10.2632 -10.2614
   -10.2602 -10.2601 -10.2572 -10.2533  -6.8630  -6.5571  -6.5524  -6.4194
    -6.4161  -6.4144  -6.3011  -6.2984  -6.2977  -6.2207  -6.2179  -6.2149
    -5.9936  -5.9896  -5.9857  -5.8515  -5.8491  -5.8478  -5.7977  -5.7952
    -5.7943  -5.7371  -5.7366  -5.6211  -5.6181  -5.6177  -5.6153  -5.6134
    -5.6102  -5.6004  -5.5632  -5.5586  -5.5541  -5.5474  -5.5445  -5.5410
    -5.5176  -5.5155  -5.4330  -5.4307  -5.4284  -5.4254  -5.3757  -5.3690
    -5.3480  -5.3442  -5.3428  -5.2506  -0.6150  -0.6114  -0.6074  -0.3902
    -0.3885  -0.3875  -0.3509  -0.3179  -0.3145  -0.3132  -0.3033  -0.2981
     1.3832   1.3850   1.3869   1.5906   1.5941   1.6565   1.7152   1.7171
     1.7192   1.8045   1.8062   1.8075   2.0195   2.0410   2.0418   2.0841
     2.0850   2.0863   2.2472   2.2477   2.2494   2.3087   2.3108   2.4023
     2.4045   2.4071   2.4601   2.4614   2.4620   2.5485   2.5505   2.6611
     2.6630   2.6654   2.7838   2.7840   2.7850   2.8701   2.8734   2.9219
     2.9253   2.9287   2.9528   2.9538   2.9550   3.0259   3.0279   3.0292
     3.0452   3.0461   3.0478   3.1645   3.2126   3.2148   3.2173   3.2266
     3.2289   3.2567   3.2582   3.2586   3.3770   3.3778   3.3787   3.3926
     3.3939   3.4262   3.4276   3.4280   3.4356   3.4364   3.4369   3.4744
     3.4763   3.4780   3.4923   3.4950   3.4953   3.4968   3.5174   3.5176
     3.5840   3.5854   3.5862   3.6251   3.6272   3.6295   3.6874   3.6894
     3.6904   3.6919   3.6940   3.7066   3.7940   3.7969   3.8254   3.8258
     3.8266   3.9630   4.0180   4.0210   4.0240   4.0349   4.0360   4.0381
     4.1230   4.1238   4.1261   4.1278   4.1717   4.1738   4.1748   4.2009
     4.2091   4.2096   4.2115   4.2428   4.2455   4.2463   4.2793   4.2839
     4.4220   4.4245   4.4280   4.5172   4.5183   4.5199   4.5355   4.5373
     4.6192   4.6204   4.6239   4.8568   5.1248   5.1544   5.1556   5.1567
     5.1737   5.1742   5.1751   5.1768   5.1811   5.2224   5.2259   5.2270
     5.2286   5.2297   5.2311   5.2519   5.2520   5.2528   5.2662   5.2667
     5.2683   5.2777   5.2788   5.2804   5.3097   5.3107   5.3124   5.3130
     5.3144   5.3248   5.3370   5.3378   5.3391   5.3747   5.3755   5.3777
     5.4392   5.4392   5.4710   5.4716   5.4719   5.4745   5.4772   5.4776
     5.4782   5.4989   5.4994   5.6008   5.6017   5.6022   5.6186   5.6186
     5.6190   5.6267   5.6465   5.6475   5.6486   5.6575   5.6599   5.6625
     5.7244   5.7262   5.7447   5.7820   5.7831   5.7841   5.8197   5.8215
     5.8237   5.9020   5.9039   5.9057   5.9271   5.9278   5.9287   5.9951
     5.9981   6.0265   6.0268   6.0272   6.1491   6.1509   6.1516   6.1524
     6.2618   6.2622   6.2629   6.2634   6.2641   6.2644   6.2886   6.2926
     6.3338   6.3347   6.3365   6.3630   6.3640   6.3646   6.3879   6.3903
     6.3912   6.5526   6.5695   6.5714   6.5739   6.6346   6.6381   6.6418
     6.7460   6.7478   6.7493   6.7640   6.7661   6.7807   6.7819   6.7830
     6.8089   6.9647   7.1800   7.1815

          k = 0.0000 0.0000 0.2714 (115879 PWs)   bands (ev):

   -28.2790 -28.2787 -28.2774 -28.2772 -28.2764 -28.2762 -28.2754 -28.2737
   -28.2736 -28.2734 -28.2734 -28.2702 -14.9306 -14.9278 -14.9249 -14.9245
   -14.9240 -14.9228 -14.9225 -14.9224 -14.9221 -14.9218 -14.9205 -14.9196
   -14.9187 -14.9181 -14.9168 -14.9167 -14.9167 -14.9166 -14.9163 -14.9161
   -14.9146 -14.9138 -14.9126 -14.9108 -14.9103 -14.9097 -14.9066 -14.9061
   -14.9047 -14.9046 -14.9045 -14.9043 -14.9026 -14.9018 -14.8987 -14.8983
   -14.8724 -14.8695 -14.8664 -14.8658 -14.8645 -14.8644 -14.8643 -14.8642
   -14.8624 -14.8616 -14.8585 -14.8581 -14.8273 -14.8243 -14.8213 -14.8206
   -14.8194 -14.8192 -14.8191 -14.8190 -14.8172 -14.8164 -14.8133 -14.8129
   -10.3410 -10.3408 -10.3392 -10.3385 -10.3374 -10.3356 -10.3342 -10.3333
   -10.3332 -10.3315 -10.3281 -10.3242 -10.3124 -10.3098 -10.3078 -10.3059
   -10.3027 -10.3023 -10.3009 -10.2947 -10.2935 -10.2931 -10.2916 -10.2843
   -10.2723 -10.2701 -10.2680 -10.2669 -10.2666 -10.2647 -10.2629 -10.2611
   -10.2600 -10.2599 -10.2573 -10.2542  -6.8238  -6.7131  -6.4115  -6.4084
    -6.4077  -6.4058  -6.3061  -6.3029  -6.3018  -6.2339  -6.2302  -6.2264
    -5.9949  -5.9915  -5.9880  -5.8536  -5.8370  -5.8338  -5.8328  -5.7744
    -5.7729  -5.7717  -5.6584  -5.6554  -5.6545  -5.6514  -5.6149  -5.6127
    -5.6125  -5.6085  -5.5576  -5.5538  -5.5517  -5.5508  -5.5447  -5.5441
    -5.5410  -5.4544  -5.4372  -5.4344  -5.4336  -5.4307  -5.3750  -5.3457
    -5.3402  -5.3362  -5.3347  -5.2810  -0.6075  -0.6035  -0.5992  -0.4149
    -0.4115  -0.4101  -0.3485  -0.3320  -0.3033  -0.2995  -0.2990  -0.2737
     1.4070   1.4094   1.4117   1.5704   1.6146   1.6184   1.6190   1.6196
     1.6582   1.9347   1.9356   1.9362   2.0043   2.0465   2.0526   2.0534
     2.0541   2.0689   2.2752   2.2763   2.2780   2.3053   2.3879   2.3894
     2.3907   2.3917   2.4147   2.4169   2.4187   2.4560   2.6206   2.6229
     2.6254   2.6677   2.7184   2.7913   2.7978   2.7987   2.7991   2.8700
     2.8727   2.8750   2.9743   2.9759   2.9777   3.0443   3.0460   3.0484
     3.1052   3.1069   3.1091   3.1755   3.1992   3.2041   3.2046   3.2062
     3.2739   3.2744   3.2751   3.2843   3.3750   3.3827   3.3846   3.3854
     3.4188   3.4201   3.4212   3.4391   3.4405   3.4413   3.4485   3.4500
     3.4506   3.4771   3.4988   3.5184   3.5190   3.5196   3.5380   3.5441
     3.5494   3.5508   3.5516   3.6386   3.6441   3.6449   3.6466   3.6511
     3.6798   3.6806   3.6830   3.7732   3.8300   3.8760   3.8762   3.8769
     3.9081   3.9216   3.9938   3.9954   3.9972   4.0547   4.0559   4.0578
     4.0749   4.1155   4.1169   4.1203   4.1468   4.1489   4.1505   4.1651
     4.1709   4.1726   4.1742   4.2116   4.2507   4.2512   4.2524   4.2679
     4.4197   4.4217   4.4252   4.4835   4.5581   4.5594   4.5625   4.6042
     4.6055   4.6086   4.6770   4.8071   5.1358   5.1474   5.1540   5.1544
     5.1549   5.1650   5.1864   5.1873   5.1885   5.2160   5.2162   5.2174
     5.2185   5.2477   5.2484   5.2493   5.2579   5.2592   5.2604   5.2615
     5.2763   5.2768   5.2776   5.2790   5.3284   5.3296   5.3311   5.3325
     5.3338   5.3357   5.3411   5.3428   5.3437   5.3660   5.3738   5.3747
     5.3760   5.3898   5.4030   5.4200   5.4207   5.4219   5.5262   5.5324
     5.5331   5.5333   5.5823   5.5882   5.5886   5.5892   5.5901   5.6197
     5.6205   5.6211   5.6500   5.6523   5.6545   5.6611   5.6818   5.6824
     5.6830   5.7550   5.7553   5.7562   5.7905   5.7991   5.8160   5.8181
     5.8199   5.8711   5.8820   5.8840   5.8858   5.9879   5.9893   5.9901
     6.0428   6.0431   6.0432   6.0976   6.0986   6.0991   6.1754   6.1907
     6.1923   6.1939   6.2361   6.2676   6.2693   6.2708   6.3249   6.3263
     6.3279   6.3580   6.3618   6.3705   6.3715   6.3726   6.3954   6.4290
     6.4302   6.4307   6.4803   6.6395   6.6403   6.6416   6.6430   6.6443
     6.6471   6.6706   6.7071   6.7098   6.7114   6.7518   6.7538   6.7542
     6.9416   7.0052   7.0948   7.1701

          k = 0.0000 0.3849 0.0000 (115797 PWs)   bands (ev):

   -28.2790 -28.2787 -28.2774 -28.2772 -28.2764 -28.2762 -28.2754 -28.2737
   -28.2736 -28.2734 -28.2734 -28.2702 -14.9306 -14.9277 -14.9248 -14.9245
   -14.9240 -14.9227 -14.9226 -14.9224 -14.9222 -14.9218 -14.9205 -14.9196
   -14.9187 -14.9181 -14.9168 -14.9167 -14.9167 -14.9165 -14.9164 -14.9161
   -14.9146 -14.9138 -14.9126 -14.9108 -14.9103 -14.9097 -14.9066 -14.9061
   -14.9047 -14.9046 -14.9045 -14.9043 -14.9026 -14.9018 -14.8987 -14.8983
   -14.8724 -14.8695 -14.8664 -14.8658 -14.8645 -14.8644 -14.8643 -14.8642
   -14.8624 -14.8616 -14.8585 -14.8581 -14.8273 -14.8243 -14.8213 -14.8206
   -14.8194 -14.8192 -14.8191 -14.8190 -14.8172 -14.8164 -14.8133 -14.8129
   -10.3397 -10.3394 -10.3377 -10.3368 -10.3357 -10.3352 -10.3343 -10.3340
   -10.3329 -10.3318 -10.3300 -10.3256 -10.3082 -10.3074 -10.3069 -10.3051
   -10.3027 -10.3022 -10.3015 -10.3000 -10.2957 -10.2943 -10.2894 -10.2848
   -10.2713 -10.2699 -10.2685 -10.2669 -10.2662 -10.2648 -10.2636 -10.2628
   -10.2620 -10.2596 -10.2583 -10.2550  -6.7878  -6.5903  -6.5015  -6.4955
    -6.4374  -6.4362  -6.3674  -6.3462  -6.2861  -6.2845  -6.2491  -6.2471
    -5.9146  -5.9111  -5.8209  -5.8183  -5.8164  -5.7773  -5.7660  -5.7649
    -5.7325  -5.7248  -5.7234  -5.6887  -5.6876  -5.6471  -5.6390  -5.6364
    -5.6289  -5.5937  -5.5863  -5.5836  -5.5705  -5.5279  -5.5194  -5.5179
    -5.5146  -5.5028  -5.4648  -5.4499  -5.4380  -5.4363  -5.4206  -5.4143
    -5.3478  -5.3461  -5.3136  -5.2701  -0.5739  -0.5712  -0.5584  -0.4332
    -0.4063  -0.4043  -0.3779  -0.3374  -0.3346  -0.3334  -0.3144  -0.3051
     1.4168   1.4880   1.4902   1.4996   1.6400   1.6505   1.6910   1.7243
     1.7252   1.8284   1.8763   1.8770   1.9541   1.9548   1.9558   2.0272
     2.1151   2.2091   2.2295   2.2299   2.3376   2.3627   2.3879   2.3885
     2.3938   2.4091   2.4494   2.5371   2.5391   2.6135   2.6148   2.6182
     2.6568   2.7363   2.8141   2.8149   2.8227   2.8397   2.8423   2.8455
     2.8541   2.8838   2.9069   2.9078   2.9160   2.9610   2.9618   3.0039
     3.0515   3.0559   3.0572   3.1259   3.1501   3.1757   3.2027   3.2105
     3.2121   3.2358   3.2612   3.2617   3.2681   3.3234   3.3307   3.3319
     3.3402   3.3725   3.3937   3.3944   3.4344   3.4405   3.4416   3.4493
     3.4978   3.4982   3.5008   3.5115   3.5117   3.5123   3.5244   3.5415
     3.5611   3.6036   3.6046   3.6115   3.6353   3.6488   3.6794   3.6803
     3.6935   3.7040   3.7050   3.7078   3.7794   3.7802   3.8486   3.8592
     3.8976   3.9721   3.9730   3.9799   3.9804   4.0293   4.0399   4.0410
     4.0938   4.1110   4.1212   4.1221   4.1244   4.1623   4.1626   4.1781
     4.2495   4.2668   4.2695   4.2853   4.3013   4.3228   4.3237   4.3682
     4.3769   4.4163   4.4197   4.4836   4.5163   4.5265   4.5282   4.5305
     4.5885   4.5911   4.6299   4.7498   5.1429   5.1433   5.1477   5.1563
     5.1607   5.1611   5.1701   5.1737   5.2140   5.2191   5.2194   5.2225
     5.2291   5.2378   5.2487   5.2491   5.2505   5.2614   5.2667   5.2718
     5.2722   5.2896   5.3052   5.3054   5.3131   5.3189   5.3277   5.3285
     5.3367   5.3501   5.3533   5.3538   5.3585   5.3669   5.4131   5.4143
     5.4340   5.4514   5.4611   5.4620   5.4858   5.4932   5.4994   5.4997
     5.5028   5.5132   5.5296   5.5433   5.5568   5.5574   5.5608   5.6035
     5.6042   5.6291   5.6313   5.6319   5.6684   5.6779   5.6951   5.6957
     5.6972   5.7180   5.7293   5.7568   5.7735   5.7758   5.8087   5.8201
     5.8211   5.8625   5.8775   5.8778   5.9499   5.9508   5.9657   5.9665
     5.9898   6.0065   6.0079   6.0218   6.1394   6.1403   6.1453   6.1606
     6.2258   6.2295   6.2301   6.2503   6.2708   6.2881   6.2892   6.3009
     6.3619   6.3627   6.3780   6.3905   6.3913   6.4412   6.4866   6.4876
     6.5240   6.5377   6.5384   6.5759   6.6042   6.6515   6.6858   6.6907
     6.6933   6.7302   6.7375   6.7385   6.7631   6.7773   6.7940   6.8125
     6.8134   6.9037   6.9091   7.0802

          k = 0.0000 0.3849 0.2714 (115773 PWs)   bands (ev):

   -28.2790 -28.2787 -28.2774 -28.2772 -28.2764 -28.2762 -28.2754 -28.2737
   -28.2736 -28.2734 -28.2734 -28.2702 -14.9306 -14.9277 -14.9248 -14.9245
   -14.9240 -14.9227 -14.9226 -14.9224 -14.9222 -14.9218 -14.9205 -14.9196
   -14.9187 -14.9181 -14.9168 -14.9167 -14.9167 -14.9165 -14.9164 -14.9161
   -14.9146 -14.9138 -14.9126 -14.9108 -14.9103 -14.9097 -14.9066 -14.9061
   -14.9047 -14.9046 -14.9045 -14.9043 -14.9026 -14.9018 -14.8987 -14.8983
   -14.8724 -14.8695 -14.8664 -14.8658 -14.8645 -14.8644 -14.8643 -14.8642
   -14.8624 -14.8616 -14.8585 -14.8581 -14.8273 -14.8243 -14.8213 -14.8206
   -14.8194 -14.8192 -14.8191 -14.8190 -14.8172 -14.8164 -14.8133 -14.8129
   -10.3404 -10.3400 -10.3384 -10.3371 -10.3358 -10.3353 -10.3346 -10.3334
   -10.3323 -10.3307 -10.3294 -10.3260 -10.3108 -10.3075 -10.3070 -10.3059
   -10.3017 -10.3011 -10.2998 -10.2974 -10.2957 -10.2941 -10.2897 -10.2872
   -10.2709 -10.2701 -10.2693 -10.2667 -10.2658 -10.2645 -10.2633 -10.2630
   -10.2620 -10.2594 -10.2585 -10.2560  -6.7509  -6.6464  -6.5614  -6.4713
    -6.4215  -6.4200  -6.3638  -6.3294  -6.3290  -6.2584  -6.2250  -6.2239
    -5.9082  -5.9046  -5.8219  -5.8194  -5.8100  -5.8073  -5.7935  -5.7589
    -5.7575  -5.7334  -5.7088  -5.7078  -5.6731  -5.6356  -5.6296  -5.6271
    -5.6248  -5.6057  -5.6010  -5.5996  -5.5699  -5.5264  -5.5230  -5.5224
    -5.5205  -5.4928  -5.4703  -5.4347  -5.4304  -5.4285  -5.4206  -5.3615
    -5.3474  -5.3453  -5.3225  -5.2999  -0.5623  -0.5590  -0.5554  -0.4370
    -0.4345  -0.4217  -0.3952  -0.3749  -0.3170  -0.3160  -0.3004  -0.2799
     1.4312   1.4841   1.4876   1.4884   1.6256   1.6422   1.7729   1.7747
     1.7834   1.7916   1.7992   1.8000   1.9140   1.9938   1.9950   2.0775
     2.1541   2.1996   2.2131   2.2482   2.2486   2.3585   2.3940   2.3949
     2.3974   2.4492   2.5111   2.5129   2.5465   2.5912   2.5933   2.6075
     2.6446   2.7129   2.7627   2.7676   2.7699   2.7887   2.8088   2.8103
     2.8398   2.8746   2.9149   2.9155   2.9181   2.9809   3.0230   3.0238
     3.0703   3.1053   3.1062   3.1343   3.1690   3.1920   3.1939   3.1965
     3.2005   3.2315   3.2643   3.2648   3.2778   3.3186   3.3218   3.3226
     3.3235   3.3878   3.3886   3.4109   3.4450   3.4458   3.4692   3.4700
     3.4727   3.4732   3.4744   3.4787   3.5330   3.5365   3.5372   3.5929
     3.6105   3.6129   3.6136   3.6325   3.6418   3.6506   3.6580   3.6593
     3.6666   3.7105   3.7111   3.7125   3.8359   3.8368   3.8796   3.8890
     3.9052   3.9487   3.9495   3.9736   3.9836   4.0210   4.0475   4.0499
     4.0524   4.0641   4.1092   4.1108   4.1176   4.1334   4.1344   4.1473
     4.1941   4.2555   4.2675   4.2684   4.2882   4.2907   4.2955   4.3853
     4.3971   4.4372   4.4405   4.4677   4.5247   4.5257   4.5346   4.5951
     4.6085   4.6116   4.6252   4.7226   5.1494   5.1499   5.1548   5.1577
     5.1732   5.1770   5.1776   5.1833   5.1908   5.1980   5.2008   5.2067
     5.2077   5.2340   5.2347   5.2357   5.2548   5.2642   5.2661   5.2673
     5.2790   5.2976   5.3070   5.3133   5.3138   5.3291   5.3374   5.3385
     5.3586   5.3587   5.3605   5.3637   5.3804   5.3937   5.4060   5.4068
     5.4135   5.4316   5.4341   5.4447   5.4452   5.4928   5.5020   5.5025
     5.5106   5.5163   5.5533   5.5594   5.5747   5.5751   5.6019   5.6107
     5.6111   5.6192   5.6248   5.6254   5.6438   5.6696   5.6820   5.7138
     5.7149   5.7182   5.7330   5.7708   5.7731   5.7739   5.8035   5.8039
     5.8091   5.8587   5.8764   5.8774   5.8780   5.9142   5.9600   5.9604
     6.0339   6.0349   6.0357   6.0585   6.0791   6.0800   6.1734   6.2052
     6.2126   6.2140   6.2662   6.2666   6.2714   6.2777   6.2867   6.3494
     6.3506   6.3676   6.3728   6.4146   6.4242   6.4254   6.4267   6.4708
     6.4983   6.4995   6.5459   6.5596   6.5954   6.5956   6.6655   6.6674
     6.6775   6.7197   6.7360   6.7372   6.7500   6.8135   6.8144   6.8457
     6.8676   6.9282   6.9377   7.0517

          k = 0.3333 0.5774 0.0000 (115752 PWs)   bands (ev):

   -28.2790 -28.2787 -28.2774 -28.2772 -28.2764 -28.2762 -28.2754 -28.2737
   -28.2736 -28.2734 -28.2734 -28.2702 -14.9306 -14.9277 -14.9248 -14.9245
   -14.9240 -14.9227 -14.9225 -14.9224 -14.9223 -14.9218 -14.9205 -14.9196
   -14.9187 -14.9181 -14.9168 -14.9167 -14.9167 -14.9165 -14.9164 -14.9161
   -14.9146 -14.9138 -14.9126 -14.9108 -14.9103 -14.9097 -14.9066 -14.9061
   -14.9047 -14.9046 -14.9045 -14.9044 -14.9026 -14.9018 -14.8987 -14.8983
   -14.8724 -14.8695 -14.8664 -14.8658 -14.8645 -14.8644 -14.8643 -14.8642
   -14.8624 -14.8616 -14.8585 -14.8581 -14.8273 -14.8243 -14.8213 -14.8206
   -14.8194 -14.8192 -14.8191 -14.8190 -14.8172 -14.8164 -14.8133 -14.8129
   -10.3402 -10.3377 -10.3372 -10.3366 -10.3361 -10.3348 -10.3344 -10.3337
   -10.3330 -10.3301 -10.3296 -10.3280 -10.3080 -10.3062 -10.3056 -10.3049
   -10.3030 -10.3017 -10.3012 -10.3006 -10.2979 -10.2904 -10.2896 -10.2887
   -10.2707 -10.2688 -10.2684 -10.2671 -10.2662 -10.2647 -10.2645 -10.2639
   -10.2628 -10.2593 -10.2584 -10.2567  -6.6517  -6.6502  -6.6484  -6.4028
    -6.4004  -6.3993  -6.3975  -6.3963  -6.3942  -6.2945  -6.2898  -6.1925
    -5.8658  -5.8526  -5.8482  -5.7512  -5.7484  -5.7466  -5.7342  -5.7318
    -5.7295  -5.7094  -5.7063  -5.6954  -5.6942  -5.6918  -5.6860  -5.6838
    -5.6824  -5.6446  -5.5444  -5.5408  -5.5384  -5.5333  -5.5288  -5.5241
    -5.5116  -5.4737  -5.4716  -5.4693  -5.4678  -5.4652  -5.4637  -5.3981
    -5.3948  -5.3037  -5.3014  -5.2986  -0.5441  -0.5169  -0.5132  -0.5123
    -0.3986  -0.3935  -0.3927  -0.3893  -0.3872  -0.3132  -0.3095  -0.3055
     1.4814   1.4845   1.4877   1.6736   1.6751   1.6769   1.6851   1.6868
     1.6887   1.7326   1.7362   1.7996   2.0793   2.0811   2.0828   2.0836
     2.0851   2.1427   2.1448   2.1466   2.2555   2.3961   2.3974   2.3983
     2.4927   2.4954   2.4961   2.5631   2.5638   2.5648   2.5964   2.5985
     2.7732   2.7746   2.7759   2.8362   2.8380   2.8433   2.8443   2.8458
     2.8500   2.8519   2.8530   2.8547   2.8684   3.0094   3.0102   3.0118
     3.0244   3.0257   3.0271   3.0622   3.1321   3.1344   3.1366   3.1965
     3.1973   3.1987   3.2594   3.2598   3.2609   3.2698   3.2728   3.3617
     3.3696   3.3704   3.3733   3.3747   3.4250   3.4257   3.4266   3.4870
     3.4876   3.5009   3.5028   3.5050   3.5287   3.5303   3.5317   3.5474
     3.5483   3.5788   3.5800   3.5817   3.6493   3.6509   3.6525   3.7185
     3.7208   3.7236   3.7281   3.7291   3.7567   3.8002   3.8019   3.8034
     3.9575   3.9600   3.9614   3.9857   3.9885   4.0290   4.0303   4.0321
     4.0822   4.0849   4.0876   4.1408   4.1505   4.1511   4.1529   4.2845
     4.2853   4.2940   4.3158   4.3194   4.3199   4.3207   4.3216   4.3265
     4.3842   4.3865   4.3895   4.4962   4.5126   4.5161   4.5196   4.5209
     4.5248   4.6527   4.6551   4.6579   5.1378   5.1436   5.1444   5.1449
     5.1735   5.1737   5.1873   5.1883   5.1895   5.1961   5.1971   5.1983
     5.2460   5.2478   5.2487   5.2655   5.2662   5.2668   5.2971   5.2988
     5.3006   5.3009   5.3027   5.3038   5.3141   5.3179   5.3192   5.3209
     5.3391   5.3408   5.3422   5.4023   5.4033   5.4043   5.4082   5.4088
     5.4545   5.4556   5.4569   5.4585   5.4830   5.4838   5.4849   5.4887
     5.4891   5.5348   5.5356   5.5370   5.5642   5.5648   5.5653   5.5707
     5.5714   5.5718   5.6413   5.6712   5.6738   5.6935   5.6951   5.6970
     5.7065   5.7075   5.7088   5.7796   5.7805   5.7818   5.7984   5.7999
     5.8015   5.8233   5.8253   5.8447   5.9303   5.9311   5.9326   6.0455
     6.0470   6.0477   6.0485   6.0498   6.1378   6.1390   6.1401   6.1585
     6.2190   6.2193   6.2202   6.2594   6.2606   6.2614   6.2838   6.2850
     6.3750   6.4096   6.4109   6.4116   6.4162   6.4181   6.4236   6.4514
     6.4524   6.4538   6.6142   6.6155   6.6168   6.6759   6.6767   6.6775
     6.7252   6.7407   6.7419   6.8047   6.8065   6.8081   6.8098   6.8108
     6.8126   6.9384   6.9396   6.9408

          k = 0.3333 0.5774 0.2714 (115827 PWs)   bands (ev):

   -28.2790 -28.2787 -28.2774 -28.2772 -28.2764 -28.2762 -28.2754 -28.2737
   -28.2736 -28.2734 -28.2734 -28.2702 -14.9306 -14.9277 -14.9248 -14.9245
   -14.9240 -14.9227 -14.9225 -14.9224 -14.9223 -14.9218 -14.9205 -14.9196
   -14.9187 -14.9181 -14.9168 -14.9167 -14.9167 -14.9165 -14.9164 -14.9161
   -14.9146 -14.9138 -14.9126 -14.9108 -14.9103 -14.9097 -14.9066 -14.9061
   -14.9047 -14.9046 -14.9045 -14.9044 -14.9026 -14.9018 -14.8987 -14.8983
   -14.8724 -14.8695 -14.8664 -14.8658 -14.8645 -14.8644 -14.8643 -14.8642
   -14.8624 -14.8616 -14.8585 -14.8581 -14.8273 -14.8243 -14.8213 -14.8206
   -14.8194 -14.8192 -14.8191 -14.8190 -14.8172 -14.8164 -14.8133 -14.8129
   -10.3405 -10.3383 -10.3380 -10.3374 -10.3371 -10.3341 -10.3332 -10.3328
   -10.3323 -10.3304 -10.3294 -10.3278 -10.3084 -10.3082 -10.3077 -10.3059
   -10.3021 -10.2994 -10.2982 -10.2978 -10.2963 -10.2923 -10.2910 -10.2902
   -10.2711 -10.2683 -10.2681 -10.2676 -10.2666 -10.2645 -10.2634 -10.2630
   -10.2622 -10.2606 -10.2591 -10.2572  -6.6197  -6.6182  -6.6161  -6.5262
    -6.5241  -6.5229  -6.3082  -6.2901  -6.2889  -6.2876  -6.2576  -6.2139
    -5.8752  -5.8578  -5.8442  -5.7818  -5.7793  -5.7767  -5.7443  -5.7411
    -5.7403  -5.7152  -5.6892  -5.6875  -5.6862  -5.6731  -5.6724  -5.6711
    -5.6688  -5.6430  -5.5588  -5.5563  -5.5542  -5.5268  -5.5241  -5.5221
    -5.5051  -5.5043  -5.5026  -5.4987  -5.4586  -5.4000  -5.3971  -5.3953
    -5.3575  -5.3248  -5.3224  -5.3192  -0.5203  -0.5083  -0.5044  -0.5030
    -0.4607  -0.4180  -0.4161  -0.4155  -0.3548  -0.2950  -0.2927  -0.2893
     1.4791   1.4828   1.4860   1.6369   1.6383   1.6408   1.6903   1.7742
     1.7755   1.7775   1.7785   1.7939   1.9803   1.9817   1.9832   2.0554
     2.1704   2.1918   2.1929   2.1954   2.2477   2.3955   2.3976   2.3993
     2.4880   2.4891   2.4909   2.5571   2.5877   2.5881   2.5888   2.5924
     2.6793   2.7366   2.7371   2.7385   2.8224   2.8234   2.8240   2.8277
     2.9016   2.9021   2.9052   2.9243   2.9366   2.9542   2.9559   2.9570
     3.0592   3.0601   3.0625   3.0869   3.0887   3.0899   3.1267   3.1813
     3.2438   3.2449   3.2459   3.2708   3.2711   3.2726   3.3214   3.3261
     3.3285   3.3295   3.3743   3.4072   3.4209   3.4637   3.4659   3.4676
     3.4928   3.4982   3.4997   3.5015   3.5362   3.5374   3.5388   3.5405
     3.5613   3.6150   3.6163   3.6184   3.6535   3.6552   3.6566   3.6969
     3.6980   3.6998   3.7201   3.7442   3.8217   3.8398   3.8415   3.8431
     3.9378   3.9393   3.9419   3.9429   4.0290   4.0299   4.0312   4.0409
     4.0653   4.0674   4.0708   4.1082   4.1125   4.1148   4.1168   4.1684
     4.2719   4.2736   4.2755   4.2912   4.3144   4.3599   4.3616   4.3638
     4.4155   4.4160   4.4202   4.4905   4.4944   4.4965   4.5075   4.5122
     4.5649   4.6655   4.6676   4.6702   5.1488   5.1564   5.1575   5.1580
     5.1586   5.1823   5.1830   5.1840   5.1976   5.1982   5.1996   5.2110
     5.2244   5.2251   5.2267   5.2518   5.2524   5.2534   5.2571   5.2690
     5.3005   5.3021   5.3036   5.3095   5.3284   5.3292   5.3310   5.3679
     5.3684   5.3694   5.3748   5.3935   5.3959   5.4082   5.4097   5.4105
     5.4327   5.4338   5.4341   5.4389   5.4840   5.4850   5.4860   5.4914
     5.5384   5.5400   5.5406   5.5436   5.5662   5.5669   5.5675   5.6055
     5.6059   5.6070   5.6378   5.6398   5.6714   5.6732   5.6737   5.7034
     5.7040   5.7048   5.7176   5.7587   5.7595   5.7615   5.8018   5.8077
     5.8213   5.8229   5.8245   5.8263   5.8895   5.8911   5.8923   6.0568
     6.0599   6.0608   6.0617   6.0771   6.1201   6.1206   6.1218   6.1352
     6.1960   6.2374   6.2387   6.2393   6.2842   6.3018   6.3026   6.3036
     6.3067   6.3849   6.3862   6.3865   6.4504   6.4671   6.4677   6.4699
     6.4922   6.4928   6.5583   6.5603   6.5608   6.6458   6.6847   6.6853
     6.6874   6.7605   6.7772   6.7787   6.7800   6.7934   6.8530   6.8557
     6.8569   6.9354   6.9360   6.9379

          k =-0.3333 0.1925 0.0000 (115797 PWs)   bands (ev):

   -28.2790 -28.2787 -28.2774 -28.2772 -28.2764 -28.2762 -28.2754 -28.2737
   -28.2736 -28.2734 -28.2734 -28.2702 -14.9306 -14.9277 -14.9248 -14.9245
   -14.9240 -14.9228 -14.9225 -14.9224 -14.9222 -14.9218 -14.9205 -14.9196
   -14.9187 -14.9181 -14.9168 -14.9167 -14.9166 -14.9166 -14.9164 -14.9161
   -14.9146 -14.9138 -14.9126 -14.9108 -14.9103 -14.9097 -14.9066 -14.9061
   -14.9047 -14.9046 -14.9045 -14.9043 -14.9026 -14.9018 -14.8987 -14.8983
   -14.8724 -14.8695 -14.8664 -14.8658 -14.8645 -14.8644 -14.8643 -14.8642
   -14.8624 -14.8616 -14.8585 -14.8581 -14.8273 -14.8243 -14.8213 -14.8206
   -14.8194 -14.8192 -14.8191 -14.8190 -14.8172 -14.8164 -14.8133 -14.8129
   -10.3402 -10.3387 -10.3382 -10.3374 -10.3366 -10.3350 -10.3341 -10.3332
   -10.3325 -10.3316 -10.3301 -10.3256 -10.3086 -10.3075 -10.3065 -10.3057
   -10.3030 -10.3020 -10.3017 -10.3005 -10.2939 -10.2925 -10.2913 -10.2851
   -10.2718 -10.2697 -10.2681 -10.2677 -10.2664 -10.2650 -10.2625 -10.2613
   -10.2612 -10.2604 -10.2593 -10.2559  -6.7876  -6.5890  -6.5004  -6.4967
    -6.4403  -6.4378  -6.3635  -6.3507  -6.2854  -6.2828  -6.2490  -6.2464
    -5.9106  -5.9068  -5.8226  -5.8189  -5.8159  -5.7771  -5.7701  -5.7682
    -5.7311  -5.7242  -5.7208  -5.6929  -5.6905  -5.6478  -5.6395  -5.6369
    -5.6291  -5.5962  -5.5843  -5.5815  -5.5656  -5.5286  -5.5203  -5.5181
    -5.5151  -5.5041  -5.4598  -5.4524  -5.4364  -5.4338  -5.4247  -5.4126
    -5.3506  -5.3463  -5.3122  -5.2699  -0.5708  -0.5674  -0.5652  -0.4374
    -0.4031  -0.4011  -0.3761  -0.3428  -0.3384  -0.3371  -0.3102  -0.3006
     1.4208   1.4850   1.4873   1.5032   1.6400   1.6533   1.6858   1.7233
     1.7242   1.8282   1.8773   1.8777   1.9546   1.9571   1.9581   2.0285
     2.1163   2.2051   2.2300   2.2307   2.3405   2.3648   2.3841   2.3858
     2.3937   2.4085   2.4502   2.5369   2.5389   2.6117   2.6129   2.6161
     2.6581   2.7334   2.8119   2.8125   2.8215   2.8409   2.8433   2.8438
     2.8541   2.8858   2.9096   2.9104   2.9138   2.9631   2.9648   3.0047
     3.0492   3.0568   3.0581   3.1224   3.1463   3.1758   3.2060   3.2123
     3.2142   3.2327   3.2601   3.2619   3.2700   3.3242   3.3297   3.3317
     3.3379   3.3719   3.3963   3.3972   3.4329   3.4402   3.4426   3.4502
     3.4971   3.4986   3.5006   3.5101   3.5114   3.5156   3.5214   3.5446
     3.5622   3.6059   3.6081   3.6107   3.6347   3.6441   3.6791   3.6808
     3.6950   3.7015   3.7036   3.7098   3.7784   3.7793   3.8502   3.8607
     3.8949   3.9754   3.9764   3.9774   3.9813   4.0307   4.0364   4.0390
     4.0919   4.1120   4.1193   4.1220   4.1277   4.1634   4.1641   4.1775
     4.2465   4.2655   4.2678   4.2803   4.3050   4.3228   4.3236   4.3686
     4.3810   4.4150   4.4176   4.4833   4.5191   4.5255   4.5297   4.5311
     4.5914   4.5949   4.6245   4.7479   5.1446   5.1455   5.1463   5.1527
     5.1602   5.1609   5.1695   5.1760   5.2158   5.2197   5.2200   5.2213
     5.2274   5.2372   5.2490   5.2497   5.2502   5.2613   5.2688   5.2723
     5.2730   5.2893   5.3034   5.3044   5.3151   5.3190   5.3260   5.3281
     5.3373   5.3493   5.3519   5.3531   5.3571   5.3647   5.4137   5.4157
     5.4337   5.4513   5.4606   5.4624   5.4857   5.4938   5.5012   5.5018
     5.5030   5.5125   5.5262   5.5445   5.5565   5.5574   5.5621   5.6029
     5.6037   5.6312   5.6319   5.6331   5.6681   5.6791   5.6956   5.6966
     5.6976   5.7174   5.7299   5.7562   5.7755   5.7778   5.8092   5.8183
     5.8188   5.8655   5.8742   5.8752   5.9511   5.9531   5.9639   5.9651
     5.9912   6.0059   6.0083   6.0202   6.1385   6.1397   6.1448   6.1606
     6.2254   6.2294   6.2312   6.2526   6.2710   6.2902   6.2912   6.2982
     6.3612   6.3623   6.3770   6.3888   6.3908   6.4413   6.4856   6.4866
     6.5248   6.5379   6.5395   6.5757   6.6053   6.6508   6.6819   6.6927
     6.6956   6.7294   6.7367   6.7390   6.7624   6.7789   6.7920   6.8115
     6.8134   6.9051   6.9095   7.0815

          k = 0.3333 0.1925 0.0000 (115797 PWs)   bands (ev):

   -28.2790 -28.2787 -28.2774 -28.2772 -28.2764 -28.2762 -28.2754 -28.2737
   -28.2736 -28.2734 -28.2734 -28.2702 -14.9306 -14.9277 -14.9248 -14.9245
   -14.9240 -14.9227 -14.9225 -14.9224 -14.9222 -14.9218 -14.9205 -14.9196
   -14.9187 -14.9181 -14.9168 -14.9167 -14.9167 -14.9166 -14.9164 -14.9161
   -14.9146 -14.9138 -14.9126 -14.9108 -14.9103 -14.9097 -14.9066 -14.9061
   -14.9047 -14.9046 -14.9045 -14.9044 -14.9026 -14.9018 -14.8987 -14.8983
   -14.8724 -14.8695 -14.8664 -14.8658 -14.8645 -14.8644 -14.8643 -14.8642
   -14.8624 -14.8616 -14.8585 -14.8581 -14.8273 -14.8243 -14.8213 -14.8206
   -14.8194 -14.8192 -14.8191 -14.8190 -14.8172 -14.8164 -14.8133 -14.8129
   -10.3399 -10.3397 -10.3378 -10.3364 -10.3361 -10.3351 -10.3342 -10.3337
   -10.3330 -10.3315 -10.3302 -10.3256 -10.3087 -10.3075 -10.3065 -10.3054
   -10.3023 -10.3022 -10.3016 -10.3006 -10.2951 -10.2934 -10.2901 -10.2849
   -10.2718 -10.2696 -10.2689 -10.2671 -10.2654 -10.2645 -10.2635 -10.2625
   -10.2616 -10.2604 -10.2587 -10.2550  -6.7877  -6.5897  -6.5009  -6.4961
    -6.4388  -6.4369  -6.3657  -6.3484  -6.2863  -6.2830  -6.2501  -6.2455
    -5.9142  -5.9078  -5.8206  -5.8195  -5.8167  -5.7775  -5.7685  -5.7663
    -5.7317  -5.7240  -5.7220  -5.6903  -5.6895  -5.6474  -5.6406  -5.6351
    -5.6284  -5.5949  -5.5869  -5.5810  -5.5685  -5.5275  -5.5197  -5.5179
    -5.5154  -5.5041  -5.4628  -5.4511  -5.4378  -5.4343  -5.4218  -5.4140
    -5.3488  -5.3469  -5.3129  -5.2699  -0.5735  -0.5682  -0.5618  -0.4352
    -0.4054  -0.4020  -0.3772  -0.3384  -0.3377  -0.3363  -0.3120  -0.3025
     1.4188   1.4859   1.4897   1.5012   1.6401   1.6520   1.6884   1.7232
     1.7251   1.8280   1.8769   1.8774   1.9546   1.9556   1.9569   2.0277
     2.1158   2.2070   2.2297   2.2305   2.3389   2.3638   2.3861   2.3872
     2.3935   2.4087   2.4500   2.5362   2.5398   2.6124   2.6141   2.6173
     2.6576   2.7348   2.8128   2.8141   2.8217   2.8396   2.8433   2.8444
     2.8542   2.8850   2.9079   2.9095   2.9151   2.9624   2.9629   3.0044
     3.0504   3.0563   3.0578   3.1242   3.1482   3.1757   3.2045   3.2105
     3.2140   3.2342   3.2608   3.2615   3.2694   3.3239   3.3305   3.3312
     3.3388   3.3723   3.3948   3.3961   3.4338   3.4402   3.4421   3.4501
     3.4977   3.4980   3.5003   3.5111   3.5115   3.5140   3.5227   3.5433
     3.5617   3.6045   3.6061   3.6111   3.6349   3.6464   3.6796   3.6803
     3.6946   3.7025   3.7043   3.7088   3.7790   3.7798   3.8494   3.8596
     3.8962   3.9739   3.9751   3.9785   3.9808   4.0299   4.0381   4.0397
     4.0926   4.1114   4.1206   4.1220   4.1262   4.1623   4.1638   4.1780
     4.2486   4.2664   4.2683   4.2825   4.3033   4.3228   4.3239   4.3684
     4.3788   4.4152   4.4192   4.4837   4.5155   4.5264   4.5295   4.5316
     4.5893   4.5941   4.6268   4.7488   5.1439   5.1443   5.1470   5.1546
     5.1603   5.1609   5.1695   5.1750   5.2150   5.2195   5.2198   5.2221
     5.2281   5.2375   5.2489   5.2496   5.2503   5.2612   5.2678   5.2719
     5.2726   5.2894   5.3043   5.3048   5.3142   5.3191   5.3272   5.3279
     5.3370   5.3500   5.3528   5.3531   5.3576   5.3657   5.4130   5.4156
     5.4338   5.4512   5.4612   5.4617   5.4857   5.4936   5.5004   5.5006
     5.5029   5.5129   5.5278   5.5441   5.5564   5.5577   5.5614   5.6028
     5.6043   5.6306   5.6316   5.6324   5.6681   5.6782   5.6946   5.6959
     5.6980   5.7178   5.7299   5.7566   5.7739   5.7773   5.8089   5.8193
     5.8198   5.8642   5.8760   5.8762   5.9502   5.9523   5.9651   5.9655
     5.9905   6.0065   6.0079   6.0209   6.1392   6.1396   6.1451   6.1607
     6.2256   6.2295   6.2306   6.2516   6.2710   6.2890   6.2906   6.2994
     6.3618   6.3623   6.3775   6.3896   6.3909   6.4412   6.4862   6.4870
     6.5244   6.5383   6.5387   6.5760   6.6048   6.6511   6.6840   6.6905
     6.6954   6.7299   6.7374   6.7384   6.7627   6.7780   6.7932   6.8114
     6.8137   6.9040   6.9098   7.0810

          k = 0.0000-0.3849 0.2714 (115773 PWs)   bands (ev):

   -28.2790 -28.2787 -28.2774 -28.2772 -28.2764 -28.2762 -28.2754 -28.2737
   -28.2736 -28.2734 -28.2734 -28.2702 -14.9306 -14.9277 -14.9248 -14.9245
   -14.9240 -14.9227 -14.9226 -14.9224 -14.9222 -14.9218 -14.9205 -14.9196
   -14.9187 -14.9181 -14.9168 -14.9167 -14.9167 -14.9165 -14.9164 -14.9161
   -14.9146 -14.9138 -14.9126 -14.9108 -14.9103 -14.9097 -14.9066 -14.9061
   -14.9047 -14.9046 -14.9045 -14.9043 -14.9026 -14.9018 -14.8987 -14.8983
   -14.8724 -14.8695 -14.8664 -14.8658 -14.8645 -14.8644 -14.8643 -14.8642
   -14.8624 -14.8616 -14.8585 -14.8581 -14.8273 -14.8243 -14.8213 -14.8206
   -14.8194 -14.8192 -14.8191 -14.8190 -14.8172 -14.8164 -14.8133 -14.8129
   -10.3405 -10.3400 -10.3385 -10.3370 -10.3357 -10.3351 -10.3346 -10.3335
   -10.3324 -10.3308 -10.3294 -10.3260 -10.3104 -10.3091 -10.3060 -10.3049
   -10.3031 -10.3017 -10.2981 -10.2967 -10.2955 -10.2949 -10.2916 -10.2861
   -10.2707 -10.2696 -10.2687 -10.2675 -10.2664 -10.2645 -10.2631 -10.2625
   -10.2617 -10.2599 -10.2588 -10.2556  -6.7510  -6.6462  -6.5622  -6.4679
    -6.4180  -6.4165  -6.3634  -6.3415  -6.3407  -6.2650  -6.2112  -6.2101
    -5.9169  -5.9135  -5.8252  -5.8205  -5.8173  -5.8165  -5.7639  -5.7633
    -5.7543  -5.7337  -5.6835  -5.6815  -5.6802  -5.6649  -5.6407  -5.6391
    -5.6332  -5.6082  -5.5884  -5.5861  -5.5744  -5.5286  -5.5273  -5.5249
    -5.5175  -5.4879  -5.4631  -5.4400  -5.4382  -5.4371  -5.3966  -5.3708
    -5.3439  -5.3419  -5.3327  -5.2955  -0.5656  -0.5624  -0.5473  -0.4310
    -0.4299  -0.4273  -0.4129  -0.3619  -0.3201  -0.3193  -0.2915  -0.2841
     1.4032   1.4949   1.4974   1.5135   1.6124   1.7116   1.7126   1.7220
     1.7392   1.7734   1.8443   1.8455   1.9674   1.9855   2.0202   2.0211
     2.1284   2.2008   2.2096   2.2101   2.2849   2.3325   2.3958   2.4276
     2.4290   2.5195   2.5289   2.5299   2.5575   2.5587   2.5601   2.5612
     2.5998   2.6775   2.7632   2.7655   2.8244   2.8255   2.8280   2.8303
     2.8513   2.8533   2.8947   2.8950   2.9046   3.0080   3.0170   3.0179
     3.0780   3.0799   3.1178   3.1188   3.1340   3.1793   3.1806   3.1878
     3.2150   3.2463   3.2663   3.2852   3.2854   3.2961   3.3315   3.3323
     3.3753   3.3766   3.3773   3.3780   3.4478   3.4482   3.4498   3.4783
     3.4799   3.4811   3.5062   3.5176   3.5343   3.5350   3.5355   3.5583
     3.5857   3.5872   3.6095   3.6332   3.6415   3.6465   3.6837   3.6846
     3.6856   3.6958   3.7031   3.7050   3.8368   3.8379   3.8781   3.8796
     3.9426   3.9441   3.9449   3.9485   3.9734   4.0314   4.0545   4.0560
     4.0613   4.0629   4.1003   4.1016   4.1216   4.1225   4.1280   4.1335
     4.2269   4.2423   4.2681   4.2720   4.2907   4.2923   4.3123   4.3647
     4.3919   4.4341   4.4370   4.4802   4.5202   4.5450   4.5460   4.5843
     4.5938   4.5967   4.6339   4.7317   5.1468   5.1472   5.1552   5.1653
     5.1681   5.1690   5.1695   5.1737   5.2002   5.2054   5.2116   5.2175
     5.2188   5.2284   5.2410   5.2418   5.2601   5.2646   5.2656   5.2665
     5.2677   5.2727   5.3100   5.3106   5.3186   5.3332   5.3470   5.3477
     5.3599   5.3629   5.3634   5.3695   5.3708   5.3806   5.3887   5.3894
     5.4100   5.4341   5.4476   5.4510   5.4518   5.4689   5.4966   5.4983
     5.5171   5.5255   5.5561   5.5572   5.5686   5.5691   5.6021   5.6023
     5.6078   5.6209   5.6303   5.6498   5.6510   5.6614   5.6743   5.7078
     5.7091   5.7382   5.7595   5.7608   5.7709   5.7846   5.8063   5.8071
     5.8140   5.8397   5.8684   5.8691   5.8755   5.8928   5.9696   5.9705
     6.0186   6.0251   6.0262   6.1016   6.1021   6.1125   6.1591   6.1881
     6.2022   6.2038   6.2053   6.2622   6.2639   6.2888   6.3174   6.3435
     6.3545   6.3675   6.3691   6.4132   6.4216   6.4220   6.4524   6.4815
     6.4825   6.5068   6.5582   6.5673   6.6063   6.6080   6.6477   6.6672
     6.6685   6.7354   6.7381   6.7411   6.7489   6.8040   6.8058   6.8516
     6.8654   6.9189   6.9462   7.0378

          k =-0.3333 0.1925 0.2714 (115773 PWs)   bands (ev):

   -28.2790 -28.2787 -28.2774 -28.2772 -28.2764 -28.2762 -28.2754 -28.2737
   -28.2736 -28.2734 -28.2734 -28.2702 -14.9306 -14.9277 -14.9248 -14.9245
   -14.9240 -14.9228 -14.9225 -14.9224 -14.9222 -14.9218 -14.9205 -14.9196
   -14.9187 -14.9181 -14.9168 -14.9167 -14.9166 -14.9166 -14.9164 -14.9161
   -14.9146 -14.9138 -14.9126 -14.9108 -14.9103 -14.9097 -14.9066 -14.9061
   -14.9047 -14.9046 -14.9045 -14.9043 -14.9026 -14.9018 -14.8987 -14.8983
   -14.8724 -14.8695 -14.8664 -14.8658 -14.8645 -14.8644 -14.8643 -14.8642
   -14.8624 -14.8616 -14.8585 -14.8581 -14.8273 -14.8243 -14.8213 -14.8206
   -14.8194 -14.8192 -14.8191 -14.8190 -14.8172 -14.8164 -14.8133 -14.8129
   -10.3406 -10.3391 -10.3390 -10.3380 -10.3370 -10.3352 -10.3340 -10.3323
   -10.3318 -10.3306 -10.3293 -10.3265 -10.3105 -10.3078 -10.3073 -10.3052
   -10.3041 -10.3026 -10.2973 -10.2949 -10.2947 -10.2936 -10.2928 -10.2872
   -10.2715 -10.2693 -10.2685 -10.2678 -10.2667 -10.2639 -10.2624 -10.2613
   -10.2610 -10.2606 -10.2589 -10.2574  -6.7507  -6.6464  -6.5602  -6.4688
    -6.4221  -6.4190  -6.3634  -6.3398  -6.3382  -6.2655  -6.2106  -6.2093
    -5.9133  -5.9098  -5.8257  -5.8234  -5.8187  -5.8158  -5.7657  -5.7646
    -5.7522  -5.7331  -5.6849  -5.6814  -5.6808  -5.6620  -5.6448  -5.6436
    -5.6397  -5.6063  -5.5844  -5.5826  -5.5710  -5.5328  -5.5280  -5.5267
    -5.5135  -5.4844  -5.4674  -5.4387  -5.4363  -5.4343  -5.4013  -5.3695
    -5.3467  -5.3419  -5.3297  -5.2958  -0.5617  -0.5582  -0.5554  -0.4356
    -0.4302  -0.4266  -0.4088  -0.3590  -0.3258  -0.3216  -0.2886  -0.2818
     1.4070   1.4913   1.4942   1.5178   1.6127   1.7116   1.7119   1.7234
     1.7351   1.7727   1.8454   1.8477   1.9657   1.9864   2.0231   2.0234
     2.1306   2.1980   2.2082   2.2095   2.2859   2.3359   2.3976   2.4254
     2.4270   2.5168   2.5293   2.5304   2.5565   2.5573   2.5579   2.5595
     2.5996   2.6792   2.7636   2.7659   2.8224   2.8234   2.8248   2.8289
     2.8493   2.8526   2.8965   2.8974   2.9077   3.0085   3.0189   3.0205
     3.0745   3.0776   3.1181   3.1196   3.1335   3.1815   3.1831   3.1893
     3.2121   3.2462   3.2662   3.2852   3.2867   3.2945   3.3298   3.3310
     3.3755   3.3776   3.3802   3.3821   3.4458   3.4478   3.4506   3.4757
     3.4802   3.4808   3.5061   3.5213   3.5341   3.5354   3.5381   3.5580
     3.5863   3.5883   3.6122   3.6297   3.6387   3.6428   3.6821   3.6841
     3.6879   3.6963   3.7041   3.7065   3.8353   3.8363   3.8783   3.8821
     3.9404   3.9467   3.9478   3.9489   3.9708   4.0336   4.0524   4.0572
     4.0593   4.0603   4.0999   4.1012   4.1225   4.1237   4.1316   4.1342
     4.2207   4.2380   4.2669   4.2700   4.2906   4.2931   4.3155   4.3696
     4.3929   4.4328   4.4352   4.4814   4.5226   4.5429   4.5456   4.5871
     4.5959   4.6009   4.6294   4.7284   5.1485   5.1490   5.1517   5.1638
     5.1683   5.1689   5.1707   5.1722   5.1994   5.2048   5.2138   5.2184
     5.2205   5.2302   5.2409   5.2419   5.2609   5.2633   5.2638   5.2646
     5.2654   5.2745   5.3103   5.3111   5.3188   5.3351   5.3458   5.3473
     5.3605   5.3628   5.3635   5.3672   5.3687   5.3811   5.3886   5.3900
     5.4104   5.4327   5.4478   5.4519   5.4530   5.4698   5.4965   5.4983
     5.5171   5.5232   5.5563   5.5577   5.5687   5.5697   5.6024   5.6030
     5.6074   5.6202   5.6323   5.6501   5.6505   5.6606   5.6755   5.7090
     5.7107   5.7405   5.7601   5.7616   5.7705   5.7846   5.8042   5.8050
     5.8154   5.8400   5.8663   5.8670   5.8755   5.8969   5.9681   5.9695
     6.0202   6.0248   6.0267   6.1016   6.1022   6.1115   6.1605   6.1867
     6.2023   6.2034   6.2052   6.2622   6.2636   6.2864   6.3196   6.3411
     6.3555   6.3700   6.3718   6.4133   6.4176   6.4192   6.4524   6.4815
     6.4823   6.5073   6.5576   6.5658   6.6067   6.6088   6.6473   6.6660
     6.6679   6.7377   6.7388   6.7408   6.7486   6.8033   6.8060   6.8512
     6.8675   6.9178   6.9454   7.0400

          k = 0.3333 0.1925 0.2714 (115773 PWs)   bands (ev):

   -28.2790 -28.2787 -28.2774 -28.2772 -28.2764 -28.2762 -28.2754 -28.2737
   -28.2736 -28.2735 -28.2734 -28.2702 -14.9306 -14.9277 -14.9248 -14.9245
   -14.9240 -14.9227 -14.9225 -14.9224 -14.9222 -14.9218 -14.9205 -14.9196
   -14.9187 -14.9181 -14.9168 -14.9167 -14.9167 -14.9166 -14.9164 -14.9161
   -14.9146 -14.9138 -14.9126 -14.9108 -14.9103 -14.9097 -14.9066 -14.9061
   -14.9047 -14.9046 -14.9045 -14.9044 -14.9026 -14.9018 -14.8987 -14.8983
   -14.8724 -14.8695 -14.8664 -14.8658 -14.8645 -14.8644 -14.8643 -14.8642
   -14.8624 -14.8616 -14.8585 -14.8581 -14.8273 -14.8243 -14.8213 -14.8206
   -14.8194 -14.8192 -14.8191 -14.8190 -14.8172 -14.8164 -14.8133 -14.8129
   -10.3405 -10.3400 -10.3385 -10.3371 -10.3363 -10.3351 -10.3344 -10.3329
   -10.3322 -10.3305 -10.3296 -10.3262 -10.3104 -10.3085 -10.3072 -10.3052
   -10.3025 -10.3018 -10.2984 -10.2962 -10.2951 -10.2940 -10.2920 -10.2865
   -10.2715 -10.2695 -10.2688 -10.2670 -10.2659 -10.2642 -10.2629 -10.2622
   -10.2614 -10.2607 -10.2593 -10.2558  -6.7509  -6.6463  -6.5613  -6.4683
    -6.4201  -6.4177  -6.3634  -6.3407  -6.3392  -6.2654  -6.2112  -6.2093
    -5.9166  -5.9105  -5.8247  -5.8215  -5.8199  -5.8159  -5.7652  -5.7638
    -5.7528  -5.7333  -5.6830  -5.6821  -5.6809  -5.6630  -5.6431  -5.6398
    -5.6375  -5.6069  -5.5872  -5.5836  -5.5732  -5.5307  -5.5274  -5.5258
    -5.5152  -5.4866  -5.4650  -5.4394  -5.4383  -5.4351  -5.3991  -5.3698
    -5.3451  -5.3427  -5.3308  -5.2955  -0.5652  -0.5588  -0.5514  -0.4330
    -0.4309  -0.4262  -0.4109  -0.3606  -0.3225  -0.3211  -0.2898  -0.2829
     1.4051   1.4924   1.4967   1.5155   1.6126   1.7113   1.7128   1.7226
     1.7371   1.7728   1.8446   1.8467   1.9665   1.9859   2.0214   2.0225
     2.1294   2.1994   2.2093   2.2097   2.2852   2.3341   2.3965   2.4261
     2.4285   2.5183   2.5291   2.5302   2.5570   2.5576   2.5590   2.5606
     2.5998   2.6784   2.7626   2.7667   2.8237   2.8252   2.8256   2.8295
     2.8503   2.8528   2.8956   2.8961   2.9059   3.0084   3.0178   3.0195
     3.0766   3.0784   3.1178   3.1196   3.1339   3.1802   3.1820   3.1883
     3.2136   3.2464   3.2667   3.2853   3.2856   3.2954   3.3304   3.3315
     3.3752   3.3772   3.3784   3.3803   3.4473   3.4476   3.4503   3.4770
     3.4797   3.4810   3.5062   3.5194   3.5342   3.5349   3.5372   3.5582
     3.5859   3.5879   3.6110   3.6315   3.6402   3.6446   3.6830   3.6840
     3.6868   3.6960   3.7031   3.7063   3.8364   3.8370   3.8784   3.8800
     3.9415   3.9455   3.9463   3.9491   3.9719   4.0320   4.0532   4.0570
     4.0600   4.0613   4.0995   4.1020   4.1217   4.1236   4.1300   4.1348
     4.2238   4.2403   4.2686   4.2699   4.2911   4.2916   4.3137   4.3679
     4.3918   4.4329   4.4370   4.4805   4.5215   4.5443   4.5457   4.5861
     4.5948   4.5986   4.6316   4.7298   5.1477   5.1483   5.1535   5.1644
     5.1682   5.1689   5.1698   5.1731   5.1997   5.2051   5.2128   5.2178
     5.2200   5.2292   5.2407   5.2422   5.2606   5.2647   5.2648   5.2651
     5.2660   5.2736   5.3100   5.3109   5.3187   5.3341   5.3467   5.3470
     5.3601   5.3631   5.3635   5.3683   5.3698   5.3809   5.3885   5.3900
     5.4102   5.4333   5.4479   5.4511   5.4527   5.4693   5.4958   5.4991
     5.5169   5.5243   5.5562   5.5577   5.5688   5.5692   5.6023   5.6026
     5.6078   5.6204   5.6311   5.6501   5.6507   5.6610   5.6751   5.7075
     5.7107   5.7394   5.7598   5.7610   5.7708   5.7847   5.8043   5.8069
     5.8146   5.8400   5.8676   5.8679   5.8755   5.8949   5.9684   5.9702
     6.0194   6.0255   6.0257   6.1018   6.1020   6.1120   6.1597   6.1873
     6.2031   6.2036   6.2045   6.2617   6.2646   6.2876   6.3186   6.3423
     6.3550   6.3681   6.3710   6.4133   6.4197   6.4203   6.4523   6.4815
     6.4825   6.5072   6.5580   6.5666   6.6057   6.6091   6.6476   6.6662
     6.6684   6.7352   6.7398   6.7411   6.7485   6.8027   6.8068   6.8512
     6.8665   6.9184   6.9458   7.0391

          k =-0.3333-0.1925 0.2714 (115773 PWs)   bands (ev):

   -28.2790 -28.2787 -28.2774 -28.2772 -28.2764 -28.2762 -28.2754 -28.2737
   -28.2736 -28.2735 -28.2734 -28.2702 -14.9306 -14.9277 -14.9248 -14.9245
   -14.9240 -14.9227 -14.9225 -14.9224 -14.9222 -14.9218 -14.9205 -14.9196
   -14.9187 -14.9181 -14.9168 -14.9167 -14.9167 -14.9166 -14.9164 -14.9161
   -14.9146 -14.9138 -14.9126 -14.9108 -14.9103 -14.9097 -14.9066 -14.9061
   -14.9047 -14.9046 -14.9045 -14.9044 -14.9026 -14.9018 -14.8987 -14.8983
   -14.8724 -14.8695 -14.8664 -14.8658 -14.8645 -14.8644 -14.8643 -14.8642
   -14.8624 -14.8616 -14.8585 -14.8581 -14.8273 -14.8243 -14.8213 -14.8206
   -14.8194 -14.8192 -14.8191 -14.8190 -14.8172 -14.8164 -14.8133 -14.8129
   -10.3404 -10.3401 -10.3387 -10.3371 -10.3363 -10.3351 -10.3343 -10.3328
   -10.3321 -10.3308 -10.3297 -10.3260 -10.3107 -10.3083 -10.3065 -10.3062
   -10.3017 -10.3008 -10.3001 -10.2969 -10.2954 -10.2939 -10.2906 -10.2871
   -10.2718 -10.2694 -10.2683 -10.2672 -10.2655 -10.2650 -10.2633 -10.2622
   -10.2614 -10.2602 -10.2591 -10.2559  -6.7507  -6.6465  -6.5604  -6.4718
    -6.4233  -6.4210  -6.3639  -6.3290  -6.3276  -6.2587  -6.2250  -6.2230
    -5.9081  -5.9017  -5.8233  -5.8211  -5.8108  -5.8054  -5.7917  -5.7602
    -5.7592  -5.7315  -5.7103  -5.7097  -5.6717  -5.6349  -5.6296  -5.6282
    -5.6253  -5.6077  -5.6000  -5.5984  -5.5697  -5.5290  -5.5225  -5.5212
    -5.5191  -5.4962  -5.4683  -5.4318  -5.4301  -5.4266  -5.4217  -5.3635
    -5.3486  -5.3463  -5.3218  -5.2989  -0.5618  -0.5593  -0.5551  -0.4379
    -0.4332  -0.4249  -0.3937  -0.3732  -0.3194  -0.3177  -0.2987  -0.2785
     1.4335   1.4840   1.4873   1.4879   1.6256   1.6417   1.7724   1.7738
     1.7823   1.7903   1.7998   1.8011   1.9145   1.9958   1.9966   2.0770
     2.1552   2.2001   2.2109   2.2477   2.2486   2.3601   2.3930   2.3939
     2.3983   2.4487   2.5109   2.5137   2.5473   2.5893   2.5927   2.6081
     2.6429   2.7112   2.7615   2.7668   2.7705   2.7890   2.8083   2.8106
     2.8391   2.8746   2.9156   2.9165   2.9185   2.9817   3.0237   3.0250
     3.0679   3.1065   3.1074   3.1325   3.1706   3.1912   3.1939   3.1957
     3.2002   3.2325   3.2643   3.2648   3.2771   3.3182   3.3211   3.3225
     3.3243   3.3887   3.3905   3.4111   3.4456   3.4458   3.4688   3.4696
     3.4710   3.4732   3.4764   3.4791   3.5337   3.5364   3.5372   3.5912
     3.6106   3.6127   3.6132   3.6332   3.6421   3.6481   3.6587   3.6600
     3.6681   3.7109   3.7114   3.7124   3.8357   3.8363   3.8795   3.8885
     3.9044   3.9499   3.9509   3.9749   3.9821   4.0199   4.0470   4.0489
     4.0502   4.0658   4.1097   4.1118   4.1196   4.1332   4.1344   4.1486
     4.1911   4.2555   4.2666   4.2679   4.2888   4.2898   4.2944   4.3880
     4.3973   4.4359   4.4407   4.4679   4.5242   4.5255   4.5361   4.5965
     4.6095   4.6130   4.6223   4.7215   5.1508   5.1511   5.1545   5.1570
     5.1720   5.1757   5.1766   5.1833   5.1906   5.1982   5.2015   5.2075
     5.2089   5.2346   5.2350   5.2358   5.2549   5.2641   5.2651   5.2668
     5.2794   5.2979   5.3080   5.3132   5.3132   5.3289   5.3358   5.3378
     5.3584   5.3586   5.3604   5.3637   5.3803   5.3929   5.4067   5.4079
     5.4131   5.4320   5.4335   5.4452   5.4454   5.4928   5.5016   5.5031
     5.5094   5.5160   5.5538   5.5600   5.5745   5.5752   5.6026   5.6110
     5.6118   5.6190   5.6251   5.6256   5.6432   5.6703   5.6820   5.7133
     5.7159   5.7175   5.7344   5.7714   5.7728   5.7750   5.8022   5.8032
     5.8101   5.8587   5.8751   5.8764   5.8788   5.9150   5.9591   5.9598
     6.0335   6.0351   6.0363   6.0598   6.0782   6.0803   6.1733   6.2067
     6.2124   6.2145   6.2668   6.2670   6.2699   6.2774   6.2857   6.3484
     6.3506   6.3657   6.3723   6.4154   6.4236   6.4257   6.4279   6.4711
     6.4982   6.4991   6.5461   6.5593   6.5952   6.5968   6.6662   6.6682
     6.6772   6.7198   6.7365   6.7371   6.7476   6.8132   6.8143   6.8449
     6.8692   6.9285   6.9372   7.0525

          k = 0.3333-0.1925 0.2714 (115773 PWs)   bands (ev):

   -28.2790 -28.2787 -28.2774 -28.2772 -28.2764 -28.2762 -28.2754 -28.2737
   -28.2736 -28.2734 -28.2734 -28.2702 -14.9306 -14.9277 -14.9248 -14.9245
   -14.9240 -14.9228 -14.9225 -14.9224 -14.9222 -14.9218 -14.9205 -14.9196
   -14.9187 -14.9181 -14.9168 -14.9167 -14.9166 -14.9166 -14.9164 -14.9161
   -14.9146 -14.9138 -14.9126 -14.9108 -14.9103 -14.9097 -14.9066 -14.9061
   -14.9047 -14.9046 -14.9045 -14.9043 -14.9026 -14.9018 -14.8987 -14.8983
   -14.8724 -14.8695 -14.8664 -14.8658 -14.8645 -14.8644 -14.8643 -14.8642
   -14.8624 -14.8616 -14.8585 -14.8581 -14.8273 -14.8243 -14.8213 -14.8206
   -14.8194 -14.8192 -14.8191 -14.8190 -14.8172 -14.8164 -14.8133 -14.8129
   -10.3405 -10.3392 -10.3390 -10.3380 -10.3371 -10.3351 -10.3333 -10.3323
   -10.3322 -10.3309 -10.3296 -10.3262 -10.3106 -10.3084 -10.3070 -10.3062
   -10.3020 -10.3007 -10.3002 -10.2957 -10.2948 -10.2935 -10.2920 -10.2871
   -10.2716 -10.2695 -10.2683 -10.2669 -10.2663 -10.2651 -10.2625 -10.2613
   -10.2610 -10.2604 -10.2593 -10.2570  -6.7505  -6.6466  -6.5594  -6.4722
    -6.4251  -6.4222  -6.3637  -6.3279  -6.3271  -6.2589  -6.2243  -6.2231
    -5.9049  -5.9013  -5.8270  -5.8213  -5.8084  -5.8037  -5.7907  -5.7624
    -5.7603  -5.7304  -5.7134  -5.7103  -5.6704  -5.6349  -5.6297  -5.6289
    -5.6271  -5.6096  -5.5988  -5.5976  -5.5685  -5.5307  -5.5227  -5.5211
    -5.5169  -5.4994  -5.4649  -5.4302  -5.4279  -5.4260  -5.4233  -5.3654
    -5.3506  -5.3456  -5.3209  -5.2987  -0.5629  -0.5582  -0.5546  -0.4374
    -0.4338  -0.4279  -0.3918  -0.3713  -0.3224  -0.3183  -0.2974  -0.2774
     1.4360   1.4831   1.4849   1.4898   1.6255   1.6411   1.7714   1.7721
     1.7816   1.7894   1.8009   1.8020   1.9151   1.9975   1.9989   2.0773
     2.1567   2.2007   2.2086   2.2472   2.2481   2.3621   2.3918   2.3928
     2.3997   2.4482   2.5117   2.5133   2.5478   2.5887   2.5904   2.6082
     2.6412   2.7093   2.7603   2.7674   2.7699   2.7894   2.8086   2.8102
     2.8380   2.8744   2.9167   2.9170   2.9197   2.9823   3.0244   3.0259
     3.0654   3.1072   3.1087   3.1306   3.1728   3.1916   3.1926   3.1946
     3.1999   3.2331   3.2649   3.2654   3.2760   3.3175   3.3210   3.3225
     3.3254   3.3907   3.3916   3.4109   3.4454   3.4466   3.4676   3.4687
     3.4714   3.4741   3.4768   3.4786   3.5343   3.5358   3.5375   3.5896
     3.6112   3.6119   3.6130   3.6341   3.6427   3.6452   3.6594   3.6612
     3.6689   3.7098   3.7122   3.7135   3.8351   3.8358   3.8799   3.8886
     3.9038   3.9505   3.9519   3.9760   3.9807   4.0190   4.0458   4.0485
     4.0496   4.0681   4.1109   4.1126   4.1218   4.1322   4.1336   4.1481
     4.1877   4.2550   4.2665   4.2675   4.2873   4.2905   4.2953   4.3893
     4.3987   4.4359   4.4394   4.4679   4.5240   4.5252   4.5371   4.5974
     4.6101   4.6146   4.6204   4.7204   5.1520   5.1528   5.1544   5.1556
     5.1706   5.1746   5.1760   5.1838   5.1910   5.1979   5.2021   5.2085
     5.2093   5.2346   5.2351   5.2362   5.2547   5.2628   5.2654   5.2666
     5.2795   5.2990   5.3080   5.3124   5.3138   5.3286   5.3349   5.3367
     5.3580   5.3584   5.3601   5.3637   5.3803   5.3920   5.4076   5.4088
     5.4131   5.4323   5.4330   5.4449   5.4464   5.4929   5.5021   5.5028
     5.5085   5.5156   5.5543   5.5603   5.5745   5.5751   5.6037   5.6115
     5.6121   5.6191   5.6252   5.6258   5.6426   5.6709   5.6825   5.7145
     5.7154   5.7167   5.7356   5.7718   5.7731   5.7754   5.8014   5.8020
     5.8115   5.8585   5.8735   5.8744   5.8803   5.9154   5.9585   5.9592
     6.0343   6.0351   6.0361   6.0610   6.0785   6.0796   6.1732   6.2080
     6.2128   6.2141   6.2664   6.2673   6.2692   6.2774   6.2846   6.3477
     6.3491   6.3643   6.3719   6.4159   6.4242   6.4261   6.4285   6.4717
     6.4979   6.4988   6.5458   6.5591   6.5961   6.5967   6.6667   6.6692
     6.6770   6.7199   6.7354   6.7385   6.7456   6.8128   6.8145   6.8442
     6.8707   6.9287   6.9367   7.0531

          k =-0.3333-0.5774 0.2714 (115827 PWs)   bands (ev):

   -28.2790 -28.2787 -28.2774 -28.2772 -28.2764 -28.2762 -28.2754 -28.2737
   -28.2736 -28.2734 -28.2734 -28.2702 -14.9306 -14.9277 -14.9248 -14.9245
   -14.9240 -14.9227 -14.9225 -14.9224 -14.9223 -14.9218 -14.9205 -14.9196
   -14.9187 -14.9181 -14.9168 -14.9167 -14.9167 -14.9165 -14.9164 -14.9161
   -14.9146 -14.9138 -14.9126 -14.9108 -14.9103 -14.9097 -14.9066 -14.9061
   -14.9047 -14.9046 -14.9045 -14.9044 -14.9026 -14.9018 -14.8987 -14.8983
   -14.8724 -14.8695 -14.8664 -14.8658 -14.8645 -14.8644 -14.8643 -14.8642
   -14.8624 -14.8616 -14.8585 -14.8581 -14.8273 -14.8243 -14.8213 -14.8206
   -14.8194 -14.8192 -14.8191 -14.8190 -14.8172 -14.8164 -14.8133 -14.8129
   -10.3405 -10.3383 -10.3379 -10.3374 -10.3371 -10.3343 -10.3332 -10.3326
   -10.3324 -10.3303 -10.3296 -10.3278 -10.3085 -10.3081 -10.3078 -10.3058
   -10.3022 -10.2995 -10.2984 -10.2973 -10.2965 -10.2922 -10.2914 -10.2900
   -10.2712 -10.2683 -10.2681 -10.2677 -10.2663 -10.2646 -10.2637 -10.2630
   -10.2621 -10.2602 -10.2594 -10.2572  -6.6195  -6.6182  -6.6163  -6.5259
    -6.5242  -6.5231  -6.3082  -6.2901  -6.2889  -6.2876  -6.2573  -6.2141
    -5.8751  -5.8572  -5.8450  -5.7822  -5.7789  -5.7769  -5.7437  -5.7420
    -5.7398  -5.7151  -5.6896  -5.6878  -5.6859  -5.6731  -5.6718  -5.6707
    -5.6695  -5.6431  -5.5588  -5.5565  -5.5539  -5.5268  -5.5246  -5.5219
    -5.5059  -5.5041  -5.5022  -5.4982  -5.4582  -5.3999  -5.3971  -5.3959
    -5.3577  -5.3243  -5.3224  -5.3193  -0.5203  -0.5082  -0.5046  -0.5030
    -0.4607  -0.4179  -0.4160  -0.4157  -0.3548  -0.2949  -0.2928  -0.2893
     1.4793   1.4825   1.4862   1.6365   1.6390   1.6406   1.6903   1.7738
     1.7758   1.7771   1.7787   1.7940   1.9798   1.9818   1.9835   2.0553
     2.1711   2.1912   2.1938   2.1949   2.2472   2.3963   2.3978   2.3991
     2.4876   2.4899   2.4904   2.5571   2.5871   2.5882   2.5892   2.5926
     2.6789   2.7363   2.7374   2.7380   2.8225   2.8234   2.8241   2.8278
     2.9010   2.9032   2.9037   2.9243   2.9369   2.9547   2.9552   2.9577
     3.0585   3.0607   3.0615   3.0874   3.0889   3.0908   3.1270   3.1808
     3.2442   3.2449   3.2461   3.2708   3.2713   3.2719   3.3217   3.3266
     3.3277   3.3298   3.3740   3.4076   3.4208   3.4641   3.4657   3.4677
     3.4929   3.4979   3.4999   3.5014   3.5356   3.5376   3.5388   3.5404
     3.5613   3.6148   3.6167   3.6181   3.6537   3.6549   3.6569   3.6966
     3.6982   3.6998   3.7199   3.7442   3.8216   3.8400   3.8416   3.8430
     3.9379   3.9397   3.9413   3.9428   4.0282   4.0301   4.0311   4.0405
     4.0653   4.0683   4.0717   4.1089   4.1129   4.1139   4.1172   4.1682
     4.2717   4.2731   4.2756   4.2891   4.3158   4.3601   4.3620   4.3638
     4.4141   4.4177   4.4202   4.4909   4.4928   4.4969   4.5077   4.5124
     4.5646   4.6656   4.6676   4.6703   5.1489   5.1567   5.1574   5.1576
     5.1588   5.1823   5.1829   5.1839   5.1972   5.1988   5.1993   5.2111
     5.2240   5.2258   5.2266   5.2513   5.2527   5.2536   5.2568   5.2689
     5.3009   5.3017   5.3039   5.3094   5.3281   5.3297   5.3307   5.3676
     5.3686   5.3692   5.3748   5.3937   5.3959   5.4088   5.4093   5.4108
     5.4327   5.4335   5.4342   5.4388   5.4841   5.4851   5.4859   5.4913
     5.5387   5.5395   5.5408   5.5439   5.5661   5.5668   5.5674   5.6053
     5.6062   5.6067   5.6378   5.6399   5.6720   5.6727   5.6743   5.7033
     5.7039   5.7050   5.7177   5.7585   5.7596   5.7611   5.8011   5.8080
     5.8213   5.8228   5.8245   5.8263   5.8900   5.8905   5.8927   6.0568
     6.0602   6.0613   6.0616   6.0775   6.1193   6.1206   6.1217   6.1351
     6.1957   6.2376   6.2385   6.2394   6.2844   6.3016   6.3030   6.3035
     6.3065   6.3851   6.3856   6.3869   6.4502   6.4670   6.4685   6.4697
     6.4921   6.4929   6.5584   6.5599   6.5611   6.6462   6.6840   6.6858
     6.6870   6.7610   6.7773   6.7782   6.7804   6.7929   6.8536   6.8546
     6.8574   6.9349   6.9368   6.9376

     highest occupied level (ev):     7.1815

!    total energy              =   -9077.18773331 Ry
     estimated scf accuracy    <          4.2E-10 Ry

     The total energy is the sum of the following terms:
     one-electron contribution =   -2776.46567866 Ry
     hartree contribution      =    2019.99129309 Ry
     xc contribution           =   -2269.38668148 Ry
     ewald contribution        =   -3895.53030178 Ry
     one-center paw contrib.   =   -2155.79636449 Ry

     convergence has been achieved in  20 iterations

     negative rho (up, down):  7.902E-01 0.000E+00

     Forces acting on atoms (cartesian axes, Ry/au):

     atom    1 type  1   force =     0.00262130    0.00044478    0.00322499
     atom    2 type  1   force =    -0.00057754    0.00027718    0.00012578
     atom    3 type  1   force =    -0.00015406    0.00033643    0.00014277
     atom    4 type  1   force =    -0.00024858    0.00008213    0.00013445
     atom    5 type  1   force =    -0.00029995   -0.00030524   -0.00025172
     atom    6 type  1   force =    -0.00011680   -0.00024269   -0.00007080
     atom    7 type  1   force =    -0.00013108   -0.00029386   -0.00006524
     atom    8 type  1   force =    -0.00016207   -0.00026483   -0.00007780
     atom    9 type  1   force =     0.00027513    0.00000853   -0.00008149
     atom   10 type  1   force =     0.00026677   -0.00007255   -0.00015087
     atom   11 type  1   force =     0.00040710    0.00000903   -0.00015300
     atom   12 type  1   force =     0.00027839    0.00003229   -0.00008933
     atom   13 type  2   force =     0.00033684   -0.00052517   -0.00003812
     atom   14 type  2   force =     0.00016777   -0.00034516    0.00017772
     atom   15 type  2   force =     0.00021055   -0.00037910    0.00016989
     atom   16 type  2   force =     0.00018596   -0.00038496    0.00016678
     atom   17 type  2   force =     0.00027822    0.00036837    0.00018521
     atom   18 type  2   force =     0.00022268    0.00036436    0.00013393
     atom   19 type  2   force =     0.00023657    0.00036722    0.00016331
     atom   20 type  2   force =     0.00023979    0.00036975    0.00017174
     atom   21 type  2   force =    -0.00039439   -0.00014822    0.00049952
     atom   22 type  2   force =    -0.00046449    0.00020878    0.00017814
     atom   23 type  2   force =    -0.00044705    0.00000736    0.00024350
     atom   24 type  2   force =    -0.00048952   -0.00005964    0.00026312
     atom   25 type  2   force =    -0.00043612   -0.00001350   -0.00020657
     atom   26 type  2   force =    -0.00041414    0.00001564   -0.00020365
     atom   27 type  2   force =    -0.00043409   -0.00001909   -0.00023271
     atom   28 type  2   force =    -0.00043514   -0.00001094   -0.00020864
     atom   29 type  2   force =     0.00003332    0.00039593   -0.00015831
     atom   30 type  2   force =     0.00006696    0.00031701    0.00017557
     atom   31 type  2   force =     0.00030098    0.00030543   -0.00018327
     atom   32 type  2   force =     0.00018520    0.00041170   -0.00013988
     atom   33 type  2   force =     0.00021367   -0.00038214   -0.00020456
     atom   34 type  2   force =     0.00022952   -0.00033902   -0.00040003
     atom   35 type  2   force =     0.00025591   -0.00039244   -0.00018563
     atom   36 type  2   force =     0.00022547   -0.00033950   -0.00021674
     atom   37 type  3   force =     0.00025375   -0.00050835   -0.00018434
     atom   38 type  3   force =     0.00024709   -0.00046180   -0.00007408
     atom   39 type  3   force =     0.00026913   -0.00045816   -0.00006630
     atom   40 type  3   force =     0.00027907   -0.00048962   -0.00008634
     atom   41 type  3   force =     0.00096036    0.00090182    0.00054047
     atom   42 type  3   force =    -0.00000819    0.00000936   -0.00064378
     atom   43 type  3   force =     0.00015125    0.00095325    0.00007158
     atom   44 type  3   force =     0.00022700    0.00052848    0.00001452
     atom   45 type  3   force =    -0.00058280   -0.00008471   -0.00004527
     atom   46 type  3   force =     0.00025895    0.00089175    0.00010412
     atom   47 type  3   force =    -0.00085817   -0.00014917   -0.00033687
     atom   48 type  3   force =    -0.00043349   -0.00015980    0.00016728
     atom   49 type  4   force =     0.00037891   -0.00015194    0.00014196
     atom   50 type  4   force =     0.00036340   -0.00012241    0.00007745
     atom   51 type  4   force =     0.00036727   -0.00012810    0.00005513
     atom   52 type  4   force =     0.00035244   -0.00010334    0.00006300
     atom   53 type  4   force =    -0.00012986    0.00019090   -0.00033316
     atom   54 type  4   force =    -0.00097308    0.00057363   -0.00010352
     atom   55 type  4   force =    -0.00016139    0.00032578   -0.00007984
     atom   56 type  4   force =    -0.00008223    0.00037352   -0.00002966
     atom   57 type  4   force =    -0.00028554   -0.00021652    0.00007647
     atom   58 type  4   force =    -0.00031523   -0.00020598    0.00004462
     atom   59 type  4   force =    -0.00020844   -0.00026297    0.00001868
     atom   60 type  4   force =    -0.00033758   -0.00029712   -0.00003107
     atom   61 type  4   force =    -0.00021441    0.00026271   -0.00003174
     atom   62 type  4   force =    -0.00057161    0.00018437   -0.00029603
     atom   63 type  4   force =    -0.00043005   -0.00000555   -0.00017422
     atom   64 type  4   force =    -0.00030224    0.00019842   -0.00010446
     atom   65 type  4   force =     0.00030618    0.00007620   -0.00011113
     atom   66 type  4   force =     0.00036963    0.00012005    0.00008354
     atom   67 type  4   force =     0.00036212   -0.00003022    0.00003782
     atom   68 type  4   force =     0.00036813    0.00011325   -0.00000679
     atom   69 type  4   force =    -0.00007610   -0.00035699    0.00002997
     atom   70 type  4   force =    -0.00016182   -0.00025970    0.00012289
     atom   71 type  4   force =    -0.00011283   -0.00034439    0.00005876
     atom   72 type  4   force =    -0.00009667   -0.00033980    0.00002487
     atom   73 type  4   force =    -0.00094228    0.00036497   -0.00112881
     atom   74 type  4   force =     0.00005060    0.00017997   -0.00029960
     atom   75 type  4   force =    -0.00000994    0.00018717   -0.00027457
     atom   76 type  4   force =     0.00007696    0.00021039   -0.00021627
     atom   77 type  4   force =    -0.00014784   -0.00003850   -0.00019151
     atom   78 type  4   force =    -0.00017004   -0.00005125   -0.00017644
     atom   79 type  4   force =    -0.00015077   -0.00006081   -0.00020057
     atom   80 type  4   force =    -0.00015472   -0.00005807   -0.00020376
     atom   81 type  4   force =     0.00006404   -0.00013429   -0.00049690
     atom   82 type  4   force =     0.00018666   -0.00015858   -0.00024378
     atom   83 type  4   force =     0.00004974   -0.00007640   -0.00031080
     atom   84 type  4   force =     0.00011849   -0.00005396   -0.00026485
     atom   85 type  4   force =     0.00012846    0.00007095    0.00029401
     atom   86 type  4   force =     0.00013895    0.00008542    0.00029834
     atom   87 type  4   force =     0.00013141    0.00006734    0.00031524
     atom   88 type  4   force =     0.00012695    0.00008340    0.00028852
     atom   89 type  4   force =     0.00003896   -0.00015213    0.00021966
     atom   90 type  4   force =    -0.00002607   -0.00007515    0.00000959
     atom   91 type  4   force =     0.00000266   -0.00010945    0.00026039
     atom   92 type  4   force =    -0.00002962   -0.00029805    0.00018656
     atom   93 type  4   force =    -0.00000308    0.00012720    0.00034644
     atom   94 type  4   force =    -0.00043575   -0.00055050   -0.00047853
     atom   95 type  4   force =    -0.00015459    0.00008952    0.00018800
     atom   96 type  4   force =    -0.00009523   -0.00001993    0.00024706

     Total force =     0.006515     Total SCF correction =     0.000048
     Message from routine punch:
     Nothing written, as per user request (disk_io='none')

     init_run     :     38.38s CPU     41.26s WALL (       1 calls)
     electrons    :   1890.11s CPU   2004.63s WALL (       1 calls)
     forces       :     19.26s CPU     20.02s WALL (       1 calls)

     Called by init_run:
     wfcinit      :     34.98s CPU     37.41s WALL (       1 calls)
     potinit      :      1.06s CPU      1.11s WALL (       1 calls)
     hinit0       :      1.13s CPU      1.15s WALL (       1 calls)

     Called by electrons:
     c_bands      :   1680.04s CPU   1767.28s WALL (      20 calls)
     sum_band     :    185.98s CPU    205.82s WALL (      20 calls)
     v_of_rho     :      3.61s CPU      4.08s WALL (      21 calls)
     newd         :     15.48s CPU     22.62s WALL (      21 calls)
     PAW_pot      :      5.05s CPU      5.07s WALL (      21 calls)
     mix_rho      :      0.59s CPU      0.64s WALL (      20 calls)

     Called by c_bands:
     init_us_2    :     16.13s CPU     16.44s WALL (     294 calls)
     cegterg      :   1629.21s CPU   1716.01s WALL (     140 calls)

     Called by *egterg:
     cdiaghg      :     89.96s CPU     91.75s WALL (     843 calls)
     h_psi        :    864.57s CPU    934.14s WALL (     850 calls)
     s_psi        :    190.95s CPU    192.20s WALL (     850 calls)
     g_psi        :      2.66s CPU      2.69s WALL (     703 calls)

     Called by h_psi:
     h_psi:calbec :    211.51s CPU    213.81s WALL (     850 calls)
     vloc_psi     :    459.25s CPU    520.79s WALL (     850 calls)
     add_vuspsi   :    191.50s CPU    192.84s WALL (     850 calls)

     General routines
     calbec       :    294.40s CPU    297.43s WALL (    1018 calls)
     fft          :      4.89s CPU      5.35s WALL (     282 calls)
     ffts         :      0.75s CPU      0.78s WALL (      41 calls)
     fftw         :    444.06s CPU    506.86s WALL (  410242 calls)
     interpolate  :      0.87s CPU      0.93s WALL (      21 calls)

     Parallel routines

     PWSCF        :  32m28.03s CPU  34m26.67s WALL


   This run was terminated on:   2:54:21  21Aug2026            

=------------------------------------------------------------------------------=
   JOB DONE.
=------------------------------------------------------------------------------=
