
     Program PWSCF v.7.3.1 starts on 21Aug2026 at  4:24:25 

     This program is part of the open-source Quantum ESPRESSO suite
     for quantum simulation of materials; please cite
         "P. Giannozzi et al., J. Phys.:Condens. Matter 21 395502 (2009);
         "P. Giannozzi et al., J. Phys.:Condens. Matter 29 465901 (2017);
         "P. Giannozzi et al., J. Chem. Phys. 152 154105 (2020);
          URL http://www.quantum-espresso.org", 
     in publications or presentations arising from this work. More details at
     http://www.quantum-espresso.org/quote

     Parallel version (MPI & OpenMP), running on      32 processor cores
     Number of MPI processes:                32
     Threads/MPI process:                     1

     MPI processes distributed on     1 nodes
     201905 MiB available memory on the printing compute node when the environment starts

     Reading input from scf.in

     Current dimensions of program PWSCF are:
     Max number of different atomic species (ntypx) = 10
     Max number of k-points (npk) =  40000
     Max angular momentum in pseudopotentials (lmaxx) =  4
     file Cu.paw.z_11.ld1.psl.v1.0.0-low.upf: wavefunction(s)  4S 3D renormalized

     K-points division:     npool     =       2
     R & G space division:  proc/nbgrp/npool/nimage =      16
     Subspace diagonalization in iterative solution of the eigenvalue problem:
     one sub-group per band group will be used
     scalapack distributed-memory algorithm (size of sub-group:  4*  4 procs)


     Parallelization info
     --------------------
     sticks:   dense  smooth     PW     G-vecs:    dense   smooth      PW
     Min        1193     597    157               163743    57882    7779
     Max        1194     599    158               163747    57885    7784
     Sum       19099    9565   2515              2619931   926125  124485

     Using Slab Decomposition



     bravais-lattice index     =            0
     lattice parameter (alat)  =      24.0273  a.u.
     unit-cell volume          =   14752.0463 (a.u.)^3
     number of atoms/cell      =           96
     number of atomic types    =            4
     number of electrons       =       840.00
     number of Kohn-Sham states=          420
     kinetic-energy cutoff     =      60.0000  Ry
     charge density cutoff     =     480.0000  Ry
     scf convergence threshold =      1.0E-09
     mixing beta               =       0.3000
     number of iterations used =            8  plain     mixing
     Exchange-correlation=  SLA  PW   PBX  PBC
                           (   1   4   3   4   0   0   0)

     celldm(1)=  24.027274  celldm(2)=   0.000000  celldm(3)=   0.000000
     celldm(4)=   0.000000  celldm(5)=   0.000000  celldm(6)=   0.000000

     crystal axes: (cart. coord. in units of alat)
               a(1) = (   1.000000   0.000000   0.000000 )  
               a(2) = (  -0.500000   0.866025   0.000000 )  
               a(3) = (   0.000000   0.000000   1.228028 )  

     reciprocal axes: (cart. coord. in units 2 pi/alat)
               b(1) = (  1.000000  0.577351 -0.000000 )  
               b(2) = (  0.000000  1.154701  0.000000 )  
               b(3) = (  0.000000 -0.000000  0.814314 )  


     PseudoPot. # 1 for Sr read from file:
     /home/yuhansun/pseudos/SSSP-1.3.0-PBE-precision/Sr_pbe_v1.uspp.F.UPF
     MD5 check sum: 6b418c05fbe9db5448babca5e47b7a5b
     Pseudo is Ultrasoft + core correction, Zval = 10.0
     Generated by new atomic code, or converted to UPF format
     Using radial grid of  883 points,  6 beta functions with: 
                l(1) =   0
                l(2) =   0
                l(3) =   1
                l(4) =   1
                l(5) =   2
                l(6) =   2
     Q(r) pseudized with  6 coefficients,  rinner =    1.400   1.400   1.400
                                                       1.400   1.400

     PseudoPot. # 2 for Cu read from file:
     /home/yuhansun/pseudos/SSSP-1.3.0-PBE-precision/Cu.paw.z_11.ld1.psl.v1.0.0-low.upf
     MD5 check sum: 619f40885d92a09a85a8b37550532d0c
     Pseudo is Projector augmented-wave + core cor, Zval = 11.0
     Generated using &quot;atomic&quot; code by A. Dal Corso  v.6.3MaX
     Shape of augmentation charge: PSQ
     Using radial grid of 1199 points,  6 beta functions with: 
                l(1) =   0
                l(2) =   0
                l(3) =   1
                l(4) =   1
                l(5) =   2
                l(6) =   2
     Q(r) pseudized with 0 coefficients 


     PseudoPot. # 3 for Sn read from file:
     /home/yuhansun/pseudos/SSSP-1.3.0-PBE-precision/Sn_pbe_v1.uspp.F.UPF
     MD5 check sum: 4cf58ce39ec5d5d420df3dd08604eb00
     Pseudo is Ultrasoft + core correction, Zval = 14.0
     Generated by new atomic code, or converted to UPF format
     Using radial grid of  891 points,  6 beta functions with: 
                l(1) =   0
                l(2) =   0
                l(3) =   1
                l(4) =   1
                l(5) =   2
                l(6) =   2
     Q(r) pseudized with  6 coefficients,  rinner =    1.200   1.200   1.200
                                                       1.200   1.200

     PseudoPot. # 4 for S  read from file:
     /home/yuhansun/pseudos/SSSP-1.3.0-PBE-precision/s_pbe_v1.4.uspp.F.UPF
     MD5 check sum: 88d86576ff6df21479756cfb9bdac1df
     Pseudo is Ultrasoft + core correction, Zval =  6.0
     Generated by new atomic code, or converted to UPF format
     Using radial grid of  907 points,  6 beta functions with: 
                l(1) =   0
                l(2) =   0
                l(3) =   1
                l(4) =   1
                l(5) =   2
                l(6) =   2
     Q(r) pseudized with  8 coefficients,  rinner =    1.300   1.300   1.300
                                                       1.300   1.300

     atomic species   valence    mass     pseudopotential
     Sr               10.00    87.62000     Sr( 1.00)
     Cu               11.00    63.54600     Cu( 1.00)
     Sn               14.00   118.71000     Sn( 1.00)
     S                 6.00    32.06500     S ( 1.00)

     No symmetry found



   Cartesian axes

     site n.     atom                  positions (alat units)
         1        Sr     tau(   1) = (  -0.1405753   0.2434834   0.2046717  )
         2        Sr     tau(   2) = (   0.3594247   0.2434834   0.2046717  )
         3        Sr     tau(   3) = (  -0.3905753   0.6764960   0.2046717  )
         4        Sr     tau(   4) = (   0.1094247   0.6764960   0.2046717  )
         5        Sr     tau(   5) = (   0.1094247   0.1895292   0.6140139  )
         6        Sr     tau(   6) = (   0.6094247   0.1895292   0.6140139  )
         7        Sr     tau(   7) = (  -0.1405753   0.6225418   0.6140139  )
         8        Sr     tau(   8) = (   0.3594247   0.6225418   0.6140139  )
         9        Sr     tau(   9) = (   0.2811505   0.0000000   1.0233574  )
        10        Sr     tau(  10) = (   0.7811505   0.0000000   1.0233574  )
        11        Sr     tau(  11) = (   0.0311505   0.4330126   1.0233574  )
        12        Sr     tau(  12) = (   0.5311505   0.4330126   1.0233574  )
        13        Cu     tau(  13) = (  -0.1226788   0.2753211   0.5061747  )
        14        Cu     tau(  14) = (   0.3773212   0.2753211   0.5061747  )
        15        Cu     tau(  15) = (  -0.3726788   0.7083337   0.5061747  )
        16        Cu     tau(  16) = (   0.1273212   0.7083337   0.5061747  )
        17        Cu     tau(  17) = (   0.0729045   0.1891087   0.9155169  )
        18        Cu     tau(  18) = (   0.5729045   0.1891087   0.9155169  )
        19        Cu     tau(  19) = (  -0.1770956   0.6221213   0.9155169  )
        20        Cu     tau(  20) = (   0.3229044   0.6221213   0.9155169  )
        21        Cu     tau(  21) = (   0.0497750   0.4015949   0.0968325  )
        22        Cu     tau(  22) = (   0.5497750   0.4015949   0.0968325  )
        23        Cu     tau(  23) = (  -0.2002251   0.8346075   0.0968325  )
        24        Cu     tau(  24) = (   0.2997749   0.8346075   0.0968325  )
        25        Cu     tau(  25) = (   0.2997745   0.0314177   0.7218532  )
        26        Cu     tau(  26) = (   0.7997745   0.0314177   0.7218532  )
        27        Cu     tau(  27) = (   0.0497745   0.4644302   0.7218532  )
        28        Cu     tau(  28) = (   0.5497745   0.4644302   0.7218532  )
        29        Cu     tau(  29) = (   0.1273207   0.1576915   0.3125110  )
        30        Cu     tau(  30) = (   0.6273207   0.1576915   0.3125110  )
        31        Cu     tau(  31) = (  -0.1226793   0.5907041   0.3125110  )
        32        Cu     tau(  32) = (   0.3773207   0.5907041   0.3125110  )
        33        Cu     tau(  33) = (   0.3229040   0.2439039   1.1311954  )
        34        Cu     tau(  34) = (   0.8229040   0.2439039   1.1311954  )
        35        Cu     tau(  35) = (   0.0729039   0.6769164   1.1311954  )
        36        Cu     tau(  36) = (   0.5729039   0.6769164   1.1311954  )
        37        Sn     tau(  37) = (  -0.1762580   0.3052877   0.8186857  )
        38        Sn     tau(  38) = (   0.3237420   0.3052877   0.8186857  )
        39        Sn     tau(  39) = (  -0.4262581   0.7383003   0.8186857  )
        40        Sn     tau(  40) = (   0.0737419   0.7383003   0.8186857  )
        41        Sn     tau(  41) = (   0.0737420   0.1277249   0.0000000  )
        42        Sn     tau(  42) = (   0.5737420   0.1277249   0.0000000  )
        43        Sn     tau(  43) = (  -0.1762581   0.5607374   0.0000000  )
        44        Sn     tau(  44) = (   0.3237419   0.5607374   0.0000000  )
        45        Sn     tau(  45) = (   0.3525160   0.0000000   0.4093422  )
        46        Sn     tau(  46) = (   0.8525160   0.0000000   0.4093422  )
        47        Sn     tau(  47) = (   0.1025160   0.4330126   0.4093422  )
        48        Sn     tau(  48) = (   0.6025160   0.4330126   0.4093422  )
        49        S      tau(  49) = (  -0.0988203   0.2103164   0.9671149  )
        50        S      tau(  50) = (   0.4011797   0.2103164   0.9671149  )
        51        S      tau(  51) = (  -0.3488203   0.6433290   0.9671149  )
        52        S      tau(  52) = (   0.1511797   0.6433290   0.9671149  )
        53        S      tau(  53) = (   0.1172707   0.2422736   0.1484293  )
        54        S      tau(  54) = (   0.6172707   0.2422736   0.1484293  )
        55        S      tau(  55) = (  -0.1327293   0.6752862   0.1484293  )
        56        S      tau(  56) = (   0.3672707   0.6752862   0.1484293  )
        57        S      tau(  57) = (  -0.0184505   0.4134352   0.5577727  )
        58        S      tau(  58) = (   0.4815495   0.4134352   0.5577727  )
        59        S      tau(  59) = (  -0.2684506   0.8464478   0.5577727  )
        60        S      tau(  60) = (   0.2315494   0.8464478   0.5577727  )
        61        S      tau(  61) = (   0.2315495   0.0195774   0.2609129  )
        62        S      tau(  62) = (   0.7315495   0.0195774   0.2609129  )
        63        S      tau(  63) = (  -0.0184505   0.4525899   0.2609129  )
        64        S      tau(  64) = (   0.4815495   0.4525899   0.2609129  )
        65        S      tau(  65) = (   0.1511797   0.2226962   1.0795986  )
        66        S      tau(  66) = (   0.6511797   0.2226962   1.0795986  )
        67        S      tau(  67) = (  -0.0988203   0.6557088   1.0795986  )
        68        S      tau(  68) = (   0.4011797   0.6557088   1.0795986  )
        69        S      tau(  69) = (   0.3672707   0.1907390   0.6702552  )
        70        S      tau(  70) = (   0.8672707   0.1907390   0.6702552  )
        71        S      tau(  71) = (   0.1172707   0.6237516   0.6702552  )
        72        S      tau(  72) = (   0.6172707   0.6237516   0.6702552  )
        73        S      tau(  73) = (  -0.0308983   0.1553638   0.4060885  )
        74        S      tau(  74) = (   0.4703502   0.1532012   0.4035914  )
        75        S      tau(  75) = (  -0.2796498   0.5862137   0.4035914  )
        76        S      tau(  76) = (   0.2203502   0.5862137   0.4035914  )
        77        S      tau(  77) = (   0.1321490   0.3307341   0.8129336  )
        78        S      tau(  78) = (   0.6321490   0.3307341   0.8129336  )
        79        S      tau(  79) = (  -0.1178511   0.7637467   0.8129336  )
        80        S      tau(  80) = (   0.3821489   0.7637467   0.8129336  )
        81        S      tau(  81) = (  -0.1024985   0.3820894   1.2222770  )
        82        S      tau(  82) = (   0.3975015   0.3820894   1.2222770  )
        83        S      tau(  83) = (  -0.3524986   0.8151020   1.2222770  )
        84        S      tau(  84) = (   0.1475014   0.8151020   1.2222770  )
        85        S      tau(  85) = (   0.1475010   0.0509231   0.8244365  )
        86        S      tau(  86) = (   0.6475010   0.0509231   0.8244365  )
        87        S      tau(  87) = (  -0.1024990   0.4839357   0.8244365  )
        88        S      tau(  88) = (   0.3975010   0.4839357   0.8244365  )
        89        S      tau(  89) = (   0.2203497   0.2798114   0.4150943  )
        90        S      tau(  90) = (   0.7203497   0.2798114   0.4150943  )
        91        S      tau(  91) = (  -0.0296503   0.7128240   0.4150943  )
        92        S      tau(  92) = (   0.4703497   0.7128240   0.4150943  )
        93        S      tau(  93) = (   0.3821485   0.1022784   0.0057509  )
        94        S      tau(  94) = (   0.8821485   0.1022784   0.0057509  )
        95        S      tau(  95) = (   0.1321485   0.5352910   0.0057509  )
        96        S      tau(  96) = (   0.6321485   0.5352910   0.0057509  )

     number of k points=    14
                       cart. coord. in units 2pi/alat
        k(    1) = (   0.0000000   0.0000000   0.0000000), wk =   0.0740741
        k(    2) = (   0.0000000   0.0000000   0.2714379), wk =   0.1481481
        k(    3) = (   0.0000000   0.3849003   0.0000000), wk =   0.1481481
        k(    4) = (   0.0000000   0.3849003   0.2714379), wk =   0.1481481
        k(    5) = (   0.3333333   0.5773505   0.0000000), wk =   0.1481481
        k(    6) = (   0.3333333   0.5773505   0.2714379), wk =   0.1481481
        k(    7) = (  -0.3333333   0.1924501   0.0000000), wk =   0.1481481
        k(    8) = (   0.3333333   0.1924502   0.0000000), wk =   0.1481481
        k(    9) = (   0.0000000  -0.3849003   0.2714379), wk =   0.1481481
        k(   10) = (  -0.3333333   0.1924501   0.2714379), wk =   0.1481481
        k(   11) = (   0.3333333   0.1924502   0.2714379), wk =   0.1481481
        k(   12) = (  -0.3333333  -0.1924502   0.2714379), wk =   0.1481481
        k(   13) = (   0.3333333  -0.1924501   0.2714379), wk =   0.1481481
        k(   14) = (  -0.3333333  -0.5773505   0.2714379), wk =   0.1481481

     Dense  grid:  2619931 G-vectors     FFT dimensions: ( 180, 180, 216)

     Smooth grid:   926125 G-vectors     FFT dimensions: ( 120, 120, 150)

     Estimated max dynamical RAM per process >       1.07 GB

     Estimated total dynamical RAM >      33.54 GB

     Initial potential from superposition of free atoms

     starting charge     827.5884, renormalised to     840.0000

     negative rho (up, down):  7.777E-01 0.000E+00
     Starting wfcs are  672 randomized atomic wfcs
     Checking if some PAW data can be deallocated... 

     total cpu time spent up to now is       42.3 secs

     Self-consistent Calculation

     iteration #  1     ecut=    60.00 Ry     beta= 0.30
     Davidson diagonalization with overlap
     ethr =  1.00E-02,  avg # of iterations =  2.0

     negative rho (up, down):  7.747E-01 0.000E+00

     total cpu time spent up to now is      117.6 secs

     total energy              =   -9070.28516407 Ry
     estimated scf accuracy    <      21.99070772 Ry

     iteration #  2     ecut=    60.00 Ry     beta= 0.30
     Davidson diagonalization with overlap
     ethr =  2.62E-03,  avg # of iterations =  5.1

     negative rho (up, down):  7.752E-01 0.000E+00

     total cpu time spent up to now is      212.3 secs

     total energy              =   -9076.61579163 Ry
     estimated scf accuracy    <       8.25691175 Ry

     iteration #  3     ecut=    60.00 Ry     beta= 0.30
     Davidson diagonalization with overlap
     ethr =  9.83E-04,  avg # of iterations =  2.0

     negative rho (up, down):  7.804E-01 0.000E+00

     total cpu time spent up to now is      287.7 secs

     total energy              =   -9076.48647356 Ry
     estimated scf accuracy    <       1.63333519 Ry

     iteration #  4     ecut=    60.00 Ry     beta= 0.30
     Davidson diagonalization with overlap
     ethr =  1.94E-04,  avg # of iterations =  6.1

     negative rho (up, down):  7.829E-01 0.000E+00

     total cpu time spent up to now is      397.0 secs

     total energy              =   -9076.70070657 Ry
     estimated scf accuracy    <       2.07998674 Ry

     iteration #  5     ecut=    60.00 Ry     beta= 0.30
     Davidson diagonalization with overlap
     ethr =  1.94E-04,  avg # of iterations =  5.0

     negative rho (up, down):  7.883E-01 0.000E+00

     total cpu time spent up to now is      485.8 secs

     total energy              =   -9077.13648064 Ry
     estimated scf accuracy    <       0.14373955 Ry

     iteration #  6     ecut=    60.00 Ry     beta= 0.30
     Davidson diagonalization with overlap
     ethr =  1.71E-05,  avg # of iterations =  6.1

     negative rho (up, down):  7.902E-01 0.000E+00

     total cpu time spent up to now is      580.0 secs

     total energy              =   -9077.18428749 Ry
     estimated scf accuracy    <       0.01359050 Ry

     iteration #  7     ecut=    60.00 Ry     beta= 0.30
     Davidson diagonalization with overlap
     ethr =  1.62E-06,  avg # of iterations =  5.3

     negative rho (up, down):  7.907E-01 0.000E+00

     total cpu time spent up to now is      683.0 secs

     total energy              =   -9077.18837607 Ry
     estimated scf accuracy    <       0.00585190 Ry

     iteration #  8     ecut=    60.00 Ry     beta= 0.30
     Davidson diagonalization with overlap
     ethr =  6.97E-07,  avg # of iterations =  6.3

     negative rho (up, down):  7.911E-01 0.000E+00

     total cpu time spent up to now is      799.1 secs

     total energy              =   -9077.17919517 Ry
     estimated scf accuracy    <       0.04645099 Ry

     iteration #  9     ecut=    60.00 Ry     beta= 0.30
     Davidson diagonalization with overlap
     ethr =  6.97E-07,  avg # of iterations =  6.6

     negative rho (up, down):  7.911E-01 0.000E+00

     total cpu time spent up to now is      925.1 secs

     total energy              =   -9077.18728891 Ry
     estimated scf accuracy    <       0.00232118 Ry

     iteration # 10     ecut=    60.00 Ry     beta= 0.30
     Davidson diagonalization with overlap
     ethr =  2.76E-07,  avg # of iterations =  2.0

     negative rho (up, down):  7.908E-01 0.000E+00

     total cpu time spent up to now is      996.2 secs

     total energy              =   -9077.18707095 Ry
     estimated scf accuracy    <       0.00083989 Ry

     iteration # 11     ecut=    60.00 Ry     beta= 0.30
     Davidson diagonalization with overlap
     ethr =  1.00E-07,  avg # of iterations =  6.1

     negative rho (up, down):  7.905E-01 0.000E+00

     total cpu time spent up to now is     1098.5 secs

     total energy              =   -9077.18732094 Ry
     estimated scf accuracy    <       0.00022751 Ry

     iteration # 12     ecut=    60.00 Ry     beta= 0.30
     Davidson diagonalization with overlap
     ethr =  2.71E-08,  avg # of iterations =  3.5

     negative rho (up, down):  7.904E-01 0.000E+00

     total cpu time spent up to now is     1185.6 secs

     total energy              =   -9077.18734231 Ry
     estimated scf accuracy    <       0.00013108 Ry

     iteration # 13     ecut=    60.00 Ry     beta= 0.30
     Davidson diagonalization with overlap
     ethr =  1.56E-08,  avg # of iterations =  2.4

     negative rho (up, down):  7.903E-01 0.000E+00

     total cpu time spent up to now is     1265.6 secs

     total energy              =   -9077.18735163 Ry
     estimated scf accuracy    <       0.00002837 Ry

     iteration # 14     ecut=    60.00 Ry     beta= 0.30
     Davidson diagonalization with overlap
     ethr =  3.38E-09,  avg # of iterations =  6.0

     negative rho (up, down):  7.903E-01 0.000E+00

     total cpu time spent up to now is     1351.3 secs

     total energy              =   -9077.18735646 Ry
     estimated scf accuracy    <       0.00000207 Ry

     iteration # 15     ecut=    60.00 Ry     beta= 0.30
     Davidson diagonalization with overlap
     ethr =  2.47E-10,  avg # of iterations =  6.0

     negative rho (up, down):  7.902E-01 0.000E+00

     total cpu time spent up to now is     1479.2 secs

     total energy              =   -9077.18735786 Ry
     estimated scf accuracy    <       0.00000064 Ry

     iteration # 16     ecut=    60.00 Ry     beta= 0.30
     Davidson diagonalization with overlap
     ethr =  7.56E-11,  avg # of iterations =  4.4

     negative rho (up, down):  7.902E-01 0.000E+00

     total cpu time spent up to now is     1571.5 secs

     total energy              =   -9077.18735810 Ry
     estimated scf accuracy    <       0.00000006 Ry

     iteration # 17     ecut=    60.00 Ry     beta= 0.30
     Davidson diagonalization with overlap
     ethr =  7.41E-12,  avg # of iterations =  5.4

     negative rho (up, down):  7.902E-01 0.000E+00

     total cpu time spent up to now is     1682.8 secs

     total energy              =   -9077.18735814 Ry
     estimated scf accuracy    <       0.00000004 Ry

     iteration # 18     ecut=    60.00 Ry     beta= 0.30
     Davidson diagonalization with overlap
     ethr =  4.78E-12,  avg # of iterations =  4.5

     negative rho (up, down):  7.902E-01 0.000E+00

     total cpu time spent up to now is     1773.2 secs

     total energy              =   -9077.18735816 Ry
     estimated scf accuracy    <          3.8E-09 Ry

     iteration # 19     ecut=    60.00 Ry     beta= 0.30
     Davidson diagonalization with overlap
     ethr =  4.57E-13,  avg # of iterations =  7.9

     negative rho (up, down):  7.902E-01 0.000E+00

     total cpu time spent up to now is     1924.3 secs

     total energy              =   -9077.18735817 Ry
     estimated scf accuracy    <          5.9E-09 Ry

     iteration # 20     ecut=    60.00 Ry     beta= 0.30
     Davidson diagonalization with overlap
     ethr =  4.57E-13,  avg # of iterations =  2.0

     negative rho (up, down):  7.902E-01 0.000E+00

     total cpu time spent up to now is     2001.6 secs

     total energy              =   -9077.18735817 Ry
     estimated scf accuracy    <          3.1E-09 Ry

     iteration # 21     ecut=    60.00 Ry     beta= 0.30
     Davidson diagonalization with overlap
     ethr =  3.65E-13,  avg # of iterations =  6.5

     negative rho (up, down):  7.902E-01 0.000E+00

     total cpu time spent up to now is     2111.1 secs

     total energy              =   -9077.18735818 Ry
     estimated scf accuracy    <          1.2E-09 Ry

     iteration # 22     ecut=    60.00 Ry     beta= 0.30
     Davidson diagonalization with overlap
     ethr =  1.40E-13,  avg # of iterations =  2.6

     negative rho (up, down):  7.902E-01 0.000E+00

     total cpu time spent up to now is     2182.9 secs

     End of self-consistent calculation

          k = 0.0000 0.0000 0.0000 (115723 PWs)   bands (ev):

   -28.2838 -28.2772 -28.2765 -28.2759 -28.2756 -28.2751 -28.2750 -28.2748
   -28.2747 -28.2740 -28.2737 -28.2659 -14.9247 -14.9235 -14.9232 -14.9231
   -14.9228 -14.9228 -14.9218 -14.9216 -14.9213 -14.9212 -14.9192 -14.9187
   -14.9186 -14.9175 -14.9173 -14.9172 -14.9170 -14.9169 -14.9159 -14.9156
   -14.9155 -14.9154 -14.9137 -14.9124 -14.9062 -14.9054 -14.9052 -14.9051
   -14.9049 -14.9048 -14.9038 -14.9036 -14.9034 -14.9033 -14.9015 -14.9005
   -14.8658 -14.8652 -14.8651 -14.8649 -14.8648 -14.8647 -14.8636 -14.8635
   -14.8632 -14.8632 -14.8612 -14.8604 -14.8232 -14.8200 -14.8199 -14.8198
   -14.8196 -14.8195 -14.8185 -14.8182 -14.8181 -14.8180 -14.8163 -14.8150
   -10.3438 -10.3389 -10.3381 -10.3373 -10.3361 -10.3358 -10.3356 -10.3347
   -10.3325 -10.3317 -10.3281 -10.3224 -10.3120 -10.3087 -10.3081 -10.3056
   -10.3030 -10.3025 -10.3008 -10.2997 -10.2933 -10.2919 -10.2901 -10.2816
   -10.2738 -10.2700 -10.2689 -10.2671 -10.2651 -10.2639 -10.2629 -10.2616
   -10.2603 -10.2594 -10.2563 -10.2519  -6.8630  -6.5555  -6.5537  -6.4175
    -6.4165  -6.4159  -6.2996  -6.2985  -6.2974  -6.2184  -6.2167  -6.2161
    -5.9929  -5.9901  -5.9886  -5.8514  -5.8492  -5.8474  -5.7973  -5.7959
    -5.7947  -5.7379  -5.7351  -5.6196  -5.6185  -5.6173  -5.6141  -5.6134
    -5.6128  -5.6002  -5.5594  -5.5590  -5.5569  -5.5458  -5.5443  -5.5437
    -5.5176  -5.5156  -5.4323  -5.4293  -5.4290  -5.4269  -5.3736  -5.3721
    -5.3466  -5.3445  -5.3436  -5.2508  -0.6117  -0.6106  -0.6091  -0.3892
    -0.3882  -0.3874  -0.3499  -0.3170  -0.3149  -0.3139  -0.3014  -0.2992
     1.3841   1.3850   1.3869   1.5915   1.5942   1.6562   1.7172   1.7175
     1.7188   1.8024   1.8063   1.8079   2.0180   2.0392   2.0415   2.0792
     2.0850   2.0864   2.2478   2.2482   2.2504   2.3083   2.3111   2.4033
     2.4051   2.4073   2.4589   2.4612   2.4618   2.5468   2.5512   2.6603
     2.6633   2.6636   2.7808   2.7845   2.7850   2.8700   2.8723   2.9242
     2.9250   2.9263   2.9511   2.9543   2.9553   3.0256   3.0277   3.0278
     3.0454   3.0463   3.0518   3.1642   3.2143   3.2154   3.2180   3.2274
     3.2285   3.2571   3.2580   3.2598   3.3770   3.3782   3.3790   3.3917
     3.3940   3.4259   3.4266   3.4274   3.4333   3.4361   3.4369   3.4755
     3.4762   3.4771   3.4935   3.4941   3.4955   3.4978   3.5161   3.5173
     3.5834   3.5848   3.5857   3.6212   3.6264   3.6279   3.6814   3.6894
     3.6908   3.6909   3.6921   3.7053   3.7951   3.7959   3.8236   3.8253
     3.8268   3.9629   4.0192   4.0208   4.0224   4.0353   4.0355   4.0375
     4.1225   4.1251   4.1256   4.1263   4.1717   4.1738   4.1746   4.2006
     4.2068   4.2096   4.2120   4.2427   4.2443   4.2450   4.2816   4.2823
     4.4218   4.4250   4.4269   4.5156   4.5193   4.5203   4.5349   4.5375
     4.6186   4.6201   4.6215   4.8552   5.1252   5.1543   5.1559   5.1566
     5.1719   5.1746   5.1753   5.1784   5.1793   5.2212   5.2261   5.2272
     5.2282   5.2301   5.2306   5.2495   5.2527   5.2530   5.2657   5.2666
     5.2679   5.2756   5.2789   5.2796   5.3091   5.3109   5.3123   5.3127
     5.3138   5.3252   5.3368   5.3375   5.3393   5.3748   5.3756   5.3777
     5.4383   5.4391   5.4706   5.4718   5.4724   5.4746   5.4764   5.4780
     5.4792   5.4987   5.5002   5.6009   5.6021   5.6026   5.6178   5.6180
     5.6198   5.6269   5.6461   5.6473   5.6487   5.6592   5.6600   5.6607
     5.7250   5.7264   5.7449   5.7824   5.7836   5.7838   5.8213   5.8218
     5.8224   5.9029   5.9039   5.9046   5.9266   5.9278   5.9292   5.9966
     5.9972   6.0261   6.0264   6.0280   6.1498   6.1509   6.1517   6.1527
     6.2620   6.2628   6.2631   6.2636   6.2646   6.2656   6.2897   6.2908
     6.3342   6.3353   6.3371   6.3624   6.3633   6.3649   6.3886   6.3897
     6.3909   6.5525   6.5704   6.5717   6.5722   6.6373   6.6392   6.6408
     6.7466   6.7480   6.7502   6.7652   6.7674   6.7811   6.7822   6.7829
     6.8090   6.9653   7.1811   7.1816

          k = 0.0000 0.0000 0.2714 (115879 PWs)   bands (ev):

   -28.2838 -28.2772 -28.2765 -28.2759 -28.2756 -28.2751 -28.2750 -28.2748
   -28.2747 -28.2740 -28.2737 -28.2659 -14.9247 -14.9235 -14.9232 -14.9231
   -14.9228 -14.9228 -14.9218 -14.9216 -14.9213 -14.9212 -14.9192 -14.9187
   -14.9186 -14.9175 -14.9173 -14.9172 -14.9170 -14.9169 -14.9159 -14.9156
   -14.9155 -14.9154 -14.9137 -14.9124 -14.9062 -14.9054 -14.9052 -14.9051
   -14.9049 -14.9048 -14.9038 -14.9036 -14.9034 -14.9033 -14.9015 -14.9005
   -14.8658 -14.8652 -14.8651 -14.8649 -14.8648 -14.8647 -14.8636 -14.8635
   -14.8632 -14.8632 -14.8612 -14.8604 -14.8232 -14.8200 -14.8199 -14.8198
   -14.8196 -14.8195 -14.8185 -14.8182 -14.8181 -14.8180 -14.8163 -14.8150
   -10.3442 -10.3397 -10.3386 -10.3384 -10.3367 -10.3357 -10.3349 -10.3332
   -10.3328 -10.3306 -10.3274 -10.3229 -10.3131 -10.3100 -10.3071 -10.3061
   -10.3035 -10.3015 -10.3004 -10.2946 -10.2935 -10.2930 -10.2909 -10.2838
   -10.2732 -10.2695 -10.2685 -10.2675 -10.2658 -10.2643 -10.2626 -10.2613
   -10.2600 -10.2593 -10.2567 -10.2525  -6.8237  -6.7131  -6.4096  -6.4084
    -6.4077  -6.4069  -6.3040  -6.3033  -6.3024  -6.2309  -6.2289  -6.2283
    -5.9946  -5.9915  -5.9905  -5.8534  -5.8363  -5.8341  -5.8325  -5.7745
    -5.7732  -5.7722  -5.6569  -5.6559  -5.6551  -5.6514  -5.6134  -5.6126
    -5.6115  -5.6112  -5.5564  -5.5525  -5.5519  -5.5502  -5.5453  -5.5442
    -5.5435  -5.4536  -5.4352  -5.4349  -5.4335  -5.4326  -5.3752  -5.3459
    -5.3387  -5.3368  -5.3358  -5.2813  -0.6039  -0.6027  -0.6014  -0.4129
    -0.4117  -0.4103  -0.3474  -0.3317  -0.3023  -0.3003  -0.2995  -0.2733
     1.4086   1.4095   1.4108   1.5708   1.6146   1.6180   1.6192   1.6215
     1.6582   1.9317   1.9357   1.9370   2.0046   2.0437   2.0494   2.0533
     2.0545   2.0673   2.2761   2.2768   2.2783   2.3055   2.3878   2.3893
     2.3904   2.3918   2.4158   2.4170   2.4189   2.4557   2.6213   2.6235
     2.6241   2.6658   2.7181   2.7900   2.7951   2.7984   2.7991   2.8698
     2.8715   2.8734   2.9747   2.9761   2.9777   3.0446   3.0467   3.0487
     3.1061   3.1073   3.1109   3.1753   3.1979   3.2043   3.2054   3.2077
     3.2726   3.2747   3.2774   3.2840   3.3748   3.3837   3.3844   3.3861
     3.4184   3.4197   3.4209   3.4362   3.4396   3.4410   3.4484   3.4496
     3.4505   3.4766   3.4990   3.5179   3.5183   3.5208   3.5367   3.5429
     3.5493   3.5499   3.5522   3.6374   3.6385   3.6448   3.6459   3.6503
     3.6757   3.6811   3.6822   3.7736   3.8301   3.8738   3.8765   3.8774
     3.9069   3.9214   3.9933   3.9955   3.9963   4.0547   4.0554   4.0571
     4.0746   4.1138   4.1175   4.1185   4.1471   4.1492   4.1498   4.1647
     4.1703   4.1720   4.1744   4.2120   4.2492   4.2515   4.2521   4.2685
     4.4185   4.4224   4.4245   4.4839   4.5575   4.5598   4.5614   4.6037
     4.6054   4.6066   4.6766   4.8059   5.1362   5.1473   5.1529   5.1544
     5.1554   5.1647   5.1858   5.1869   5.1884   5.2139   5.2161   5.2177
     5.2185   5.2471   5.2480   5.2493   5.2560   5.2594   5.2600   5.2612
     5.2755   5.2764   5.2769   5.2792   5.3287   5.3296   5.3302   5.3325
     5.3339   5.3357   5.3409   5.3429   5.3439   5.3656   5.3738   5.3747
     5.3773   5.3899   5.4028   5.4196   5.4205   5.4223   5.5262   5.5322
     5.5332   5.5341   5.5821   5.5874   5.5889   5.5898   5.5908   5.6197
     5.6200   5.6209   5.6511   5.6522   5.6531   5.6612   5.6812   5.6828
     5.6837   5.7547   5.7559   5.7564   5.7910   5.7990   5.8180   5.8182
     5.8186   5.8714   5.8825   5.8842   5.8846   5.9884   5.9888   5.9906
     6.0420   6.0429   6.0439   6.0977   6.0986   6.0991   6.1755   6.1912
     6.1918   6.1932   6.2372   6.2685   6.2699   6.2708   6.3255   6.3267
     6.3279   6.3593   6.3604   6.3705   6.3715   6.3724   6.3955   6.4291
     6.4303   6.4319   6.4815   6.6409   6.6416   6.6423   6.6427   6.6444
     6.6462   6.6710   6.7088   6.7098   6.7111   6.7523   6.7533   6.7550
     6.9419   7.0063   7.0952   7.1707

          k = 0.0000 0.3849 0.0000 (115797 PWs)   bands (ev):

   -28.2838 -28.2772 -28.2765 -28.2759 -28.2756 -28.2751 -28.2750 -28.2748
   -28.2747 -28.2740 -28.2737 -28.2659 -14.9246 -14.9234 -14.9232 -14.9230
   -14.9228 -14.9228 -14.9218 -14.9216 -14.9213 -14.9212 -14.9192 -14.9187
   -14.9186 -14.9175 -14.9173 -14.9172 -14.9170 -14.9169 -14.9159 -14.9156
   -14.9155 -14.9154 -14.9137 -14.9124 -14.9062 -14.9054 -14.9052 -14.9051
   -14.9050 -14.9048 -14.9038 -14.9036 -14.9034 -14.9033 -14.9015 -14.9005
   -14.8658 -14.8652 -14.8651 -14.8649 -14.8648 -14.8647 -14.8636 -14.8635
   -14.8632 -14.8632 -14.8612 -14.8604 -14.8232 -14.8200 -14.8199 -14.8198
   -14.8196 -14.8195 -14.8185 -14.8182 -14.8180 -14.8180 -14.8163 -14.8150
   -10.3433 -10.3386 -10.3372 -10.3365 -10.3354 -10.3348 -10.3343 -10.3336
   -10.3328 -10.3319 -10.3289 -10.3240 -10.3104 -10.3069 -10.3062 -10.3050
   -10.3029 -10.3021 -10.3012 -10.2997 -10.2950 -10.2931 -10.2897 -10.2844
   -10.2730 -10.2691 -10.2685 -10.2678 -10.2649 -10.2641 -10.2629 -10.2623
   -10.2614 -10.2606 -10.2582 -10.2532  -6.7877  -6.5895  -6.4993  -6.4973
    -6.4385  -6.4373  -6.3650  -6.3483  -6.2849  -6.2835  -6.2483  -6.2468
    -5.9112  -5.9099  -5.8223  -5.8187  -5.8168  -5.7767  -5.7689  -5.7669
    -5.7314  -5.7238  -5.7221  -5.6916  -5.6889  -5.6470  -5.6391  -5.6369
    -5.6291  -5.5952  -5.5845  -5.5831  -5.5678  -5.5272  -5.5187  -5.5181
    -5.5156  -5.5043  -5.4619  -5.4520  -5.4367  -5.4352  -5.4227  -5.4147
    -5.3489  -5.3469  -5.3128  -5.2701  -0.5708  -0.5698  -0.5606  -0.4343
    -0.4036  -0.4027  -0.3768  -0.3393  -0.3367  -0.3359  -0.3119  -0.3026
     1.4195   1.4869   1.4894   1.5015   1.6387   1.6520   1.6868   1.7236
     1.7259   1.8271   1.8755   1.8775   1.9528   1.9561   1.9575   2.0280
     2.1159   2.2054   2.2295   2.2312   2.3391   2.3639   2.3858   2.3877
     2.3943   2.4089   2.4506   2.5372   2.5391   2.6086   2.6132   2.6169
     2.6567   2.7347   2.8109   2.8150   2.8217   2.8417   2.8424   2.8432
     2.8550   2.8849   2.9082   2.9091   2.9152   2.9624   2.9630   3.0044
     3.0495   3.0563   3.0575   3.1228   3.1476   3.1756   3.2047   3.2123
     3.2140   3.2369   3.2595   3.2617   3.2693   3.3237   3.3287   3.3317
     3.3382   3.3724   3.3954   3.3956   3.4334   3.4399   3.4411   3.4503
     3.4958   3.4981   3.5006   3.5104   3.5124   3.5142   3.5219   3.5429
     3.5613   3.6040   3.6059   3.6080   3.6336   3.6421   3.6776   3.6806
     3.6937   3.7004   3.7041   3.7083   3.7763   3.7798   3.8497   3.8600
     3.8949   3.9736   3.9751   3.9783   3.9808   4.0297   4.0366   4.0410
     4.0920   4.1121   4.1198   4.1207   4.1264   4.1621   4.1630   4.1773
     4.2480   4.2628   4.2693   4.2833   4.3033   4.3220   4.3242   4.3683
     4.3788   4.4132   4.4189   4.4839   4.5182   4.5260   4.5291   4.5294
     4.5905   4.5920   4.6258   4.7475   5.1437   5.1445   5.1469   5.1544
     5.1589   5.1613   5.1700   5.1750   5.2141   5.2182   5.2199   5.2211
     5.2282   5.2377   5.2485   5.2490   5.2511   5.2611   5.2672   5.2713
     5.2731   5.2892   5.3033   5.3045   5.3146   5.3190   5.3258   5.3284
     5.3368   5.3492   5.3519   5.3535   5.3584   5.3664   5.4131   5.4146
     5.4336   5.4511   5.4612   5.4618   5.4857   5.4933   5.5009   5.5013
     5.5028   5.5133   5.5270   5.5436   5.5567   5.5576   5.5617   5.6029
     5.6040   5.6307   5.6315   5.6323   5.6687   5.6785   5.6948   5.6963
     5.6978   5.7179   5.7296   5.7563   5.7751   5.7763   5.8091   5.8191
     5.8203   5.8641   5.8757   5.8769   5.9508   5.9520   5.9649   5.9667
     5.9905   6.0068   6.0078   6.0212   6.1390   6.1400   6.1452   6.1613
     6.2250   6.2300   6.2303   6.2515   6.2711   6.2898   6.2905   6.2995
     6.3615   6.3635   6.3785   6.3894   6.3918   6.4416   6.4858   6.4865
     6.5244   6.5382   6.5389   6.5760   6.6047   6.6511   6.6851   6.6924
     6.6941   6.7309   6.7371   6.7394   6.7633   6.7783   6.7935   6.8122
     6.8133   6.9050   6.9098   7.0816

          k = 0.0000 0.3849 0.2714 (115773 PWs)   bands (ev):

   -28.2838 -28.2772 -28.2765 -28.2759 -28.2756 -28.2751 -28.2750 -28.2748
   -28.2747 -28.2740 -28.2737 -28.2659 -14.9246 -14.9234 -14.9232 -14.9230
   -14.9228 -14.9228 -14.9218 -14.9216 -14.9213 -14.9212 -14.9192 -14.9187
   -14.9186 -14.9175 -14.9173 -14.9172 -14.9170 -14.9169 -14.9159 -14.9156
   -14.9155 -14.9154 -14.9137 -14.9124 -14.9062 -14.9054 -14.9052 -14.9051
   -14.9050 -14.9048 -14.9038 -14.9036 -14.9034 -14.9033 -14.9015 -14.9005
   -14.8658 -14.8652 -14.8651 -14.8649 -14.8648 -14.8647 -14.8636 -14.8635
   -14.8632 -14.8632 -14.8612 -14.8604 -14.8232 -14.8200 -14.8199 -14.8198
   -14.8196 -14.8195 -14.8185 -14.8182 -14.8180 -14.8180 -14.8163 -14.8150
   -10.3436 -10.3392 -10.3382 -10.3373 -10.3356 -10.3349 -10.3338 -10.3330
   -10.3321 -10.3307 -10.3290 -10.3241 -10.3116 -10.3087 -10.3062 -10.3056
   -10.3021 -10.3006 -10.2992 -10.2967 -10.2953 -10.2937 -10.2903 -10.2864
   -10.2728 -10.2691 -10.2680 -10.2677 -10.2650 -10.2646 -10.2628 -10.2621
   -10.2611 -10.2603 -10.2591 -10.2537  -6.7505  -6.6465  -6.5602  -6.4715
    -6.4229  -6.4215  -6.3634  -6.3282  -6.3278  -6.2582  -6.2239  -6.2234
    -5.9049  -5.9040  -5.8247  -5.8212  -5.8082  -5.8066  -5.7918  -5.7619
    -5.7592  -5.7313  -5.7113  -5.7087  -5.6714  -5.6351  -5.6291  -5.6280
    -5.6266  -5.6084  -5.5994  -5.5991  -5.5687  -5.5287  -5.5219  -5.5216
    -5.5200  -5.4961  -5.4672  -5.4322  -5.4289  -5.4272  -5.4226  -5.3641
    -5.3485  -5.3464  -5.3217  -5.2993  -0.5590  -0.5581  -0.5569  -0.4360
    -0.4340  -0.4237  -0.3930  -0.3728  -0.3198  -0.3173  -0.2989  -0.2783
     1.4339   1.4850   1.4870   1.4886   1.6259   1.6399   1.7701   1.7739
     1.7819   1.7885   1.8005   1.8018   1.9151   1.9963   1.9968   2.0767
     2.1557   2.2004   2.2093   2.2470   2.2494   2.3605   2.3926   2.3948
     2.3987   2.4490   2.5114   2.5126   2.5474   2.5872   2.5915   2.6069
     2.6417   2.7092   2.7608   2.7672   2.7707   2.7889   2.8082   2.8118
     2.8396   2.8742   2.9149   2.9166   2.9193   2.9817   3.0237   3.0256
     3.0666   3.1066   3.1077   3.1321   3.1709   3.1920   3.1939   3.1970
     3.1993   3.2323   3.2627   3.2648   3.2772   3.3173   3.3206   3.3223
     3.3248   3.3889   3.3899   3.4110   3.4449   3.4459   3.4677   3.4694
     3.4722   3.4739   3.4763   3.4775   3.5335   3.5357   3.5377   3.5856
     3.6094   3.6114   3.6134   3.6329   3.6419   3.6438   3.6585   3.6600
     3.6676   3.7087   3.7119   3.7126   3.8332   3.8362   3.8798   3.8885
     3.9043   3.9490   3.9510   3.9751   3.9822   4.0180   4.0456   4.0483
     4.0508   4.0664   4.1104   4.1112   4.1204   4.1312   4.1329   4.1476
     4.1908   4.2561   4.2643   4.2677   4.2865   4.2913   4.2951   4.3875
     4.3978   4.4363   4.4392   4.4683   4.5230   4.5253   4.5359   4.5966
     4.6101   4.6118   4.6213   4.7201   5.1503   5.1516   5.1543   5.1570
     5.1708   5.1752   5.1768   5.1837   5.1909   5.1965   5.2016   5.2078
     5.2081   5.2336   5.2353   5.2357   5.2544   5.2632   5.2655   5.2674
     5.2799   5.2985   5.3074   5.3117   5.3136   5.3279   5.3353   5.3385
     5.3569   5.3582   5.3609   5.3637   5.3804   5.3933   5.4068   5.4074
     5.4127   5.4321   5.4336   5.4448   5.4461   5.4926   5.5022   5.5029
     5.5089   5.5163   5.5537   5.5598   5.5738   5.5755   5.6030   5.6110
     5.6119   5.6188   5.6249   5.6260   5.6436   5.6703   5.6823   5.7143
     5.7153   5.7171   5.7345   5.7721   5.7733   5.7738   5.8025   5.8032
     5.8104   5.8586   5.8754   5.8766   5.8790   5.9148   5.9592   5.9607
     6.0340   6.0347   6.0357   6.0599   6.0789   6.0797   6.1738   6.2070
     6.2130   6.2138   6.2660   6.2677   6.2701   6.2774   6.2862   6.3493
     6.3509   6.3658   6.3733   6.4157   6.4245   6.4255   6.4276   6.4719
     6.4977   6.4999   6.5464   6.5597   6.5955   6.5972   6.6664   6.6680
     6.6769   6.7202   6.7361   6.7371   6.7490   6.8129   6.8150   6.8454
     6.8697   6.9291   6.9375   7.0532

          k = 0.3333 0.5774 0.0000 (115752 PWs)   bands (ev):

   -28.2838 -28.2772 -28.2765 -28.2759 -28.2756 -28.2751 -28.2750 -28.2748
   -28.2747 -28.2740 -28.2737 -28.2659 -14.9246 -14.9234 -14.9232 -14.9231
   -14.9229 -14.9228 -14.9218 -14.9216 -14.9213 -14.9213 -14.9192 -14.9187
   -14.9186 -14.9175 -14.9173 -14.9172 -14.9170 -14.9169 -14.9159 -14.9156
   -14.9155 -14.9154 -14.9137 -14.9124 -14.9062 -14.9054 -14.9052 -14.9051
   -14.9050 -14.9048 -14.9038 -14.9036 -14.9034 -14.9033 -14.9015 -14.9005
   -14.8658 -14.8652 -14.8651 -14.8649 -14.8648 -14.8647 -14.8636 -14.8635
   -14.8632 -14.8632 -14.8612 -14.8604 -14.8232 -14.8200 -14.8199 -14.8198
   -14.8196 -14.8195 -14.8185 -14.8182 -14.8180 -14.8180 -14.8163 -14.8150
   -10.3430 -10.3380 -10.3362 -10.3358 -10.3353 -10.3351 -10.3343 -10.3340
   -10.3324 -10.3304 -10.3300 -10.3250 -10.3097 -10.3063 -10.3052 -10.3043
   -10.3027 -10.3016 -10.3011 -10.3003 -10.2975 -10.2905 -10.2897 -10.2875
   -10.2722 -10.2690 -10.2674 -10.2665 -10.2661 -10.2650 -10.2643 -10.2638
   -10.2619 -10.2593 -10.2585 -10.2543  -6.6505  -6.6500  -6.6497  -6.4002
    -6.3986  -6.3984  -6.3980  -6.3976  -6.3963  -6.2925  -6.2912  -6.1917
    -5.8660  -5.8526  -5.8499  -5.7499  -5.7489  -5.7479  -5.7328  -5.7313
    -5.7302  -5.7083  -5.7062  -5.6947  -5.6942  -5.6926  -5.6850  -5.6841
    -5.6826  -5.6449  -5.5423  -5.5404  -5.5397  -5.5303  -5.5294  -5.5277
    -5.5116  -5.4728  -5.4710  -5.4706  -5.4672  -5.4659  -5.4654  -5.3975
    -5.3956  -5.3019  -5.3014  -5.3006  -0.5431  -0.5139  -0.5136  -0.5126
    -0.3964  -0.3949  -0.3904  -0.3895  -0.3886  -0.3104  -0.3090  -0.3081
     1.4835   1.4843   1.4866   1.6711   1.6755   1.6772   1.6855   1.6868
     1.6877   1.7337   1.7361   1.7976   2.0789   2.0814   2.0823   2.0834
     2.0868   2.1427   2.1445   2.1463   2.2565   2.3963   2.3974   2.3976
     2.4937   2.4947   2.4958   2.5632   2.5637   2.5648   2.5961   2.5977
     2.7717   2.7747   2.7755   2.8349   2.8376   2.8416   2.8445   2.8465
     2.8485   2.8521   2.8530   2.8540   2.8686   3.0080   3.0104   3.0125
     3.0245   3.0259   3.0267   3.0631   3.1326   3.1346   3.1349   3.1967
     3.1972   3.1991   3.2580   3.2598   3.2613   3.2706   3.2732   3.3608
     3.3700   3.3719   3.3723   3.3739   3.4246   3.4257   3.4272   3.4864
     3.4878   3.5020   3.5025   3.5035   3.5291   3.5294   3.5310   3.5453
     3.5483   3.5751   3.5801   3.5813   3.6452   3.6509   3.6513   3.7144
     3.7206   3.7218   3.7278   3.7291   3.7560   3.8002   3.8016   3.8024
     3.9578   3.9597   3.9619   3.9855   3.9873   4.0279   4.0303   4.0311
     4.0835   4.0844   4.0868   4.1401   4.1494   4.1515   4.1521   4.2841
     4.2853   4.2940   4.3160   4.3189   4.3200   4.3211   4.3217   4.3256
     4.3852   4.3867   4.3874   4.4958   4.5129   4.5160   4.5198   4.5210
     4.5221   4.6520   4.6548   4.6564   5.1364   5.1432   5.1443   5.1453
     5.1727   5.1734   5.1862   5.1890   5.1893   5.1960   5.1971   5.1985
     5.2453   5.2476   5.2480   5.2649   5.2661   5.2670   5.2976   5.2985
     5.2993   5.3009   5.3032   5.3035   5.3135   5.3180   5.3191   5.3201
     5.3396   5.3406   5.3420   5.4019   5.4036   5.4047   5.4072   5.4089
     5.4549   5.4558   5.4567   5.4585   5.4825   5.4839   5.4844   5.4891
     5.4894   5.5348   5.5354   5.5373   5.5640   5.5647   5.5652   5.5703
     5.5720   5.5726   5.6414   5.6721   5.6725   5.6939   5.6959   5.6964
     5.7068   5.7081   5.7089   5.7802   5.7808   5.7812   5.7992   5.7997
     5.8009   5.8242   5.8249   5.8450   5.9309   5.9315   5.9323   6.0460
     6.0469   6.0474   6.0482   6.0494   6.1383   6.1389   6.1396   6.1590
     6.2187   6.2190   6.2200   6.2601   6.2607   6.2635   6.2835   6.2851
     6.3754   6.4102   6.4108   6.4117   6.4170   6.4184   6.4230   6.4521
     6.4525   6.4537   6.6154   6.6156   6.6177   6.6765   6.6768   6.6772
     6.7256   6.7404   6.7423   6.8063   6.8066   6.8076   6.8103   6.8110
     6.8122   6.9394   6.9399   6.9414

          k = 0.3333 0.5774 0.2714 (115827 PWs)   bands (ev):

   -28.2838 -28.2772 -28.2765 -28.2759 -28.2756 -28.2751 -28.2750 -28.2748
   -28.2747 -28.2740 -28.2737 -28.2659 -14.9246 -14.9234 -14.9232 -14.9231
   -14.9229 -14.9228 -14.9218 -14.9216 -14.9213 -14.9213 -14.9192 -14.9187
   -14.9186 -14.9175 -14.9173 -14.9172 -14.9170 -14.9169 -14.9159 -14.9156
   -14.9155 -14.9154 -14.9137 -14.9124 -14.9062 -14.9054 -14.9052 -14.9051
   -14.9050 -14.9048 -14.9038 -14.9036 -14.9034 -14.9033 -14.9015 -14.9005
   -14.8658 -14.8652 -14.8651 -14.8649 -14.8648 -14.8647 -14.8636 -14.8635
   -14.8632 -14.8632 -14.8612 -14.8604 -14.8232 -14.8200 -14.8199 -14.8198
   -14.8196 -14.8195 -14.8185 -14.8182 -14.8180 -14.8180 -14.8163 -14.8150
   -10.3432 -10.3385 -10.3375 -10.3371 -10.3362 -10.3338 -10.3333 -10.3325
   -10.3322 -10.3305 -10.3299 -10.3249 -10.3104 -10.3078 -10.3071 -10.3055
   -10.3016 -10.2998 -10.2982 -10.2970 -10.2961 -10.2921 -10.2915 -10.2888
   -10.2724 -10.2687 -10.2679 -10.2669 -10.2659 -10.2642 -10.2635 -10.2633
   -10.2619 -10.2601 -10.2593 -10.2547  -6.6183  -6.6178  -6.6175  -6.5247
    -6.5243  -6.5239  -6.3078  -6.2888  -6.2884  -6.2882  -6.2568  -6.2136
    -5.8756  -5.8579  -5.8454  -5.7804  -5.7793  -5.7783  -5.7425  -5.7418
    -5.7411  -5.7144  -5.6883  -5.6878  -5.6866  -5.6731  -5.6719  -5.6712
    -5.6691  -5.6434  -5.5576  -5.5556  -5.5553  -5.5254  -5.5242  -5.5235
    -5.5047  -5.5038  -5.5023  -5.5018  -5.4583  -5.3985  -5.3973  -5.3968
    -5.3577  -5.3231  -5.3223  -5.3214  -0.5194  -0.5052  -0.5046  -0.5037
    -0.4600  -0.4167  -0.4160  -0.4155  -0.3550  -0.2931  -0.2920  -0.2913
     1.4816   1.4821   1.4844   1.6362   1.6390   1.6402   1.6914   1.7724
     1.7762   1.7768   1.7788   1.7928   1.9790   1.9819   1.9834   2.0555
     2.1709   2.1917   2.1928   2.1946   2.2483   2.3964   2.3974   2.3990
     2.4888   2.4895   2.4899   2.5570   2.5870   2.5880   2.5899   2.5930
     2.6778   2.7327   2.7376   2.7389   2.8215   2.8235   2.8243   2.8276
     2.8990   2.9028   2.9045   2.9251   2.9370   2.9544   2.9556   2.9577
     3.0574   3.0601   3.0614   3.0876   3.0885   3.0893   3.1274   3.1813
     3.2430   3.2448   3.2455   3.2695   3.2709   3.2724   3.3220   3.3276
     3.3280   3.3317   3.3743   3.4071   3.4204   3.4648   3.4655   3.4670
     3.4909   3.4989   3.4997   3.5001   3.5345   3.5372   3.5381   3.5401
     3.5609   3.6091   3.6167   3.6172   3.6522   3.6551   3.6556   3.6956
     3.6976   3.6989   3.7196   3.7430   3.8210   3.8400   3.8410   3.8420
     3.9367   3.9395   3.9413   3.9433   4.0277   4.0302   4.0307   4.0400
     4.0660   4.0684   4.0694   4.1080   4.1119   4.1143   4.1154   4.1678
     4.2718   4.2740   4.2745   4.2905   4.3142   4.3607   4.3619   4.3634
     4.4153   4.4173   4.4182   4.4924   4.4939   4.4947   4.5075   4.5111
     4.5640   4.6645   4.6676   4.6684   5.1475   5.1557   5.1573   5.1578
     5.1592   5.1813   5.1829   5.1841   5.1973   5.1986   5.1995   5.2116
     5.2235   5.2255   5.2259   5.2518   5.2529   5.2532   5.2568   5.2686
     5.3003   5.3018   5.3031   5.3090   5.3275   5.3298   5.3313   5.3665
     5.3685   5.3693   5.3748   5.3932   5.3959   5.4082   5.4094   5.4101
     5.4326   5.4341   5.4351   5.4390   5.4840   5.4847   5.4857   5.4908
     5.5392   5.5396   5.5405   5.5436   5.5649   5.5664   5.5684   5.6059
     5.6065   5.6077   5.6384   5.6387   5.6724   5.6730   5.6744   5.7029
     5.7043   5.7049   5.7177   5.7592   5.7600   5.7608   5.8016   5.8082
     5.8219   5.8235   5.8246   5.8252   5.8908   5.8912   5.8916   6.0562
     6.0602   6.0604   6.0617   6.0780   6.1203   6.1208   6.1212   6.1354
     6.1960   6.2371   6.2383   6.2398   6.2838   6.3023   6.3032   6.3038
     6.3061   6.3855   6.3857   6.3874   6.4514   6.4680   6.4684   6.4696
     6.4924   6.4934   6.5591   6.5600   6.5616   6.6456   6.6854   6.6858
     6.6870   6.7603   6.7783   6.7787   6.7799   6.7941   6.8549   6.8554
     6.8559   6.9361   6.9368   6.9379

          k =-0.3333 0.1925 0.0000 (115797 PWs)   bands (ev):

   -28.2838 -28.2772 -28.2765 -28.2759 -28.2756 -28.2751 -28.2750 -28.2748
   -28.2747 -28.2740 -28.2737 -28.2659 -14.9246 -14.9234 -14.9232 -14.9231
   -14.9229 -14.9228 -14.9218 -14.9216 -14.9213 -14.9213 -14.9192 -14.9187
   -14.9186 -14.9175 -14.9173 -14.9172 -14.9170 -14.9169 -14.9159 -14.9156
   -14.9155 -14.9154 -14.9137 -14.9124 -14.9062 -14.9054 -14.9052 -14.9051
   -14.9050 -14.9048 -14.9038 -14.9036 -14.9034 -14.9033 -14.9015 -14.9005
   -14.8658 -14.8652 -14.8651 -14.8649 -14.8648 -14.8647 -14.8636 -14.8635
   -14.8632 -14.8632 -14.8612 -14.8604 -14.8232 -14.8200 -14.8199 -14.8198
   -14.8196 -14.8195 -14.8185 -14.8182 -14.8180 -14.8180 -14.8163 -14.8150
   -10.3434 -10.3379 -10.3375 -10.3366 -10.3363 -10.3351 -10.3339 -10.3335
   -10.3330 -10.3316 -10.3286 -10.3240 -10.3104 -10.3069 -10.3065 -10.3050
   -10.3028 -10.3020 -10.3016 -10.3000 -10.2941 -10.2923 -10.2906 -10.2846
   -10.2730 -10.2691 -10.2686 -10.2672 -10.2658 -10.2649 -10.2627 -10.2615
   -10.2613 -10.2602 -10.2578 -10.2541  -6.7877  -6.5895  -6.4989  -6.4978
    -6.4382  -6.4378  -6.3645  -6.3491  -6.2844  -6.2835  -6.2478  -6.2469
    -5.9133  -5.9097  -5.8205  -5.8195  -5.8174  -5.7763  -5.7682  -5.7667
    -5.7317  -5.7234  -5.7220  -5.6906  -5.6899  -5.6476  -5.6378  -5.6369
    -5.6291  -5.5957  -5.5842  -5.5832  -5.5690  -5.5272  -5.5187  -5.5180
    -5.5158  -5.5047  -5.4621  -5.4510  -5.4368  -5.4350  -5.4221  -5.4150
    -5.3490  -5.3475  -5.3124  -5.2700  -0.5704  -0.5693  -0.5618  -0.4349
    -0.4038  -0.4026  -0.3759  -0.3387  -0.3378  -0.3364  -0.3113  -0.3018
     1.4189   1.4871   1.4883   1.5018   1.6404   1.6515   1.6881   1.7232
     1.7243   1.8273   1.8767   1.8778   1.9516   1.9551   1.9591   2.0275
     2.1150   2.2062   2.2300   2.2317   2.3393   2.3636   2.3862   2.3864
     2.3929   2.4091   2.4494   2.5372   2.5385   2.6128   2.6137   2.6175
     2.6585   2.7323   2.8115   2.8137   2.8196   2.8402   2.8416   2.8436
     2.8548   2.8851   2.9085   2.9101   2.9147   2.9619   2.9647   3.0047
     3.0502   3.0553   3.0573   3.1237   3.1481   3.1755   3.2035   3.2122
     3.2135   3.2334   3.2611   3.2640   3.2684   3.3242   3.3310   3.3325
     3.3383   3.3723   3.3951   3.3980   3.4339   3.4396   3.4412   3.4506
     3.4960   3.4988   3.5008   3.5111   3.5117   3.5143   3.5222   3.5427
     3.5602   3.5959   3.6049   3.6107   3.6336   3.6460   3.6779   3.6805
     3.6939   3.7002   3.7034   3.7078   3.7778   3.7797   3.8485   3.8589
     3.8956   3.9739   3.9753   3.9780   3.9804   4.0287   4.0381   4.0395
     4.0924   4.1120   4.1200   4.1219   4.1246   4.1620   4.1638   4.1772
     4.2474   4.2663   4.2674   4.2820   4.3048   4.3220   4.3243   4.3679
     4.3802   4.4147   4.4177   4.4830   4.5186   4.5257   4.5288   4.5298
     4.5893   4.5931   4.6255   4.7470   5.1429   5.1438   5.1467   5.1544
     5.1589   5.1616   5.1691   5.1746   5.2150   5.2175   5.2203   5.2224
     5.2280   5.2377   5.2479   5.2499   5.2505   5.2611   5.2668   5.2713
     5.2732   5.2888   5.3038   5.3051   5.3135   5.3187   5.3273   5.3276
     5.3376   5.3498   5.3523   5.3536   5.3573   5.3656   5.4120   5.4150
     5.4343   5.4508   5.4611   5.4618   5.4861   5.4942   5.4997   5.5014
     5.5033   5.5137   5.5281   5.5445   5.5564   5.5572   5.5612   5.6028
     5.6034   5.6305   5.6310   5.6343   5.6684   5.6795   5.6954   5.6964
     5.6976   5.7175   5.7295   5.7568   5.7757   5.7761   5.8090   5.8187
     5.8194   5.8641   5.8755   5.8766   5.9506   5.9525   5.9644   5.9656
     5.9906   6.0069   6.0077   6.0212   6.1392   6.1399   6.1451   6.1611
     6.2254   6.2293   6.2303   6.2513   6.2713   6.2895   6.2915   6.2998
     6.3615   6.3628   6.3782   6.3898   6.3908   6.4411   6.4867   6.4870
     6.5245   6.5381   6.5392   6.5759   6.6053   6.6510   6.6835   6.6933
     6.6950   6.7301   6.7375   6.7392   6.7632   6.7789   6.7936   6.8121
     6.8129   6.9055   6.9099   7.0817

          k = 0.3333 0.1925 0.0000 (115797 PWs)   bands (ev):

   -28.2838 -28.2772 -28.2765 -28.2759 -28.2756 -28.2751 -28.2750 -28.2748
   -28.2747 -28.2740 -28.2737 -28.2659 -14.9246 -14.9234 -14.9231 -14.9231
   -14.9228 -14.9228 -14.9218 -14.9216 -14.9213 -14.9213 -14.9192 -14.9187
   -14.9186 -14.9175 -14.9173 -14.9172 -14.9170 -14.9169 -14.9159 -14.9156
   -14.9155 -14.9154 -14.9137 -14.9124 -14.9062 -14.9054 -14.9052 -14.9051
   -14.9049 -14.9048 -14.9038 -14.9036 -14.9034 -14.9033 -14.9015 -14.9005
   -14.8658 -14.8652 -14.8651 -14.8649 -14.8648 -14.8647 -14.8636 -14.8635
   -14.8632 -14.8632 -14.8612 -14.8604 -14.8232 -14.8200 -14.8199 -14.8198
   -14.8196 -14.8195 -14.8185 -14.8182 -14.8181 -14.8180 -14.8163 -14.8150
   -10.3431 -10.3383 -10.3372 -10.3361 -10.3356 -10.3352 -10.3345 -10.3337
   -10.3329 -10.3318 -10.3289 -10.3241 -10.3101 -10.3071 -10.3065 -10.3045
   -10.3029 -10.3022 -10.3011 -10.2997 -10.2954 -10.2939 -10.2893 -10.2842
   -10.2726 -10.2693 -10.2686 -10.2673 -10.2658 -10.2645 -10.2630 -10.2627
   -10.2617 -10.2595 -10.2577 -10.2532  -6.7877  -6.5898  -6.4999  -6.4968
    -6.4379  -6.4369  -6.3658  -6.3476  -6.2850  -6.2835  -6.2481  -6.2466
    -5.9137  -5.9112  -5.8197  -5.8188  -5.8175  -5.7779  -5.7677  -5.7664
    -5.7321  -5.7238  -5.7218  -5.6894  -5.6885  -5.6468  -5.6385  -5.6376
    -5.6287  -5.5938  -5.5849  -5.5840  -5.5687  -5.5279  -5.5190  -5.5184
    -5.5161  -5.5035  -5.4630  -5.4508  -5.4371  -5.4363  -5.4217  -5.4150
    -5.3473  -5.3469  -5.3136  -5.2703  -0.5710  -0.5689  -0.5609  -0.4344
    -0.4041  -0.4030  -0.3769  -0.3368  -0.3366  -0.3360  -0.3133  -0.3033
     1.4188   1.4874   1.4888   1.5007   1.6405   1.6522   1.6895   1.7214
     1.7249   1.8291   1.8760   1.8792   1.9528   1.9546   1.9578   2.0273
     2.1153   2.2069   2.2279   2.2305   2.3385   2.3641   2.3854   2.3881
     2.3939   2.4084   2.4493   2.5379   2.5402   2.6105   2.6140   2.6185
     2.6557   2.7347   2.8112   2.8136   2.8219   2.8409   2.8429   2.8450
     2.8537   2.8830   2.9074   2.9098   2.9145   2.9609   2.9622   3.0040
     3.0505   3.0566   3.0573   3.1240   3.1484   3.1751   3.2042   3.2117
     3.2147   3.2357   3.2608   3.2618   3.2696   3.3234   3.3303   3.3317
     3.3392   3.3719   3.3943   3.3954   3.4331   3.4385   3.4410   3.4485
     3.4974   3.4990   3.5014   3.5104   3.5124   3.5133   3.5231   3.5421
     3.5600   3.6018   3.6065   3.6107   3.6336   3.6462   3.6758   3.6799
     3.6901   3.7032   3.7045   3.7068   3.7785   3.7798   3.8481   3.8589
     3.8968   3.9708   3.9745   3.9796   3.9808   4.0310   4.0372   4.0397
     4.0936   4.1124   4.1204   4.1213   4.1252   4.1611   4.1634   4.1773
     4.2482   4.2671   4.2682   4.2834   4.3020   4.3219   4.3244   4.3683
     4.3766   4.4172   4.4185   4.4842   4.5164   4.5266   4.5282   4.5290
     4.5879   4.5915   4.6275   4.7482   5.1410   5.1449   5.1474   5.1552
     5.1601   5.1609   5.1694   5.1748   5.2146   5.2177   5.2193   5.2221
     5.2281   5.2373   5.2482   5.2492   5.2508   5.2610   5.2684   5.2715
     5.2722   5.2896   5.3035   5.3053   5.3139   5.3194   5.3263   5.3286
     5.3367   5.3485   5.3519   5.3543   5.3580   5.3658   5.4142   5.4149
     5.4331   5.4516   5.4609   5.4631   5.4849   5.4932   5.4991   5.5010
     5.5034   5.5124   5.5275   5.5443   5.5568   5.5576   5.5618   5.6031
     5.6043   5.6297   5.6313   5.6326   5.6682   5.6779   5.6948   5.6959
     5.6974   5.7182   5.7302   5.7571   5.7752   5.7768   5.8092   5.8197
     5.8202   5.8640   5.8762   5.8767   5.9506   5.9527   5.9648   5.9665
     5.9905   6.0060   6.0077   6.0208   6.1385   6.1402   6.1453   6.1613
     6.2259   6.2290   6.2306   6.2509   6.2716   6.2891   6.2904   6.2997
     6.3617   6.3633   6.3774   6.3900   6.3916   6.4422   6.4867   6.4873
     6.5246   6.5379   6.5385   6.5756   6.6052   6.6516   6.6851   6.6924
     6.6937   6.7308   6.7378   6.7393   6.7632   6.7776   6.7937   6.8116
     6.8139   6.9046   6.9098   7.0814

          k = 0.0000-0.3849 0.2714 (115773 PWs)   bands (ev):

   -28.2838 -28.2772 -28.2765 -28.2759 -28.2756 -28.2751 -28.2750 -28.2748
   -28.2747 -28.2740 -28.2737 -28.2659 -14.9246 -14.9234 -14.9232 -14.9230
   -14.9228 -14.9228 -14.9218 -14.9216 -14.9213 -14.9212 -14.9192 -14.9187
   -14.9186 -14.9175 -14.9173 -14.9172 -14.9170 -14.9169 -14.9159 -14.9156
   -14.9155 -14.9154 -14.9137 -14.9124 -14.9062 -14.9054 -14.9052 -14.9051
   -14.9050 -14.9048 -14.9038 -14.9036 -14.9034 -14.9033 -14.9015 -14.9005
   -14.8658 -14.8652 -14.8651 -14.8649 -14.8648 -14.8647 -14.8636 -14.8635
   -14.8632 -14.8632 -14.8612 -14.8604 -14.8232 -14.8200 -14.8199 -14.8198
   -14.8196 -14.8195 -14.8185 -14.8182 -14.8180 -14.8180 -14.8163 -14.8150
   -10.3436 -10.3392 -10.3381 -10.3373 -10.3355 -10.3349 -10.3341 -10.3330
   -10.3319 -10.3305 -10.3291 -10.3242 -10.3113 -10.3089 -10.3067 -10.3047
   -10.3033 -10.3011 -10.2980 -10.2959 -10.2949 -10.2940 -10.2916 -10.2860
   -10.2728 -10.2690 -10.2683 -10.2678 -10.2653 -10.2639 -10.2623 -10.2618
   -10.2611 -10.2609 -10.2593 -10.2536  -6.7508  -6.6462  -6.5609  -6.4684
    -6.4196  -6.4182  -6.3632  -6.3401  -6.3394  -6.2646  -6.2102  -6.2093
    -5.9136  -5.9125  -5.8252  -5.8232  -5.8186  -5.8163  -5.7655  -5.7638
    -5.7526  -5.7336  -5.6830  -5.6821  -5.6807  -5.6630  -5.6439  -5.6408
    -5.6379  -5.6067  -5.5855  -5.5848  -5.5723  -5.5303  -5.5270  -5.5264
    -5.5159  -5.4856  -5.4654  -5.4395  -5.4374  -5.4359  -5.3997  -5.3700
    -5.3448  -5.3427  -5.3311  -5.2960  -0.5621  -0.5609  -0.5501  -0.4321
    -0.4289  -0.4270  -0.4106  -0.3599  -0.3232  -0.3206  -0.2897  -0.2828
     1.4056   1.4938   1.4964   1.5154   1.6119   1.7111   1.7131   1.7215
     1.7372   1.7718   1.8445   1.8468   1.9650   1.9864   2.0210   2.0225
     2.1297   2.1977   2.2086   2.2106   2.2861   2.3345   2.3967   2.4269
     2.4288   2.5168   2.5285   2.5296   2.5555   2.5580   2.5589   2.5608
     2.5997   2.6779   2.7615   2.7656   2.8223   2.8249   2.8273   2.8308
     2.8490   2.8530   2.8950   2.8965   2.9063   3.0084   3.0182   3.0194
     3.0753   3.0776   3.1175   3.1191   3.1341   3.1812   3.1825   3.1882
     3.2153   3.2465   3.2667   3.2841   3.2859   3.2941   3.3289   3.3321
     3.3747   3.3779   3.3789   3.3794   3.4468   3.4477   3.4507   3.4774
     3.4783   3.4803   3.5064   3.5195   3.5340   3.5347   3.5376   3.5563
     3.5843   3.5875   3.6110   3.6268   3.6375   3.6424   3.6815   3.6839
     3.6874   3.6957   3.7029   3.7049   3.8331   3.8385   3.8787   3.8806
     3.9397   3.9454   3.9461   3.9486   3.9722   4.0325   4.0519   4.0567
     4.0583   4.0626   4.0988   4.1004   4.1221   4.1223   4.1303   4.1335
     4.2240   4.2406   4.2654   4.2719   4.2891   4.2920   4.3139   4.3674
     4.3922   4.4330   4.4361   4.4812   4.5216   4.5427   4.5452   4.5858
     4.5957   4.5973   4.6303   4.7286   5.1474   5.1485   5.1535   5.1637
     5.1676   5.1687   5.1705   5.1730   5.1994   5.2045   5.2128   5.2174
     5.2195   5.2291   5.2409   5.2412   5.2589   5.2627   5.2649   5.2656
     5.2676   5.2740   5.3092   5.3109   5.3195   5.3337   5.3457   5.3476
     5.3604   5.3622   5.3635   5.3681   5.3703   5.3813   5.3879   5.3898
     5.4099   5.4327   5.4474   5.4514   5.4527   5.4694   5.4973   5.4981
     5.5169   5.5238   5.5559   5.5572   5.5686   5.5698   5.6020   5.6028
     5.6080   5.6212   5.6316   5.6498   5.6511   5.6609   5.6748   5.7089
     5.7096   5.7397   5.7599   5.7612   5.7708   5.7843   5.8050   5.8064
     5.8148   5.8396   5.8673   5.8688   5.8758   5.8951   5.9687   5.9709
     6.0194   6.0252   6.0264   6.1015   6.1024   6.1116   6.1599   6.1874
     6.2029   6.2037   6.2047   6.2622   6.2643   6.2870   6.3188   6.3427
     6.3556   6.3697   6.3706   6.4138   6.4195   6.4212   6.4527   6.4813
     6.4827   6.5081   6.5586   6.5670   6.6067   6.6078   6.6480   6.6663
     6.6691   6.7373   6.7387   6.7412   6.7488   6.8047   6.8051   6.8513
     6.8669   6.9186   6.9468   7.0395

          k =-0.3333 0.1925 0.2714 (115773 PWs)   bands (ev):

   -28.2838 -28.2772 -28.2765 -28.2759 -28.2756 -28.2751 -28.2750 -28.2748
   -28.2747 -28.2740 -28.2737 -28.2659 -14.9246 -14.9234 -14.9232 -14.9231
   -14.9229 -14.9228 -14.9218 -14.9216 -14.9213 -14.9213 -14.9192 -14.9187
   -14.9186 -14.9175 -14.9173 -14.9172 -14.9170 -14.9169 -14.9159 -14.9156
   -14.9155 -14.9154 -14.9137 -14.9124 -14.9062 -14.9054 -14.9052 -14.9051
   -14.9050 -14.9048 -14.9038 -14.9036 -14.9034 -14.9033 -14.9015 -14.9005
   -14.8658 -14.8652 -14.8651 -14.8649 -14.8648 -14.8647 -14.8636 -14.8635
   -14.8632 -14.8632 -14.8612 -14.8604 -14.8232 -14.8200 -14.8199 -14.8198
   -14.8196 -14.8195 -14.8185 -14.8182 -14.8180 -14.8180 -14.8163 -14.8150
   -10.3436 -10.3386 -10.3384 -10.3374 -10.3366 -10.3349 -10.3341 -10.3324
   -10.3321 -10.3306 -10.3285 -10.3243 -10.3114 -10.3082 -10.3072 -10.3046
   -10.3035 -10.3023 -10.2974 -10.2955 -10.2947 -10.2936 -10.2914 -10.2866
   -10.2728 -10.2688 -10.2685 -10.2675 -10.2662 -10.2642 -10.2623 -10.2612
   -10.2610 -10.2610 -10.2580 -10.2549  -6.7508  -6.6462  -6.5609  -6.4683
    -6.4193  -6.4188  -6.3632  -6.3398  -6.3392  -6.2649  -6.2097  -6.2092
    -5.9158  -5.9123  -5.8246  -5.8219  -5.8190  -5.8171  -5.7652  -5.7633
    -5.7520  -5.7337  -5.6829  -5.6824  -5.6809  -5.6624  -5.6418  -5.6414
    -5.6381  -5.6076  -5.5858  -5.5839  -5.5738  -5.5302  -5.5272  -5.5265
    -5.5159  -5.4855  -5.4652  -5.4398  -5.4372  -5.4356  -5.3996  -5.3703
    -5.3448  -5.3434  -5.3304  -5.2958  -0.5617  -0.5603  -0.5517  -0.4327
    -0.4287  -0.4278  -0.4092  -0.3597  -0.3228  -0.3217  -0.2893  -0.2822
     1.4054   1.4940   1.4949   1.5160   1.6120   1.7110   1.7128   1.7233
     1.7373   1.7725   1.8437   1.8467   1.9651   1.9855   2.0187   2.0238
     2.1286   2.1984   2.2093   2.2114   2.2847   2.3348   2.3976   2.4260
     2.4274   2.5181   2.5294   2.5303   2.5565   2.5581   2.5590   2.5612
     2.5998   2.6766   2.7641   2.7659   2.8226   2.8243   2.8255   2.8282
     2.8493   2.8529   2.8928   2.8956   2.9066   3.0079   3.0188   3.0202
     3.0763   3.0780   3.1175   3.1195   3.1342   3.1810   3.1816   3.1888
     3.2132   3.2462   3.2661   3.2851   3.2876   3.2949   3.3301   3.3312
     3.3749   3.3764   3.3792   3.3854   3.4459   3.4480   3.4501   3.4766
     3.4772   3.4812   3.5064   3.5194   3.5342   3.5359   3.5371   3.5566
     3.5806   3.5861   3.6095   3.6306   3.6399   3.6442   3.6787   3.6839
     3.6864   3.6951   3.7013   3.7057   3.8358   3.8370   3.8777   3.8799
     3.9412   3.9450   3.9466   3.9488   3.9713   4.0307   4.0536   4.0545
     4.0598   4.0617   4.0996   4.1011   4.1219   4.1230   4.1296   4.1335
     4.2237   4.2397   4.2682   4.2697   4.2903   4.2919   4.3150   4.3685
     4.3910   4.4325   4.4352   4.4812   4.5224   4.5435   4.5448   4.5855
     4.5941   4.5991   4.6304   4.7283   5.1461   5.1473   5.1531   5.1642
     5.1675   5.1691   5.1695   5.1734   5.1995   5.2044   5.2126   5.2166
     5.2190   5.2289   5.2413   5.2423   5.2600   5.2643   5.2645   5.2654
     5.2665   5.2734   5.3098   5.3113   5.3185   5.3345   5.3468   5.3476
     5.3601   5.3625   5.3634   5.3680   5.3692   5.3796   5.3879   5.3898
     5.4110   5.4336   5.4469   5.4507   5.4525   5.4703   5.4967   5.4983
     5.5176   5.5248   5.5562   5.5581   5.5680   5.5692   5.6018   5.6026
     5.6082   5.6208   5.6326   5.6492   5.6506   5.6616   5.6755   5.7090
     5.7097   5.7397   5.7603   5.7608   5.7711   5.7849   5.8053   5.8056
     5.8146   5.8401   5.8673   5.8683   5.8756   5.8952   5.9686   5.9693
     6.0193   6.0255   6.0262   6.1018   6.1024   6.1122   6.1604   6.1877
     6.2022   6.2035   6.2045   6.2611   6.2637   6.2872   6.3183   6.3427
     6.3560   6.3699   6.3714   6.4138   6.4197   6.4206   6.4527   6.4822
     6.4827   6.5070   6.5584   6.5667   6.6077   6.6086   6.6477   6.6670
     6.6684   6.7380   6.7389   6.7402   6.7492   6.8041   6.8058   6.8517
     6.8676   6.9184   6.9462   7.0398

          k = 0.3333 0.1925 0.2714 (115773 PWs)   bands (ev):

   -28.2838 -28.2772 -28.2765 -28.2759 -28.2756 -28.2751 -28.2750 -28.2748
   -28.2747 -28.2740 -28.2737 -28.2659 -14.9246 -14.9234 -14.9231 -14.9231
   -14.9228 -14.9228 -14.9218 -14.9216 -14.9213 -14.9213 -14.9192 -14.9187
   -14.9186 -14.9175 -14.9173 -14.9172 -14.9170 -14.9169 -14.9159 -14.9156
   -14.9155 -14.9154 -14.9137 -14.9124 -14.9062 -14.9054 -14.9052 -14.9051
   -14.9049 -14.9048 -14.9038 -14.9036 -14.9034 -14.9033 -14.9015 -14.9005
   -14.8658 -14.8652 -14.8651 -14.8649 -14.8648 -14.8647 -14.8636 -14.8635
   -14.8632 -14.8632 -14.8612 -14.8604 -14.8232 -14.8200 -14.8199 -14.8198
   -14.8196 -14.8195 -14.8185 -14.8182 -14.8181 -14.8180 -14.8163 -14.8150
   -10.3434 -10.3391 -10.3380 -10.3364 -10.3359 -10.3349 -10.3346 -10.3335
   -10.3321 -10.3305 -10.3290 -10.3242 -10.3114 -10.3089 -10.3058 -10.3047
   -10.3030 -10.3016 -10.2982 -10.2963 -10.2953 -10.2942 -10.2915 -10.2855
   -10.2722 -10.2689 -10.2686 -10.2676 -10.2663 -10.2642 -10.2625 -10.2623
   -10.2615 -10.2600 -10.2584 -10.2536  -6.7508  -6.6464  -6.5615  -6.4679
    -6.4186  -6.4180  -6.3630  -6.3407  -6.3389  -6.2651  -6.2103  -6.2093
    -5.9161  -5.9136  -5.8249  -5.8208  -5.8182  -5.8168  -5.7652  -5.7636
    -5.7541  -5.7327  -5.6830  -5.6815  -5.6801  -5.6636  -5.6421  -5.6410
    -5.6363  -5.6067  -5.5871  -5.5851  -5.5731  -5.5296  -5.5272  -5.5263
    -5.5165  -5.4863  -5.4647  -5.4400  -5.4373  -5.4370  -5.3979  -5.3704
    -5.3433  -5.3429  -5.3325  -5.2960  -0.5623  -0.5602  -0.5503  -0.4322
    -0.4285  -0.4272  -0.4113  -0.3600  -0.3214  -0.3210  -0.2906  -0.2831
     1.4050   1.4943   1.4952   1.5147   1.6134   1.7107   1.7134   1.7232
     1.7377   1.7738   1.8422   1.8472   1.9679   1.9863   2.0199   2.0215
     2.1285   2.1987   2.2082   2.2107   2.2848   2.3332   2.3962   2.4262
     2.4280   2.5190   2.5286   2.5301   2.5565   2.5582   2.5593   2.5605
     2.6002   2.6758   2.7635   2.7666   2.8236   2.8247   2.8260   2.8287
     2.8514   2.8532   2.8937   2.8961   2.9065   3.0059   3.0164   3.0184
     3.0773   3.0778   3.1185   3.1195   3.1333   3.1804   3.1830   3.1887
     3.2145   3.2455   3.2664   3.2843   3.2864   3.2952   3.3309   3.3319
     3.3749   3.3769   3.3783   3.3794   3.4464   3.4476   3.4499   3.4774
     3.4798   3.4807   3.5052   3.5188   3.5338   3.5354   3.5360   3.5568
     3.5835   3.5876   3.6088   3.6316   3.6405   3.6438   3.6806   3.6837
     3.6855   3.6944   3.7030   3.7048   3.8357   3.8372   3.8771   3.8795
     3.9412   3.9431   3.9458   3.9490   3.9730   4.0327   4.0545   4.0556
     4.0603   4.0614   4.0989   4.1008   4.1204   4.1231   4.1289   4.1338
     4.2246   4.2409   4.2687   4.2702   4.2906   4.2923   4.3135   4.3644
     4.3927   4.4347   4.4366   4.4808   4.5196   4.5448   4.5455   4.5839
     4.5933   4.5965   4.6317   4.7300   5.1456   5.1487   5.1544   5.1638
     5.1679   5.1690   5.1702   5.1732   5.1996   5.2053   5.2123   5.2152
     5.2197   5.2290   5.2401   5.2415   5.2600   5.2639   5.2648   5.2657
     5.2667   5.2740   5.3091   5.3108   5.3186   5.3340   5.3458   5.3484
     5.3598   5.3627   5.3642   5.3679   5.3705   5.3812   5.3890   5.3899
     5.4099   5.4334   5.4481   5.4519   5.4524   5.4689   5.4962   5.4977
     5.5166   5.5238   5.5560   5.5575   5.5684   5.5701   5.6016   5.6031
     5.6071   5.6208   5.6307   5.6499   5.6510   5.6610   5.6750   5.7087
     5.7094   5.7401   5.7602   5.7617   5.7707   5.7849   5.8056   5.8067
     5.8149   5.8400   5.8677   5.8683   5.8758   5.8942   5.9687   5.9703
     6.0192   6.0243   6.0260   6.1006   6.1024   6.1128   6.1601   6.1879
     6.2031   6.2040   6.2050   6.2625   6.2643   6.2885   6.3182   6.3430
     6.3550   6.3693   6.3698   6.4134   6.4204   6.4210   6.4525   6.4818
     6.4827   6.5076   6.5581   6.5669   6.6071   6.6074   6.6480   6.6673
     6.6681   6.7373   6.7386   6.7403   6.7487   6.8044   6.8058   6.8517
     6.8669   6.9190   6.9471   7.0389

          k =-0.3333-0.1925 0.2714 (115773 PWs)   bands (ev):

   -28.2838 -28.2772 -28.2765 -28.2759 -28.2756 -28.2751 -28.2750 -28.2748
   -28.2747 -28.2740 -28.2737 -28.2659 -14.9246 -14.9234 -14.9231 -14.9231
   -14.9228 -14.9228 -14.9218 -14.9216 -14.9213 -14.9213 -14.9192 -14.9187
   -14.9186 -14.9175 -14.9173 -14.9172 -14.9170 -14.9169 -14.9159 -14.9156
   -14.9155 -14.9154 -14.9137 -14.9124 -14.9062 -14.9054 -14.9052 -14.9051
   -14.9049 -14.9048 -14.9038 -14.9036 -14.9034 -14.9033 -14.9015 -14.9005
   -14.8658 -14.8652 -14.8651 -14.8649 -14.8648 -14.8647 -14.8636 -14.8635
   -14.8632 -14.8632 -14.8612 -14.8604 -14.8232 -14.8200 -14.8199 -14.8198
   -14.8196 -14.8195 -14.8185 -14.8182 -14.8181 -14.8180 -14.8163 -14.8150
   -10.3434 -10.3390 -10.3380 -10.3366 -10.3361 -10.3352 -10.3341 -10.3333
   -10.3322 -10.3307 -10.3287 -10.3242 -10.3116 -10.3080 -10.3064 -10.3058
   -10.3017 -10.3011 -10.2992 -10.2973 -10.2958 -10.2935 -10.2896 -10.2864
   -10.2726 -10.2693 -10.2690 -10.2667 -10.2654 -10.2644 -10.2630 -10.2627
   -10.2616 -10.2594 -10.2583 -10.2538  -6.7507  -6.6463  -6.5605  -6.4718
    -6.4220  -6.4211  -6.3636  -6.3290  -6.3274  -6.2580  -6.2240  -6.2229
    -5.9073  -5.9050  -5.8221  -5.8208  -5.8087  -5.8075  -5.7937  -5.7595
    -5.7593  -5.7314  -5.7100  -5.7085  -5.6723  -5.6339  -5.6284  -5.6273
    -5.6269  -5.6073  -5.6003  -5.5994  -5.5694  -5.5274  -5.5225  -5.5220
    -5.5209  -5.4956  -5.4682  -5.4335  -5.4288  -5.4285  -5.4214  -5.3627
    -5.3469  -5.3465  -5.3226  -5.2999  -0.5589  -0.5584  -0.5565  -0.4355
    -0.4341  -0.4238  -0.3937  -0.3731  -0.3181  -0.3178  -0.2996  -0.2786
     1.4336   1.4847   1.4864   1.4877   1.6257   1.6422   1.7714   1.7742
     1.7833   1.7916   1.7985   1.8024   1.9149   1.9928   1.9959   2.0771
     2.1536   2.2010   2.2111   2.2468   2.2486   2.3589   2.3932   2.3951
     2.3978   2.4494   2.5114   2.5141   2.5471   2.5889   2.5916   2.6062
     2.6438   2.7107   2.7618   2.7668   2.7693   2.7880   2.8094   2.8101
     2.8394   2.8745   2.9142   2.9161   2.9187   2.9796   3.0216   3.0243
     3.0685   3.1066   3.1085   3.1327   3.1705   3.1928   3.1940   3.1962
     3.2000   3.2322   3.2642   3.2656   3.2773   3.3173   3.3216   3.3221
     3.3244   3.3887   3.3892   3.4096   3.4442   3.4458   3.4678   3.4702
     3.4717   3.4731   3.4754   3.4780   3.5337   3.5359   3.5384   3.5906
     3.6057   3.6121   3.6130   3.6326   3.6408   3.6488   3.6566   3.6599
     3.6649   3.7083   3.7117   3.7130   3.8352   3.8364   3.8791   3.8880
     3.9051   3.9468   3.9504   3.9745   3.9826   4.0204   4.0463   4.0481
     4.0502   4.0653   4.1102   4.1121   4.1203   4.1313   4.1337   4.1468
     4.1910   4.2559   4.2666   4.2679   4.2887   4.2903   4.2947   4.3850
     4.3978   4.4385   4.4396   4.4684   4.5244   4.5257   4.5342   4.5948
     4.6075   4.6112   4.6227   4.7210   5.1481   5.1519   5.1546   5.1580
     5.1724   5.1752   5.1767   5.1833   5.1908   5.1978   5.2015   5.2065
     5.2079   5.2329   5.2348   5.2363   5.2553   5.2637   5.2653   5.2665
     5.2799   5.2977   5.3074   5.3122   5.3137   5.3291   5.3369   5.3380
     5.3582   5.3589   5.3606   5.3627   5.3800   5.3932   5.4067   5.4081
     5.4118   5.4314   5.4333   5.4446   5.4454   5.4929   5.5011   5.5035
     5.5096   5.5162   5.5536   5.5604   5.5743   5.5754   5.6017   5.6107
     5.6117   5.6184   5.6245   5.6258   5.6435   5.6697   5.6828   5.7145
     5.7155   5.7174   5.7350   5.7726   5.7732   5.7745   5.8025   5.8035
     5.8102   5.8592   5.8761   5.8765   5.8786   5.9148   5.9586   5.9600
     6.0335   6.0349   6.0365   6.0598   6.0780   6.0798   6.1735   6.2063
     6.2129   6.2145   6.2668   6.2672   6.2704   6.2774   6.2864   6.3494
     6.3501   6.3660   6.3731   6.4159   6.4245   6.4251   6.4281   6.4712
     6.4986   6.5000   6.5461   6.5595   6.5958   6.5966   6.6664   6.6683
     6.6774   6.7199   6.7362   6.7380   6.7491   6.8127   6.8149   6.8455
     6.8692   6.9288   6.9376   7.0530

          k = 0.3333-0.1925 0.2714 (115773 PWs)   bands (ev):

   -28.2838 -28.2772 -28.2765 -28.2759 -28.2756 -28.2751 -28.2750 -28.2748
   -28.2747 -28.2740 -28.2737 -28.2659 -14.9246 -14.9234 -14.9232 -14.9231
   -14.9229 -14.9228 -14.9218 -14.9216 -14.9213 -14.9213 -14.9192 -14.9187
   -14.9186 -14.9175 -14.9173 -14.9172 -14.9170 -14.9169 -14.9159 -14.9156
   -14.9155 -14.9154 -14.9137 -14.9124 -14.9062 -14.9054 -14.9052 -14.9051
   -14.9050 -14.9048 -14.9038 -14.9036 -14.9034 -14.9033 -14.9015 -14.9005
   -14.8658 -14.8652 -14.8651 -14.8649 -14.8648 -14.8647 -14.8636 -14.8635
   -14.8632 -14.8632 -14.8612 -14.8604 -14.8232 -14.8200 -14.8199 -14.8198
   -14.8196 -14.8195 -14.8185 -14.8182 -14.8180 -14.8180 -14.8163 -14.8150
   -10.3436 -10.3386 -10.3383 -10.3374 -10.3369 -10.3349 -10.3334 -10.3325
   -10.3322 -10.3306 -10.3287 -10.3242 -10.3115 -10.3087 -10.3068 -10.3056
   -10.3014 -10.3009 -10.3001 -10.2957 -10.2951 -10.2927 -10.2915 -10.2865
   -10.2728 -10.2690 -10.2683 -10.2669 -10.2659 -10.2651 -10.2625 -10.2612
   -10.2611 -10.2601 -10.2586 -10.2546  -6.7506  -6.6465  -6.5602  -6.4716
    -6.4226  -6.4219  -6.3635  -6.3282  -6.3275  -6.2584  -6.2236  -6.2229
    -5.9072  -5.9037  -5.8234  -5.8216  -5.8093  -5.8063  -5.7907  -5.7604
    -5.7595  -5.7316  -5.7108  -5.7100  -5.6707  -5.6356  -5.6292  -5.6273
    -5.6265  -5.6080  -5.5998  -5.5986  -5.5700  -5.5286  -5.5223  -5.5213
    -5.5195  -5.4967  -5.4673  -5.4325  -5.4287  -5.4270  -5.4224  -5.3638
    -5.3485  -5.3472  -5.3212  -5.2993  -0.5595  -0.5581  -0.5566  -0.4358
    -0.4348  -0.4250  -0.3923  -0.3718  -0.3195  -0.3184  -0.2981  -0.2780
     1.4336   1.4849   1.4860   1.4885   1.6265   1.6416   1.7718   1.7736
     1.7815   1.7893   1.7992   1.8016   1.9147   1.9923   1.9988   2.0767
     2.1543   2.1988   2.2098   2.2482   2.2495   2.3613   2.3926   2.3936
     2.3993   2.4475   2.5109   2.5130   2.5478   2.5905   2.5924   2.6087
     2.6419   2.7104   2.7600   2.7686   2.7713   2.7870   2.8080   2.8094
     2.8388   2.8746   2.9133   2.9153   2.9203   2.9808   3.0243   3.0261
     3.0678   3.1051   3.1072   3.1325   3.1699   3.1929   3.1936   3.1950
     3.1998   3.2321   3.2641   3.2666   3.2765   3.3180   3.3214   3.3227
     3.3245   3.3888   3.3937   3.4108   3.4422   3.4462   3.4677   3.4702
     3.4725   3.4737   3.4762   3.4776   3.5335   3.5365   3.5377   3.5899
     3.6062   3.6124   3.6134   3.6316   3.6419   3.6478   3.6535   3.6596
     3.6683   3.7049   3.7112   3.7123   3.8357   3.8366   3.8795   3.8875
     3.9038   3.9496   3.9514   3.9730   3.9815   4.0195   4.0479   4.0488
     4.0501   4.0638   4.1094   4.1115   4.1185   4.1329   4.1340   4.1481
     4.1905   4.2562   4.2662   4.2675   4.2888   4.2897   4.2953   4.3879
     4.3979   4.4353   4.4385   4.4678   4.5237   4.5258   4.5365   4.5954
     4.6090   4.6126   4.6212   4.7206   5.1482   5.1512   5.1544   5.1569
     5.1717   5.1760   5.1768   5.1837   5.1898   5.1970   5.2009   5.2061
     5.2090   5.2336   5.2350   5.2357   5.2544   5.2639   5.2658   5.2669
     5.2782   5.2973   5.3071   5.3123   5.3144   5.3291   5.3358   5.3372
     5.3580   5.3590   5.3607   5.3646   5.3801   5.3920   5.4069   5.4078
     5.4146   5.4327   5.4339   5.4443   5.4458   5.4921   5.5009   5.5031
     5.5097   5.5157   5.5542   5.5606   5.5744   5.5750   5.6038   5.6107
     5.6119   5.6198   5.6243   5.6253   5.6437   5.6707   5.6826   5.7142
     5.7154   5.7176   5.7344   5.7729   5.7730   5.7741   5.8019   5.8029
     5.8104   5.8588   5.8752   5.8757   5.8792   5.9148   5.9586   5.9597
     6.0347   6.0353   6.0359   6.0597   6.0792   6.0796   6.1736   6.2065
     6.2113   6.2141   6.2665   6.2678   6.2699   6.2774   6.2860   6.3489
     6.3498   6.3660   6.3728   6.4159   6.4246   6.4252   6.4279   6.4718
     6.4987   6.4996   6.5459   6.5600   6.5958   6.5986   6.6670   6.6688
     6.6772   6.7202   6.7366   6.7374   6.7470   6.8134   6.8148   6.8448
     6.8705   6.9295   6.9374   7.0532

          k =-0.3333-0.5774 0.2714 (115827 PWs)   bands (ev):

   -28.2838 -28.2772 -28.2765 -28.2759 -28.2756 -28.2751 -28.2750 -28.2748
   -28.2747 -28.2740 -28.2737 -28.2659 -14.9246 -14.9234 -14.9232 -14.9231
   -14.9229 -14.9228 -14.9218 -14.9216 -14.9213 -14.9213 -14.9192 -14.9187
   -14.9186 -14.9175 -14.9173 -14.9172 -14.9170 -14.9169 -14.9159 -14.9156
   -14.9155 -14.9154 -14.9137 -14.9124 -14.9062 -14.9054 -14.9052 -14.9051
   -14.9050 -14.9048 -14.9038 -14.9036 -14.9034 -14.9033 -14.9015 -14.9005
   -14.8658 -14.8652 -14.8651 -14.8649 -14.8648 -14.8647 -14.8636 -14.8635
   -14.8632 -14.8632 -14.8612 -14.8604 -14.8232 -14.8200 -14.8199 -14.8198
   -14.8196 -14.8195 -14.8185 -14.8182 -14.8180 -14.8180 -14.8163 -14.8150
   -10.3432 -10.3383 -10.3376 -10.3371 -10.3363 -10.3336 -10.3335 -10.3330
   -10.3316 -10.3306 -10.3300 -10.3248 -10.3104 -10.3080 -10.3072 -10.3051
   -10.3019 -10.2999 -10.2982 -10.2972 -10.2958 -10.2922 -10.2915 -10.2887
   -10.2725 -10.2687 -10.2680 -10.2668 -10.2658 -10.2641 -10.2637 -10.2635
   -10.2614 -10.2605 -10.2593 -10.2547  -6.6183  -6.6178  -6.6174  -6.5247
    -6.5242  -6.5240  -6.3077  -6.2888  -6.2886  -6.2881  -6.2572  -6.2133
    -5.8758  -5.8585  -5.8447  -5.7800  -5.7788  -5.7786  -5.7429  -5.7423
    -5.7409  -5.7144  -5.6882  -5.6879  -5.6863  -5.6730  -5.6721  -5.6711
    -5.6694  -5.6435  -5.5580  -5.5557  -5.5552  -5.5251  -5.5241  -5.5235
    -5.5047  -5.5033  -5.5023  -5.5015  -5.4586  -5.3987  -5.3975  -5.3968
    -5.3577  -5.3228  -5.3223  -5.3215  -0.5192  -0.5050  -0.5047  -0.5039
    -0.4604  -0.4169  -0.4162  -0.4149  -0.3548  -0.2934  -0.2919  -0.2913
     1.4814   1.4825   1.4846   1.6356   1.6388   1.6394   1.6911   1.7734
     1.7764   1.7771   1.7790   1.7923   1.9794   1.9816   1.9849   2.0559
     2.1703   2.1920   2.1931   2.1950   2.2476   2.3961   2.3970   2.3986
     2.4879   2.4890   2.4900   2.5568   2.5865   2.5881   2.5887   2.5924
     2.6803   2.7349   2.7376   2.7392   2.8194   2.8233   2.8244   2.8277
     2.9013   2.9026   2.9042   2.9243   2.9365   2.9532   2.9559   2.9577
     3.0589   3.0602   3.0614   3.0862   3.0885   3.0907   3.1274   3.1816
     3.2435   3.2449   3.2457   3.2696   3.2713   3.2728   3.3217   3.3257
     3.3281   3.3305   3.3737   3.4059   3.4209   3.4650   3.4659   3.4669
     3.4920   3.4990   3.5000   3.5006   3.5345   3.5375   3.5382   3.5396
     3.5618   3.6118   3.6162   3.6171   3.6490   3.6554   3.6556   3.6938
     3.6985   3.6988   3.7194   3.7439   3.8207   3.8394   3.8410   3.8419
     3.9370   3.9402   3.9416   3.9440   4.0285   4.0296   4.0308   4.0390
     4.0648   4.0676   4.0687   4.1082   4.1133   4.1141   4.1159   4.1682
     4.2725   4.2739   4.2750   4.2896   4.3153   4.3604   4.3618   4.3639
     4.4140   4.4169   4.4186   4.4921   4.4935   4.4948   4.5067   4.5120
     4.5638   4.6653   4.6677   4.6685   5.1477   5.1554   5.1571   5.1581
     5.1585   5.1815   5.1834   5.1840   5.1960   5.1983   5.1993   5.2106
     5.2240   5.2253   5.2262   5.2511   5.2524   5.2538   5.2578   5.2685
     5.3009   5.3023   5.3038   5.3098   5.3276   5.3296   5.3304   5.3672
     5.3685   5.3698   5.3749   5.3931   5.3954   5.4087   5.4097   5.4110
     5.4322   5.4334   5.4347   5.4384   5.4829   5.4852   5.4863   5.4922
     5.5382   5.5389   5.5397   5.5438   5.5659   5.5672   5.5675   5.6052
     5.6061   5.6071   5.6376   5.6395   5.6722   5.6731   5.6740   5.7039
     5.7048   5.7056   5.7178   5.7589   5.7600   5.7609   5.8019   5.8085
     5.8211   5.8242   5.8248   5.8253   5.8902   5.8913   5.8915   6.0569
     6.0599   6.0607   6.0616   6.0770   6.1197   6.1208   6.1215   6.1358
     6.1952   6.2381   6.2391   6.2399   6.2844   6.3014   6.3025   6.3040
     6.3069   6.3851   6.3857   6.3871   6.4506   6.4673   6.4685   6.4703
     6.4916   6.4938   6.5596   6.5599   6.5617   6.6468   6.6852   6.6859
     6.6866   6.7614   6.7783   6.7787   6.7800   6.7922   6.8551   6.8554
     6.8566   6.9360   6.9365   6.9379

     highest occupied level (ev):     7.1816

!    total energy              =   -9077.18735818 Ry
     estimated scf accuracy    <          7.9E-10 Ry

     The total energy is the sum of the following terms:
     one-electron contribution =   -2776.79679827 Ry
     hartree contribution      =    2020.15868224 Ry
     xc contribution           =   -2269.38687568 Ry
     ewald contribution        =   -3895.36550776 Ry
     one-center paw contrib.   =   -2155.79685870 Ry

     convergence has been achieved in  22 iterations

     negative rho (up, down):  7.902E-01 0.000E+00

     Forces acting on atoms (cartesian axes, Ry/au):

     atom    1 type  1   force =    -0.00005075    0.00039059    0.00017849
     atom    2 type  1   force =    -0.00017157    0.00030139    0.00007032
     atom    3 type  1   force =    -0.00009904    0.00020521   -0.00006668
     atom    4 type  1   force =    -0.00019098    0.00016961   -0.00000834
     atom    5 type  1   force =    -0.00003477   -0.00021238    0.00030098
     atom    6 type  1   force =    -0.00014765   -0.00026375    0.00002665
     atom    7 type  1   force =    -0.00008864   -0.00031920    0.00002041
     atom    8 type  1   force =    -0.00023632   -0.00029348    0.00011834
     atom    9 type  1   force =     0.00030385    0.00000078   -0.00004370
     atom   10 type  1   force =     0.00031409    0.00001765   -0.00005244
     atom   11 type  1   force =     0.00030061   -0.00001785   -0.00005251
     atom   12 type  1   force =     0.00031182   -0.00000585   -0.00005069
     atom   13 type  2   force =    -0.00175305    0.00276129    0.00271413
     atom   14 type  2   force =     0.00016567   -0.00034988    0.00017195
     atom   15 type  2   force =     0.00018038   -0.00041027    0.00018225
     atom   16 type  2   force =     0.00020417   -0.00036492    0.00019842
     atom   17 type  2   force =     0.00022874    0.00037310    0.00016295
     atom   18 type  2   force =     0.00024551    0.00036600    0.00017460
     atom   19 type  2   force =     0.00023741    0.00036175    0.00017818
     atom   20 type  2   force =     0.00023151    0.00036134    0.00017297
     atom   21 type  2   force =    -0.00046226    0.00003463    0.00018108
     atom   22 type  2   force =    -0.00043547    0.00002899    0.00018643
     atom   23 type  2   force =    -0.00043528   -0.00000760    0.00010706
     atom   24 type  2   force =    -0.00044182    0.00000660    0.00014585
     atom   25 type  2   force =    -0.00043258   -0.00001129   -0.00017006
     atom   26 type  2   force =    -0.00039810    0.00002486   -0.00018897
     atom   27 type  2   force =    -0.00045629   -0.00000544   -0.00021806
     atom   28 type  2   force =    -0.00041543   -0.00001925   -0.00021199
     atom   29 type  2   force =    -0.00218219    0.00107221    0.00131785
     atom   30 type  2   force =     0.00023719    0.00041725   -0.00012663
     atom   31 type  2   force =     0.00021113    0.00038341   -0.00018891
     atom   32 type  2   force =     0.00017424    0.00036325   -0.00023946
     atom   33 type  2   force =     0.00022519   -0.00036228   -0.00019726
     atom   34 type  2   force =     0.00024159   -0.00036111   -0.00021764
     atom   35 type  2   force =     0.00023149   -0.00037063   -0.00020063
     atom   36 type  2   force =     0.00023265   -0.00036953   -0.00019474
     atom   37 type  3   force =     0.00029193   -0.00075182   -0.00012398
     atom   38 type  3   force =     0.00024629   -0.00045094   -0.00003045
     atom   39 type  3   force =     0.00026146   -0.00042635    0.00000711
     atom   40 type  3   force =     0.00028930   -0.00046052   -0.00004673
     atom   41 type  3   force =     0.00026823    0.00045642   -0.00008660
     atom   42 type  3   force =     0.00027342    0.00048788   -0.00005465
     atom   43 type  3   force =     0.00026215    0.00047967   -0.00002885
     atom   44 type  3   force =     0.00027660    0.00045429   -0.00004339
     atom   45 type  3   force =    -0.00051990   -0.00000557    0.00013197
     atom   46 type  3   force =     0.00070218    0.00257766    0.00081633
     atom   47 type  3   force =    -0.00045529   -0.00008660    0.00006131
     atom   48 type  3   force =    -0.00060313   -0.00036589    0.00002182
     atom   49 type  4   force =     0.00036088   -0.00009676    0.00016951
     atom   50 type  4   force =     0.00035607   -0.00010916    0.00003282
     atom   51 type  4   force =     0.00035505   -0.00010876    0.00002148
     atom   52 type  4   force =     0.00035226   -0.00010082    0.00004054
     atom   53 type  4   force =    -0.00041330    0.00001949    0.00058758
     atom   54 type  4   force =    -0.00004104    0.00036480    0.00005063
     atom   55 type  4   force =    -0.00008234    0.00039214    0.00005184
     atom   56 type  4   force =    -0.00008877    0.00040326    0.00003253
     atom   57 type  4   force =    -0.00023227    0.00072728    0.00057345
     atom   58 type  4   force =    -0.00032288   -0.00014799    0.00005935
     atom   59 type  4   force =    -0.00024706   -0.00026983   -0.00001716
     atom   60 type  4   force =    -0.00038122   -0.00040932   -0.00013534
     atom   61 type  4   force =    -0.00105540    0.00053818    0.00025023
     atom   62 type  4   force =     0.00016262    0.00052882   -0.00001933
     atom   63 type  4   force =    -0.00027571    0.00029106   -0.00004970
     atom   64 type  4   force =    -0.00031246    0.00036193   -0.00002093
     atom   65 type  4   force =     0.00035957    0.00008878    0.00001815
     atom   66 type  4   force =     0.00034735    0.00008147    0.00002048
     atom   67 type  4   force =     0.00035103    0.00009294    0.00000494
     atom   68 type  4   force =     0.00034765    0.00009704    0.00001247
     atom   69 type  4   force =    -0.00005346   -0.00036270   -0.00000350
     atom   70 type  4   force =    -0.00056344    0.00014246    0.00124688
     atom   71 type  4   force =    -0.00008925   -0.00036169    0.00003880
     atom   72 type  4   force =    -0.00010792   -0.00036294   -0.00003615
     atom   73 type  4   force =     0.00504151   -0.00892396   -0.00812517
     atom   74 type  4   force =    -0.00000059    0.00010538   -0.00027875
     atom   75 type  4   force =    -0.00001772    0.00018357   -0.00025639
     atom   76 type  4   force =    -0.00000857    0.00023388   -0.00024813
     atom   77 type  4   force =    -0.00014672   -0.00003083   -0.00018636
     atom   78 type  4   force =    -0.00018569   -0.00003005   -0.00020577
     atom   79 type  4   force =    -0.00015150   -0.00005992   -0.00023874
     atom   80 type  4   force =    -0.00013965   -0.00007422   -0.00024244
     atom   81 type  4   force =     0.00010597   -0.00010870   -0.00019594
     atom   82 type  4   force =     0.00012034   -0.00009682   -0.00023476
     atom   83 type  4   force =     0.00011257   -0.00009705   -0.00022497
     atom   84 type  4   force =     0.00011998   -0.00009544   -0.00021076
     atom   85 type  4   force =     0.00013942    0.00006884    0.00027989
     atom   86 type  4   force =     0.00011861    0.00006994    0.00026943
     atom   87 type  4   force =     0.00011198    0.00008185    0.00026184
     atom   88 type  4   force =     0.00010037    0.00009897    0.00027347
     atom   89 type  4   force =     0.00003485   -0.00013161    0.00026799
     atom   90 type  4   force =    -0.00102680    0.00069315    0.00006758
     atom   91 type  4   force =     0.00003658   -0.00015393    0.00021645
     atom   92 type  4   force =     0.00034810    0.00041694    0.00012688
     atom   93 type  4   force =    -0.00015269    0.00005182    0.00028228
     atom   94 type  4   force =    -0.00014857    0.00007248    0.00032808
     atom   95 type  4   force =    -0.00013787    0.00005697    0.00027853
     atom   96 type  4   force =    -0.00013816    0.00006560    0.00026209

     Total force =     0.015042     Total SCF correction =     0.000057
     Message from routine punch:
     Nothing written, as per user request (disk_io='none')

     init_run     :     39.45s CPU     42.03s WALL (       1 calls)
     electrons    :   2024.58s CPU   2140.60s WALL (       1 calls)
     forces       :     19.42s CPU     19.87s WALL (       1 calls)

     Called by init_run:
     wfcinit      :     35.70s CPU     38.07s WALL (       1 calls)
     potinit      :      1.08s CPU      1.11s WALL (       1 calls)
     hinit0       :      1.08s CPU      1.10s WALL (       1 calls)

     Called by electrons:
     c_bands      :   1795.21s CPU   1889.04s WALL (      22 calls)
     sum_band     :    200.15s CPU    218.77s WALL (      22 calls)
     v_of_rho     :      3.54s CPU      3.96s WALL (      23 calls)
     newd         :     20.58s CPU     23.68s WALL (      23 calls)
     PAW_pot      :      5.36s CPU      5.41s WALL (      23 calls)
     mix_rho      :      0.59s CPU      0.65s WALL (      22 calls)

     Called by c_bands:
     init_us_2    :     19.37s CPU     19.62s WALL (     322 calls)
     cegterg      :   1717.04s CPU   1810.05s WALL (     154 calls)

     Called by *egterg:
     cdiaghg      :     94.23s CPU     98.14s WALL (     903 calls)
     h_psi        :    912.90s CPU    989.24s WALL (     910 calls)
     s_psi        :    222.60s CPU    225.04s WALL (     910 calls)
     g_psi        :      3.10s CPU      3.13s WALL (     749 calls)

     Called by h_psi:
     h_psi:calbec :    226.82s CPU    230.07s WALL (     910 calls)
     vloc_psi     :    460.60s CPU    529.22s WALL (     910 calls)
     add_vuspsi   :    222.64s CPU    225.13s WALL (     910 calls)

     General routines
     calbec       :    315.22s CPU    319.69s WALL (    1092 calls)
     fft          :      9.46s CPU      9.98s WALL (     308 calls)
     ffts         :      0.75s CPU      0.78s WALL (      45 calls)
     fftw         :    436.03s CPU    505.77s WALL (  444692 calls)
     interpolate  :      0.87s CPU      0.92s WALL (      23 calls)

     Parallel routines

     PWSCF        :  34m43.72s CPU  36m43.08s WALL


   This run was terminated on:   5: 1: 8  21Aug2026            

=------------------------------------------------------------------------------=
   JOB DONE.
=------------------------------------------------------------------------------=
