
     Program PWSCF v.7.3.1 starts on 21Aug2026 at  2:27: 5 

     This program is part of the open-source Quantum ESPRESSO suite
     for quantum simulation of materials; please cite
         "P. Giannozzi et al., J. Phys.:Condens. Matter 21 395502 (2009);
         "P. Giannozzi et al., J. Phys.:Condens. Matter 29 465901 (2017);
         "P. Giannozzi et al., J. Chem. Phys. 152 154105 (2020);
          URL http://www.quantum-espresso.org", 
     in publications or presentations arising from this work. More details at
     http://www.quantum-espresso.org/quote

     Parallel version (MPI & OpenMP), running on      32 processor cores
     Number of MPI processes:                32
     Threads/MPI process:                     1

     MPI processes distributed on     1 nodes
     431395 MiB available memory on the printing compute node when the environment starts

     Reading input from scf.in

     Current dimensions of program PWSCF are:
     Max number of different atomic species (ntypx) = 10
     Max number of k-points (npk) =  40000
     Max angular momentum in pseudopotentials (lmaxx) =  4
     file Cu.paw.z_11.ld1.psl.v1.0.0-low.upf: wavefunction(s)  4S 3D renormalized

     K-points division:     npool     =       2
     R & G space division:  proc/nbgrp/npool/nimage =      16
     Subspace diagonalization in iterative solution of the eigenvalue problem:
     one sub-group per band group will be used
     scalapack distributed-memory algorithm (size of sub-group:  4*  4 procs)


     Parallelization info
     --------------------
     sticks:   dense  smooth     PW     G-vecs:    dense   smooth      PW
     Min        1193     597    157               163743    57882    7779
     Max        1194     599    158               163747    57885    7784
     Sum       19099    9565   2515              2619931   926125  124485

     Using Slab Decomposition



     bravais-lattice index     =            0
     lattice parameter (alat)  =      24.0273  a.u.
     unit-cell volume          =   14752.0463 (a.u.)^3
     number of atoms/cell      =           96
     number of atomic types    =            4
     number of electrons       =       840.00
     number of Kohn-Sham states=          420
     kinetic-energy cutoff     =      60.0000  Ry
     charge density cutoff     =     480.0000  Ry
     scf convergence threshold =      1.0E-09
     mixing beta               =       0.3000
     number of iterations used =            8  plain     mixing
     Exchange-correlation=  SLA  PW   PBX  PBC
                           (   1   4   3   4   0   0   0)

     celldm(1)=  24.027274  celldm(2)=   0.000000  celldm(3)=   0.000000
     celldm(4)=   0.000000  celldm(5)=   0.000000  celldm(6)=   0.000000

     crystal axes: (cart. coord. in units of alat)
               a(1) = (   1.000000   0.000000   0.000000 )  
               a(2) = (  -0.500000   0.866025   0.000000 )  
               a(3) = (   0.000000   0.000000   1.228028 )  

     reciprocal axes: (cart. coord. in units 2 pi/alat)
               b(1) = (  1.000000  0.577351 -0.000000 )  
               b(2) = (  0.000000  1.154701  0.000000 )  
               b(3) = (  0.000000 -0.000000  0.814314 )  


     PseudoPot. # 1 for Sr read from file:
     /home/yuhansun/pseudos/SSSP-1.3.0-PBE-precision/Sr_pbe_v1.uspp.F.UPF
     MD5 check sum: 6b418c05fbe9db5448babca5e47b7a5b
     Pseudo is Ultrasoft + core correction, Zval = 10.0
     Generated by new atomic code, or converted to UPF format
     Using radial grid of  883 points,  6 beta functions with: 
                l(1) =   0
                l(2) =   0
                l(3) =   1
                l(4) =   1
                l(5) =   2
                l(6) =   2
     Q(r) pseudized with  6 coefficients,  rinner =    1.400   1.400   1.400
                                                       1.400   1.400

     PseudoPot. # 2 for Cu read from file:
     /home/yuhansun/pseudos/SSSP-1.3.0-PBE-precision/Cu.paw.z_11.ld1.psl.v1.0.0-low.upf
     MD5 check sum: 619f40885d92a09a85a8b37550532d0c
     Pseudo is Projector augmented-wave + core cor, Zval = 11.0
     Generated using &quot;atomic&quot; code by A. Dal Corso  v.6.3MaX
     Shape of augmentation charge: PSQ
     Using radial grid of 1199 points,  6 beta functions with: 
                l(1) =   0
                l(2) =   0
                l(3) =   1
                l(4) =   1
                l(5) =   2
                l(6) =   2
     Q(r) pseudized with 0 coefficients 


     PseudoPot. # 3 for Sn read from file:
     /home/yuhansun/pseudos/SSSP-1.3.0-PBE-precision/Sn_pbe_v1.uspp.F.UPF
     MD5 check sum: 4cf58ce39ec5d5d420df3dd08604eb00
     Pseudo is Ultrasoft + core correction, Zval = 14.0
     Generated by new atomic code, or converted to UPF format
     Using radial grid of  891 points,  6 beta functions with: 
                l(1) =   0
                l(2) =   0
                l(3) =   1
                l(4) =   1
                l(5) =   2
                l(6) =   2
     Q(r) pseudized with  6 coefficients,  rinner =    1.200   1.200   1.200
                                                       1.200   1.200

     PseudoPot. # 4 for S  read from file:
     /home/yuhansun/pseudos/SSSP-1.3.0-PBE-precision/s_pbe_v1.4.uspp.F.UPF
     MD5 check sum: 88d86576ff6df21479756cfb9bdac1df
     Pseudo is Ultrasoft + core correction, Zval =  6.0
     Generated by new atomic code, or converted to UPF format
     Using radial grid of  907 points,  6 beta functions with: 
                l(1) =   0
                l(2) =   0
                l(3) =   1
                l(4) =   1
                l(5) =   2
                l(6) =   2
     Q(r) pseudized with  8 coefficients,  rinner =    1.300   1.300   1.300
                                                       1.300   1.300

     atomic species   valence    mass     pseudopotential
     Sr               10.00    87.62000     Sr( 1.00)
     Cu               11.00    63.54600     Cu( 1.00)
     Sn               14.00   118.71000     Sn( 1.00)
     S                 6.00    32.06500     S ( 1.00)

     No symmetry found



   Cartesian axes

     site n.     atom                  positions (alat units)
         1        Sr     tau(   1) = (  -0.1405753   0.2434834   0.2046717  )
         2        Sr     tau(   2) = (   0.3594247   0.2434834   0.2046717  )
         3        Sr     tau(   3) = (  -0.3905753   0.6764960   0.2046717  )
         4        Sr     tau(   4) = (   0.1094247   0.6764960   0.2046717  )
         5        Sr     tau(   5) = (   0.1094247   0.1895292   0.6140139  )
         6        Sr     tau(   6) = (   0.6094247   0.1895292   0.6140139  )
         7        Sr     tau(   7) = (  -0.1405753   0.6225418   0.6140139  )
         8        Sr     tau(   8) = (   0.3594247   0.6225418   0.6140139  )
         9        Sr     tau(   9) = (   0.2811505   0.0000000   1.0233574  )
        10        Sr     tau(  10) = (   0.7811505   0.0000000   1.0233574  )
        11        Sr     tau(  11) = (   0.0311505   0.4330126   1.0233574  )
        12        Sr     tau(  12) = (   0.5311505   0.4330126   1.0233574  )
        13        Cu     tau(  13) = (  -0.1239274   0.2731585   0.5061747  )
        14        Cu     tau(  14) = (   0.3773212   0.2753211   0.5061747  )
        15        Cu     tau(  15) = (  -0.3726788   0.7083337   0.5061747  )
        16        Cu     tau(  16) = (   0.1273212   0.7083337   0.5061747  )
        17        Cu     tau(  17) = (   0.0729045   0.1891087   0.9155169  )
        18        Cu     tau(  18) = (   0.5729045   0.1891087   0.9155169  )
        19        Cu     tau(  19) = (  -0.1770956   0.6221213   0.9155169  )
        20        Cu     tau(  20) = (   0.3229044   0.6221213   0.9155169  )
        21        Cu     tau(  21) = (   0.0497750   0.4015949   0.0968325  )
        22        Cu     tau(  22) = (   0.5497750   0.4015949   0.0968325  )
        23        Cu     tau(  23) = (  -0.2002251   0.8346075   0.0968325  )
        24        Cu     tau(  24) = (   0.2997749   0.8346075   0.0968325  )
        25        Cu     tau(  25) = (   0.2997745   0.0314177   0.7218532  )
        26        Cu     tau(  26) = (   0.7997745   0.0314177   0.7218532  )
        27        Cu     tau(  27) = (   0.0497745   0.4644302   0.7218532  )
        28        Cu     tau(  28) = (   0.5497745   0.4644302   0.7218532  )
        29        Cu     tau(  29) = (   0.1273207   0.1576915   0.3125110  )
        30        Cu     tau(  30) = (   0.6273207   0.1576915   0.3125110  )
        31        Cu     tau(  31) = (  -0.1226793   0.5907041   0.3125110  )
        32        Cu     tau(  32) = (   0.3773207   0.5907041   0.3125110  )
        33        Cu     tau(  33) = (   0.3229040   0.2439039   1.1311954  )
        34        Cu     tau(  34) = (   0.8229040   0.2439039   1.1311954  )
        35        Cu     tau(  35) = (   0.0729039   0.6769164   1.1311954  )
        36        Cu     tau(  36) = (   0.5729039   0.6769164   1.1311954  )
        37        Sn     tau(  37) = (  -0.1762580   0.3052877   0.8186857  )
        38        Sn     tau(  38) = (   0.3237420   0.3052877   0.8186857  )
        39        Sn     tau(  39) = (  -0.4262581   0.7383003   0.8186857  )
        40        Sn     tau(  40) = (   0.0737419   0.7383003   0.8186857  )
        41        Sn     tau(  41) = (   0.0737420   0.1277249   0.0000000  )
        42        Sn     tau(  42) = (   0.5737420   0.1277249   0.0000000  )
        43        Sn     tau(  43) = (  -0.1762581   0.5607374   0.0000000  )
        44        Sn     tau(  44) = (   0.3237419   0.5607374   0.0000000  )
        45        Sn     tau(  45) = (   0.3525160   0.0000000   0.4093422  )
        46        Sn     tau(  46) = (   0.8525160   0.0000000   0.4093422  )
        47        Sn     tau(  47) = (   0.1025160   0.4330126   0.4093422  )
        48        Sn     tau(  48) = (   0.6025160   0.4330126   0.4093422  )
        49        S      tau(  49) = (  -0.0988203   0.2103164   0.9671149  )
        50        S      tau(  50) = (   0.4011797   0.2103164   0.9671149  )
        51        S      tau(  51) = (  -0.3488203   0.6433290   0.9671149  )
        52        S      tau(  52) = (   0.1511797   0.6433290   0.9671149  )
        53        S      tau(  53) = (   0.1172707   0.2422736   0.1484293  )
        54        S      tau(  54) = (   0.6172707   0.2422736   0.1484293  )
        55        S      tau(  55) = (  -0.1327293   0.6752862   0.1484293  )
        56        S      tau(  56) = (   0.3672707   0.6752862   0.1484293  )
        57        S      tau(  57) = (  -0.0184505   0.4134352   0.5577727  )
        58        S      tau(  58) = (   0.4815495   0.4134352   0.5577727  )
        59        S      tau(  59) = (  -0.2684506   0.8464478   0.5577727  )
        60        S      tau(  60) = (   0.2315494   0.8464478   0.5577727  )
        61        S      tau(  61) = (   0.2315495   0.0195774   0.2609129  )
        62        S      tau(  62) = (   0.7315495   0.0195774   0.2609129  )
        63        S      tau(  63) = (  -0.0184505   0.4525899   0.2609129  )
        64        S      tau(  64) = (   0.4815495   0.4525899   0.2609129  )
        65        S      tau(  65) = (   0.1511797   0.2226962   1.0795986  )
        66        S      tau(  66) = (   0.6511797   0.2226962   1.0795986  )
        67        S      tau(  67) = (  -0.0988203   0.6557088   1.0795986  )
        68        S      tau(  68) = (   0.4011797   0.6557088   1.0795986  )
        69        S      tau(  69) = (   0.3672707   0.1907390   0.6702552  )
        70        S      tau(  70) = (   0.8672707   0.1907390   0.6702552  )
        71        S      tau(  71) = (   0.1172707   0.6237516   0.6702552  )
        72        S      tau(  72) = (   0.6172707   0.6237516   0.6702552  )
        73        S      tau(  73) = (  -0.0296498   0.1532012   0.4035914  )
        74        S      tau(  74) = (   0.4703502   0.1532012   0.4035914  )
        75        S      tau(  75) = (  -0.2796498   0.5862137   0.4035914  )
        76        S      tau(  76) = (   0.2203502   0.5862137   0.4035914  )
        77        S      tau(  77) = (   0.1321490   0.3307341   0.8129336  )
        78        S      tau(  78) = (   0.6321490   0.3307341   0.8129336  )
        79        S      tau(  79) = (  -0.1178511   0.7637467   0.8129336  )
        80        S      tau(  80) = (   0.3821489   0.7637467   0.8129336  )
        81        S      tau(  81) = (  -0.1024985   0.3820894   1.2222770  )
        82        S      tau(  82) = (   0.3975015   0.3820894   1.2222770  )
        83        S      tau(  83) = (  -0.3524986   0.8151020   1.2222770  )
        84        S      tau(  84) = (   0.1475014   0.8151020   1.2222770  )
        85        S      tau(  85) = (   0.1475010   0.0509231   0.8244365  )
        86        S      tau(  86) = (   0.6475010   0.0509231   0.8244365  )
        87        S      tau(  87) = (  -0.1024990   0.4839357   0.8244365  )
        88        S      tau(  88) = (   0.3975010   0.4839357   0.8244365  )
        89        S      tau(  89) = (   0.2203497   0.2798114   0.4150943  )
        90        S      tau(  90) = (   0.7203497   0.2798114   0.4150943  )
        91        S      tau(  91) = (  -0.0296503   0.7128240   0.4150943  )
        92        S      tau(  92) = (   0.4703497   0.7128240   0.4150943  )
        93        S      tau(  93) = (   0.3821485   0.1022784   0.0057509  )
        94        S      tau(  94) = (   0.8821485   0.1022784   0.0057509  )
        95        S      tau(  95) = (   0.1321485   0.5352910   0.0057509  )
        96        S      tau(  96) = (   0.6321485   0.5352910   0.0057509  )

     number of k points=    14
                       cart. coord. in units 2pi/alat
        k(    1) = (   0.0000000   0.0000000   0.0000000), wk =   0.0740741
        k(    2) = (   0.0000000   0.0000000   0.2714379), wk =   0.1481481
        k(    3) = (   0.0000000   0.3849003   0.0000000), wk =   0.1481481
        k(    4) = (   0.0000000   0.3849003   0.2714379), wk =   0.1481481
        k(    5) = (   0.3333333   0.5773505   0.0000000), wk =   0.1481481
        k(    6) = (   0.3333333   0.5773505   0.2714379), wk =   0.1481481
        k(    7) = (  -0.3333333   0.1924501   0.0000000), wk =   0.1481481
        k(    8) = (   0.3333333   0.1924502   0.0000000), wk =   0.1481481
        k(    9) = (   0.0000000  -0.3849003   0.2714379), wk =   0.1481481
        k(   10) = (  -0.3333333   0.1924501   0.2714379), wk =   0.1481481
        k(   11) = (   0.3333333   0.1924502   0.2714379), wk =   0.1481481
        k(   12) = (  -0.3333333  -0.1924502   0.2714379), wk =   0.1481481
        k(   13) = (   0.3333333  -0.1924501   0.2714379), wk =   0.1481481
        k(   14) = (  -0.3333333  -0.5773505   0.2714379), wk =   0.1481481

     Dense  grid:  2619931 G-vectors     FFT dimensions: ( 180, 180, 216)

     Smooth grid:   926125 G-vectors     FFT dimensions: ( 120, 120, 150)

     Estimated max dynamical RAM per process >       1.07 GB

     Estimated total dynamical RAM >      33.54 GB

     Initial potential from superposition of free atoms

     starting charge     827.5884, renormalised to     840.0000

     negative rho (up, down):  7.777E-01 0.000E+00
     Starting wfcs are  672 randomized atomic wfcs
     Checking if some PAW data can be deallocated... 

     total cpu time spent up to now is       41.2 secs

     Self-consistent Calculation

     iteration #  1     ecut=    60.00 Ry     beta= 0.30
     Davidson diagonalization with overlap
     ethr =  1.00E-02,  avg # of iterations =  2.0

     negative rho (up, down):  7.747E-01 0.000E+00

     total cpu time spent up to now is      120.6 secs

     total energy              =   -9070.29085493 Ry
     estimated scf accuracy    <      21.98077877 Ry

     iteration #  2     ecut=    60.00 Ry     beta= 0.30
     Davidson diagonalization with overlap
     ethr =  2.62E-03,  avg # of iterations =  4.9

     negative rho (up, down):  7.752E-01 0.000E+00

     total cpu time spent up to now is      222.0 secs

     total energy              =   -9076.61398642 Ry
     estimated scf accuracy    <       8.22726278 Ry

     iteration #  3     ecut=    60.00 Ry     beta= 0.30
     Davidson diagonalization with overlap
     ethr =  9.79E-04,  avg # of iterations =  2.0

     negative rho (up, down):  7.804E-01 0.000E+00

     total cpu time spent up to now is      304.4 secs

     total energy              =   -9076.48845131 Ry
     estimated scf accuracy    <       1.62414903 Ry

     iteration #  4     ecut=    60.00 Ry     beta= 0.30
     Davidson diagonalization with overlap
     ethr =  1.93E-04,  avg # of iterations =  6.3

     negative rho (up, down):  7.829E-01 0.000E+00

     total cpu time spent up to now is      423.6 secs

     total energy              =   -9076.70077325 Ry
     estimated scf accuracy    <       2.07945073 Ry

     iteration #  5     ecut=    60.00 Ry     beta= 0.30
     Davidson diagonalization with overlap
     ethr =  1.93E-04,  avg # of iterations =  5.6

     negative rho (up, down):  7.883E-01 0.000E+00

     total cpu time spent up to now is      519.1 secs

     total energy              =   -9077.13800365 Ry
     estimated scf accuracy    <       0.14647543 Ry

     iteration #  6     ecut=    60.00 Ry     beta= 0.30
     Davidson diagonalization with overlap
     ethr =  1.74E-05,  avg # of iterations =  6.1

     negative rho (up, down):  7.902E-01 0.000E+00

     total cpu time spent up to now is      619.2 secs

     total energy              =   -9077.18442069 Ry
     estimated scf accuracy    <       0.01296272 Ry

     iteration #  7     ecut=    60.00 Ry     beta= 0.30
     Davidson diagonalization with overlap
     ethr =  1.54E-06,  avg # of iterations =  4.9

     negative rho (up, down):  7.907E-01 0.000E+00

     total cpu time spent up to now is      733.0 secs

     total energy              =   -9077.18863102 Ry
     estimated scf accuracy    <       0.00550540 Ry

     iteration #  8     ecut=    60.00 Ry     beta= 0.30
     Davidson diagonalization with overlap
     ethr =  6.55E-07,  avg # of iterations =  6.2

     negative rho (up, down):  7.912E-01 0.000E+00

     total cpu time spent up to now is      868.3 secs

     total energy              =   -9077.17925531 Ry
     estimated scf accuracy    <       0.04949494 Ry

     iteration #  9     ecut=    60.00 Ry     beta= 0.30
     Davidson diagonalization with overlap
     ethr =  6.55E-07,  avg # of iterations =  7.6

     negative rho (up, down):  7.911E-01 0.000E+00

     total cpu time spent up to now is     1007.8 secs

     total energy              =   -9077.18766567 Ry
     estimated scf accuracy    <       0.00147651 Ry

     iteration # 10     ecut=    60.00 Ry     beta= 0.30
     Davidson diagonalization with overlap
     ethr =  1.76E-07,  avg # of iterations =  2.8

     negative rho (up, down):  7.907E-01 0.000E+00

     total cpu time spent up to now is     1092.7 secs

     total energy              =   -9077.18757738 Ry
     estimated scf accuracy    <       0.00041583 Ry

     iteration # 11     ecut=    60.00 Ry     beta= 0.30
     Davidson diagonalization with overlap
     ethr =  4.95E-08,  avg # of iterations =  6.1

     negative rho (up, down):  7.905E-01 0.000E+00

     total cpu time spent up to now is     1212.3 secs

     total energy              =   -9077.18773393 Ry
     estimated scf accuracy    <       0.00018849 Ry

     iteration # 12     ecut=    60.00 Ry     beta= 0.30
     Davidson diagonalization with overlap
     ethr =  2.24E-08,  avg # of iterations =  3.6

     negative rho (up, down):  7.904E-01 0.000E+00

     total cpu time spent up to now is     1304.7 secs

     total energy              =   -9077.18775147 Ry
     estimated scf accuracy    <       0.00003596 Ry

     iteration # 13     ecut=    60.00 Ry     beta= 0.30
     Davidson diagonalization with overlap
     ethr =  4.28E-09,  avg # of iterations =  5.9

     negative rho (up, down):  7.903E-01 0.000E+00

     total cpu time spent up to now is     1413.5 secs

     total energy              =   -9077.18776133 Ry
     estimated scf accuracy    <       0.00000790 Ry

     iteration # 14     ecut=    60.00 Ry     beta= 0.30
     Davidson diagonalization with overlap
     ethr =  9.40E-10,  avg # of iterations =  4.0

     negative rho (up, down):  7.902E-01 0.000E+00

     total cpu time spent up to now is     1509.7 secs

     total energy              =   -9077.18776297 Ry
     estimated scf accuracy    <       0.00000209 Ry

     iteration # 15     ecut=    60.00 Ry     beta= 0.30
     Davidson diagonalization with overlap
     ethr =  2.49E-10,  avg # of iterations =  2.4

     negative rho (up, down):  7.902E-01 0.000E+00

     total cpu time spent up to now is     1598.2 secs

     total energy              =   -9077.18776331 Ry
     estimated scf accuracy    <       0.00000058 Ry

     iteration # 16     ecut=    60.00 Ry     beta= 0.30
     Davidson diagonalization with overlap
     ethr =  6.88E-11,  avg # of iterations =  5.9

     negative rho (up, down):  7.902E-01 0.000E+00

     total cpu time spent up to now is     1714.2 secs

     total energy              =   -9077.18776354 Ry
     estimated scf accuracy    <       0.00000021 Ry

     iteration # 17     ecut=    60.00 Ry     beta= 0.30
     Davidson diagonalization with overlap
     ethr =  2.46E-11,  avg # of iterations =  4.2

     negative rho (up, down):  7.902E-01 0.000E+00

     total cpu time spent up to now is     1810.7 secs

     total energy              =   -9077.18776359 Ry
     estimated scf accuracy    <       0.00000003 Ry

     iteration # 18     ecut=    60.00 Ry     beta= 0.30
     Davidson diagonalization with overlap
     ethr =  3.27E-12,  avg # of iterations =  7.0

     negative rho (up, down):  7.902E-01 0.000E+00

     total cpu time spent up to now is     1952.8 secs

     total energy              =   -9077.18776361 Ry
     estimated scf accuracy    <       0.00000005 Ry

     iteration # 19     ecut=    60.00 Ry     beta= 0.30
     Davidson diagonalization with overlap
     ethr =  3.27E-12,  avg # of iterations =  2.7

     negative rho (up, down):  7.902E-01 0.000E+00

     total cpu time spent up to now is     2036.4 secs

     total energy              =   -9077.18776362 Ry
     estimated scf accuracy    <       0.00000001 Ry

     iteration # 20     ecut=    60.00 Ry     beta= 0.30
     Davidson diagonalization with overlap
     ethr =  1.50E-12,  avg # of iterations =  9.8

     negative rho (up, down):  7.902E-01 0.000E+00

     total cpu time spent up to now is     2163.7 secs

     total energy              =   -9077.18776362 Ry
     estimated scf accuracy    <       0.00000002 Ry

     iteration # 21     ecut=    60.00 Ry     beta= 0.30
     Davidson diagonalization with overlap
     ethr =  1.50E-12,  avg # of iterations =  4.6

     negative rho (up, down):  7.902E-01 0.000E+00

     total cpu time spent up to now is     2255.8 secs

     total energy              =   -9077.18776363 Ry
     estimated scf accuracy    <          2.3E-09 Ry

     iteration # 22     ecut=    60.00 Ry     beta= 0.30
     Davidson diagonalization with overlap
     ethr =  2.74E-13,  avg # of iterations =  9.4

     negative rho (up, down):  7.902E-01 0.000E+00

     total cpu time spent up to now is     2377.4 secs

     End of self-consistent calculation

          k = 0.0000 0.0000 0.0000 (115723 PWs)   bands (ev):

   -28.2766 -28.2757 -28.2757 -28.2756 -28.2756 -28.2755 -28.2755 -28.2753
   -28.2753 -28.2751 -28.2750 -28.2735 -14.9241 -14.9232 -14.9230 -14.9227
   -14.9227 -14.9227 -14.9226 -14.9224 -14.9224 -14.9220 -14.9215 -14.9212
   -14.9180 -14.9175 -14.9170 -14.9169 -14.9168 -14.9168 -14.9166 -14.9166
   -14.9165 -14.9161 -14.9157 -14.9151 -14.9060 -14.9053 -14.9049 -14.9048
   -14.9047 -14.9047 -14.9046 -14.9046 -14.9046 -14.9041 -14.9035 -14.9032
   -14.8659 -14.8650 -14.8647 -14.8646 -14.8645 -14.8645 -14.8644 -14.8644
   -14.8644 -14.8639 -14.8633 -14.8630 -14.8205 -14.8201 -14.8195 -14.8194
   -14.8193 -14.8193 -14.8193 -14.8192 -14.8191 -14.8187 -14.8182 -14.8177
   -10.3386 -10.3383 -10.3381 -10.3369 -10.3364 -10.3364 -10.3355 -10.3355
   -10.3349 -10.3310 -10.3305 -10.3242 -10.3093 -10.3090 -10.3088 -10.3044
   -10.3040 -10.3015 -10.3014 -10.3010 -10.2927 -10.2924 -10.2920 -10.2821
   -10.2709 -10.2703 -10.2702 -10.2652 -10.2649 -10.2646 -10.2627 -10.2625
   -10.2621 -10.2585 -10.2579 -10.2543  -6.8631  -6.5552  -6.5547  -6.4182
    -6.4167  -6.4150  -6.3003  -6.3001  -6.2977  -6.2188  -6.2184  -6.2160
    -5.9919  -5.9899  -5.9889  -5.8504  -5.8500  -5.8486  -5.7968  -5.7966
    -5.7946  -5.7374  -5.7357  -5.6202  -5.6187  -5.6163  -5.6145  -5.6137
    -5.6126  -5.6004  -5.5591  -5.5590  -5.5584  -5.5459  -5.5451  -5.5445
    -5.5172  -5.5150  -5.4330  -5.4299  -5.4287  -5.4252  -5.3743  -5.3725
    -5.3462  -5.3453  -5.3413  -5.2503  -0.6130  -0.6114  -0.6105  -0.3898
    -0.3892  -0.3879  -0.3509  -0.3165  -0.3157  -0.3150  -0.3013  -0.3003
     1.3838   1.3850   1.3862   1.5895   1.5930   1.6553   1.7158   1.7166
     1.7181   1.8043   1.8060   1.8070   2.0201   2.0404   2.0414   2.0834
     2.0848   2.0876   2.2470   2.2482   2.2499   2.3087   2.3108   2.4038
     2.4047   2.4073   2.4604   2.4606   2.4629   2.5490   2.5515   2.6614
     2.6617   2.6637   2.7832   2.7841   2.7848   2.8696   2.8722   2.9236
     2.9253   2.9255   2.9517   2.9529   2.9550   3.0267   3.0273   3.0287
     3.0443   3.0464   3.0476   3.1636   3.2112   3.2145   3.2155   3.2262
     3.2288   3.2549   3.2567   3.2581   3.3760   3.3776   3.3794   3.3911
     3.3946   3.4262   3.4267   3.4294   3.4356   3.4358   3.4368   3.4759
     3.4762   3.4805   3.4928   3.4941   3.4954   3.4983   3.5169   3.5215
     3.5844   3.5856   3.5861   3.6265   3.6267   3.6282   3.6878   3.6889
     3.6901   3.6909   3.6914   3.7065   3.7949   3.7965   3.8247   3.8251
     3.8267   3.9628   4.0194   4.0205   4.0212   4.0345   4.0362   4.0368
     4.1224   4.1238   4.1256   4.1264   4.1722   4.1727   4.1751   4.1994
     4.2080   4.2092   4.2109   4.2420   4.2443   4.2466   4.2806   4.2816
     4.4238   4.4252   4.4255   4.5174   4.5185   4.5204   4.5354   4.5376
     4.6197   4.6209   4.6227   4.8574   5.1245   5.1541   5.1551   5.1558
     5.1736   5.1742   5.1746   5.1778   5.1788   5.2223   5.2275   5.2277
     5.2278   5.2289   5.2294   5.2515   5.2517   5.2525   5.2662   5.2667
     5.2674   5.2781   5.2788   5.2790   5.3106   5.3113   5.3119   5.3124
     5.3129   5.3243   5.3368   5.3376   5.3377   5.3743   5.3755   5.3767
     5.4387   5.4400   5.4704   5.4709   5.4720   5.4741   5.4764   5.4771
     5.4776   5.4983   5.4986   5.6009   5.6013   5.6022   5.6183   5.6189
     5.6191   5.6264   5.6472   5.6475   5.6477   5.6596   5.6602   5.6605
     5.7245   5.7253   5.7444   5.7823   5.7831   5.7837   5.8211   5.8214
     5.8221   5.9030   5.9032   5.9042   5.9260   5.9273   5.9279   5.9960
     5.9966   6.0261   6.0270   6.0283   6.1473   6.1510   6.1517   6.1530
     6.2621   6.2624   6.2629   6.2633   6.2638   6.2644   6.2905   6.2911
     6.3339   6.3352   6.3358   6.3624   6.3633   6.3642   6.3895   6.3898
     6.3905   6.5528   6.5709   6.5722   6.5727   6.6370   6.6379   6.6392
     6.7465   6.7476   6.7478   6.7641   6.7654   6.7806   6.7816   6.7822
     6.8086   6.9648   7.1802   7.1810

          k = 0.0000 0.0000 0.2714 (115879 PWs)   bands (ev):

   -28.2766 -28.2757 -28.2757 -28.2756 -28.2756 -28.2755 -28.2755 -28.2753
   -28.2753 -28.2751 -28.2750 -28.2735 -14.9241 -14.9232 -14.9230 -14.9227
   -14.9227 -14.9227 -14.9226 -14.9224 -14.9224 -14.9220 -14.9215 -14.9212
   -14.9180 -14.9175 -14.9170 -14.9169 -14.9168 -14.9168 -14.9166 -14.9166
   -14.9165 -14.9161 -14.9157 -14.9151 -14.9060 -14.9053 -14.9049 -14.9048
   -14.9047 -14.9047 -14.9046 -14.9046 -14.9046 -14.9041 -14.9035 -14.9032
   -14.8659 -14.8650 -14.8647 -14.8646 -14.8645 -14.8645 -14.8644 -14.8644
   -14.8644 -14.8639 -14.8633 -14.8630 -14.8205 -14.8201 -14.8195 -14.8194
   -14.8193 -14.8193 -14.8193 -14.8192 -14.8191 -14.8187 -14.8182 -14.8177
   -10.3396 -10.3393 -10.3391 -10.3375 -10.3371 -10.3368 -10.3341 -10.3339
   -10.3335 -10.3323 -10.3280 -10.3253 -10.3122 -10.3079 -10.3075 -10.3072
   -10.3021 -10.3019 -10.3015 -10.2939 -10.2937 -10.2934 -10.2928 -10.2847
   -10.2703 -10.2698 -10.2696 -10.2658 -10.2656 -10.2652 -10.2623 -10.2620
   -10.2616 -10.2582 -10.2576 -10.2557  -6.8238  -6.7133  -6.4102  -6.4088
    -6.4083  -6.4062  -6.3049  -6.3046  -6.3025  -6.2311  -6.2304  -6.2283
    -5.9937  -5.9918  -5.9910  -5.8530  -5.8358  -5.8351  -5.8341  -5.7744
    -5.7733  -5.7716  -5.6579  -5.6559  -5.6538  -5.6503  -5.6137  -5.6128
    -5.6122  -5.6114  -5.5563  -5.5536  -5.5522  -5.5506  -5.5457  -5.5453
    -5.5433  -5.4539  -5.4360  -5.4347  -5.4342  -5.4307  -5.3760  -5.3460
    -5.3385  -5.3374  -5.3332  -5.2808  -0.6048  -0.6037  -0.6028  -0.4134
    -0.4126  -0.4115  -0.3483  -0.3325  -0.3021  -0.3011  -0.2997  -0.2738
     1.4083   1.4092   1.4104   1.5694   1.6133   1.6176   1.6186   1.6201
     1.6567   1.9340   1.9353   1.9368   2.0041   2.0466   2.0517   2.0531
     2.0554   2.0685   2.2757   2.2767   2.2785   2.3058   2.3882   2.3895
     2.3908   2.3929   2.4155   2.4166   2.4199   2.4554   2.6208   2.6213
     2.6230   2.6672   2.7176   2.7917   2.7978   2.7985   2.7988   2.8717
     2.8722   2.8732   2.9752   2.9755   2.9766   3.0439   3.0455   3.0465
     3.1044   3.1062   3.1073   3.1747   3.1980   3.2035   3.2052   3.2061
     3.2726   3.2733   3.2751   3.2843   3.3747   3.3824   3.3842   3.3865
     3.4187   3.4198   3.4227   3.4393   3.4400   3.4405   3.4480   3.4490
     3.4529   3.4775   3.4999   3.5177   3.5189   3.5222   3.5388   3.5432
     3.5496   3.5507   3.5522   3.6391   3.6439   3.6450   3.6460   3.6512
     3.6797   3.6804   3.6814   3.7735   3.8299   3.8746   3.8756   3.8775
     3.9075   3.9214   3.9938   3.9947   3.9956   4.0546   4.0555   4.0563
     4.0745   4.1153   4.1169   4.1184   4.1474   4.1480   4.1505   4.1646
     4.1705   4.1720   4.1747   4.2110   4.2488   4.2505   4.2522   4.2677
     4.4206   4.4221   4.4229   4.4839   4.5585   4.5598   4.5622   4.6045
     4.6059   4.6077   4.6773   4.8076   5.1357   5.1474   5.1533   5.1542
     5.1546   5.1640   5.1865   5.1871   5.1877   5.2157   5.2166   5.2171
     5.2177   5.2477   5.2483   5.2488   5.2587   5.2595   5.2598   5.2604
     5.2758   5.2766   5.2777   5.2782   5.3293   5.3293   5.3297   5.3321
     5.3335   5.3348   5.3416   5.3420   5.3427   5.3660   5.3732   5.3743
     5.3750   5.3893   5.4028   5.4195   5.4207   5.4215   5.5259   5.5315
     5.5326   5.5335   5.5818   5.5881   5.5889   5.5890   5.5895   5.6202
     5.6205   5.6208   5.6520   5.6522   5.6526   5.6605   5.6813   5.6823
     5.6828   5.7549   5.7555   5.7560   5.7903   5.7986   5.8173   5.8177
     5.8181   5.8706   5.8830   5.8836   5.8843   5.9874   5.9891   5.9894
     6.0423   6.0432   6.0442   6.0976   6.0987   6.0993   6.1751   6.1907
     6.1923   6.1932   6.2348   6.2684   6.2693   6.2699   6.3260   6.3266
     6.3269   6.3598   6.3606   6.3706   6.3716   6.3725   6.3954   6.4290
     6.4302   6.4305   6.4797   6.6410   6.6417   6.6426   6.6431   6.6435
     6.6444   6.6710   6.7082   6.7091   6.7098   6.7519   6.7529   6.7535
     6.9415   7.0051   7.0946   7.1698

          k = 0.0000 0.3849 0.0000 (115797 PWs)   bands (ev):

   -28.2766 -28.2757 -28.2757 -28.2756 -28.2756 -28.2755 -28.2755 -28.2753
   -28.2753 -28.2751 -28.2750 -28.2735 -14.9241 -14.9231 -14.9229 -14.9227
   -14.9226 -14.9226 -14.9225 -14.9225 -14.9224 -14.9220 -14.9215 -14.9212
   -14.9180 -14.9175 -14.9170 -14.9169 -14.9168 -14.9167 -14.9166 -14.9166
   -14.9165 -14.9161 -14.9157 -14.9151 -14.9060 -14.9053 -14.9049 -14.9048
   -14.9047 -14.9047 -14.9046 -14.9046 -14.9046 -14.9041 -14.9035 -14.9032
   -14.8659 -14.8650 -14.8647 -14.8646 -14.8645 -14.8645 -14.8644 -14.8644
   -14.8644 -14.8639 -14.8633 -14.8630 -14.8205 -14.8201 -14.8195 -14.8194
   -14.8193 -14.8193 -14.8193 -14.8192 -14.8191 -14.8187 -14.8182 -14.8177
   -10.3382 -10.3381 -10.3367 -10.3365 -10.3360 -10.3355 -10.3344 -10.3341
   -10.3327 -10.3324 -10.3316 -10.3265 -10.3074 -10.3071 -10.3063 -10.3043
   -10.3030 -10.3019 -10.3018 -10.3013 -10.2947 -10.2943 -10.2906 -10.2851
   -10.2698 -10.2693 -10.2690 -10.2669 -10.2662 -10.2638 -10.2627 -10.2625
   -10.2623 -10.2604 -10.2598 -10.2561  -6.7878  -6.5898  -6.4994  -6.4980
    -6.4393  -6.4363  -6.3655  -6.3486  -6.2853  -6.2847  -6.2488  -6.2475
    -5.9111  -5.9102  -5.8217  -5.8187  -5.8173  -5.7768  -5.7687  -5.7668
    -5.7314  -5.7242  -5.7227  -5.6911  -5.6893  -5.6485  -5.6386  -5.6375
    -5.6293  -5.5956  -5.5847  -5.5837  -5.5679  -5.5275  -5.5193  -5.5185
    -5.5145  -5.5038  -5.4622  -5.4506  -5.4369  -5.4362  -5.4233  -5.4149
    -5.3489  -5.3447  -5.3127  -5.2696  -0.5717  -0.5709  -0.5620  -0.4354
    -0.4046  -0.4035  -0.3772  -0.3390  -0.3384  -0.3350  -0.3128  -0.3034
     1.4191   1.4865   1.4889   1.5016   1.6401   1.6521   1.6856   1.7233
     1.7250   1.8281   1.8769   1.8777   1.9536   1.9557   1.9562   2.0273
     2.1162   2.2063   2.2292   2.2307   2.3388   2.3633   2.3854   2.3858
     2.3938   2.4093   2.4504   2.5370   2.5392   2.6121   2.6133   2.6170
     2.6582   2.7349   2.8129   2.8139   2.8217   2.8404   2.8417   2.8448
     2.8543   2.8853   2.9077   2.9085   2.9144   2.9617   2.9623   3.0043
     3.0515   3.0562   3.0579   3.1232   3.1467   3.1754   3.2041   3.2115
     3.2125   3.2322   3.2592   3.2612   3.2695   3.3248   3.3295   3.3314
     3.3378   3.3709   3.3950   3.3961   3.4334   3.4408   3.4432   3.4499
     3.4974   3.4987   3.5016   3.5100   3.5129   3.5145   3.5257   3.5431
     3.5619   3.6043   3.6061   3.6106   3.6356   3.6460   3.6788   3.6797
     3.6940   3.7021   3.7046   3.7084   3.7782   3.7789   3.8496   3.8608
     3.8959   3.9733   3.9748   3.9774   3.9804   4.0295   4.0372   4.0398
     4.0918   4.1117   4.1197   4.1204   4.1262   4.1616   4.1627   4.1766
     4.2480   4.2645   4.2667   4.2820   4.3032   4.3221   4.3250   4.3680
     4.3790   4.4161   4.4171   4.4842   4.5179   4.5277   4.5287   4.5304
     4.5912   4.5929   4.6264   4.7491   5.1437   5.1442   5.1459   5.1535
     5.1602   5.1609   5.1693   5.1748   5.2149   5.2188   5.2197   5.2217
     5.2276   5.2369   5.2486   5.2489   5.2500   5.2607   5.2676   5.2719
     5.2724   5.2888   5.3038   5.3046   5.3135   5.3183   5.3272   5.3281
     5.3370   5.3493   5.3520   5.3526   5.3571   5.3650   5.4137   5.4143
     5.4337   5.4510   5.4606   5.4611   5.4855   5.4932   5.5000   5.5002
     5.5027   5.5127   5.5278   5.5439   5.5566   5.5575   5.5614   5.6033
     5.6038   5.6305   5.6315   5.6320   5.6679   5.6787   5.6955   5.6963
     5.6968   5.7173   5.7296   5.7565   5.7754   5.7759   5.8089   5.8188
     5.8195   5.8639   5.8755   5.8767   5.9511   5.9515   5.9636   5.9652
     5.9899   6.0067   6.0073   6.0200   6.1393   6.1403   6.1442   6.1602
     6.2256   6.2300   6.2302   6.2515   6.2707   6.2896   6.2903   6.2991
     6.3616   6.3624   6.3781   6.3891   6.3905   6.4402   6.4862   6.4873
     6.5245   6.5374   6.5382   6.5761   6.6049   6.6516   6.6839   6.6925
     6.6939   6.7294   6.7374   6.7378   6.7626   6.7784   6.7929   6.8116
     6.8126   6.9042   6.9095   7.0811

          k = 0.0000 0.3849 0.2714 (115773 PWs)   bands (ev):

   -28.2766 -28.2757 -28.2757 -28.2756 -28.2756 -28.2755 -28.2755 -28.2753
   -28.2753 -28.2751 -28.2750 -28.2735 -14.9241 -14.9231 -14.9229 -14.9227
   -14.9226 -14.9226 -14.9225 -14.9225 -14.9224 -14.9220 -14.9215 -14.9212
   -14.9180 -14.9175 -14.9170 -14.9169 -14.9168 -14.9167 -14.9166 -14.9166
   -14.9165 -14.9161 -14.9157 -14.9151 -14.9060 -14.9053 -14.9049 -14.9048
   -14.9047 -14.9047 -14.9046 -14.9046 -14.9046 -14.9041 -14.9035 -14.9032
   -14.8659 -14.8650 -14.8647 -14.8646 -14.8645 -14.8645 -14.8644 -14.8644
   -14.8644 -14.8639 -14.8633 -14.8630 -14.8205 -14.8201 -14.8195 -14.8194
   -14.8193 -14.8193 -14.8193 -14.8192 -14.8191 -14.8187 -14.8182 -14.8177
   -10.3389 -10.3388 -10.3379 -10.3373 -10.3367 -10.3343 -10.3338 -10.3331
   -10.3329 -10.3320 -10.3298 -10.3273 -10.3105 -10.3069 -10.3065 -10.3060
   -10.3014 -10.3007 -10.3004 -10.2965 -10.2962 -10.2940 -10.2911 -10.2876
   -10.2699 -10.2694 -10.2681 -10.2669 -10.2663 -10.2641 -10.2625 -10.2622
   -10.2620 -10.2605 -10.2593 -10.2577  -6.7508  -6.6467  -6.5606  -6.4718
    -6.4236  -6.4204  -6.3641  -6.3293  -6.3278  -6.2589  -6.2252  -6.2238
    -5.9051  -5.9045  -5.8241  -5.8206  -5.8083  -5.8072  -5.7918  -5.7610
    -5.7597  -5.7321  -5.7112  -5.7077  -5.6717  -5.6367  -5.6292  -5.6284
    -5.6272  -5.6075  -5.6002  -5.5989  -5.5692  -5.5290  -5.5226  -5.5219
    -5.5201  -5.4964  -5.4676  -5.4325  -5.4295  -5.4284  -5.4202  -5.3642
    -5.3484  -5.3437  -5.3221  -5.2988  -0.5602  -0.5588  -0.5582  -0.4363
    -0.4359  -0.4247  -0.3939  -0.3735  -0.3193  -0.3182  -0.2993  -0.2789
     1.4338   1.4847   1.4866   1.4879   1.6259   1.6406   1.7715   1.7739
     1.7806   1.7897   1.7999   1.8012   1.9145   1.9960   1.9963   2.0765
     2.1558   2.2001   2.2101   2.2474   2.2486   2.3604   2.3920   2.3933
     2.3983   2.4496   2.5111   2.5130   2.5472   2.5898   2.5910   2.6079
     2.6436   2.7099   2.7605   2.7675   2.7696   2.7887   2.8096   2.8099
     2.8385   2.8759   2.9153   2.9163   2.9188   2.9815   3.0232   3.0242
     3.0686   3.1062   3.1075   3.1302   3.1709   3.1916   3.1936   3.1948
     3.1990   3.2319   3.2634   3.2637   3.2762   3.3181   3.3213   3.3218
     3.3250   3.3893   3.3900   3.4101   3.4450   3.4471   3.4681   3.4699
     3.4720   3.4749   3.4758   3.4810   3.5333   3.5358   3.5398   3.5917
     3.6108   3.6118   3.6134   3.6334   3.6412   3.6478   3.6580   3.6603
     3.6671   3.7103   3.7112   3.7135   3.8339   3.8358   3.8806   3.8891
     3.9037   3.9492   3.9501   3.9746   3.9813   4.0187   4.0457   4.0486
     4.0502   4.0658   4.1101   4.1107   4.1194   4.1320   4.1329   4.1473
     4.1909   4.2552   4.2656   4.2679   4.2875   4.2894   4.2938   4.3877
     4.3974   4.4373   4.4393   4.4682   4.5245   4.5256   4.5355   4.5968
     4.6109   4.6129   4.6220   4.7216   5.1509   5.1513   5.1537   5.1564
     5.1712   5.1754   5.1761   5.1835   5.1901   5.1979   5.2013   5.2079
     5.2082   5.2340   5.2349   5.2354   5.2546   5.2629   5.2656   5.2661
     5.2786   5.2977   5.3075   5.3127   5.3139   5.3287   5.3351   5.3362
     5.3578   5.3584   5.3600   5.3632   5.3797   5.3922   5.4066   5.4075
     5.4132   5.4313   5.4330   5.4448   5.4457   5.4930   5.5018   5.5022
     5.5096   5.5154   5.5536   5.5598   5.5746   5.5751   5.6029   5.6110
     5.6116   5.6187   5.6248   5.6255   5.6428   5.6702   5.6822   5.7140
     5.7150   5.7173   5.7343   5.7723   5.7728   5.7734   5.8019   5.8029
     5.8100   5.8578   5.8752   5.8761   5.8785   5.9147   5.9577   5.9593
     6.0343   6.0349   6.0355   6.0594   6.0791   6.0800   6.1732   6.2068
     6.2135   6.2144   6.2659   6.2673   6.2695   6.2774   6.2853   6.3477
     6.3498   6.3655   6.3716   6.4144   6.4245   6.4253   6.4277   6.4717
     6.4983   6.4990   6.5459   6.5593   6.5953   6.5963   6.6670   6.6678
     6.6776   6.7202   6.7359   6.7370   6.7478   6.8128   6.8136   6.8451
     6.8690   6.9283   6.9369   7.0527

          k = 0.3333 0.5774 0.0000 (115752 PWs)   bands (ev):

   -28.2766 -28.2757 -28.2757 -28.2756 -28.2756 -28.2755 -28.2755 -28.2753
   -28.2753 -28.2751 -28.2750 -28.2735 -14.9241 -14.9231 -14.9229 -14.9227
   -14.9226 -14.9226 -14.9225 -14.9225 -14.9225 -14.9220 -14.9215 -14.9212
   -14.9180 -14.9175 -14.9170 -14.9168 -14.9168 -14.9167 -14.9167 -14.9166
   -14.9165 -14.9161 -14.9157 -14.9151 -14.9060 -14.9053 -14.9049 -14.9048
   -14.9047 -14.9047 -14.9046 -14.9046 -14.9046 -14.9041 -14.9035 -14.9032
   -14.8659 -14.8650 -14.8647 -14.8646 -14.8645 -14.8645 -14.8644 -14.8644
   -14.8644 -14.8639 -14.8633 -14.8630 -14.8205 -14.8201 -14.8195 -14.8194
   -14.8193 -14.8193 -14.8193 -14.8192 -14.8191 -14.8187 -14.8182 -14.8177
   -10.3388 -10.3360 -10.3357 -10.3355 -10.3352 -10.3351 -10.3350 -10.3349
   -10.3340 -10.3306 -10.3303 -10.3297 -10.3073 -10.3053 -10.3048 -10.3045
   -10.3023 -10.3022 -10.3018 -10.3002 -10.2997 -10.2902 -10.2899 -10.2894
   -10.2697 -10.2674 -10.2672 -10.2669 -10.2661 -10.2657 -10.2644 -10.2641
   -10.2635 -10.2592 -10.2588 -10.2582  -6.6517  -6.6503  -6.6485  -6.4009
    -6.3997  -6.3990  -6.3985  -6.3981  -6.3957  -6.2927  -6.2915  -6.1928
    -5.8655  -5.8520  -5.8508  -5.7501  -5.7490  -5.7474  -5.7330  -5.7320
    -5.7298  -5.7087  -5.7071  -5.6954  -5.6945  -5.6931  -5.6856  -5.6847
    -5.6812  -5.6446  -5.5429  -5.5409  -5.5402  -5.5307  -5.5291  -5.5287
    -5.5117  -5.4731  -5.4722  -5.4707  -5.4669  -5.4668  -5.4628  -5.3972
    -5.3947  -5.3026  -5.3017  -5.2979  -0.5446  -0.5158  -0.5144  -0.5130
    -0.3967  -0.3963  -0.3911  -0.3901  -0.3887  -0.3102  -0.3101  -0.3087
     1.4829   1.4844   1.4858   1.6739   1.6752   1.6766   1.6851   1.6863
     1.6874   1.7337   1.7355   1.8000   2.0788   2.0813   2.0820   2.0827
     2.0840   2.1433   2.1443   2.1458   2.2551   2.3954   2.3974   2.3988
     2.4938   2.4944   2.4966   2.5624   2.5637   2.5651   2.5971   2.5974
     2.7731   2.7741   2.7766   2.8364   2.8377   2.8435   2.8442   2.8455
     2.8497   2.8513   2.8524   2.8535   2.8681   3.0082   3.0095   3.0110
     3.0251   3.0256   3.0282   3.0622   3.1334   3.1336   3.1358   3.1943
     3.1970   3.1987   3.2574   3.2595   3.2608   3.2700   3.2717   3.3607
     3.3700   3.3708   3.3722   3.3746   3.4240   3.4256   3.4273   3.4866
     3.4886   3.5019   3.5029   3.5070   3.5297   3.5300   3.5332   3.5473
     3.5488   3.5789   3.5798   3.5811   3.6496   3.6511   3.6522   3.7187
     3.7209   3.7217   3.7276   3.7285   3.7562   3.8005   3.8020   3.8029
     3.9577   3.9595   3.9610   3.9857   3.9871   4.0286   4.0300   4.0316
     4.0830   4.0848   4.0859   4.1395   4.1479   4.1507   4.1519   4.2834
     4.2856   4.2942   4.3186   4.3193   4.3199   4.3204   4.3214   4.3228
     4.3850   4.3865   4.3883   4.4962   4.5141   4.5157   4.5200   4.5209
     4.5236   4.6535   4.6549   4.6573   5.1377   5.1432   5.1441   5.1444
     5.1727   5.1739   5.1873   5.1882   5.1886   5.1956   5.1968   5.1973
     5.2467   5.2472   5.2476   5.2657   5.2660   5.2665   5.2978   5.2983
     5.2992   5.3007   5.3025   5.3027   5.3141   5.3183   5.3192   5.3198
     5.3397   5.3403   5.3406   5.4022   5.4030   5.4033   5.4079   5.4083
     5.4548   5.4555   5.4559   5.4580   5.4835   5.4838   5.4844   5.4882
     5.4890   5.5349   5.5354   5.5361   5.5642   5.5645   5.5647   5.5705
     5.5707   5.5716   5.6410   5.6725   5.6730   5.6945   5.6949   5.6958
     5.7069   5.7073   5.7076   5.7798   5.7809   5.7812   5.7988   5.7992
     5.8003   5.8241   5.8244   5.8442   5.9308   5.9313   5.9319   6.0455
     6.0470   6.0476   6.0484   6.0493   6.1376   6.1388   6.1395   6.1581
     6.2186   6.2193   6.2201   6.2598   6.2606   6.2608   6.2838   6.2849
     6.3749   6.4085   6.4109   6.4114   6.4168   6.4178   6.4230   6.4518
     6.4526   6.4530   6.6148   6.6154   6.6158   6.6756   6.6768   6.6776
     6.7257   6.7407   6.7416   6.8064   6.8067   6.8074   6.8099   6.8105
     6.8112   6.9391   6.9394   6.9402

          k = 0.3333 0.5774 0.2714 (115827 PWs)   bands (ev):

   -28.2766 -28.2757 -28.2757 -28.2756 -28.2756 -28.2755 -28.2755 -28.2753
   -28.2753 -28.2751 -28.2750 -28.2735 -14.9241 -14.9231 -14.9229 -14.9227
   -14.9226 -14.9226 -14.9225 -14.9225 -14.9225 -14.9220 -14.9215 -14.9212
   -14.9180 -14.9175 -14.9170 -14.9169 -14.9168 -14.9167 -14.9167 -14.9166
   -14.9165 -14.9161 -14.9157 -14.9151 -14.9060 -14.9053 -14.9049 -14.9048
   -14.9047 -14.9047 -14.9046 -14.9046 -14.9046 -14.9041 -14.9035 -14.9032
   -14.8659 -14.8650 -14.8647 -14.8646 -14.8645 -14.8645 -14.8644 -14.8644
   -14.8644 -14.8639 -14.8633 -14.8630 -14.8205 -14.8201 -14.8195 -14.8194
   -14.8193 -14.8193 -14.8193 -14.8192 -14.8191 -14.8187 -14.8182 -14.8177
   -10.3390 -10.3381 -10.3371 -10.3368 -10.3364 -10.3337 -10.3333 -10.3331
   -10.3326 -10.3307 -10.3304 -10.3297 -10.3081 -10.3077 -10.3073 -10.3049
   -10.3013 -10.3008 -10.2977 -10.2974 -10.2970 -10.2920 -10.2918 -10.2912
   -10.2697 -10.2688 -10.2668 -10.2666 -10.2663 -10.2641 -10.2640 -10.2638
   -10.2628 -10.2600 -10.2596 -10.2590  -6.6195  -6.6181  -6.6165  -6.5261
    -6.5247  -6.5229  -6.3081  -6.2906  -6.2892  -6.2878  -6.2571  -6.2146
    -5.8755  -5.8579  -5.8455  -5.7805  -5.7793  -5.7773  -5.7432  -5.7422
    -5.7400  -5.7151  -5.6893  -5.6879  -5.6866  -5.6735  -5.6726  -5.6719
    -5.6690  -5.6422  -5.5582  -5.5562  -5.5553  -5.5260  -5.5246  -5.5234
    -5.5058  -5.5041  -5.5031  -5.5021  -5.4574  -5.3991  -5.3978  -5.3946
    -5.3574  -5.3229  -5.3226  -5.3192  -0.5208  -0.5066  -0.5056  -0.5043
    -0.4611  -0.4179  -0.4173  -0.4154  -0.3552  -0.2939  -0.2927  -0.2911
     1.4810   1.4825   1.4838   1.6370   1.6386   1.6402   1.6907   1.7749
     1.7756   1.7765   1.7777   1.7944   1.9796   1.9815   1.9819   2.0545
     2.1707   2.1920   2.1927   2.1940   2.2469   2.3969   2.3977   2.3992
     2.4880   2.4891   2.4904   2.5572   2.5870   2.5883   2.5890   2.5928
     2.6779   2.7361   2.7368   2.7388   2.8215   2.8228   2.8244   2.8277
     2.9010   2.9020   2.9033   2.9240   2.9367   2.9547   2.9555   2.9570
     3.0582   3.0599   3.0608   3.0871   3.0883   3.0919   3.1277   3.1809
     3.2428   3.2442   3.2460   3.2691   3.2711   3.2716   3.3207   3.3264
     3.3279   3.3298   3.3741   3.4070   3.4202   3.4648   3.4657   3.4684
     3.4924   3.4981   3.4997   3.5032   3.5365   3.5376   3.5384   3.5417
     3.5618   3.6146   3.6168   3.6169   3.6540   3.6554   3.6561   3.6973
     3.6982   3.6996   3.7197   3.7436   3.8208   3.8404   3.8413   3.8423
     3.9375   3.9391   3.9411   3.9416   4.0275   4.0303   4.0310   4.0397
     4.0662   4.0681   4.0690   4.1078   4.1122   4.1139   4.1146   4.1684
     4.2724   4.2735   4.2747   4.2893   4.3142   4.3602   4.3620   4.3625
     4.4160   4.4170   4.4185   4.4923   4.4933   4.4960   4.5077   4.5124
     4.5640   4.6659   4.6675   4.6698   5.1492   5.1562   5.1572   5.1575
     5.1581   5.1818   5.1829   5.1832   5.1976   5.1981   5.1986   5.2110
     5.2247   5.2252   5.2255   5.2514   5.2524   5.2528   5.2561   5.2686
     5.3010   5.3018   5.3027   5.3094   5.3287   5.3292   5.3294   5.3673
     5.3682   5.3687   5.3745   5.3939   5.3951   5.4088   5.4093   5.4098
     5.4325   5.4330   5.4336   5.4388   5.4842   5.4847   5.4850   5.4910
     5.5391   5.5395   5.5403   5.5436   5.5657   5.5667   5.5670   5.6057
     5.6060   5.6063   5.6384   5.6388   5.6723   5.6728   5.6729   5.7031
     5.7035   5.7043   5.7174   5.7593   5.7595   5.7599   5.8020   5.8074
     5.8209   5.8234   5.8239   5.8248   5.8902   5.8910   5.8916   6.0570
     6.0596   6.0607   6.0613   6.0772   6.1198   6.1208   6.1218   6.1346
     6.1961   6.2374   6.2385   6.2393   6.2841   6.3017   6.3026   6.3034
     6.3065   6.3843   6.3859   6.3869   6.4500   6.4666   6.4681   6.4686
     6.4920   6.4934   6.5584   6.5595   6.5603   6.6459   6.6851   6.6860
     6.6862   6.7608   6.7781   6.7786   6.7794   6.7933   6.8546   6.8550
     6.8556   6.9358   6.9363   6.9371

          k =-0.3333 0.1925 0.0000 (115797 PWs)   bands (ev):

   -28.2766 -28.2757 -28.2757 -28.2756 -28.2756 -28.2755 -28.2755 -28.2753
   -28.2753 -28.2751 -28.2750 -28.2735 -14.9241 -14.9231 -14.9229 -14.9227
   -14.9227 -14.9226 -14.9225 -14.9225 -14.9224 -14.9220 -14.9215 -14.9212
   -14.9180 -14.9175 -14.9170 -14.9169 -14.9168 -14.9168 -14.9167 -14.9166
   -14.9165 -14.9161 -14.9157 -14.9151 -14.9060 -14.9053 -14.9049 -14.9048
   -14.9047 -14.9047 -14.9046 -14.9046 -14.9046 -14.9041 -14.9035 -14.9032
   -14.8659 -14.8650 -14.8647 -14.8646 -14.8645 -14.8645 -14.8644 -14.8644
   -14.8644 -14.8639 -14.8633 -14.8630 -14.8205 -14.8201 -14.8195 -14.8194
   -14.8193 -14.8193 -14.8193 -14.8192 -14.8191 -14.8187 -14.8182 -14.8177
   -10.3382 -10.3379 -10.3368 -10.3365 -10.3362 -10.3355 -10.3344 -10.3341
   -10.3326 -10.3322 -10.3316 -10.3265 -10.3074 -10.3072 -10.3062 -10.3044
   -10.3029 -10.3020 -10.3017 -10.3014 -10.2946 -10.2942 -10.2907 -10.2852
   -10.2698 -10.2694 -10.2688 -10.2669 -10.2664 -10.2639 -10.2629 -10.2624
   -10.2616 -10.2605 -10.2600 -10.2562  -6.7878  -6.5896  -6.4997  -6.4978
    -6.4388  -6.4372  -6.3657  -6.3487  -6.2856  -6.2840  -6.2490  -6.2469
    -5.9128  -5.9097  -5.8201  -5.8194  -5.8181  -5.7772  -5.7683  -5.7663
    -5.7317  -5.7241  -5.7223  -5.6905  -5.6896  -5.6473  -5.6386  -5.6375
    -5.6290  -5.5953  -5.5852  -5.5832  -5.5692  -5.5281  -5.5195  -5.5184
    -5.5148  -5.5049  -5.4630  -5.4508  -5.4376  -5.4333  -5.4218  -5.4157
    -5.3486  -5.3472  -5.3115  -5.2694  -0.5725  -0.5702  -0.5619  -0.4354
    -0.4050  -0.4029  -0.3773  -0.3385  -0.3379  -0.3367  -0.3127  -0.3029
     1.4193   1.4868   1.4879   1.5009   1.6395   1.6505   1.6882   1.7231
     1.7244   1.8277   1.8759   1.8785   1.9542   1.9549   1.9584   2.0280
     2.1151   2.2067   2.2298   2.2315   2.3396   2.3637   2.3857   2.3866
     2.3934   2.4098   2.4501   2.5368   2.5381   2.6125   2.6134   2.6172
     2.6582   2.7343   2.8126   2.8138   2.8206   2.8400   2.8417   2.8441
     2.8542   2.8841   2.9076   2.9098   2.9150   2.9615   2.9632   3.0030
     3.0500   3.0556   3.0578   3.1236   3.1477   3.1744   3.2037   3.2099
     3.2123   3.2335   3.2606   3.2614   3.2687   3.3232   3.3307   3.3319
     3.3382   3.3722   3.3935   3.3987   3.4339   3.4406   3.4421   3.4515
     3.4971   3.4983   3.5013   3.5101   3.5114   3.5160   3.5227   3.5473
     3.5621   3.6038   3.6056   3.6108   3.6342   3.6464   3.6795   3.6799
     3.6943   3.7021   3.7032   3.7088   3.7781   3.7798   3.8494   3.8594
     3.8958   3.9719   3.9745   3.9781   3.9807   4.0296   4.0380   4.0399
     4.0919   4.1109   4.1198   4.1218   4.1247   4.1593   4.1662   4.1765
     4.2473   4.2668   4.2675   4.2820   4.3031   4.3219   4.3246   4.3679
     4.3787   4.4164   4.4171   4.4833   4.5189   4.5273   4.5279   4.5313
     4.5902   4.5931   4.6263   4.7486   5.1433   5.1446   5.1465   5.1543
     5.1601   5.1605   5.1695   5.1745   5.2147   5.2189   5.2194   5.2217
     5.2276   5.2375   5.2486   5.2490   5.2499   5.2607   5.2675   5.2717
     5.2725   5.2893   5.3041   5.3045   5.3139   5.3191   5.3266   5.3276
     5.3364   5.3498   5.3519   5.3532   5.3570   5.3654   5.4132   5.4142
     5.4336   5.4510   5.4603   5.4616   5.4857   5.4933   5.4999   5.5009
     5.5028   5.5122   5.5276   5.5433   5.5563   5.5568   5.5612   5.6032
     5.6037   5.6302   5.6312   5.6321   5.6679   5.6787   5.6953   5.6966
     5.6969   5.7172   5.7298   5.7558   5.7751   5.7760   5.8090   5.8192
     5.8196   5.8633   5.8761   5.8763   5.9510   5.9516   5.9643   5.9652
     5.9903   6.0062   6.0076   6.0210   6.1385   6.1402   6.1451   6.1593
     6.2257   6.2290   6.2311   6.2519   6.2708   6.2892   6.2903   6.2992
     6.3613   6.3626   6.3768   6.3890   6.3910   6.4412   6.4860   6.4873
     6.5247   6.5386   6.5392   6.5755   6.6049   6.6509   6.6835   6.6926
     6.6938   6.7292   6.7374   6.7384   6.7627   6.7780   6.7927   6.8117
     6.8129   6.9041   6.9093   7.0806

          k = 0.3333 0.1925 0.0000 (115797 PWs)   bands (ev):

   -28.2766 -28.2757 -28.2757 -28.2756 -28.2756 -28.2755 -28.2755 -28.2753
   -28.2753 -28.2751 -28.2750 -28.2735 -14.9241 -14.9231 -14.9229 -14.9228
   -14.9226 -14.9226 -14.9225 -14.9225 -14.9224 -14.9220 -14.9215 -14.9212
   -14.9180 -14.9175 -14.9170 -14.9169 -14.9168 -14.9167 -14.9166 -14.9166
   -14.9165 -14.9162 -14.9157 -14.9151 -14.9060 -14.9053 -14.9049 -14.9048
   -14.9047 -14.9047 -14.9046 -14.9046 -14.9046 -14.9041 -14.9035 -14.9032
   -14.8659 -14.8650 -14.8647 -14.8646 -14.8645 -14.8645 -14.8644 -14.8644
   -14.8644 -14.8639 -14.8633 -14.8630 -14.8205 -14.8201 -14.8195 -14.8194
   -14.8193 -14.8193 -14.8193 -14.8192 -14.8191 -14.8187 -14.8182 -14.8177
   -10.3383 -10.3379 -10.3366 -10.3363 -10.3360 -10.3355 -10.3346 -10.3343
   -10.3328 -10.3322 -10.3317 -10.3265 -10.3073 -10.3072 -10.3064 -10.3042
   -10.3032 -10.3018 -10.3017 -10.3013 -10.2948 -10.2946 -10.2904 -10.2851
   -10.2696 -10.2693 -10.2691 -10.2667 -10.2664 -10.2635 -10.2631 -10.2627
   -10.2625 -10.2601 -10.2596 -10.2561  -6.7878  -6.5898  -6.4993  -6.4981
    -6.4386  -6.4371  -6.3656  -6.3489  -6.2858  -6.2831  -6.2487  -6.2473
    -5.9131  -5.9109  -5.8198  -5.8193  -5.8180  -5.7779  -5.7684  -5.7678
    -5.7320  -5.7241  -5.7210  -5.6910  -5.6886  -5.6457  -5.6390  -5.6374
    -5.6288  -5.5936  -5.5851  -5.5831  -5.5693  -5.5286  -5.5200  -5.5180
    -5.5167  -5.5046  -5.4633  -5.4517  -5.4370  -5.4330  -5.4222  -5.4154
    -5.3490  -5.3450  -5.3126  -5.2697  -0.5724  -0.5698  -0.5623  -0.4357
    -0.4050  -0.4028  -0.3772  -0.3395  -0.3372  -0.3367  -0.3126  -0.3028
     1.4176   1.4876   1.4892   1.4997   1.6393   1.6505   1.6895   1.7237
     1.7256   1.8291   1.8759   1.8774   1.9536   1.9552   1.9560   2.0268
     2.1155   2.2071   2.2294   2.2304   2.3390   2.3640   2.3857   2.3874
     2.3942   2.4082   2.4493   2.5386   2.5389   2.6126   2.6136   2.6170
     2.6574   2.7358   2.8125   2.8139   2.8216   2.8411   2.8413   2.8442
     2.8536   2.8840   2.9083   2.9091   2.9148   2.9605   2.9630   3.0034
     3.0498   3.0564   3.0574   3.1250   3.1482   3.1758   3.2020   3.2105
     3.2128   3.2351   3.2596   3.2611   3.2682   3.3232   3.3294   3.3312
     3.3401   3.3725   3.3930   3.3950   3.4340   3.4396   3.4413   3.4494
     3.4969   3.4996   3.5008   3.5107   3.5134   3.5163   3.5244   3.5429
     3.5614   3.6050   3.6060   3.6112   3.6344   3.6468   3.6799   3.6803
     3.6931   3.7021   3.7041   3.7087   3.7785   3.7804   3.8486   3.8587
     3.8969   3.9717   3.9750   3.9785   3.9814   4.0307   4.0367   4.0391
     4.0928   4.1118   4.1198   4.1207   4.1239   4.1615   4.1628   4.1762
     4.2477   4.2671   4.2698   4.2825   4.3027   4.3219   4.3223   4.3697
     4.3780   4.4168   4.4180   4.4843   4.5178   4.5265   4.5281   4.5291
     4.5902   4.5907   4.6284   4.7496   5.1428   5.1440   5.1471   5.1548
     5.1599   5.1605   5.1692   5.1740   5.2145   5.2194   5.2199   5.2215
     5.2278   5.2374   5.2484   5.2490   5.2505   5.2610   5.2676   5.2717
     5.2720   5.2891   5.3041   5.3050   5.3135   5.3183   5.3272   5.3277
     5.3363   5.3493   5.3524   5.3529   5.3575   5.3657   5.4134   5.4146
     5.4333   5.4511   5.4605   5.4615   5.4856   5.4926   5.4994   5.5005
     5.5025   5.5126   5.5281   5.5433   5.5569   5.5576   5.5608   5.6035
     5.6038   5.6300   5.6315   5.6319   5.6680   5.6782   5.6948   5.6962
     5.6967   5.7177   5.7295   5.7563   5.7750   5.7757   5.8087   5.8193
     5.8200   5.8633   5.8758   5.8762   5.9506   5.9519   5.9651   5.9656
     5.9901   6.0065   6.0080   6.0208   6.1381   6.1393   6.1454   6.1599
     6.2255   6.2296   6.2305   6.2514   6.2712   6.2894   6.2900   6.2989
     6.3608   6.3624   6.3764   6.3899   6.3906   6.4415   6.4860   6.4871
     6.5243   6.5379   6.5391   6.5758   6.6048   6.6515   6.6841   6.6923
     6.6934   6.7298   6.7377   6.7382   6.7630   6.7778   6.7922   6.8120
     6.8134   6.9040   6.9094   7.0807

          k = 0.0000-0.3849 0.2714 (115773 PWs)   bands (ev):

   -28.2766 -28.2757 -28.2757 -28.2756 -28.2756 -28.2755 -28.2755 -28.2753
   -28.2753 -28.2751 -28.2750 -28.2735 -14.9241 -14.9231 -14.9229 -14.9227
   -14.9226 -14.9226 -14.9225 -14.9225 -14.9224 -14.9220 -14.9215 -14.9212
   -14.9180 -14.9175 -14.9170 -14.9169 -14.9168 -14.9167 -14.9166 -14.9166
   -14.9165 -14.9161 -14.9157 -14.9151 -14.9060 -14.9053 -14.9049 -14.9048
   -14.9047 -14.9047 -14.9046 -14.9046 -14.9046 -14.9041 -14.9035 -14.9032
   -14.8659 -14.8650 -14.8647 -14.8646 -14.8645 -14.8645 -14.8644 -14.8644
   -14.8644 -14.8639 -14.8633 -14.8630 -14.8205 -14.8201 -14.8195 -14.8194
   -14.8193 -14.8193 -14.8193 -14.8192 -14.8191 -14.8187 -14.8182 -14.8177
   -10.3390 -10.3389 -10.3377 -10.3371 -10.3365 -10.3346 -10.3341 -10.3332
   -10.3329 -10.3315 -10.3297 -10.3275 -10.3102 -10.3080 -10.3055 -10.3050
   -10.3031 -10.3027 -10.2977 -10.2956 -10.2953 -10.2947 -10.2930 -10.2870
   -10.2695 -10.2689 -10.2686 -10.2676 -10.2669 -10.2631 -10.2621 -10.2620
   -10.2618 -10.2611 -10.2601 -10.2573  -6.7510  -6.6465  -6.5613  -6.4686
    -6.4203  -6.4171  -6.3637  -6.3407  -6.3399  -6.2653  -6.2113  -6.2100
    -5.9137  -5.9130  -5.8243  -5.8226  -5.8183  -5.8172  -5.7655  -5.7636
    -5.7535  -5.7337  -5.6836  -5.6823  -5.6799  -5.6632  -5.6431  -5.6417
    -5.6370  -5.6080  -5.5862  -5.5848  -5.5724  -5.5308  -5.5276  -5.5265
    -5.5160  -5.4854  -5.4661  -5.4400  -5.4380  -5.4369  -5.3983  -5.3693
    -5.3446  -5.3402  -5.3314  -5.2958  -0.5628  -0.5620  -0.5516  -0.4337
    -0.4292  -0.4281  -0.4112  -0.3608  -0.3226  -0.3214  -0.2903  -0.2833
     1.4054   1.4932   1.4958   1.5156   1.6122   1.7109   1.7121   1.7229
     1.7351   1.7725   1.8452   1.8475   1.9655   1.9853   2.0213   2.0220
     2.1294   2.1991   2.2085   2.2099   2.2858   2.3341   2.3963   2.4260
     2.4265   2.5181   2.5277   2.5308   2.5575   2.5577   2.5583   2.5630
     2.5989   2.6784   2.7635   2.7647   2.8226   2.8245   2.8258   2.8288
     2.8503   2.8539   2.8950   2.8959   2.9056   3.0088   3.0174   3.0188
     3.0766   3.0783   3.1179   3.1194   3.1330   3.1807   3.1815   3.1880
     3.2120   3.2448   3.2661   3.2841   3.2852   3.2963   3.3294   3.3310
     3.3754   3.3776   3.3790   3.3795   3.4469   3.4490   3.4520   3.4768
     3.4796   3.4825   3.5071   3.5195   3.5336   3.5355   3.5374   3.5587
     3.5861   3.5873   3.6110   3.6315   3.6403   3.6431   3.6823   3.6852
     3.6866   3.6964   3.7033   3.7048   3.8343   3.8365   3.8790   3.8810
     3.9410   3.9453   3.9459   3.9479   3.9710   4.0313   4.0534   4.0567
     4.0591   4.0615   4.0996   4.1001   4.1217   4.1225   4.1299   4.1328
     4.2227   4.2400   4.2672   4.2687   4.2895   4.2920   4.3137   4.3674
     4.3927   4.4341   4.4357   4.4810   4.5210   4.5443   4.5464   4.5861
     4.5962   4.5982   4.6309   4.7301   5.1476   5.1482   5.1524   5.1641
     5.1684   5.1689   5.1693   5.1725   5.1996   5.2042   5.2128   5.2182
     5.2189   5.2290   5.2410   5.2414   5.2602   5.2636   5.2642   5.2650
     5.2655   5.2731   5.3099   5.3109   5.3181   5.3340   5.3457   5.3469
     5.3596   5.3627   5.3634   5.3677   5.3691   5.3804   5.3882   5.3890
     5.4101   5.4332   5.4476   5.4513   5.4521   5.4690   5.4971   5.4978
     5.5169   5.5243   5.5560   5.5572   5.5684   5.5689   5.6023   5.6025
     5.6074   5.6200   5.6314   5.6500   5.6506   5.6607   5.6747   5.7090
     5.7093   5.7395   5.7603   5.7604   5.7703   5.7847   5.8047   5.8056
     5.8144   5.8397   5.8668   5.8680   5.8751   5.8948   5.9680   5.9694
     6.0189   6.0249   6.0263   6.1018   6.1027   6.1120   6.1592   6.1873
     6.2027   6.2039   6.2044   6.2620   6.2637   6.2870   6.3189   6.3416
     6.3552   6.3691   6.3700   6.4132   6.4189   6.4204   6.4529   6.4816
     6.4826   6.5063   6.5570   6.5672   6.6067   6.6077   6.6480   6.6664
     6.6677   6.7373   6.7382   6.7399   6.7490   6.8038   6.8049   6.8513
     6.8667   6.9183   6.9461   7.0388

          k =-0.3333 0.1925 0.2714 (115773 PWs)   bands (ev):

   -28.2766 -28.2757 -28.2757 -28.2756 -28.2756 -28.2755 -28.2755 -28.2753
   -28.2753 -28.2751 -28.2750 -28.2735 -14.9241 -14.9231 -14.9229 -14.9227
   -14.9227 -14.9226 -14.9225 -14.9225 -14.9224 -14.9220 -14.9215 -14.9212
   -14.9180 -14.9175 -14.9170 -14.9169 -14.9168 -14.9168 -14.9167 -14.9166
   -14.9165 -14.9161 -14.9157 -14.9151 -14.9060 -14.9053 -14.9049 -14.9048
   -14.9047 -14.9047 -14.9046 -14.9046 -14.9046 -14.9041 -14.9035 -14.9032
   -14.8659 -14.8650 -14.8647 -14.8646 -14.8645 -14.8645 -14.8644 -14.8644
   -14.8644 -14.8639 -14.8633 -14.8630 -14.8205 -14.8201 -14.8195 -14.8194
   -14.8193 -14.8193 -14.8193 -14.8192 -14.8191 -14.8187 -14.8182 -14.8177
   -10.3391 -10.3388 -10.3377 -10.3371 -10.3368 -10.3346 -10.3342 -10.3332
   -10.3328 -10.3314 -10.3296 -10.3275 -10.3102 -10.3080 -10.3055 -10.3051
   -10.3031 -10.3028 -10.2976 -10.2956 -10.2953 -10.2944 -10.2931 -10.2871
   -10.2695 -10.2689 -10.2685 -10.2675 -10.2670 -10.2631 -10.2624 -10.2620
   -10.2614 -10.2608 -10.2602 -10.2575  -6.7509  -6.6465  -6.5611  -6.4686
    -6.4195  -6.4186  -6.3638  -6.3417  -6.3386  -6.2656  -6.2112  -6.2096
    -5.9153  -5.9124  -5.8241  -5.8218  -5.8187  -5.8172  -5.7657  -5.7635
    -5.7530  -5.7332  -5.6834  -5.6825  -5.6810  -5.6631  -5.6423  -5.6406
    -5.6376  -5.6075  -5.5863  -5.5853  -5.5737  -5.5305  -5.5282  -5.5257
    -5.5168  -5.4862  -5.4651  -5.4406  -5.4381  -5.4343  -5.3991  -5.3703
    -5.3445  -5.3432  -5.3291  -5.2950  -0.5635  -0.5614  -0.5516  -0.4332
    -0.4295  -0.4282  -0.4112  -0.3609  -0.3224  -0.3216  -0.2904  -0.2830
     1.4054   1.4937   1.4946   1.5152   1.6113   1.7108   1.7127   1.7218
     1.7368   1.7731   1.8443   1.8467   1.9657   1.9854   2.0206   2.0251
     2.1293   2.1991   2.2086   2.2098   2.2855   2.3348   2.3978   2.4266
     2.4277   2.5180   2.5291   2.5299   2.5571   2.5579   2.5584   2.5605
     2.5999   2.6772   2.7626   2.7648   2.8238   2.8245   2.8254   2.8288
     2.8495   2.8534   2.8952   2.8964   2.9045   3.0075   3.0177   3.0193
     3.0764   3.0777   3.1173   3.1188   3.1328   3.1794   3.1814   3.1874
     3.2129   3.2454   3.2655   3.2854   3.2859   3.2953   3.3301   3.3321
     3.3749   3.3766   3.3779   3.3834   3.4468   3.4476   3.4530   3.4768
     3.4794   3.4803   3.5059   3.5220   3.5338   3.5352   3.5401   3.5586
     3.5858   3.5864   3.6102   3.6316   3.6399   3.6446   3.6828   3.6836
     3.6869   3.6960   3.7038   3.7044   3.8354   3.8369   3.8777   3.8807
     3.9412   3.9433   3.9457   3.9487   3.9715   4.0316   4.0529   4.0551
     4.0599   4.0609   4.0988   4.1028   4.1199   4.1256   4.1288   4.1329
     4.2233   4.2399   4.2685   4.2700   4.2905   4.2919   4.3137   4.3671
     4.3915   4.4335   4.4352   4.4811   4.5224   4.5441   4.5453   4.5862
     4.5955   4.5982   4.6311   4.7297   5.1474   5.1486   5.1533   5.1641
     5.1683   5.1686   5.1693   5.1725   5.1995   5.2044   5.2124   5.2176
     5.2187   5.2294   5.2408   5.2414   5.2606   5.2637   5.2647   5.2649
     5.2661   5.2735   5.3097   5.3108   5.3183   5.3337   5.3461   5.3469
     5.3599   5.3628   5.3631   5.3680   5.3694   5.3805   5.3883   5.3891
     5.4098   5.4331   5.4474   5.4509   5.4517   5.4690   5.4964   5.4975
     5.5166   5.5240   5.5562   5.5575   5.5688   5.5692   5.6020   5.6025
     5.6071   5.6202   5.6309   5.6494   5.6504   5.6613   5.6744   5.7089
     5.7097   5.7388   5.7602   5.7608   5.7704   5.7843   5.8049   5.8059
     5.8142   5.8393   5.8675   5.8677   5.8752   5.8959   5.9685   5.9697
     6.0186   6.0248   6.0262   6.1012   6.1018   6.1120   6.1601   6.1870
     6.2026   6.2039   6.2044   6.2617   6.2640   6.2870   6.3185   6.3418
     6.3553   6.3695   6.3702   6.4130   6.4196   6.4203   6.4525   6.4818
     6.4823   6.5070   6.5577   6.5662   6.6074   6.6081   6.6474   6.6671
     6.6676   6.7371   6.7389   6.7399   6.7482   6.8039   6.8055   6.8514
     6.8659   6.9183   6.9453   7.0386

          k = 0.3333 0.1925 0.2714 (115773 PWs)   bands (ev):

   -28.2766 -28.2757 -28.2757 -28.2756 -28.2756 -28.2755 -28.2755 -28.2753
   -28.2753 -28.2751 -28.2750 -28.2735 -14.9241 -14.9231 -14.9229 -14.9228
   -14.9226 -14.9226 -14.9225 -14.9225 -14.9224 -14.9220 -14.9215 -14.9212
   -14.9180 -14.9175 -14.9170 -14.9169 -14.9168 -14.9167 -14.9166 -14.9166
   -14.9165 -14.9162 -14.9157 -14.9151 -14.9060 -14.9053 -14.9049 -14.9048
   -14.9047 -14.9047 -14.9046 -14.9046 -14.9046 -14.9041 -14.9035 -14.9032
   -14.8659 -14.8650 -14.8647 -14.8646 -14.8645 -14.8645 -14.8644 -14.8644
   -14.8644 -14.8639 -14.8633 -14.8630 -14.8205 -14.8201 -14.8195 -14.8194
   -14.8193 -14.8193 -14.8193 -14.8192 -14.8191 -14.8187 -14.8182 -14.8177
   -10.3391 -10.3388 -10.3377 -10.3368 -10.3364 -10.3347 -10.3342 -10.3334
   -10.3331 -10.3313 -10.3298 -10.3274 -10.3102 -10.3082 -10.3052 -10.3050
   -10.3030 -10.3027 -10.2977 -10.2958 -10.2955 -10.2947 -10.2928 -10.2869
   -10.2692 -10.2689 -10.2687 -10.2674 -10.2672 -10.2628 -10.2626 -10.2622
   -10.2620 -10.2608 -10.2599 -10.2572  -6.7509  -6.6466  -6.5614  -6.4683
    -6.4196  -6.4181  -6.3638  -6.3413  -6.3386  -6.2659  -6.2112  -6.2095
    -5.9155  -5.9136  -5.8246  -5.8216  -5.8184  -5.8172  -5.7652  -5.7645
    -5.7537  -5.7316  -5.6838  -5.6829  -5.6796  -5.6633  -5.6426  -5.6413
    -5.6378  -5.6056  -5.5866  -5.5841  -5.5737  -5.5308  -5.5281  -5.5264
    -5.5174  -5.4869  -5.4653  -5.4404  -5.4376  -5.4336  -5.3988  -5.3707
    -5.3451  -5.3412  -5.3307  -5.2952  -0.5633  -0.5612  -0.5519  -0.4337
    -0.4299  -0.4277  -0.4111  -0.3604  -0.3234  -0.3210  -0.2903  -0.2829
     1.4039   1.4944   1.4960   1.5139   1.6122   1.7115   1.7136   1.7221
     1.7367   1.7725   1.8444   1.8456   1.9676   1.9862   2.0205   2.0216
     2.1287   2.1993   2.2083   2.2110   2.2849   2.3337   2.3968   2.4271
     2.4280   2.5176   2.5298   2.5303   2.5573   2.5578   2.5588   2.5596
     2.5995   2.6768   2.7641   2.7648   2.8241   2.8243   2.8259   2.8294
     2.8501   2.8543   2.8944   2.8962   2.9052   3.0074   3.0168   3.0189
     3.0767   3.0794   3.1175   3.1192   3.1343   3.1786   3.1817   3.1875
     3.2145   3.2447   3.2655   3.2841   3.2861   3.2965   3.3306   3.3318
     3.3749   3.3757   3.3783   3.3791   3.4451   3.4481   3.4504   3.4772
     3.4796   3.4822   3.5057   3.5189   3.5341   3.5365   3.5404   3.5578
     3.5862   3.5872   3.6110   3.6312   3.6398   3.6456   3.6820   3.6846
     3.6864   3.6954   3.7043   3.7047   3.8362   3.8377   3.8763   3.8798
     3.9416   3.9434   3.9462   3.9491   3.9729   4.0320   4.0535   4.0566
     4.0589   4.0606   4.0992   4.1005   4.1210   4.1224   4.1288   4.1329
     4.2239   4.2413   4.2687   4.2704   4.2904   4.2925   4.3130   4.3661
     4.3922   4.4345   4.4349   4.4813   4.5213   4.5437   4.5461   4.5855
     4.5947   4.5957   4.6327   4.7310   5.1469   5.1479   5.1535   5.1647
     5.1677   5.1688   5.1691   5.1725   5.1994   5.2051   5.2125   5.2184
     5.2186   5.2290   5.2409   5.2413   5.2604   5.2643   5.2650   5.2652
     5.2661   5.2731   5.3097   5.3107   5.3180   5.3333   5.3459   5.3471
     5.3594   5.3629   5.3633   5.3679   5.3694   5.3804   5.3883   5.3893
     5.4090   5.4333   5.4477   5.4514   5.4521   5.4686   5.4969   5.4975
     5.5167   5.5246   5.5558   5.5570   5.5685   5.5693   5.6021   5.6026
     5.6073   5.6202   5.6310   5.6501   5.6504   5.6608   5.6746   5.7089
     5.7092   5.7391   5.7599   5.7607   5.7707   5.7843   5.8055   5.8061
     5.8140   5.8391   5.8668   5.8681   5.8752   5.8943   5.9693   5.9700
     6.0188   6.0251   6.0259   6.1005   6.1018   6.1123   6.1600   6.1869
     6.2031   6.2037   6.2048   6.2621   6.2631   6.2877   6.3181   6.3417
     6.3541   6.3693   6.3700   6.4131   6.4197   6.4210   6.4525   6.4812
     6.4821   6.5071   6.5576   6.5666   6.6071   6.6076   6.6477   6.6669
     6.6678   6.7377   6.7385   6.7408   6.7483   6.8048   6.8049   6.8510
     6.8656   6.9185   6.9453   7.0389

          k =-0.3333-0.1925 0.2714 (115773 PWs)   bands (ev):

   -28.2766 -28.2757 -28.2757 -28.2756 -28.2756 -28.2755 -28.2755 -28.2753
   -28.2753 -28.2751 -28.2750 -28.2735 -14.9241 -14.9231 -14.9229 -14.9228
   -14.9226 -14.9226 -14.9225 -14.9225 -14.9224 -14.9220 -14.9215 -14.9212
   -14.9180 -14.9175 -14.9170 -14.9169 -14.9168 -14.9167 -14.9167 -14.9166
   -14.9165 -14.9162 -14.9157 -14.9151 -14.9060 -14.9053 -14.9049 -14.9048
   -14.9047 -14.9047 -14.9046 -14.9046 -14.9046 -14.9041 -14.9035 -14.9032
   -14.8659 -14.8650 -14.8647 -14.8646 -14.8645 -14.8645 -14.8644 -14.8644
   -14.8644 -14.8639 -14.8633 -14.8630 -14.8205 -14.8201 -14.8195 -14.8194
   -14.8193 -14.8193 -14.8193 -14.8192 -14.8191 -14.8187 -14.8182 -14.8177
   -10.3390 -10.3387 -10.3378 -10.3370 -10.3366 -10.3344 -10.3341 -10.3332
   -10.3329 -10.3318 -10.3298 -10.3273 -10.3105 -10.3067 -10.3066 -10.3059
   -10.3015 -10.3007 -10.3004 -10.2967 -10.2963 -10.2939 -10.2909 -10.2876
   -10.2697 -10.2694 -10.2685 -10.2667 -10.2664 -10.2639 -10.2628 -10.2624
   -10.2622 -10.2603 -10.2591 -10.2577  -6.7508  -6.6466  -6.5604  -6.4721
    -6.4227  -6.4215  -6.3642  -6.3293  -6.3274  -6.2590  -6.2250  -6.2232
    -5.9067  -5.9049  -5.8235  -5.8205  -5.8094  -5.8077  -5.7922  -5.7609
    -5.7590  -5.7310  -5.7114  -5.7090  -5.6717  -5.6337  -5.6287  -5.6277
    -5.6260  -5.6078  -5.6008  -5.5983  -5.5700  -5.5286  -5.5234  -5.5220
    -5.5209  -5.4963  -5.4686  -5.4338  -5.4289  -5.4256  -5.4228  -5.3628
    -5.3485  -5.3446  -5.3212  -5.2992  -0.5603  -0.5592  -0.5576  -0.4371
    -0.4349  -0.4252  -0.3938  -0.3731  -0.3201  -0.3178  -0.2992  -0.2786
     1.4325   1.4853   1.4858   1.4876   1.6244   1.6417   1.7729   1.7749
     1.7822   1.7918   1.7989   1.8000   1.9141   1.9949   1.9955   2.0771
     2.1545   2.2005   2.2108   2.2470   2.2489   2.3596   2.3929   2.3943
     2.3987   2.4484   2.5127   2.5139   2.5469   2.5898   2.5908   2.6079
     2.6419   2.7111   2.7616   2.7683   2.7688   2.7886   2.8089   2.8102
     2.8385   2.8748   2.9146   2.9156   2.9185   2.9803   3.0221   3.0252
     3.0686   3.1057   3.1074   3.1337   3.1691   3.1920   3.1932   3.1938
     3.2023   3.2314   3.2639   3.2651   3.2770   3.3176   3.3208   3.3226
     3.3242   3.3875   3.3890   3.4121   3.4439   3.4455   3.4680   3.4704
     3.4723   3.4740   3.4756   3.4782   3.5339   3.5360   3.5409   3.5908
     3.6102   3.6119   3.6139   3.6335   3.6426   3.6478   3.6586   3.6600
     3.6677   3.7094   3.7119   3.7124   3.8348   3.8373   3.8779   3.8881
     3.9052   3.9480   3.9505   3.9742   3.9826   4.0210   4.0462   4.0485
     4.0493   4.0644   4.1102   4.1111   4.1193   4.1312   4.1336   4.1466
     4.1913   4.2562   4.2665   4.2682   4.2883   4.2902   4.2938   4.3863
     4.3981   4.4376   4.4386   4.4684   4.5239   4.5258   4.5358   4.5958
     4.6093   4.6106   4.6236   4.7225   5.1500   5.1507   5.1548   5.1567
     5.1720   5.1757   5.1762   5.1831   5.1904   5.1974   5.2014   5.2073
     5.2079   5.2341   5.2349   5.2353   5.2543   5.2641   5.2654   5.2662
     5.2791   5.2982   5.3071   5.3128   5.3139   5.3281   5.3362   5.3370
     5.3580   5.3586   5.3599   5.3632   5.3797   5.3923   5.4065   5.4073
     5.4129   5.4312   5.4328   5.4446   5.4455   5.4930   5.5019   5.5025
     5.5094   5.5157   5.5534   5.5594   5.5743   5.5750   5.6020   5.6110
     5.6114   5.6186   5.6248   5.6255   5.6427   5.6697   5.6820   5.7144
     5.7147   5.7175   5.7339   5.7718   5.7728   5.7733   5.8027   5.8031
     5.8100   5.8584   5.8752   5.8762   5.8780   5.9146   5.9595   5.9600
     6.0340   6.0349   6.0354   6.0593   6.0778   6.0794   6.1734   6.2067
     6.2132   6.2136   6.2658   6.2665   6.2708   6.2770   6.2854   6.3494
     6.3503   6.3657   6.3723   6.4151   6.4240   6.4254   6.4273   6.4708
     6.4982   6.4988   6.5460   6.5593   6.5955   6.5964   6.6666   6.6672
     6.6772   6.7199   6.7364   6.7373   6.7476   6.8134   6.8146   6.8448
     6.8688   6.9282   6.9374   7.0519

          k = 0.3333-0.1925 0.2714 (115773 PWs)   bands (ev):

   -28.2766 -28.2757 -28.2757 -28.2756 -28.2756 -28.2755 -28.2755 -28.2753
   -28.2753 -28.2751 -28.2750 -28.2735 -14.9241 -14.9231 -14.9229 -14.9227
   -14.9227 -14.9226 -14.9225 -14.9225 -14.9224 -14.9220 -14.9215 -14.9212
   -14.9180 -14.9175 -14.9170 -14.9169 -14.9168 -14.9168 -14.9167 -14.9166
   -14.9165 -14.9161 -14.9157 -14.9151 -14.9060 -14.9053 -14.9049 -14.9048
   -14.9047 -14.9047 -14.9046 -14.9046 -14.9046 -14.9041 -14.9035 -14.9032
   -14.8659 -14.8650 -14.8647 -14.8646 -14.8645 -14.8645 -14.8644 -14.8644
   -14.8644 -14.8639 -14.8633 -14.8630 -14.8205 -14.8201 -14.8195 -14.8194
   -14.8193 -14.8193 -14.8193 -14.8192 -14.8191 -14.8187 -14.8182 -14.8177
   -10.3390 -10.3387 -10.3378 -10.3373 -10.3370 -10.3343 -10.3340 -10.3331
   -10.3324 -10.3322 -10.3298 -10.3273 -10.3104 -10.3069 -10.3066 -10.3059
   -10.3014 -10.3008 -10.3004 -10.2964 -10.2960 -10.2939 -10.2913 -10.2876
   -10.2699 -10.2694 -10.2679 -10.2669 -10.2665 -10.2642 -10.2627 -10.2621
   -10.2613 -10.2606 -10.2595 -10.2578  -6.7507  -6.6467  -6.5603  -6.4719
    -6.4229  -6.4217  -6.3641  -6.3299  -6.3270  -6.2590  -6.2250  -6.2233
    -5.9065  -5.9039  -5.8230  -5.8211  -5.8089  -5.8076  -5.7915  -5.7606
    -5.7587  -5.7323  -5.7109  -5.7091  -5.6715  -5.6353  -5.6295  -5.6280
    -5.6262  -5.6078  -5.6010  -5.5986  -5.5700  -5.5284  -5.5236  -5.5218
    -5.5197  -5.4963  -5.4681  -5.4336  -5.4299  -5.4261  -5.4215  -5.3632
    -5.3481  -5.3467  -5.3201  -5.2986  -0.5605  -0.5591  -0.5577  -0.4365
    -0.4354  -0.4250  -0.3940  -0.3733  -0.3192  -0.3183  -0.2992  -0.2787
     1.4339   1.4847   1.4858   1.4874   1.6253   1.6407   1.7724   1.7730
     1.7809   1.7896   1.7988   1.8019   1.9147   1.9947   1.9994   2.0770
     2.1552   2.1997   2.2103   2.2475   2.2492   2.3613   2.3925   2.3937
     2.4002   2.4484   2.5112   2.5125   2.5478   2.5899   2.5910   2.6080
     2.6422   2.7107   2.7606   2.7672   2.7692   2.7879   2.8087   2.8095
     2.8386   2.8745   2.9154   2.9165   2.9180   2.9805   3.0232   3.0247
     3.0677   3.1060   3.1078   3.1322   3.1693   3.1912   3.1930   3.1937
     3.1996   3.2303   3.2638   3.2657   3.2760   3.3181   3.3213   3.3226
     3.3252   3.3880   3.3925   3.4111   3.4447   3.4462   3.4685   3.4696
     3.4719   3.4738   3.4765   3.4826   3.5340   3.5362   3.5383   3.5913
     3.6104   3.6123   3.6129   3.6327   3.6436   3.6479   3.6583   3.6594
     3.6681   3.7099   3.7109   3.7126   3.8344   3.8362   3.8798   3.8880
     3.9039   3.9483   3.9498   3.9740   3.9820   4.0197   4.0468   4.0489
     4.0503   4.0642   4.1075   4.1130   4.1188   4.1317   4.1357   4.1468
     4.1906   4.2551   4.2666   4.2680   4.2884   4.2899   4.2946   4.3870
     4.3975   4.4369   4.4386   4.4680   4.5237   4.5256   4.5367   4.5972
     4.6102   4.6126   4.6219   4.7209   5.1506   5.1514   5.1541   5.1565
     5.1718   5.1757   5.1763   5.1834   5.1904   5.1977   5.2013   5.2072
     5.2081   5.2336   5.2347   5.2358   5.2546   5.2636   5.2653   5.2658
     5.2794   5.2984   5.3070   5.3125   5.3131   5.3283   5.3363   5.3367
     5.3579   5.3583   5.3599   5.3634   5.3806   5.3928   5.4066   5.4072
     5.4128   5.4317   5.4329   5.4443   5.4451   5.4924   5.5018   5.5023
     5.5092   5.5155   5.5533   5.5593   5.5744   5.5747   5.6027   5.6109
     5.6114   5.6191   5.6248   5.6254   5.6427   5.6703   5.6823   5.7144
     5.7150   5.7172   5.7333   5.7721   5.7730   5.7738   5.8024   5.8027
     5.8101   5.8582   5.8753   5.8759   5.8787   5.9144   5.9588   5.9598
     6.0335   6.0348   6.0361   6.0598   6.0785   6.0795   6.1729   6.2058
     6.2120   6.2145   6.2663   6.2674   6.2699   6.2773   6.2856   6.3489
     6.3502   6.3657   6.3724   6.4155   6.4247   6.4251   6.4279   6.4703
     6.4981   6.4991   6.5457   6.5587   6.5957   6.5967   6.6671   6.6678
     6.6767   6.7200   6.7360   6.7374   6.7472   6.8131   6.8144   6.8446
     6.8688   6.9285   6.9369   7.0521

          k =-0.3333-0.5774 0.2714 (115827 PWs)   bands (ev):

   -28.2766 -28.2757 -28.2757 -28.2756 -28.2756 -28.2755 -28.2755 -28.2753
   -28.2753 -28.2751 -28.2750 -28.2735 -14.9241 -14.9231 -14.9229 -14.9227
   -14.9226 -14.9226 -14.9225 -14.9225 -14.9225 -14.9220 -14.9215 -14.9212
   -14.9180 -14.9175 -14.9170 -14.9169 -14.9168 -14.9167 -14.9167 -14.9166
   -14.9165 -14.9161 -14.9157 -14.9151 -14.9060 -14.9053 -14.9049 -14.9048
   -14.9047 -14.9047 -14.9046 -14.9046 -14.9046 -14.9041 -14.9035 -14.9032
   -14.8659 -14.8650 -14.8647 -14.8646 -14.8645 -14.8645 -14.8644 -14.8644
   -14.8644 -14.8639 -14.8633 -14.8630 -14.8205 -14.8201 -14.8195 -14.8194
   -14.8193 -14.8193 -14.8193 -14.8192 -14.8191 -14.8187 -14.8182 -14.8177
   -10.3390 -10.3380 -10.3371 -10.3368 -10.3364 -10.3337 -10.3333 -10.3331
   -10.3326 -10.3308 -10.3304 -10.3297 -10.3081 -10.3077 -10.3074 -10.3049
   -10.3013 -10.3008 -10.2977 -10.2974 -10.2970 -10.2921 -10.2917 -10.2912
   -10.2697 -10.2688 -10.2669 -10.2666 -10.2662 -10.2643 -10.2640 -10.2636
   -10.2628 -10.2600 -10.2596 -10.2590  -6.6196  -6.6181  -6.6164  -6.5262
    -6.5247  -6.5229  -6.3079  -6.2906  -6.2892  -6.2878  -6.2578  -6.2140
    -5.8755  -5.8582  -5.8454  -5.7805  -5.7795  -5.7764  -5.7436  -5.7419
    -5.7403  -5.7156  -5.6891  -5.6881  -5.6861  -5.6737  -5.6720  -5.6716
    -5.6679  -5.6440  -5.5581  -5.5563  -5.5556  -5.5260  -5.5248  -5.5234
    -5.5052  -5.5032  -5.5027  -5.5015  -5.4589  -5.3991  -5.3979  -5.3950
    -5.3569  -5.3238  -5.3226  -5.3184  -0.5207  -0.5067  -0.5054  -0.5043
    -0.4612  -0.4181  -0.4170  -0.4154  -0.3551  -0.2939  -0.2927  -0.2911
     1.4811   1.4825   1.4840   1.6362   1.6385   1.6398   1.6904   1.7752
     1.7762   1.7764   1.7784   1.7941   1.9792   1.9814   1.9826   2.0549
     2.1698   2.1922   2.1931   2.1943   2.2473   2.3957   2.3975   2.3981
     2.4883   2.4894   2.4906   2.5571   2.5867   2.5881   2.5899   2.5918
     2.6796   2.7361   2.7369   2.7382   2.8219   2.8228   2.8239   2.8280
     2.9011   2.9027   2.9046   2.9243   2.9358   2.9539   2.9551   2.9563
     3.0585   3.0601   3.0634   3.0867   3.0886   3.0889   3.1268   3.1810
     3.2426   3.2454   3.2459   3.2695   3.2705   3.2722   3.3204   3.3261
     3.3278   3.3290   3.3744   3.4065   3.4220   3.4641   3.4659   3.4684
     3.4921   3.4988   3.4996   3.5036   3.5366   3.5372   3.5392   3.5405
     3.5622   3.6154   3.6166   3.6177   3.6537   3.6552   3.6559   3.6964
     3.6986   3.6987   3.7196   3.7438   3.8210   3.8394   3.8411   3.8421
     3.9367   3.9397   3.9408   3.9430   4.0288   4.0295   4.0321   4.0394
     4.0653   4.0679   4.0687   4.1074   4.1126   4.1136   4.1148   4.1685
     4.2726   4.2736   4.2748   4.2901   4.3143   4.3605   4.3613   4.3622
     4.4158   4.4169   4.4193   4.4926   4.4934   4.4951   4.5079   4.5117
     4.5642   4.6661   4.6675   4.6699   5.1487   5.1568   5.1572   5.1576
     5.1581   5.1821   5.1826   5.1835   5.1974   5.1981   5.1988   5.2101
     5.2246   5.2253   5.2256   5.2514   5.2527   5.2529   5.2567   5.2688
     5.3009   5.3019   5.3027   5.3089   5.3288   5.3293   5.3296   5.3675
     5.3681   5.3685   5.3747   5.3936   5.3952   5.4084   5.4092   5.4096
     5.4325   5.4326   5.4335   5.4386   5.4845   5.4848   5.4851   5.4911
     5.5392   5.5395   5.5399   5.5437   5.5662   5.5664   5.5668   5.6052
     5.6058   5.6065   5.6383   5.6391   5.6722   5.6726   5.6731   5.7033
     5.7039   5.7042   5.7179   5.7592   5.7599   5.7600   5.8014   5.8079
     5.8204   5.8241   5.8243   5.8249   5.8901   5.8906   5.8911   6.0569
     6.0595   6.0611   6.0616   6.0769   6.1198   6.1207   6.1211   6.1350
     6.1955   6.2379   6.2388   6.2395   6.2846   6.3012   6.3026   6.3032
     6.3065   6.3839   6.3861   6.3867   6.4504   6.4670   6.4684   6.4687
     6.4920   6.4928   6.5586   6.5599   6.5602   6.6462   6.6849   6.6856
     6.6867   6.7611   6.7781   6.7786   6.7794   6.7928   6.8542   6.8551
     6.8556   6.9359   6.9363   6.9371

     highest occupied level (ev):     7.1810

!    total energy              =   -9077.18776363 Ry
     estimated scf accuracy    <          7.4E-10 Ry

     The total energy is the sum of the following terms:
     one-electron contribution =   -2776.71690207 Ry
     hartree contribution      =    2020.11290446 Ry
     xc contribution           =   -2269.38755883 Ry
     ewald contribution        =   -3895.39972474 Ry
     one-center paw contrib.   =   -2155.79648245 Ry

     convergence has been achieved in  22 iterations

     negative rho (up, down):  7.902E-01 0.000E+00

     Forces acting on atoms (cartesian axes, Ry/au):

     atom    1 type  1   force =    -0.00017687    0.00030425   -0.00003250
     atom    2 type  1   force =    -0.00014106    0.00027629    0.00000679
     atom    3 type  1   force =    -0.00014666    0.00025198    0.00000034
     atom    4 type  1   force =    -0.00016682    0.00024563    0.00000554
     atom    5 type  1   force =    -0.00018043   -0.00007117   -0.00001609
     atom    6 type  1   force =    -0.00025650   -0.00027921    0.00000420
     atom    7 type  1   force =    -0.00005743   -0.00038585   -0.00002741
     atom    8 type  1   force =    -0.00017391   -0.00028523    0.00001168
     atom    9 type  1   force =     0.00031278   -0.00000162   -0.00000857
     atom   10 type  1   force =     0.00029776   -0.00001000   -0.00000593
     atom   11 type  1   force =     0.00031396    0.00001300   -0.00003094
     atom   12 type  1   force =     0.00030493   -0.00000127   -0.00000664
     atom   13 type  2   force =     0.00308853    0.00378539    0.00155842
     atom   14 type  2   force =     0.00020746   -0.00038113    0.00019618
     atom   15 type  2   force =     0.00020557   -0.00039508    0.00018685
     atom   16 type  2   force =     0.00019111   -0.00040763    0.00021056
     atom   17 type  2   force =     0.00024267    0.00038175    0.00017961
     atom   18 type  2   force =     0.00023277    0.00037001    0.00018643
     atom   19 type  2   force =     0.00023746    0.00035214    0.00018395
     atom   20 type  2   force =     0.00022719    0.00036035    0.00018805
     atom   21 type  2   force =    -0.00044222    0.00003481    0.00019276
     atom   22 type  2   force =    -0.00043695    0.00002185    0.00018337
     atom   23 type  2   force =    -0.00043081    0.00000733    0.00016965
     atom   24 type  2   force =    -0.00043691    0.00001641    0.00017453
     atom   25 type  2   force =    -0.00043140   -0.00002208   -0.00018709
     atom   26 type  2   force =    -0.00047813   -0.00007744   -0.00020913
     atom   27 type  2   force =    -0.00048829   -0.00006511   -0.00044906
     atom   28 type  2   force =    -0.00042430   -0.00001100   -0.00018615
     atom   29 type  2   force =     0.00033957    0.00045994   -0.00021545
     atom   30 type  2   force =     0.00020845    0.00038090   -0.00016501
     atom   31 type  2   force =     0.00020241    0.00038073   -0.00017555
     atom   32 type  2   force =     0.00020480    0.00037359   -0.00018887
     atom   33 type  2   force =     0.00023518   -0.00036477   -0.00019177
     atom   34 type  2   force =     0.00022034   -0.00036060   -0.00017508
     atom   35 type  2   force =     0.00023444   -0.00037130   -0.00019399
     atom   36 type  2   force =     0.00023592   -0.00037030   -0.00019392
     atom   37 type  3   force =     0.00017068   -0.00012677    0.00019705
     atom   38 type  3   force =     0.00023419   -0.00045855    0.00000651
     atom   39 type  3   force =     0.00028680   -0.00048723   -0.00000149
     atom   40 type  3   force =     0.00031768   -0.00052304   -0.00008828
     atom   41 type  3   force =     0.00027910    0.00045740   -0.00002136
     atom   42 type  3   force =     0.00027094    0.00047015   -0.00000423
     atom   43 type  3   force =     0.00027002    0.00048097   -0.00001264
     atom   44 type  3   force =     0.00026501    0.00047004   -0.00001334
     atom   45 type  3   force =    -0.00051520   -0.00000938    0.00003818
     atom   46 type  3   force =    -0.00061947   -0.00024428   -0.00003425
     atom   47 type  3   force =    -0.00097624   -0.00010078    0.00051263
     atom   48 type  3   force =    -0.00061242    0.00017985    0.00008774
     atom   49 type  4   force =     0.00037056   -0.00014970   -0.00004288
     atom   50 type  4   force =     0.00036521   -0.00010789    0.00002064
     atom   51 type  4   force =     0.00034890   -0.00009472    0.00001677
     atom   52 type  4   force =     0.00035205   -0.00009429    0.00002910
     atom   53 type  4   force =    -0.00011243    0.00034738    0.00004016
     atom   54 type  4   force =    -0.00007916    0.00036644    0.00002443
     atom   55 type  4   force =    -0.00009040    0.00036072    0.00002183
     atom   56 type  4   force =    -0.00008235    0.00035471    0.00002156
     atom   57 type  4   force =    -0.00175482   -0.00301499   -0.00100137
     atom   58 type  4   force =    -0.00028962   -0.00025665    0.00003849
     atom   59 type  4   force =    -0.00027513   -0.00024587    0.00000674
     atom   60 type  4   force =    -0.00025133   -0.00026498    0.00004745
     atom   61 type  4   force =    -0.00032794    0.00027401   -0.00000500
     atom   62 type  4   force =    -0.00023706    0.00031120    0.00002112
     atom   63 type  4   force =    -0.00024359    0.00023202   -0.00001657
     atom   64 type  4   force =    -0.00027166    0.00025257   -0.00003735
     atom   65 type  4   force =     0.00034422    0.00009500   -0.00000106
     atom   66 type  4   force =     0.00035223    0.00009840   -0.00001653
     atom   67 type  4   force =     0.00035089    0.00010107   -0.00000760
     atom   68 type  4   force =     0.00035326    0.00010261   -0.00001418
     atom   69 type  4   force =    -0.00008401   -0.00035991   -0.00001488
     atom   70 type  4   force =     0.00012118   -0.00108818    0.00075419
     atom   71 type  4   force =    -0.00008258   -0.00022059    0.00009731
     atom   72 type  4   force =    -0.00010431   -0.00034873   -0.00000756
     atom   73 type  4   force =     0.00052151   -0.00066212   -0.00084479
     atom   74 type  4   force =     0.00001036    0.00013790   -0.00024797
     atom   75 type  4   force =     0.00000557    0.00020355   -0.00026488
     atom   76 type  4   force =    -0.00001740    0.00012080   -0.00025147
     atom   77 type  4   force =    -0.00011341   -0.00007838   -0.00021374
     atom   78 type  4   force =    -0.00018314   -0.00006440   -0.00027446
     atom   79 type  4   force =    -0.00014223   -0.00005713   -0.00022882
     atom   80 type  4   force =    -0.00014372   -0.00004361   -0.00025197
     atom   81 type  4   force =     0.00012441   -0.00010109   -0.00025048
     atom   82 type  4   force =     0.00012595   -0.00009027   -0.00024259
     atom   83 type  4   force =     0.00012138   -0.00009009   -0.00024374
     atom   84 type  4   force =     0.00012970   -0.00009014   -0.00023813
     atom   85 type  4   force =     0.00011629    0.00009349    0.00024164
     atom   86 type  4   force =     0.00014243    0.00014371    0.00026246
     atom   87 type  4   force =     0.00012896    0.00010627    0.00030270
     atom   88 type  4   force =     0.00012820    0.00009960    0.00025580
     atom   89 type  4   force =     0.00003757   -0.00013757    0.00020258
     atom   90 type  4   force =    -0.00137956   -0.00039541   -0.00080550
     atom   91 type  4   force =     0.00001505   -0.00013025    0.00022963
     atom   92 type  4   force =     0.00001688   -0.00014142    0.00024020
     atom   93 type  4   force =    -0.00014562    0.00006287    0.00025119
     atom   94 type  4   force =    -0.00014056    0.00007373    0.00024899
     atom   95 type  4   force =    -0.00013505    0.00006273    0.00025262
     atom   96 type  4   force =    -0.00014141    0.00006367    0.00024965

     Total force =     0.007851     Total SCF correction =     0.000086
     Message from routine punch:
     Nothing written, as per user request (disk_io='none')

     init_run     :     38.54s CPU     40.89s WALL (       1 calls)
     electrons    :   2223.73s CPU   2336.28s WALL (       1 calls)
     forces       :     19.63s CPU     20.01s WALL (       1 calls)

     Called by init_run:
     wfcinit      :     34.91s CPU     37.04s WALL (       1 calls)
     potinit      :      1.10s CPU      1.14s WALL (       1 calls)
     hinit0       :      1.21s CPU      1.24s WALL (       1 calls)

     Called by electrons:
     c_bands      :   1959.10s CPU   2051.06s WALL (      22 calls)
     sum_band     :    236.84s CPU    254.58s WALL (      22 calls)
     v_of_rho     :      4.22s CPU      4.65s WALL (      23 calls)
     newd         :     17.35s CPU     19.72s WALL (      23 calls)
     PAW_pot      :      6.12s CPU      6.16s WALL (      23 calls)
     mix_rho      :      0.68s CPU      0.75s WALL (      22 calls)

     Called by c_bands:
     init_us_2    :     17.22s CPU     17.40s WALL (     322 calls)
     cegterg      :   1913.88s CPU   2005.41s WALL (     154 calls)

     Called by *egterg:
     cdiaghg      :     96.13s CPU    100.10s WALL (     966 calls)
     h_psi        :   1038.80s CPU   1115.37s WALL (     973 calls)
     s_psi        :    222.38s CPU    224.31s WALL (     973 calls)
     g_psi        :      3.12s CPU      3.15s WALL (     812 calls)

     Called by h_psi:
     h_psi:calbec :    240.69s CPU    243.62s WALL (     973 calls)
     vloc_psi     :    572.81s CPU    642.92s WALL (     973 calls)
     add_vuspsi   :    222.55s CPU    224.57s WALL (     973 calls)

     General routines
     calbec       :    333.81s CPU    337.83s WALL (    1155 calls)
     fft          :     11.51s CPU     12.08s WALL (     308 calls)
     ffts         :      0.79s CPU      0.82s WALL (      45 calls)
     fftw         :    543.71s CPU    622.35s WALL (  450804 calls)
     interpolate  :      1.00s CPU      1.05s WALL (      23 calls)

     Parallel routines

     PWSCF        :  38m 2.16s CPU  39m57.68s WALL


   This run was terminated on:   3: 7: 3  21Aug2026            

=------------------------------------------------------------------------------=
   JOB DONE.
=------------------------------------------------------------------------------=
