
     Program PWSCF v.7.3.1 starts on 21Aug2026 at  2:27: 5 

     This program is part of the open-source Quantum ESPRESSO suite
     for quantum simulation of materials; please cite
         "P. Giannozzi et al., J. Phys.:Condens. Matter 21 395502 (2009);
         "P. Giannozzi et al., J. Phys.:Condens. Matter 29 465901 (2017);
         "P. Giannozzi et al., J. Chem. Phys. 152 154105 (2020);
          URL http://www.quantum-espresso.org", 
     in publications or presentations arising from this work. More details at
     http://www.quantum-espresso.org/quote

     Parallel version (MPI & OpenMP), running on      32 processor cores
     Number of MPI processes:                32
     Threads/MPI process:                     1

     MPI processes distributed on     1 nodes
     315271 MiB available memory on the printing compute node when the environment starts

     Reading input from scf.in

     Current dimensions of program PWSCF are:
     Max number of different atomic species (ntypx) = 10
     Max number of k-points (npk) =  40000
     Max angular momentum in pseudopotentials (lmaxx) =  4
     file Cu.paw.z_11.ld1.psl.v1.0.0-low.upf: wavefunction(s)  4S 3D renormalized

     K-points division:     npool     =       2
     R & G space division:  proc/nbgrp/npool/nimage =      16
     Subspace diagonalization in iterative solution of the eigenvalue problem:
     one sub-group per band group will be used
     scalapack distributed-memory algorithm (size of sub-group:  4*  4 procs)


     Parallelization info
     --------------------
     sticks:   dense  smooth     PW     G-vecs:    dense   smooth      PW
     Min        1193     597    157               163743    57882    7779
     Max        1194     599    158               163747    57885    7784
     Sum       19099    9565   2515              2619931   926125  124485

     Using Slab Decomposition



     bravais-lattice index     =            0
     lattice parameter (alat)  =      24.0273  a.u.
     unit-cell volume          =   14752.0463 (a.u.)^3
     number of atoms/cell      =           96
     number of atomic types    =            4
     number of electrons       =       840.00
     number of Kohn-Sham states=          420
     kinetic-energy cutoff     =      60.0000  Ry
     charge density cutoff     =     480.0000  Ry
     scf convergence threshold =      1.0E-09
     mixing beta               =       0.3000
     number of iterations used =            8  plain     mixing
     Exchange-correlation=  SLA  PW   PBX  PBC
                           (   1   4   3   4   0   0   0)

     celldm(1)=  24.027274  celldm(2)=   0.000000  celldm(3)=   0.000000
     celldm(4)=   0.000000  celldm(5)=   0.000000  celldm(6)=   0.000000

     crystal axes: (cart. coord. in units of alat)
               a(1) = (   1.000000   0.000000   0.000000 )  
               a(2) = (  -0.500000   0.866025   0.000000 )  
               a(3) = (   0.000000   0.000000   1.228028 )  

     reciprocal axes: (cart. coord. in units 2 pi/alat)
               b(1) = (  1.000000  0.577351 -0.000000 )  
               b(2) = (  0.000000  1.154701  0.000000 )  
               b(3) = (  0.000000 -0.000000  0.814314 )  


     PseudoPot. # 1 for Sr read from file:
     /home/yuhansun/pseudos/SSSP-1.3.0-PBE-precision/Sr_pbe_v1.uspp.F.UPF
     MD5 check sum: 6b418c05fbe9db5448babca5e47b7a5b
     Pseudo is Ultrasoft + core correction, Zval = 10.0
     Generated by new atomic code, or converted to UPF format
     Using radial grid of  883 points,  6 beta functions with: 
                l(1) =   0
                l(2) =   0
                l(3) =   1
                l(4) =   1
                l(5) =   2
                l(6) =   2
     Q(r) pseudized with  6 coefficients,  rinner =    1.400   1.400   1.400
                                                       1.400   1.400

     PseudoPot. # 2 for Cu read from file:
     /home/yuhansun/pseudos/SSSP-1.3.0-PBE-precision/Cu.paw.z_11.ld1.psl.v1.0.0-low.upf
     MD5 check sum: 619f40885d92a09a85a8b37550532d0c
     Pseudo is Projector augmented-wave + core cor, Zval = 11.0
     Generated using &quot;atomic&quot; code by A. Dal Corso  v.6.3MaX
     Shape of augmentation charge: PSQ
     Using radial grid of 1199 points,  6 beta functions with: 
                l(1) =   0
                l(2) =   0
                l(3) =   1
                l(4) =   1
                l(5) =   2
                l(6) =   2
     Q(r) pseudized with 0 coefficients 


     PseudoPot. # 3 for Sn read from file:
     /home/yuhansun/pseudos/SSSP-1.3.0-PBE-precision/Sn_pbe_v1.uspp.F.UPF
     MD5 check sum: 4cf58ce39ec5d5d420df3dd08604eb00
     Pseudo is Ultrasoft + core correction, Zval = 14.0
     Generated by new atomic code, or converted to UPF format
     Using radial grid of  891 points,  6 beta functions with: 
                l(1) =   0
                l(2) =   0
                l(3) =   1
                l(4) =   1
                l(5) =   2
                l(6) =   2
     Q(r) pseudized with  6 coefficients,  rinner =    1.200   1.200   1.200
                                                       1.200   1.200

     PseudoPot. # 4 for S  read from file:
     /home/yuhansun/pseudos/SSSP-1.3.0-PBE-precision/s_pbe_v1.4.uspp.F.UPF
     MD5 check sum: 88d86576ff6df21479756cfb9bdac1df
     Pseudo is Ultrasoft + core correction, Zval =  6.0
     Generated by new atomic code, or converted to UPF format
     Using radial grid of  907 points,  6 beta functions with: 
                l(1) =   0
                l(2) =   0
                l(3) =   1
                l(4) =   1
                l(5) =   2
                l(6) =   2
     Q(r) pseudized with  8 coefficients,  rinner =    1.300   1.300   1.300
                                                       1.300   1.300

     atomic species   valence    mass     pseudopotential
     Sr               10.00    87.62000     Sr( 1.00)
     Cu               11.00    63.54600     Cu( 1.00)
     Sn               14.00   118.71000     Sn( 1.00)
     S                 6.00    32.06500     S ( 1.00)

     No symmetry found



   Cartesian axes

     site n.     atom                  positions (alat units)
         1        Sr     tau(   1) = (  -0.1405753   0.2434834   0.2046717  )
         2        Sr     tau(   2) = (   0.3594247   0.2434834   0.2046717  )
         3        Sr     tau(   3) = (  -0.3905753   0.6764960   0.2046717  )
         4        Sr     tau(   4) = (   0.1094247   0.6764960   0.2046717  )
         5        Sr     tau(   5) = (   0.1094247   0.1895292   0.6140139  )
         6        Sr     tau(   6) = (   0.6094247   0.1895292   0.6140139  )
         7        Sr     tau(   7) = (  -0.1405753   0.6225418   0.6140139  )
         8        Sr     tau(   8) = (   0.3594247   0.6225418   0.6140139  )
         9        Sr     tau(   9) = (   0.2811505   0.0000000   1.0233574  )
        10        Sr     tau(  10) = (   0.7811505   0.0000000   1.0233574  )
        11        Sr     tau(  11) = (   0.0311505   0.4330126   1.0233574  )
        12        Sr     tau(  12) = (   0.5311505   0.4330126   1.0233574  )
        13        Cu     tau(  13) = (  -0.1251759   0.2753211   0.5086718  )
        14        Cu     tau(  14) = (   0.3773212   0.2753211   0.5061747  )
        15        Cu     tau(  15) = (  -0.3726788   0.7083337   0.5061747  )
        16        Cu     tau(  16) = (   0.1273212   0.7083337   0.5061747  )
        17        Cu     tau(  17) = (   0.0729045   0.1891087   0.9155169  )
        18        Cu     tau(  18) = (   0.5729045   0.1891087   0.9155169  )
        19        Cu     tau(  19) = (  -0.1770956   0.6221213   0.9155169  )
        20        Cu     tau(  20) = (   0.3229044   0.6221213   0.9155169  )
        21        Cu     tau(  21) = (   0.0497750   0.4015949   0.0968325  )
        22        Cu     tau(  22) = (   0.5497750   0.4015949   0.0968325  )
        23        Cu     tau(  23) = (  -0.2002251   0.8346075   0.0968325  )
        24        Cu     tau(  24) = (   0.2997749   0.8346075   0.0968325  )
        25        Cu     tau(  25) = (   0.2997745   0.0314177   0.7218532  )
        26        Cu     tau(  26) = (   0.7997745   0.0314177   0.7218532  )
        27        Cu     tau(  27) = (   0.0497745   0.4644302   0.7218532  )
        28        Cu     tau(  28) = (   0.5497745   0.4644302   0.7218532  )
        29        Cu     tau(  29) = (   0.1273207   0.1576915   0.3125110  )
        30        Cu     tau(  30) = (   0.6273207   0.1576915   0.3125110  )
        31        Cu     tau(  31) = (  -0.1226793   0.5907041   0.3125110  )
        32        Cu     tau(  32) = (   0.3773207   0.5907041   0.3125110  )
        33        Cu     tau(  33) = (   0.3229040   0.2439039   1.1311954  )
        34        Cu     tau(  34) = (   0.8229040   0.2439039   1.1311954  )
        35        Cu     tau(  35) = (   0.0729039   0.6769164   1.1311954  )
        36        Cu     tau(  36) = (   0.5729039   0.6769164   1.1311954  )
        37        Sn     tau(  37) = (  -0.1762580   0.3052877   0.8186857  )
        38        Sn     tau(  38) = (   0.3237420   0.3052877   0.8186857  )
        39        Sn     tau(  39) = (  -0.4262581   0.7383003   0.8186857  )
        40        Sn     tau(  40) = (   0.0737419   0.7383003   0.8186857  )
        41        Sn     tau(  41) = (   0.0737420   0.1277249   0.0000000  )
        42        Sn     tau(  42) = (   0.5737420   0.1277249   0.0000000  )
        43        Sn     tau(  43) = (  -0.1762581   0.5607374   0.0000000  )
        44        Sn     tau(  44) = (   0.3237419   0.5607374   0.0000000  )
        45        Sn     tau(  45) = (   0.3525160   0.0000000   0.4093422  )
        46        Sn     tau(  46) = (   0.8525160   0.0000000   0.4093422  )
        47        Sn     tau(  47) = (   0.1025160   0.4330126   0.4093422  )
        48        Sn     tau(  48) = (   0.6025160   0.4330126   0.4093422  )
        49        S      tau(  49) = (  -0.0988203   0.2103164   0.9671149  )
        50        S      tau(  50) = (   0.4011797   0.2103164   0.9671149  )
        51        S      tau(  51) = (  -0.3488203   0.6433290   0.9671149  )
        52        S      tau(  52) = (   0.1511797   0.6433290   0.9671149  )
        53        S      tau(  53) = (   0.1172707   0.2422736   0.1484293  )
        54        S      tau(  54) = (   0.6172707   0.2422736   0.1484293  )
        55        S      tau(  55) = (  -0.1327293   0.6752862   0.1484293  )
        56        S      tau(  56) = (   0.3672707   0.6752862   0.1484293  )
        57        S      tau(  57) = (  -0.0184505   0.4134352   0.5577727  )
        58        S      tau(  58) = (   0.4815495   0.4134352   0.5577727  )
        59        S      tau(  59) = (  -0.2684506   0.8464478   0.5577727  )
        60        S      tau(  60) = (   0.2315494   0.8464478   0.5577727  )
        61        S      tau(  61) = (   0.2315495   0.0195774   0.2609129  )
        62        S      tau(  62) = (   0.7315495   0.0195774   0.2609129  )
        63        S      tau(  63) = (  -0.0184505   0.4525899   0.2609129  )
        64        S      tau(  64) = (   0.4815495   0.4525899   0.2609129  )
        65        S      tau(  65) = (   0.1511797   0.2226962   1.0795986  )
        66        S      tau(  66) = (   0.6511797   0.2226962   1.0795986  )
        67        S      tau(  67) = (  -0.0988203   0.6557088   1.0795986  )
        68        S      tau(  68) = (   0.4011797   0.6557088   1.0795986  )
        69        S      tau(  69) = (   0.3672707   0.1907390   0.6702552  )
        70        S      tau(  70) = (   0.8672707   0.1907390   0.6702552  )
        71        S      tau(  71) = (   0.1172707   0.6237516   0.6702552  )
        72        S      tau(  72) = (   0.6172707   0.6237516   0.6702552  )
        73        S      tau(  73) = (  -0.0296498   0.1532012   0.4035914  )
        74        S      tau(  74) = (   0.4703502   0.1532012   0.4035914  )
        75        S      tau(  75) = (  -0.2796498   0.5862137   0.4035914  )
        76        S      tau(  76) = (   0.2203502   0.5862137   0.4035914  )
        77        S      tau(  77) = (   0.1321490   0.3307341   0.8129336  )
        78        S      tau(  78) = (   0.6321490   0.3307341   0.8129336  )
        79        S      tau(  79) = (  -0.1178511   0.7637467   0.8129336  )
        80        S      tau(  80) = (   0.3821489   0.7637467   0.8129336  )
        81        S      tau(  81) = (  -0.1024985   0.3820894   1.2222770  )
        82        S      tau(  82) = (   0.3975015   0.3820894   1.2222770  )
        83        S      tau(  83) = (  -0.3524986   0.8151020   1.2222770  )
        84        S      tau(  84) = (   0.1475014   0.8151020   1.2222770  )
        85        S      tau(  85) = (   0.1475010   0.0509231   0.8244365  )
        86        S      tau(  86) = (   0.6475010   0.0509231   0.8244365  )
        87        S      tau(  87) = (  -0.1024990   0.4839357   0.8244365  )
        88        S      tau(  88) = (   0.3975010   0.4839357   0.8244365  )
        89        S      tau(  89) = (   0.2203497   0.2798114   0.4150943  )
        90        S      tau(  90) = (   0.7203497   0.2798114   0.4150943  )
        91        S      tau(  91) = (  -0.0296503   0.7128240   0.4150943  )
        92        S      tau(  92) = (   0.4703497   0.7128240   0.4150943  )
        93        S      tau(  93) = (   0.3821485   0.1022784   0.0057509  )
        94        S      tau(  94) = (   0.8821485   0.1022784   0.0057509  )
        95        S      tau(  95) = (   0.1321485   0.5352910   0.0057509  )
        96        S      tau(  96) = (   0.6321485   0.5352910   0.0057509  )

     number of k points=    14
                       cart. coord. in units 2pi/alat
        k(    1) = (   0.0000000   0.0000000   0.0000000), wk =   0.0740741
        k(    2) = (   0.0000000   0.0000000   0.2714379), wk =   0.1481481
        k(    3) = (   0.0000000   0.3849003   0.0000000), wk =   0.1481481
        k(    4) = (   0.0000000   0.3849003   0.2714379), wk =   0.1481481
        k(    5) = (   0.3333333   0.5773505   0.0000000), wk =   0.1481481
        k(    6) = (   0.3333333   0.5773505   0.2714379), wk =   0.1481481
        k(    7) = (  -0.3333333   0.1924501   0.0000000), wk =   0.1481481
        k(    8) = (   0.3333333   0.1924502   0.0000000), wk =   0.1481481
        k(    9) = (   0.0000000  -0.3849003   0.2714379), wk =   0.1481481
        k(   10) = (  -0.3333333   0.1924501   0.2714379), wk =   0.1481481
        k(   11) = (   0.3333333   0.1924502   0.2714379), wk =   0.1481481
        k(   12) = (  -0.3333333  -0.1924502   0.2714379), wk =   0.1481481
        k(   13) = (   0.3333333  -0.1924501   0.2714379), wk =   0.1481481
        k(   14) = (  -0.3333333  -0.5773505   0.2714379), wk =   0.1481481

     Dense  grid:  2619931 G-vectors     FFT dimensions: ( 180, 180, 216)

     Smooth grid:   926125 G-vectors     FFT dimensions: ( 120, 120, 150)

     Estimated max dynamical RAM per process >       1.07 GB

     Estimated total dynamical RAM >      33.54 GB

     Initial potential from superposition of free atoms

     starting charge     827.5884, renormalised to     840.0000

     negative rho (up, down):  7.777E-01 0.000E+00
     Starting wfcs are  672 randomized atomic wfcs
     Checking if some PAW data can be deallocated... 

     total cpu time spent up to now is       42.1 secs

     Self-consistent Calculation

     iteration #  1     ecut=    60.00 Ry     beta= 0.30
     Davidson diagonalization with overlap
     ethr =  1.00E-02,  avg # of iterations =  2.0

     negative rho (up, down):  7.747E-01 0.000E+00

     total cpu time spent up to now is      121.0 secs

     total energy              =   -9070.28995180 Ry
     estimated scf accuracy    <      21.98194650 Ry

     iteration #  2     ecut=    60.00 Ry     beta= 0.30
     Davidson diagonalization with overlap
     ethr =  2.62E-03,  avg # of iterations =  4.8

     negative rho (up, down):  7.752E-01 0.000E+00

     total cpu time spent up to now is      219.3 secs

     total energy              =   -9076.61706263 Ry
     estimated scf accuracy    <       8.19615575 Ry

     iteration #  3     ecut=    60.00 Ry     beta= 0.30
     Davidson diagonalization with overlap
     ethr =  9.76E-04,  avg # of iterations =  2.0

     negative rho (up, down):  7.804E-01 0.000E+00

     total cpu time spent up to now is      298.3 secs

     total energy              =   -9076.48963924 Ry
     estimated scf accuracy    <       1.62267986 Ry

     iteration #  4     ecut=    60.00 Ry     beta= 0.30
     Davidson diagonalization with overlap
     ethr =  1.93E-04,  avg # of iterations =  6.0

     negative rho (up, down):  7.829E-01 0.000E+00

     total cpu time spent up to now is      412.5 secs

     total energy              =   -9076.69825099 Ry
     estimated scf accuracy    <       2.07321367 Ry

     iteration #  5     ecut=    60.00 Ry     beta= 0.30
     Davidson diagonalization with overlap
     ethr =  1.93E-04,  avg # of iterations =  5.4

     negative rho (up, down):  7.884E-01 0.000E+00

     total cpu time spent up to now is      505.7 secs

     total energy              =   -9077.13561880 Ry
     estimated scf accuracy    <       0.15250093 Ry

     iteration #  6     ecut=    60.00 Ry     beta= 0.30
     Davidson diagonalization with overlap
     ethr =  1.82E-05,  avg # of iterations =  5.1

     negative rho (up, down):  7.902E-01 0.000E+00

     total cpu time spent up to now is      599.2 secs

     total energy              =   -9077.17644533 Ry
     estimated scf accuracy    <       0.01251632 Ry

     iteration #  7     ecut=    60.00 Ry     beta= 0.30
     Davidson diagonalization with overlap
     c_bands:  1 eigenvalues not converged
     ethr =  1.49E-06,  avg # of iterations =  6.4

     negative rho (up, down):  7.907E-01 0.000E+00

     total cpu time spent up to now is      715.0 secs

     total energy              =   -9077.18861602 Ry
     estimated scf accuracy    <       0.00566786 Ry

     iteration #  8     ecut=    60.00 Ry     beta= 0.30
     Davidson diagonalization with overlap
     ethr =  6.75E-07,  avg # of iterations =  7.1

     negative rho (up, down):  7.912E-01 0.000E+00

     total cpu time spent up to now is      836.8 secs

     total energy              =   -9077.17955588 Ry
     estimated scf accuracy    <       0.04484063 Ry

     iteration #  9     ecut=    60.00 Ry     beta= 0.30
     Davidson diagonalization with overlap
     ethr =  6.75E-07,  avg # of iterations =  6.9

     negative rho (up, down):  7.911E-01 0.000E+00

     total cpu time spent up to now is      968.0 secs

     total energy              =   -9077.18761719 Ry
     estimated scf accuracy    <       0.00222828 Ry

     iteration # 10     ecut=    60.00 Ry     beta= 0.30
     Davidson diagonalization with overlap
     ethr =  2.65E-07,  avg # of iterations =  2.0

     negative rho (up, down):  7.908E-01 0.000E+00

     total cpu time spent up to now is     1045.0 secs

     total energy              =   -9077.18747770 Ry
     estimated scf accuracy    <       0.00067350 Ry

     iteration # 11     ecut=    60.00 Ry     beta= 0.30
     Davidson diagonalization with overlap
     ethr =  8.02E-08,  avg # of iterations =  5.5

     negative rho (up, down):  7.905E-01 0.000E+00

     total cpu time spent up to now is     1148.3 secs

     total energy              =   -9077.18769174 Ry
     estimated scf accuracy    <       0.00016776 Ry

     iteration # 12     ecut=    60.00 Ry     beta= 0.30
     Davidson diagonalization with overlap
     ethr =  2.00E-08,  avg # of iterations =  5.7

     negative rho (up, down):  7.904E-01 0.000E+00

     total cpu time spent up to now is     1253.6 secs

     total energy              =   -9077.18770538 Ry
     estimated scf accuracy    <       0.00014346 Ry

     iteration # 13     ecut=    60.00 Ry     beta= 0.30
     Davidson diagonalization with overlap
     ethr =  1.71E-08,  avg # of iterations =  2.0

     negative rho (up, down):  7.903E-01 0.000E+00

     total cpu time spent up to now is     1331.0 secs

     total energy              =   -9077.18771047 Ry
     estimated scf accuracy    <       0.00003640 Ry

     iteration # 14     ecut=    60.00 Ry     beta= 0.30
     Davidson diagonalization with overlap
     ethr =  4.33E-09,  avg # of iterations =  6.4

     negative rho (up, down):  7.903E-01 0.000E+00

     total cpu time spent up to now is     1423.6 secs

     total energy              =   -9077.18771776 Ry
     estimated scf accuracy    <       0.00000135 Ry

     iteration # 15     ecut=    60.00 Ry     beta= 0.30
     Davidson diagonalization with overlap
     ethr =  1.60E-10,  avg # of iterations =  7.3

     negative rho (up, down):  7.902E-01 0.000E+00

     total cpu time spent up to now is     1562.2 secs

     total energy              =   -9077.18771883 Ry
     estimated scf accuracy    <       0.00000069 Ry

     iteration # 16     ecut=    60.00 Ry     beta= 0.30
     Davidson diagonalization with overlap
     ethr =  8.18E-11,  avg # of iterations =  5.1

     negative rho (up, down):  7.902E-01 0.000E+00

     total cpu time spent up to now is     1667.7 secs

     total energy              =   -9077.18771906 Ry
     estimated scf accuracy    <       0.00000047 Ry

     iteration # 17     ecut=    60.00 Ry     beta= 0.30
     Davidson diagonalization with overlap
     ethr =  5.63E-11,  avg # of iterations =  2.2

     negative rho (up, down):  7.902E-01 0.000E+00

     total cpu time spent up to now is     1746.9 secs

     total energy              =   -9077.18771911 Ry
     estimated scf accuracy    <       0.00000008 Ry

     iteration # 18     ecut=    60.00 Ry     beta= 0.30
     Davidson diagonalization with overlap
     ethr =  1.00E-11,  avg # of iterations =  5.4

     negative rho (up, down):  7.902E-01 0.000E+00

     total cpu time spent up to now is     1860.0 secs

     total energy              =   -9077.18771915 Ry
     estimated scf accuracy    <       0.00000003 Ry

     iteration # 19     ecut=    60.00 Ry     beta= 0.30
     Davidson diagonalization with overlap
     ethr =  3.77E-12,  avg # of iterations =  4.0

     negative rho (up, down):  7.902E-01 0.000E+00

     total cpu time spent up to now is     1948.6 secs

     total energy              =   -9077.18771916 Ry
     estimated scf accuracy    <          4.9E-09 Ry

     iteration # 20     ecut=    60.00 Ry     beta= 0.30
     Davidson diagonalization with overlap
     ethr =  5.88E-13,  avg # of iterations =  7.1

     negative rho (up, down):  7.902E-01 0.000E+00

     total cpu time spent up to now is     2085.9 secs

     total energy              =   -9077.18771917 Ry
     estimated scf accuracy    <       0.00000001 Ry

     iteration # 21     ecut=    60.00 Ry     beta= 0.30
     Davidson diagonalization with overlap
     ethr =  5.88E-13,  avg # of iterations =  5.9

     negative rho (up, down):  7.902E-01 0.000E+00

     total cpu time spent up to now is     2191.1 secs

     End of self-consistent calculation

          k = 0.0000 0.0000 0.0000 (115723 PWs)   bands (ev):

   -28.2764 -28.2762 -28.2761 -28.2760 -28.2757 -28.2757 -28.2753 -28.2750
   -28.2750 -28.2749 -28.2740 -28.2735 -14.9259 -14.9240 -14.9235 -14.9232
   -14.9228 -14.9228 -14.9225 -14.9224 -14.9222 -14.9220 -14.9214 -14.9201
   -14.9198 -14.9181 -14.9176 -14.9174 -14.9170 -14.9169 -14.9167 -14.9166
   -14.9163 -14.9161 -14.9153 -14.9139 -14.9080 -14.9061 -14.9055 -14.9052
   -14.9049 -14.9048 -14.9046 -14.9045 -14.9043 -14.9040 -14.9034 -14.9018
   -14.8678 -14.8659 -14.8653 -14.8650 -14.8647 -14.8646 -14.8645 -14.8643
   -14.8641 -14.8638 -14.8634 -14.8618 -14.8228 -14.8206 -14.8201 -14.8199
   -14.8196 -14.8194 -14.8193 -14.8192 -14.8189 -14.8187 -14.8179 -14.8165
   -10.3387 -10.3382 -10.3381 -10.3369 -10.3367 -10.3359 -10.3356 -10.3352
   -10.3348 -10.3310 -10.3303 -10.3241 -10.3093 -10.3091 -10.3084 -10.3044
   -10.3037 -10.3015 -10.3011 -10.3009 -10.2926 -10.2923 -10.2919 -10.2821
   -10.2709 -10.2708 -10.2696 -10.2652 -10.2649 -10.2647 -10.2628 -10.2624
   -10.2618 -10.2586 -10.2578 -10.2541  -6.8630  -6.5562  -6.5531  -6.4183
    -6.4164  -6.4160  -6.3019  -6.2985  -6.2967  -6.2208  -6.2177  -6.2157
    -5.9905  -5.9899  -5.9869  -5.8516  -5.8495  -5.8465  -5.7983  -5.7967
    -5.7925  -5.7383  -5.7365  -5.6233  -5.6182  -5.6172  -5.6145  -5.6139
    -5.6100  -5.6001  -5.5610  -5.5586  -5.5556  -5.5458  -5.5453  -5.5410
    -5.5173  -5.5167  -5.4338  -5.4303  -5.4286  -5.4261  -5.3732  -5.3699
    -5.3482  -5.3452  -5.3439  -5.2513  -0.6137  -0.6113  -0.6099  -0.3906
    -0.3890  -0.3871  -0.3508  -0.3175  -0.3155  -0.3135  -0.3020  -0.2998
     1.3839   1.3849   1.3861   1.5915   1.5926   1.6560   1.7162   1.7178
     1.7178   1.8030   1.8055   1.8093   2.0200   2.0404   2.0419   2.0834
     2.0858   2.0873   2.2452   2.2479   2.2488   2.3081   2.3111   2.4035
     2.4039   2.4054   2.4590   2.4608   2.4643   2.5486   2.5513   2.6609
     2.6628   2.6666   2.7822   2.7850   2.7873   2.8713   2.8725   2.9236
     2.9251   2.9266   2.9506   2.9553   2.9555   3.0257   3.0277   3.0302
     3.0449   3.0461   3.0469   3.1656   3.2135   3.2139   3.2161   3.2280
     3.2293   3.2559   3.2577   3.2596   3.3750   3.3779   3.3794   3.3904
     3.3954   3.4239   3.4276   3.4282   3.4344   3.4360   3.4398   3.4738
     3.4759   3.4775   3.4913   3.4951   3.4952   3.4963   3.5171   3.5183
     3.5832   3.5847   3.5880   3.6266   3.6271   3.6305   3.6890   3.6903
     3.6905   3.6922   3.6935   3.7083   3.7931   3.7961   3.8245   3.8262
     3.8270   3.9635   4.0196   4.0211   4.0239   4.0340   4.0358   4.0374
     4.1231   4.1243   4.1257   4.1271   4.1712   4.1733   4.1756   4.1994
     4.2084   4.2104   4.2120   4.2398   4.2444   4.2452   4.2806   4.2835
     4.4234   4.4250   4.4282   4.5168   4.5186   4.5219   4.5359   4.5367
     4.6202   4.6212   4.6234   4.8587   5.1244   5.1544   5.1557   5.1566
     5.1738   5.1744   5.1752   5.1775   5.1786   5.2225   5.2271   5.2277
     5.2287   5.2296   5.2302   5.2519   5.2522   5.2525   5.2660   5.2668
     5.2679   5.2781   5.2785   5.2796   5.3114   5.3115   5.3116   5.3126
     5.3133   5.3242   5.3371   5.3377   5.3379   5.3753   5.3754   5.3760
     5.4384   5.4400   5.4693   5.4714   5.4720   5.4745   5.4768   5.4774
     5.4783   5.4992   5.4994   5.6009   5.6010   5.6014   5.6179   5.6187
     5.6200   5.6264   5.6466   5.6475   5.6479   5.6590   5.6595   5.6606
     5.7241   5.7256   5.7434   5.7813   5.7826   5.7843   5.8198   5.8207
     5.8214   5.9032   5.9037   5.9038   5.9266   5.9276   5.9282   5.9966
     5.9971   6.0269   6.0278   6.0283   6.1482   6.1505   6.1512   6.1532
     6.2613   6.2619   6.2627   6.2632   6.2645   6.2656   6.2897   6.2902
     6.3346   6.3350   6.3359   6.3627   6.3638   6.3654   6.3892   6.3900
     6.3918   6.5520   6.5712   6.5714   6.5721   6.6374   6.6387   6.6392
     6.7471   6.7482   6.7488   6.7645   6.7653   6.7807   6.7818   6.7829
     6.8088   6.9646   7.1802   7.1808

          k = 0.0000 0.0000 0.2714 (115879 PWs)   bands (ev):

   -28.2764 -28.2762 -28.2761 -28.2760 -28.2757 -28.2757 -28.2753 -28.2750
   -28.2750 -28.2749 -28.2740 -28.2735 -14.9259 -14.9240 -14.9235 -14.9232
   -14.9228 -14.9228 -14.9225 -14.9224 -14.9222 -14.9220 -14.9214 -14.9201
   -14.9198 -14.9181 -14.9176 -14.9174 -14.9170 -14.9169 -14.9167 -14.9166
   -14.9163 -14.9161 -14.9153 -14.9139 -14.9080 -14.9061 -14.9055 -14.9052
   -14.9049 -14.9048 -14.9046 -14.9045 -14.9043 -14.9040 -14.9034 -14.9018
   -14.8678 -14.8659 -14.8653 -14.8650 -14.8647 -14.8646 -14.8645 -14.8643
   -14.8641 -14.8638 -14.8634 -14.8618 -14.8228 -14.8206 -14.8201 -14.8199
   -14.8196 -14.8194 -14.8193 -14.8192 -14.8189 -14.8187 -14.8179 -14.8165
   -10.3397 -10.3393 -10.3390 -10.3375 -10.3373 -10.3364 -10.3342 -10.3337
   -10.3335 -10.3322 -10.3279 -10.3251 -10.3120 -10.3079 -10.3076 -10.3069
   -10.3020 -10.3017 -10.3014 -10.2939 -10.2936 -10.2933 -10.2926 -10.2846
   -10.2703 -10.2702 -10.2691 -10.2659 -10.2655 -10.2653 -10.2623 -10.2619
   -10.2614 -10.2583 -10.2575 -10.2556  -6.8238  -6.7131  -6.4113  -6.4089
    -6.4080  -6.4054  -6.3063  -6.3034  -6.3012  -6.2332  -6.2302  -6.2279
    -5.9925  -5.9919  -5.9881  -5.8547  -5.8366  -5.8347  -5.8311  -5.7759
    -5.7734  -5.7700  -5.6609  -5.6557  -5.6545  -5.6516  -5.6143  -5.6132
    -5.6123  -5.6074  -5.5578  -5.5527  -5.5520  -5.5496  -5.5462  -5.5442
    -5.5399  -5.4544  -5.4384  -5.4345  -5.4338  -5.4307  -5.3740  -5.3454
    -5.3404  -5.3373  -5.3359  -5.2816  -0.6058  -0.6035  -0.6020  -0.4143
    -0.4124  -0.4105  -0.3483  -0.3325  -0.3029  -0.3006  -0.2988  -0.2740
     1.4080   1.4091   1.4107   1.5701   1.6143   1.6179   1.6194   1.6199
     1.6578   1.9336   1.9352   1.9382   2.0036   2.0468   2.0514   2.0535
     2.0557   2.0690   2.2741   2.2762   2.2772   2.3053   2.3870   2.3893
     2.3911   2.3924   2.4152   2.4165   2.4181   2.4557   2.6209   2.6223
     2.6259   2.6688   2.7182   2.7911   2.7968   2.7985   2.8012   2.8720
     2.8724   2.8753   2.9741   2.9759   2.9773   3.0439   3.0467   3.0481
     3.1053   3.1075   3.1078   3.1766   3.1990   3.2034   3.2051   3.2064
     3.2725   3.2741   3.2756   3.2854   3.3749   3.3813   3.3845   3.3853
     3.4166   3.4199   3.4219   3.4383   3.4403   3.4438   3.4480   3.4500
     3.4505   3.4772   3.4982   3.5165   3.5191   3.5198   3.5381   3.5444
     3.5484   3.5504   3.5536   3.6374   3.6443   3.6453   3.6473   3.6519
     3.6798   3.6810   3.6855   3.7722   3.8299   3.8748   3.8763   3.8775
     3.9081   3.9218   3.9948   3.9951   3.9982   4.0535   4.0555   4.0573
     4.0752   4.1170   4.1180   4.1195   4.1468   4.1486   4.1505   4.1664
     4.1693   4.1725   4.1733   4.2108   4.2474   4.2510   4.2529   4.2679
     4.4203   4.4222   4.4253   4.4834   4.5586   4.5604   4.5623   4.6048
     4.6063   4.6082   4.6777   4.8085   5.1356   5.1468   5.1536   5.1546
     5.1551   5.1640   5.1866   5.1876   5.1883   5.2161   5.2170   5.2173
     5.2184   5.2476   5.2486   5.2490   5.2588   5.2593   5.2600   5.2609
     5.2763   5.2768   5.2777   5.2784   5.3291   5.3301   5.3308   5.3321
     5.3335   5.3347   5.3407   5.3428   5.3435   5.3661   5.3730   5.3740
     5.3751   5.3898   5.4028   5.4200   5.4212   5.4218   5.5261   5.5319
     5.5331   5.5334   5.5821   5.5877   5.5888   5.5892   5.5898   5.6199
     5.6206   5.6216   5.6508   5.6513   5.6523   5.6609   5.6809   5.6819
     5.6829   5.7541   5.7545   5.7565   5.7901   5.7981   5.8158   5.8175
     5.8183   5.8714   5.8829   5.8835   5.8844   5.9877   5.9886   5.9897
     6.0427   6.0441   6.0444   6.0969   6.0983   6.0997   6.1753   6.1917
     6.1925   6.1942   6.2355   6.2681   6.2690   6.2702   6.3253   6.3263
     6.3281   6.3586   6.3601   6.3708   6.3719   6.3735   6.3950   6.4290
     6.4304   6.4310   6.4798   6.6410   6.6415   6.6422   6.6428   6.6436
     6.6445   6.6708   6.7088   6.7098   6.7111   6.7522   6.7532   6.7543
     6.9413   7.0050   7.0944   7.1700

          k = 0.0000 0.3849 0.0000 (115797 PWs)   bands (ev):

   -28.2764 -28.2762 -28.2761 -28.2760 -28.2757 -28.2757 -28.2753 -28.2750
   -28.2750 -28.2749 -28.2740 -28.2735 -14.9259 -14.9240 -14.9235 -14.9232
   -14.9228 -14.9228 -14.9225 -14.9224 -14.9222 -14.9220 -14.9215 -14.9201
   -14.9198 -14.9181 -14.9176 -14.9173 -14.9170 -14.9169 -14.9167 -14.9166
   -14.9164 -14.9161 -14.9153 -14.9139 -14.9080 -14.9061 -14.9055 -14.9052
   -14.9049 -14.9048 -14.9046 -14.9045 -14.9043 -14.9040 -14.9034 -14.9019
   -14.8678 -14.8659 -14.8653 -14.8650 -14.8647 -14.8646 -14.8645 -14.8643
   -14.8641 -14.8638 -14.8634 -14.8618 -14.8228 -14.8206 -14.8201 -14.8199
   -14.8196 -14.8194 -14.8193 -14.8192 -14.8189 -14.8187 -14.8179 -14.8165
   -10.3385 -10.3378 -10.3367 -10.3362 -10.3359 -10.3353 -10.3346 -10.3341
   -10.3328 -10.3323 -10.3313 -10.3264 -10.3074 -10.3068 -10.3063 -10.3040
   -10.3031 -10.3019 -10.3015 -10.3011 -10.2948 -10.2945 -10.2903 -10.2850
   -10.2699 -10.2694 -10.2687 -10.2667 -10.2661 -10.2638 -10.2629 -10.2628
   -10.2623 -10.2604 -10.2592 -10.2559  -6.7878  -6.5901  -6.5006  -6.4962
    -6.4380  -6.4370  -6.3666  -6.3470  -6.2866  -6.2838  -6.2490  -6.2468
    -5.9113  -5.9109  -5.8212  -5.8186  -5.8165  -5.7769  -5.7684  -5.7635
    -5.7333  -5.7255  -5.7230  -5.6910  -5.6879  -5.6486  -5.6389  -5.6356
    -5.6293  -5.5957  -5.5858  -5.5828  -5.5683  -5.5269  -5.5195  -5.5182
    -5.5142  -5.5029  -5.4628  -5.4507  -5.4395  -5.4359  -5.4198  -5.4143
    -5.3499  -5.3467  -5.3137  -5.2707  -0.5729  -0.5707  -0.5610  -0.4348
    -0.4053  -0.4039  -0.3775  -0.3389  -0.3367  -0.3336  -0.3137  -0.3041
     1.4185   1.4867   1.4892   1.5009   1.6401   1.6513   1.6879   1.7231
     1.7252   1.8277   1.8764   1.8779   1.9548   1.9558   1.9566   2.0278
     2.1158   2.2077   2.2297   2.2304   2.3379   2.3629   2.3845   2.3881
     2.3939   2.4094   2.4501   2.5365   2.5381   2.6119   2.6160   2.6194
     2.6577   2.7354   2.8124   2.8156   2.8224   2.8405   2.8423   2.8453
     2.8546   2.8843   2.9068   2.9084   2.9150   2.9609   2.9620   3.0047
     3.0511   3.0559   3.0584   3.1246   3.1502   3.1759   3.2040   3.2110
     3.2122   3.2340   3.2601   3.2635   3.2690   3.3237   3.3298   3.3334
     3.3379   3.3713   3.3947   3.3955   3.4331   3.4411   3.4419   3.4499
     3.4947   3.4994   3.5009   3.5077   3.5124   3.5134   3.5231   3.5427
     3.5614   3.6049   3.6054   3.6125   3.6350   3.6499   3.6784   3.6814
     3.6934   3.7028   3.7053   3.7091   3.7781   3.7818   3.8492   3.8596
     3.8954   3.9722   3.9745   3.9777   3.9811   4.0286   4.0384   4.0410
     4.0940   4.1119   4.1207   4.1234   4.1255   4.1609   4.1634   4.1772
     4.2486   4.2630   4.2686   4.2851   4.3025   4.3227   4.3242   4.3667
     4.3785   4.4161   4.4200   4.4836   4.5173   4.5277   4.5284   4.5301
     4.5911   4.5920   4.6293   4.7509   5.1431   5.1440   5.1470   5.1540
     5.1609   5.1613   5.1696   5.1743   5.2149   5.2189   5.2198   5.2225
     5.2289   5.2367   5.2489   5.2493   5.2499   5.2609   5.2677   5.2715
     5.2729   5.2887   5.3042   5.3060   5.3133   5.3190   5.3276   5.3280
     5.3368   5.3491   5.3521   5.3533   5.3576   5.3655   5.4137   5.4143
     5.4340   5.4513   5.4616   5.4624   5.4855   5.4933   5.4992   5.5000
     5.5032   5.5119   5.5284   5.5436   5.5563   5.5573   5.5613   5.6026
     5.6041   5.6303   5.6307   5.6319   5.6681   5.6782   5.6955   5.6960
     5.6973   5.7170   5.7293   5.7569   5.7749   5.7760   5.8080   5.8180
     5.8198   5.8632   5.8752   5.8770   5.9502   5.9518   5.9645   5.9658
     5.9903   6.0065   6.0076   6.0206   6.1393   6.1401   6.1440   6.1598
     6.2261   6.2295   6.2305   6.2512   6.2710   6.2893   6.2899   6.2991
     6.3612   6.3631   6.3778   6.3898   6.3906   6.4404   6.4868   6.4879
     6.5237   6.5377   6.5391   6.5758   6.6046   6.6512   6.6844   6.6929
     6.6939   6.7295   6.7379   6.7394   6.7627   6.7780   6.7934   6.8123
     6.8138   6.9038   6.9092   7.0807

          k = 0.0000 0.3849 0.2714 (115773 PWs)   bands (ev):

   -28.2764 -28.2762 -28.2761 -28.2760 -28.2757 -28.2757 -28.2753 -28.2750
   -28.2750 -28.2749 -28.2740 -28.2735 -14.9259 -14.9240 -14.9235 -14.9232
   -14.9228 -14.9228 -14.9225 -14.9224 -14.9222 -14.9220 -14.9215 -14.9201
   -14.9198 -14.9181 -14.9176 -14.9173 -14.9170 -14.9169 -14.9167 -14.9166
   -14.9164 -14.9161 -14.9153 -14.9139 -14.9080 -14.9061 -14.9055 -14.9052
   -14.9049 -14.9048 -14.9046 -14.9045 -14.9043 -14.9040 -14.9034 -14.9019
   -14.8678 -14.8659 -14.8653 -14.8650 -14.8647 -14.8646 -14.8645 -14.8643
   -14.8641 -14.8638 -14.8634 -14.8618 -14.8228 -14.8206 -14.8201 -14.8199
   -14.8196 -14.8194 -14.8193 -14.8192 -14.8189 -14.8187 -14.8179 -14.8165
   -10.3392 -10.3386 -10.3377 -10.3372 -10.3362 -10.3344 -10.3341 -10.3333
   -10.3327 -10.3316 -10.3297 -10.3271 -10.3103 -10.3068 -10.3063 -10.3058
   -10.3014 -10.3008 -10.3001 -10.2966 -10.2963 -10.2939 -10.2907 -10.2875
   -10.2700 -10.2690 -10.2686 -10.2668 -10.2660 -10.2640 -10.2628 -10.2625
   -10.2620 -10.2603 -10.2588 -10.2575  -6.7508  -6.6465  -6.5610  -6.4717
    -6.4223  -6.4210  -6.3633  -6.3299  -6.3280  -6.2582  -6.2250  -6.2237
    -5.9054  -5.9043  -5.8235  -5.8209  -5.8090  -5.8065  -5.7927  -5.7607
    -5.7573  -5.7336  -5.7108  -5.7084  -5.6724  -5.6375  -5.6300  -5.6280
    -5.6239  -5.6068  -5.6007  -5.5986  -5.5685  -5.5271  -5.5228  -5.5209
    -5.5199  -5.4939  -5.4682  -5.4330  -5.4320  -5.4280  -5.4211  -5.3624
    -5.3492  -5.3462  -5.3227  -5.3001  -0.5610  -0.5587  -0.5578  -0.4371
    -0.4348  -0.4237  -0.3946  -0.3741  -0.3192  -0.3160  -0.2999  -0.2794
     1.4331   1.4846   1.4867   1.4879   1.6258   1.6413   1.7714   1.7738
     1.7822   1.7904   1.8004   1.8011   1.9141   1.9954   1.9960   2.0776
     2.1553   2.1990   2.2118   2.2477   2.2493   2.3597   2.3911   2.3943
     2.3983   2.4496   2.5108   2.5122   2.5471   2.5897   2.5945   2.6076
     2.6446   2.7125   2.7620   2.7681   2.7700   2.7889   2.8090   2.8095
     2.8391   2.8748   2.9144   2.9175   2.9188   2.9819   3.0223   3.0244
     3.0693   3.1059   3.1071   3.1332   3.1702   3.1921   3.1941   3.1950
     3.1983   3.2325   3.2623   3.2669   3.2776   3.3183   3.3214   3.3230
     3.3245   3.3888   3.3902   3.4092   3.4458   3.4465   3.4670   3.4705
     3.4725   3.4736   3.4757   3.4780   3.5331   3.5340   3.5377   3.5934
     3.6103   3.6118   3.6156   3.6326   3.6412   3.6512   3.6582   3.6609
     3.6668   3.7099   3.7104   3.7132   3.8354   3.8367   3.8799   3.8888
     3.9033   3.9495   3.9506   3.9742   3.9825   4.0186   4.0470   4.0490
     4.0525   4.0652   4.1104   4.1121   4.1193   4.1327   4.1349   4.1476
     4.1928   4.2550   4.2638   4.2684   4.2874   4.2899   4.2961   4.3873
     4.3961   4.4379   4.4406   4.4674   4.5239   4.5267   4.5352   4.5964
     4.6109   4.6116   4.6249   4.7233   5.1503   5.1511   5.1546   5.1563
     5.1719   5.1762   5.1770   5.1839   5.1903   5.1984   5.2008   5.2077
     5.2081   5.2342   5.2350   5.2356   5.2550   5.2636   5.2654   5.2666
     5.2789   5.2975   5.3076   5.3128   5.3147   5.3293   5.3363   5.3367
     5.3583   5.3587   5.3599   5.3628   5.3801   5.3930   5.4069   5.4076
     5.4128   5.4313   5.4330   5.4447   5.4457   5.4932   5.5020   5.5023
     5.5103   5.5163   5.5535   5.5593   5.5744   5.5753   5.6024   5.6100
     5.6116   5.6190   5.6239   5.6257   5.6424   5.6709   5.6821   5.7142
     5.7148   5.7166   5.7343   5.7718   5.7727   5.7738   5.8012   5.8025
     5.8097   5.8584   5.8746   5.8763   5.8783   5.9144   5.9583   5.9599
     6.0340   6.0343   6.0358   6.0596   6.0792   6.0801   6.1732   6.2062
     6.2131   6.2143   6.2658   6.2671   6.2704   6.2776   6.2852   6.3481
     6.3493   6.3652   6.3717   6.4146   6.4248   6.4261   6.4277   6.4712
     6.4990   6.4999   6.5457   6.5597   6.5953   6.5968   6.6672   6.6682
     6.6775   6.7194   6.7364   6.7381   6.7484   6.8135   6.8148   6.8443
     6.8683   6.9283   6.9376   7.0522

          k = 0.3333 0.5774 0.0000 (115752 PWs)   bands (ev):

   -28.2764 -28.2762 -28.2761 -28.2760 -28.2757 -28.2757 -28.2753 -28.2750
   -28.2750 -28.2749 -28.2740 -28.2735 -14.9259 -14.9240 -14.9235 -14.9232
   -14.9228 -14.9227 -14.9225 -14.9224 -14.9222 -14.9220 -14.9215 -14.9201
   -14.9198 -14.9181 -14.9176 -14.9173 -14.9170 -14.9169 -14.9167 -14.9166
   -14.9164 -14.9161 -14.9153 -14.9139 -14.9080 -14.9061 -14.9055 -14.9052
   -14.9049 -14.9048 -14.9046 -14.9045 -14.9043 -14.9040 -14.9034 -14.9019
   -14.8678 -14.8659 -14.8653 -14.8650 -14.8647 -14.8646 -14.8645 -14.8643
   -14.8641 -14.8638 -14.8634 -14.8618 -14.8228 -14.8206 -14.8201 -14.8199
   -14.8196 -14.8194 -14.8193 -14.8192 -14.8189 -14.8187 -14.8179 -14.8165
   -10.3389 -10.3362 -10.3357 -10.3354 -10.3354 -10.3351 -10.3349 -10.3344
   -10.3340 -10.3304 -10.3300 -10.3298 -10.3072 -10.3051 -10.3047 -10.3044
   -10.3023 -10.3020 -10.3016 -10.3002 -10.2995 -10.2902 -10.2897 -10.2895
   -10.2697 -10.2676 -10.2672 -10.2670 -10.2661 -10.2652 -10.2644 -10.2642
   -10.2635 -10.2591 -10.2586 -10.2582  -6.6517  -6.6498  -6.6491  -6.4024
    -6.3998  -6.3988  -6.3986  -6.3973  -6.3932  -6.2937  -6.2911  -6.1926
    -5.8652  -5.8515  -5.8483  -5.7512  -5.7488  -5.7474  -5.7339  -5.7317
    -5.7307  -5.7094  -5.7067  -5.6966  -5.6938  -5.6916  -5.6864  -5.6841
    -5.6824  -5.6446  -5.5426  -5.5412  -5.5386  -5.5304  -5.5291  -5.5249
    -5.5115  -5.4740  -5.4715  -5.4694  -5.4680  -5.4658  -5.4631  -5.3986
    -5.3955  -5.3038  -5.3018  -5.3003  -0.5445  -0.5165  -0.5140  -0.5126
    -0.3978  -0.3953  -0.3912  -0.3903  -0.3881  -0.3116  -0.3096  -0.3074
     1.4828   1.4845   1.4861   1.6741   1.6750   1.6766   1.6850   1.6865
     1.6881   1.7337   1.7347   1.8000   2.0799   2.0815   2.0824   2.0830
     2.0843   2.1435   2.1453   2.1464   2.2557   2.3951   2.3971   2.3993
     2.4928   2.4946   2.4959   2.5621   2.5636   2.5646   2.5974   2.5990
     2.7722   2.7751   2.7764   2.8349   2.8379   2.8430   2.8447   2.8456
     2.8491   2.8519   2.8525   2.8594   2.8686   3.0088   3.0106   3.0127
     3.0240   3.0262   3.0266   3.0617   3.1323   3.1343   3.1364   3.1958
     3.1978   3.1995   3.2583   3.2597   3.2625   3.2708   3.2730   3.3612
     3.3693   3.3713   3.3723   3.3730   3.4235   3.4256   3.4269   3.4850
     3.4878   3.5002   3.5030   3.5039   3.5272   3.5304   3.5314   3.5477
     3.5485   3.5788   3.5799   3.5836   3.6491   3.6506   3.6552   3.7195
     3.7212   3.7240   3.7281   3.7313   3.7570   3.7989   3.8014   3.8028
     3.9569   3.9595   3.9606   3.9870   3.9880   4.0280   4.0309   4.0325
     4.0840   4.0849   4.0872   4.1414   4.1489   4.1512   4.1519   4.2819
     4.2851   4.2942   4.3184   4.3190   4.3198   4.3204   4.3216   4.3269
     4.3847   4.3867   4.3888   4.4962   4.5149   4.5159   4.5196   4.5212
     4.5230   4.6542   4.6560   4.6578   5.1381   5.1436   5.1444   5.1451
     5.1733   5.1741   5.1876   5.1881   5.1885   5.1961   5.1968   5.1981
     5.2470   5.2474   5.2483   5.2651   5.2665   5.2668   5.2982   5.2988
     5.2994   5.3013   5.3026   5.3031   5.3143   5.3186   5.3188   5.3202
     5.3398   5.3401   5.3413   5.4014   5.4030   5.4036   5.4083   5.4091
     5.4546   5.4557   5.4561   5.4581   5.4831   5.4839   5.4848   5.4878
     5.4889   5.5347   5.5354   5.5361   5.5639   5.5641   5.5655   5.5704
     5.5712   5.5722   5.6407   5.6723   5.6729   5.6934   5.6946   5.6958
     5.7060   5.7073   5.7080   5.7796   5.7811   5.7818   5.7983   5.7999
     5.8006   5.8242   5.8245   5.8441   5.9302   5.9312   5.9322   6.0451
     6.0472   6.0478   6.0482   6.0505   6.1372   6.1390   6.1404   6.1586
     6.2183   6.2190   6.2205   6.2591   6.2603   6.2608   6.2836   6.2851
     6.3743   6.4097   6.4110   6.4114   6.4159   6.4180   6.4238   6.4510
     6.4519   6.4535   6.6151   6.6153   6.6163   6.6764   6.6769   6.6775
     6.7261   6.7408   6.7427   6.8060   6.8066   6.8077   6.8101   6.8107
     6.8126   6.9384   6.9394   6.9404

          k = 0.3333 0.5774 0.2714 (115827 PWs)   bands (ev):

   -28.2764 -28.2762 -28.2761 -28.2760 -28.2757 -28.2757 -28.2753 -28.2750
   -28.2750 -28.2749 -28.2740 -28.2735 -14.9259 -14.9240 -14.9235 -14.9232
   -14.9228 -14.9227 -14.9225 -14.9224 -14.9222 -14.9220 -14.9215 -14.9201
   -14.9198 -14.9181 -14.9176 -14.9173 -14.9170 -14.9169 -14.9167 -14.9166
   -14.9164 -14.9161 -14.9153 -14.9139 -14.9080 -14.9061 -14.9055 -14.9052
   -14.9049 -14.9048 -14.9046 -14.9045 -14.9043 -14.9040 -14.9034 -14.9019
   -14.8678 -14.8659 -14.8653 -14.8650 -14.8647 -14.8646 -14.8645 -14.8643
   -14.8641 -14.8638 -14.8634 -14.8618 -14.8228 -14.8206 -14.8201 -14.8199
   -14.8196 -14.8194 -14.8193 -14.8192 -14.8189 -14.8187 -14.8179 -14.8165
   -10.3390 -10.3379 -10.3371 -10.3369 -10.3364 -10.3336 -10.3333 -10.3330
   -10.3326 -10.3307 -10.3300 -10.3298 -10.3079 -10.3076 -10.3074 -10.3048
   -10.3013 -10.3006 -10.2975 -10.2973 -10.2969 -10.2920 -10.2914 -10.2912
   -10.2698 -10.2687 -10.2669 -10.2667 -10.2662 -10.2643 -10.2640 -10.2633
   -10.2629 -10.2600 -10.2594 -10.2588  -6.6195  -6.6176  -6.6170  -6.5259
    -6.5241  -6.5234  -6.3087  -6.2902  -6.2885  -6.2867  -6.2576  -6.2143
    -5.8744  -5.8583  -5.8429  -5.7834  -5.7793  -5.7784  -5.7433  -5.7420
    -5.7404  -5.7145  -5.6898  -5.6875  -5.6867  -5.6747  -5.6727  -5.6708
    -5.6690  -5.6414  -5.5569  -5.5560  -5.5536  -5.5258  -5.5247  -5.5227
    -5.5056  -5.5038  -5.5026  -5.4983  -5.4584  -5.4001  -5.3976  -5.3957
    -5.3585  -5.3241  -5.3228  -5.3216  -0.5208  -0.5072  -0.5054  -0.5037
    -0.4610  -0.4185  -0.4169  -0.4151  -0.3550  -0.2947  -0.2924  -0.2904
     1.4810   1.4826   1.4838   1.6378   1.6385   1.6405   1.6897   1.7739
     1.7761   1.7771   1.7783   1.7937   1.9802   1.9817   1.9827   2.0551
     2.1695   2.1921   2.1932   2.1951   2.2483   2.3968   2.3974   2.3995
     2.4873   2.4889   2.4904   2.5570   2.5859   2.5883   2.5892   2.5940
     2.6788   2.7358   2.7374   2.7406   2.8221   2.8232   2.8239   2.8291
     2.9013   2.9023   2.9067   2.9234   2.9363   2.9533   2.9561   2.9579
     3.0576   3.0603   3.0612   3.0873   3.0888   3.0908   3.1276   3.1812
     3.2433   3.2452   3.2469   3.2701   3.2713   3.2753   3.3213   3.3265
     3.3282   3.3286   3.3734   3.4059   3.4195   3.4643   3.4655   3.4662
     3.4935   3.4975   3.4998   3.5004   3.5354   3.5371   3.5389   3.5402
     3.5609   3.6157   3.6162   3.6208   3.6534   3.6547   3.6586   3.6962
     3.6986   3.7005   3.7190   3.7452   3.8217   3.8395   3.8420   3.8426
     3.9370   3.9394   3.9408   3.9425   4.0272   4.0306   4.0320   4.0415
     4.0668   4.0679   4.0702   4.1089   4.1131   4.1140   4.1170   4.1678
     4.2717   4.2731   4.2766   4.2900   4.3129   4.3600   4.3618   4.3654
     4.4159   4.4173   4.4184   4.4910   4.4940   4.4952   4.5083   4.5128
     4.5645   4.6672   4.6688   4.6695   5.1495   5.1568   5.1575   5.1579
     5.1583   5.1820   5.1832   5.1834   5.1980   5.1981   5.1990   5.2112
     5.2251   5.2253   5.2264   5.2506   5.2524   5.2531   5.2567   5.2683
     5.3015   5.3023   5.3030   5.3096   5.3280   5.3290   5.3306   5.3674
     5.3684   5.3689   5.3743   5.3938   5.3956   5.4089   5.4094   5.4106
     5.4321   5.4331   5.4339   5.4390   5.4841   5.4849   5.4856   5.4917
     5.5390   5.5394   5.5407   5.5432   5.5665   5.5668   5.5674   5.6041
     5.6062   5.6066   5.6383   5.6387   5.6718   5.6724   5.6729   5.7026
     5.7036   5.7047   5.7171   5.7585   5.7596   5.7601   5.8019   5.8077
     5.8207   5.8236   5.8244   5.8248   5.8899   5.8907   5.8920   6.0565
     6.0593   6.0610   6.0620   6.0769   6.1199   6.1207   6.1220   6.1354
     6.1959   6.2369   6.2389   6.2394   6.2845   6.3016   6.3024   6.3029
     6.3066   6.3839   6.3859   6.3864   6.4495   6.4674   6.4680   6.4698
     6.4910   6.4939   6.5587   6.5596   6.5612   6.6468   6.6853   6.6858
     6.6864   6.7616   6.7782   6.7788   6.7795   6.7934   6.8545   6.8550
     6.8561   6.9355   6.9362   6.9373

          k =-0.3333 0.1925 0.0000 (115797 PWs)   bands (ev):

   -28.2764 -28.2762 -28.2761 -28.2760 -28.2757 -28.2757 -28.2753 -28.2750
   -28.2750 -28.2749 -28.2740 -28.2735 -14.9259 -14.9240 -14.9235 -14.9232
   -14.9228 -14.9227 -14.9225 -14.9224 -14.9222 -14.9220 -14.9215 -14.9201
   -14.9198 -14.9181 -14.9176 -14.9173 -14.9170 -14.9169 -14.9167 -14.9166
   -14.9164 -14.9161 -14.9153 -14.9139 -14.9080 -14.9061 -14.9055 -14.9052
   -14.9049 -14.9048 -14.9046 -14.9045 -14.9043 -14.9040 -14.9034 -14.9018
   -14.8678 -14.8659 -14.8653 -14.8650 -14.8647 -14.8646 -14.8645 -14.8643
   -14.8641 -14.8638 -14.8634 -14.8618 -14.8228 -14.8206 -14.8201 -14.8199
   -14.8196 -14.8194 -14.8193 -14.8192 -14.8189 -14.8187 -14.8179 -14.8165
   -10.3383 -10.3380 -10.3365 -10.3363 -10.3360 -10.3356 -10.3345 -10.3341
   -10.3327 -10.3320 -10.3315 -10.3264 -10.3074 -10.3071 -10.3061 -10.3042
   -10.3029 -10.3018 -10.3016 -10.3013 -10.2947 -10.2942 -10.2904 -10.2851
   -10.2699 -10.2695 -10.2687 -10.2669 -10.2662 -10.2636 -10.2633 -10.2627
   -10.2617 -10.2602 -10.2596 -10.2560  -6.7878  -6.5897  -6.4998  -6.4968
    -6.4391  -6.4374  -6.3648  -6.3487  -6.2867  -6.2830  -6.2502  -6.2464
    -5.9119  -5.9083  -5.8200  -5.8191  -5.8139  -5.7786  -5.7691  -5.7659
    -5.7321  -5.7256  -5.7225  -5.6911  -5.6892  -5.6481  -5.6394  -5.6375
    -5.6293  -5.5953  -5.5863  -5.5823  -5.5662  -5.5267  -5.5204  -5.5185
    -5.5152  -5.5030  -5.4610  -5.4522  -5.4390  -5.4343  -5.4221  -5.4127
    -5.3491  -5.3468  -5.3141  -5.2709  -0.5734  -0.5692  -0.5620  -0.4354
    -0.4059  -0.4018  -0.3773  -0.3386  -0.3374  -0.3368  -0.3126  -0.3027
     1.4180   1.4874   1.4888   1.5009   1.6403   1.6519   1.6882   1.7230
     1.7257   1.8285   1.8744   1.8779   1.9545   1.9560   1.9591   2.0284
     2.1155   2.2070   2.2280   2.2305   2.3385   2.3637   2.3861   2.3871
     2.3944   2.4081   2.4490   2.5373   2.5389   2.6119   2.6134   2.6167
     2.6570   2.7362   2.8122   2.8141   2.8249   2.8410   2.8421   2.8460
     2.8536   2.8844   2.9066   2.9095   2.9147   2.9611   2.9651   3.0043
     3.0504   3.0553   3.0592   3.1240   3.1490   3.1766   3.2039   3.2110
     3.2132   3.2346   3.2590   3.2624   3.2691   3.3237   3.3290   3.3321
     3.3394   3.3716   3.3920   3.3958   3.4332   3.4405   3.4424   3.4492
     3.4961   3.4986   3.5015   3.5099   3.5109   3.5137   3.5224   3.5416
     3.5618   3.6049   3.6096   3.6130   3.6359   3.6463   3.6789   3.6812
     3.6941   3.7022   3.7043   3.7123   3.7780   3.7795   3.8495   3.8611
     3.8959   3.9734   3.9759   3.9781   3.9805   4.0305   4.0388   4.0405
     4.0929   4.1113   4.1194   4.1232   4.1258   4.1570   4.1649   4.1772
     4.2475   4.2668   4.2684   4.2823   4.3038   4.3212   4.3243   4.3684
     4.3792   4.4165   4.4191   4.4838   4.5176   4.5265   4.5287   4.5309
     4.5900   4.5943   4.6272   4.7497   5.1442   5.1454   5.1468   5.1544
     5.1602   5.1614   5.1698   5.1746   5.2143   5.2196   5.2201   5.2218
     5.2281   5.2379   5.2485   5.2496   5.2506   5.2612   5.2667   5.2716
     5.2727   5.2896   5.3041   5.3048   5.3133   5.3192   5.3273   5.3279
     5.3364   5.3498   5.3520   5.3531   5.3573   5.3658   5.4139   5.4149
     5.4339   5.4514   5.4598   5.4611   5.4855   5.4932   5.4997   5.5008
     5.5027   5.5127   5.5279   5.5440   5.5568   5.5572   5.5609   5.6033
     5.6039   5.6295   5.6310   5.6323   5.6677   5.6775   5.6950   5.6961
     5.6964   5.7176   5.7298   5.7558   5.7743   5.7758   5.8085   5.8190
     5.8199   5.8638   5.8758   5.8770   5.9502   5.9526   5.9645   5.9663
     5.9906   6.0067   6.0075   6.0212   6.1387   6.1396   6.1460   6.1599
     6.2257   6.2291   6.2309   6.2510   6.2703   6.2888   6.2900   6.2989
     6.3612   6.3627   6.3771   6.3900   6.3913   6.4412   6.4858   6.4869
     6.5241   6.5376   6.5397   6.5765   6.6047   6.6511   6.6845   6.6921
     6.6935   6.7295   6.7380   6.7387   6.7635   6.7785   6.7929   6.8115
     6.8132   6.9046   6.9093   7.0809

          k = 0.3333 0.1925 0.0000 (115797 PWs)   bands (ev):

   -28.2764 -28.2762 -28.2761 -28.2760 -28.2757 -28.2757 -28.2753 -28.2750
   -28.2750 -28.2749 -28.2740 -28.2735 -14.9259 -14.9240 -14.9235 -14.9232
   -14.9228 -14.9227 -14.9226 -14.9224 -14.9222 -14.9220 -14.9214 -14.9201
   -14.9198 -14.9181 -14.9176 -14.9173 -14.9170 -14.9168 -14.9167 -14.9166
   -14.9164 -14.9161 -14.9153 -14.9139 -14.9080 -14.9061 -14.9055 -14.9052
   -14.9049 -14.9048 -14.9046 -14.9045 -14.9043 -14.9040 -14.9034 -14.9018
   -14.8678 -14.8659 -14.8653 -14.8650 -14.8647 -14.8646 -14.8645 -14.8643
   -14.8641 -14.8638 -14.8634 -14.8618 -14.8228 -14.8206 -14.8201 -14.8199
   -14.8196 -14.8194 -14.8193 -14.8192 -14.8189 -14.8187 -14.8179 -14.8165
   -10.3381 -10.3379 -10.3370 -10.3368 -10.3361 -10.3353 -10.3342 -10.3337
   -10.3327 -10.3321 -10.3315 -10.3264 -10.3074 -10.3071 -10.3060 -10.3044
   -10.3026 -10.3020 -10.3017 -10.3012 -10.2945 -10.2939 -10.2907 -10.2851
   -10.2698 -10.2697 -10.2684 -10.2668 -10.2666 -10.2640 -10.2625 -10.2622
   -10.2613 -10.2606 -10.2600 -10.2562  -6.7877  -6.5896  -6.4996  -6.4973
    -6.4395  -6.4375  -6.3647  -6.3498  -6.2849  -6.2831  -6.2487  -6.2466
    -5.9114  -5.9095  -5.8214  -5.8192  -5.8179  -5.7771  -5.7698  -5.7673
    -5.7322  -5.7245  -5.7199  -5.6917  -5.6894  -5.6475  -5.6385  -5.6360
    -5.6287  -5.5951  -5.5845  -5.5807  -5.5669  -5.5295  -5.5205  -5.5176
    -5.5157  -5.5046  -5.4610  -5.4525  -5.4368  -5.4344  -5.4217  -5.4137
    -5.3511  -5.3473  -5.3131  -5.2706  -0.5710  -0.5703  -0.5631  -0.4364
    -0.4038  -0.4027  -0.3766  -0.3415  -0.3378  -0.3364  -0.3113  -0.3021
     1.4197   1.4858   1.4880   1.5015   1.6393   1.6517   1.6884   1.7238
     1.7247   1.8276   1.8763   1.8780   1.9543   1.9558   1.9574   2.0274
     2.1160   2.2064   2.2288   2.2325   2.3394   2.3644   2.3852   2.3870
     2.3940   2.4073   2.4496   2.5372   2.5382   2.6124   2.6148   2.6173
     2.6589   2.7343   2.8123   2.8139   2.8207   2.8404   2.8430   2.8438
     2.8537   2.8857   2.9089   2.9096   2.9159   2.9628   2.9648   3.0044
     3.0484   3.0563   3.0587   3.1244   3.1481   3.1758   3.2057   3.2118
     3.2142   3.2341   3.2590   3.2615   3.2696   3.3231   3.3287   3.3314
     3.3387   3.3726   3.3946   3.3972   3.4329   3.4387   3.4421   3.4514
     3.4948   3.4981   3.5003   3.5107   3.5111   3.5145   3.5213   3.5435
     3.5627   3.6045   3.6059   3.6108   3.6354   3.6462   3.6798   3.6809
     3.6978   3.7017   3.7035   3.7127   3.7782   3.7800   3.8485   3.8584
     3.8954   3.9732   3.9767   3.9779   3.9818   4.0296   4.0380   4.0395
     4.0923   4.1122   4.1203   4.1217   4.1254   4.1623   4.1637   4.1766
     4.2485   4.2673   4.2684   4.2823   4.3041   4.3204   4.3232   4.3693
     4.3797   4.4165   4.4183   4.4839   4.5187   4.5247   4.5284   4.5313
     4.5906   4.5945   4.6267   4.7496   5.1439   5.1448   5.1471   5.1544
     5.1603   5.1606   5.1696   5.1744   5.2151   5.2194   5.2203   5.2217
     5.2275   5.2379   5.2485   5.2492   5.2508   5.2612   5.2682   5.2720
     5.2722   5.2896   5.3043   5.3048   5.3138   5.3182   5.3272   5.3279
     5.3363   5.3501   5.3528   5.3534   5.3574   5.3653   5.4125   5.4145
     5.4339   5.4509   5.4601   5.4617   5.4858   5.4933   5.4999   5.5004
     5.5030   5.5126   5.5278   5.5437   5.5563   5.5570   5.5611   5.6033
     5.6042   5.6306   5.6314   5.6321   5.6678   5.6780   5.6945   5.6962
     5.6972   5.7178   5.7287   5.7560   5.7743   5.7758   5.8083   5.8186
     5.8198   5.8639   5.8754   5.8765   5.9515   5.9517   5.9650   5.9657
     5.9902   6.0071   6.0081   6.0216   6.1390   6.1396   6.1449   6.1599
     6.2254   6.2302   6.2315   6.2506   6.2708   6.2890   6.2903   6.2990
     6.3611   6.3615   6.3772   6.3899   6.3907   6.4410   6.4858   6.4871
     6.5240   6.5378   6.5388   6.5759   6.6054   6.6516   6.6835   6.6927
     6.6954   6.7301   6.7370   6.7389   6.7628   6.7786   6.7923   6.8118
     6.8143   6.9045   6.9094   7.0803

          k = 0.0000-0.3849 0.2714 (115773 PWs)   bands (ev):

   -28.2764 -28.2762 -28.2761 -28.2760 -28.2757 -28.2757 -28.2753 -28.2750
   -28.2750 -28.2749 -28.2740 -28.2735 -14.9259 -14.9240 -14.9235 -14.9232
   -14.9228 -14.9228 -14.9225 -14.9224 -14.9222 -14.9220 -14.9215 -14.9201
   -14.9198 -14.9181 -14.9176 -14.9173 -14.9170 -14.9169 -14.9167 -14.9166
   -14.9164 -14.9161 -14.9153 -14.9139 -14.9080 -14.9061 -14.9055 -14.9052
   -14.9049 -14.9048 -14.9046 -14.9045 -14.9043 -14.9040 -14.9034 -14.9019
   -14.8678 -14.8659 -14.8653 -14.8650 -14.8647 -14.8646 -14.8645 -14.8643
   -14.8641 -14.8638 -14.8634 -14.8618 -14.8228 -14.8206 -14.8201 -14.8199
   -14.8196 -14.8194 -14.8193 -14.8192 -14.8189 -14.8187 -14.8179 -14.8165
   -10.3393 -10.3387 -10.3376 -10.3370 -10.3360 -10.3347 -10.3341 -10.3335
   -10.3330 -10.3312 -10.3297 -10.3272 -10.3100 -10.3081 -10.3054 -10.3047
   -10.3030 -10.3024 -10.2977 -10.2957 -10.2954 -10.2947 -10.2926 -10.2868
   -10.2695 -10.2690 -10.2684 -10.2674 -10.2668 -10.2630 -10.2624 -10.2623
   -10.2620 -10.2609 -10.2595 -10.2570  -6.7510  -6.6463  -6.5617  -6.4684
    -6.4189  -6.4177  -6.3630  -6.3417  -6.3398  -6.2647  -6.2110  -6.2098
    -5.9139  -5.9133  -5.8261  -5.8212  -5.8187  -5.8155  -5.7650  -5.7627
    -5.7533  -5.7356  -5.6839  -5.6819  -5.6809  -5.6640  -5.6428  -5.6393
    -5.6331  -5.6092  -5.5875  -5.5855  -5.5727  -5.5294  -5.5276  -5.5241
    -5.5161  -5.4863  -5.4635  -5.4409  -5.4386  -5.4364  -5.3979  -5.3702
    -5.3456  -5.3426  -5.3324  -5.2962  -0.5641  -0.5620  -0.5504  -0.4331
    -0.4295  -0.4274  -0.4120  -0.3614  -0.3224  -0.3192  -0.2910  -0.2836
     1.4048   1.4934   1.4963   1.5150   1.6121   1.7108   1.7123   1.7224
     1.7374   1.7733   1.8452   1.8467   1.9661   1.9852   2.0209   2.0222
     2.1293   2.1996   2.2093   2.2104   2.2856   2.3335   2.3962   2.4248
     2.4285   2.5193   2.5271   2.5316   2.5578   2.5582   2.5589   2.5616
     2.6002   2.6787   2.7636   2.7671   2.8231   2.8243   2.8267   2.8301
     2.8509   2.8534   2.8934   2.8968   2.9056   3.0082   3.0164   3.0190
     3.0766   3.0789   3.1175   3.1200   3.1344   3.1800   3.1813   3.1888
     3.2136   3.2467   3.2664   3.2838   3.2869   3.2966   3.3291   3.3340
     3.3743   3.3765   3.3787   3.3796   3.4474   3.4485   3.4496   3.4768
     3.4790   3.4824   3.5061   3.5190   3.5301   3.5355   3.5362   3.5588
     3.5862   3.5886   3.6102   3.6325   3.6396   3.6487   3.6835   3.6839
     3.6857   3.6952   3.7033   3.7063   3.8354   3.8384   3.8784   3.8803
     3.9401   3.9455   3.9463   3.9479   3.9716   4.0319   4.0536   4.0562
     4.0601   4.0630   4.1006   4.1028   4.1217   4.1230   4.1295   4.1338
     4.2249   4.2409   4.2667   4.2709   4.2879   4.2928   4.3128   4.3668
     4.3918   4.4344   4.4374   4.4804   4.5210   4.5449   4.5468   4.5856
     4.5962   4.5965   4.6334   4.7322   5.1471   5.1481   5.1526   5.1647
     5.1687   5.1691   5.1697   5.1729   5.2003   5.2046   5.2123   5.2183
     5.2186   5.2291   5.2413   5.2414   5.2607   5.2643   5.2651   5.2662
     5.2665   5.2733   5.3095   5.3113   5.3174   5.3340   5.3458   5.3472
     5.3586   5.3634   5.3639   5.3682   5.3699   5.3811   5.3886   5.3891
     5.4102   5.4334   5.4480   5.4515   5.4527   5.4692   5.4970   5.4978
     5.5166   5.5245   5.5565   5.5578   5.5684   5.5690   5.6014   5.6026
     5.6073   5.6201   5.6311   5.6489   5.6506   5.6602   5.6754   5.7090
     5.7096   5.7391   5.7594   5.7607   5.7700   5.7844   5.8043   5.8056
     5.8140   5.8389   5.8664   5.8684   5.8753   5.8944   5.9687   5.9697
     6.0192   6.0248   6.0265   6.1012   6.1028   6.1122   6.1597   6.1863
     6.2024   6.2035   6.2046   6.2629   6.2636   6.2880   6.3185   6.3423
     6.3549   6.3685   6.3695   6.4126   6.4195   6.4214   6.4520   6.4823
     6.4829   6.5067   6.5577   6.5673   6.6070   6.6084   6.6469   6.6675
     6.6691   6.7378   6.7381   6.7398   6.7488   6.8048   6.8056   6.8519
     6.8663   6.9177   6.9458   7.0385

          k =-0.3333 0.1925 0.2714 (115773 PWs)   bands (ev):

   -28.2764 -28.2762 -28.2761 -28.2760 -28.2757 -28.2757 -28.2753 -28.2750
   -28.2750 -28.2749 -28.2740 -28.2735 -14.9259 -14.9240 -14.9235 -14.9232
   -14.9228 -14.9227 -14.9225 -14.9224 -14.9222 -14.9220 -14.9215 -14.9201
   -14.9198 -14.9181 -14.9176 -14.9173 -14.9170 -14.9169 -14.9167 -14.9166
   -14.9164 -14.9161 -14.9153 -14.9139 -14.9080 -14.9061 -14.9055 -14.9052
   -14.9049 -14.9048 -14.9046 -14.9045 -14.9043 -14.9040 -14.9034 -14.9018
   -14.8678 -14.8659 -14.8653 -14.8650 -14.8647 -14.8646 -14.8645 -14.8643
   -14.8641 -14.8638 -14.8634 -14.8618 -14.8228 -14.8206 -14.8201 -14.8199
   -14.8196 -14.8194 -14.8193 -14.8192 -14.8189 -14.8187 -14.8179 -14.8165
   -10.3392 -10.3388 -10.3376 -10.3369 -10.3364 -10.3347 -10.3343 -10.3332
   -10.3327 -10.3313 -10.3296 -10.3273 -10.3100 -10.3080 -10.3055 -10.3048
   -10.3030 -10.3025 -10.2977 -10.2956 -10.2953 -10.2944 -10.2928 -10.2869
   -10.2695 -10.2691 -10.2683 -10.2676 -10.2669 -10.2630 -10.2627 -10.2622
   -10.2612 -10.2607 -10.2601 -10.2571  -6.7509  -6.6463  -6.5612  -6.4682
    -6.4198  -6.4184  -6.3630  -6.3425  -6.3386  -6.2649  -6.2125  -6.2083
    -5.9144  -5.9110  -5.8259  -5.8220  -5.8183  -5.8138  -5.7657  -5.7630
    -5.7546  -5.7339  -5.6840  -5.6825  -5.6812  -5.6639  -5.6432  -5.6407
    -5.6377  -5.6074  -5.5868  -5.5843  -5.5706  -5.5302  -5.5291  -5.5263
    -5.5142  -5.4851  -5.4650  -5.4398  -5.4381  -5.4345  -5.3992  -5.3699
    -5.3454  -5.3427  -5.3325  -5.2966  -0.5645  -0.5604  -0.5515  -0.4332
    -0.4303  -0.4272  -0.4112  -0.3607  -0.3230  -0.3209  -0.2905  -0.2828
     1.4044   1.4940   1.4957   1.5152   1.6124   1.7108   1.7127   1.7229
     1.7370   1.7733   1.8440   1.8484   1.9669   1.9852   2.0200   2.0236
     2.1302   2.1994   2.2081   2.2092   2.2856   2.3332   2.3959   2.4263
     2.4278   2.5179   2.5290   2.5299   2.5565   2.5589   2.5592   2.5603
     2.5992   2.6797   2.7631   2.7656   2.8236   2.8246   2.8256   2.8301
     2.8508   2.8529   2.8951   2.8975   2.9090   3.0073   3.0173   3.0199
     3.0768   3.0783   3.1169   3.1197   3.1343   3.1791   3.1812   3.1907
     3.2142   3.2459   3.2656   3.2822   3.2871   3.2954   3.3294   3.3322
     3.3732   3.3769   3.3783   3.3810   3.4463   3.4479   3.4497   3.4767
     3.4798   3.4832   3.5059   3.5168   3.5330   3.5346   3.5360   3.5591
     3.5860   3.5907   3.6115   3.6313   3.6398   3.6440   3.6830   3.6845
     3.6877   3.6966   3.7038   3.7086   3.8346   3.8365   3.8795   3.8809
     3.9412   3.9451   3.9468   3.9489   3.9722   4.0337   4.0526   4.0563
     4.0607   4.0627   4.0992   4.1021   4.1185   4.1242   4.1298   4.1338
     4.2233   4.2402   4.2680   4.2701   4.2898   4.2929   4.3146   4.3667
     4.3936   4.4334   4.4368   4.4802   4.5202   4.5440   4.5460   4.5858
     4.5952   4.6002   4.6317   4.7308   5.1481   5.1493   5.1535   5.1643
     5.1683   5.1692   5.1698   5.1727   5.1996   5.2048   5.2128   5.2181
     5.2202   5.2289   5.2406   5.2423   5.2606   5.2644   5.2646   5.2649
     5.2661   5.2732   5.3094   5.3107   5.3189   5.3333   5.3459   5.3468
     5.3598   5.3624   5.3637   5.3686   5.3699   5.3806   5.3887   5.3892
     5.4102   5.4333   5.4476   5.4513   5.4527   5.4687   5.4970   5.4980
     5.5166   5.5239   5.5557   5.5576   5.5687   5.5694   5.6023   5.6029
     5.6075   5.6197   5.6304   5.6495   5.6502   5.6604   5.6745   5.7085
     5.7093   5.7387   5.7589   5.7606   5.7703   5.7837   5.8048   5.8059
     5.8143   5.8401   5.8676   5.8681   5.8762   5.8955   5.9684   5.9702
     6.0191   6.0246   6.0261   6.1009   6.1020   6.1123   6.1596   6.1866
     6.2025   6.2038   6.2057   6.2617   6.2645   6.2873   6.3183   6.3420
     6.3545   6.3693   6.3705   6.4135   6.4197   6.4205   6.4514   6.4812
     6.4827   6.5076   6.5582   6.5667   6.6066   6.6076   6.6481   6.6671
     6.6682   6.7371   6.7385   6.7409   6.7483   6.8040   6.8055   6.8510
     6.8666   6.9187   6.9455   7.0391

          k = 0.3333 0.1925 0.2714 (115773 PWs)   bands (ev):

   -28.2764 -28.2762 -28.2761 -28.2760 -28.2757 -28.2757 -28.2753 -28.2750
   -28.2750 -28.2749 -28.2740 -28.2735 -14.9259 -14.9240 -14.9235 -14.9232
   -14.9228 -14.9227 -14.9226 -14.9224 -14.9222 -14.9220 -14.9214 -14.9201
   -14.9198 -14.9181 -14.9176 -14.9173 -14.9170 -14.9168 -14.9167 -14.9166
   -14.9164 -14.9161 -14.9153 -14.9139 -14.9080 -14.9061 -14.9055 -14.9052
   -14.9049 -14.9048 -14.9046 -14.9045 -14.9043 -14.9040 -14.9034 -14.9018
   -14.8678 -14.8659 -14.8653 -14.8650 -14.8647 -14.8646 -14.8645 -14.8643
   -14.8641 -14.8638 -14.8634 -14.8618 -14.8228 -14.8206 -14.8201 -14.8199
   -14.8196 -14.8194 -14.8193 -14.8192 -14.8189 -14.8187 -14.8179 -14.8165
   -10.3389 -10.3387 -10.3379 -10.3372 -10.3368 -10.3344 -10.3341 -10.3330
   -10.3324 -10.3315 -10.3295 -10.3275 -10.3100 -10.3078 -10.3055 -10.3051
   -10.3031 -10.3026 -10.2975 -10.2954 -10.2950 -10.2943 -10.2931 -10.2870
   -10.2694 -10.2693 -10.2682 -10.2675 -10.2672 -10.2631 -10.2620 -10.2618
   -10.2612 -10.2608 -10.2602 -10.2576  -6.7508  -6.6465  -6.5609  -6.4688
    -6.4210  -6.4187  -6.3632  -6.3398  -6.3385  -6.2655  -6.2106  -6.2094
    -5.9141  -5.9118  -5.8264  -5.8222  -5.8188  -5.8178  -5.7662  -5.7641
    -5.7511  -5.7336  -5.6860  -5.6815  -5.6794  -5.6622  -5.6425  -5.6416
    -5.6390  -5.6060  -5.5856  -5.5822  -5.5723  -5.5318  -5.5276  -5.5248
    -5.5155  -5.4859  -5.4656  -5.4393  -5.4369  -5.4347  -5.4012  -5.3700
    -5.3471  -5.3431  -5.3307  -5.2962  -0.5621  -0.5610  -0.5531  -0.4349
    -0.4293  -0.4279  -0.4100  -0.3600  -0.3241  -0.3218  -0.2892  -0.2828
     1.4058   1.4923   1.4948   1.5160   1.6124   1.7122   1.7130   1.7228
     1.7360   1.7717   1.8442   1.8462   1.9667   1.9864   2.0213   2.0238
     2.1297   2.1985   2.2083   2.2114   2.2847   2.3345   2.3976   2.4260
     2.4282   2.5166   2.5289   2.5314   2.5549   2.5574   2.5584   2.5605
     2.6005   2.6789   2.7642   2.7665   2.8223   2.8245   2.8258   2.8299
     2.8496   2.8528   2.8960   2.8978   2.9058   3.0090   3.0190   3.0209
     3.0744   3.0787   3.1180   3.1197   3.1349   3.1811   3.1823   3.1891
     3.2130   3.2476   3.2673   3.2845   3.2863   3.2952   3.3288   3.3313
     3.3742   3.3771   3.3789   3.3808   3.4418   3.4477   3.4512   3.4754
     3.4791   3.4800   3.5054   3.5197   3.5339   3.5355   3.5388   3.5588
     3.5865   3.5872   3.6139   3.6300   3.6392   3.6449   3.6819   3.6841
     3.6877   3.6974   3.7040   3.7068   3.8357   3.8376   3.8766   3.8802
     3.9399   3.9449   3.9472   3.9508   3.9709   4.0325   4.0521   4.0573
     4.0601   4.0608   4.1007   4.1020   4.1219   4.1232   4.1305   4.1361
     4.2222   4.2398   4.2686   4.2696   4.2900   4.2912   4.3143   4.3697
     4.3916   4.4336   4.4361   4.4814   4.5224   4.5427   4.5455   4.5868
     4.5952   4.5992   4.6317   4.7304   5.1480   5.1483   5.1531   5.1649
     5.1681   5.1689   5.1695   5.1727   5.1995   5.2052   5.2128   5.2183
     5.2193   5.2297   5.2408   5.2420   5.2605   5.2637   5.2645   5.2650
     5.2659   5.2738   5.3108   5.3111   5.3186   5.3340   5.3458   5.3473
     5.3603   5.3618   5.3641   5.3678   5.3693   5.3809   5.3881   5.3894
     5.4098   5.4332   5.4473   5.4520   5.4525   5.4689   5.4965   5.4975
     5.5169   5.5246   5.5559   5.5572   5.5681   5.5692   5.6017   5.6026
     5.6075   5.6200   5.6315   5.6492   5.6506   5.6607   5.6751   5.7087
     5.7092   5.7384   5.7597   5.7606   5.7704   5.7841   5.8051   5.8058
     5.8141   5.8397   5.8665   5.8682   5.8751   5.8951   5.9687   5.9696
     6.0187   6.0258   6.0269   6.1010   6.1025   6.1127   6.1604   6.1870
     6.2033   6.2038   6.2048   6.2628   6.2632   6.2868   6.3173   6.3417
     6.3547   6.3686   6.3705   6.4137   6.4193   6.4199   6.4520   6.4811
     6.4823   6.5073   6.5580   6.5668   6.6069   6.6081   6.6482   6.6663
     6.6689   6.7378   6.7397   6.7402   6.7486   6.8042   6.8060   6.8508
     6.8663   6.9186   6.9453   7.0387

          k =-0.3333-0.1925 0.2714 (115773 PWs)   bands (ev):

   -28.2764 -28.2762 -28.2761 -28.2760 -28.2757 -28.2757 -28.2753 -28.2750
   -28.2750 -28.2749 -28.2740 -28.2735 -14.9259 -14.9240 -14.9235 -14.9232
   -14.9228 -14.9227 -14.9226 -14.9224 -14.9222 -14.9220 -14.9214 -14.9201
   -14.9198 -14.9181 -14.9176 -14.9173 -14.9170 -14.9168 -14.9167 -14.9166
   -14.9164 -14.9161 -14.9153 -14.9139 -14.9080 -14.9061 -14.9055 -14.9052
   -14.9049 -14.9048 -14.9046 -14.9045 -14.9043 -14.9040 -14.9034 -14.9018
   -14.8678 -14.8659 -14.8653 -14.8650 -14.8647 -14.8646 -14.8645 -14.8643
   -14.8641 -14.8638 -14.8634 -14.8618 -14.8228 -14.8206 -14.8201 -14.8199
   -14.8196 -14.8194 -14.8193 -14.8192 -14.8189 -14.8187 -14.8179 -14.8165
   -10.3388 -10.3385 -10.3381 -10.3374 -10.3371 -10.3342 -10.3335 -10.3329
   -10.3324 -10.3322 -10.3297 -10.3272 -10.3103 -10.3069 -10.3065 -10.3058
   -10.3011 -10.3008 -10.3005 -10.2962 -10.2958 -10.2938 -10.2913 -10.2875
   -10.2698 -10.2697 -10.2675 -10.2669 -10.2668 -10.2643 -10.2624 -10.2619
   -10.2611 -10.2606 -10.2596 -10.2577  -6.7506  -6.6466  -6.5601  -6.4724
    -6.4243  -6.4217  -6.3635  -6.3289  -6.3264  -6.2587  -6.2244  -6.2230
    -5.9052  -5.9033  -5.8259  -5.8214  -5.8097  -5.8076  -5.7910  -5.7609
    -5.7591  -5.7296  -5.7139  -5.7097  -5.6708  -5.6343  -5.6297  -5.6276
    -5.6254  -5.6093  -5.5998  -5.5955  -5.5689  -5.5293  -5.5235  -5.5210
    -5.5179  -5.4973  -5.4663  -5.4321  -5.4283  -5.4265  -5.4240  -5.3642
    -5.3507  -5.3468  -5.3215  -5.2996  -0.5614  -0.5584  -0.5571  -0.4370
    -0.4352  -0.4261  -0.3928  -0.3726  -0.3208  -0.3185  -0.2981  -0.2783
     1.4347   1.4837   1.4860   1.4877   1.6246   1.6417   1.7722   1.7738
     1.7827   1.7899   1.7998   1.8015   1.9138   1.9948   1.9984   2.0765
     2.1553   2.2005   2.2102   2.2476   2.2499   2.3606   2.3923   2.3933
     2.3990   2.4470   2.5119   2.5134   2.5476   2.5899   2.5922   2.6098
     2.6406   2.7109   2.7612   2.7674   2.7703   2.7891   2.8082   2.8106
     2.8392   2.8743   2.9153   2.9179   2.9183   2.9827   3.0248   3.0264
     3.0660   3.1066   3.1081   3.1331   3.1713   3.1921   3.1928   3.1944
     3.2017   3.2331   3.2635   3.2646   3.2778   3.3169   3.3211   3.3227
     3.3248   3.3889   3.3910   3.4119   3.4422   3.4461   3.4656   3.4696
     3.4717   3.4730   3.4766   3.4776   3.5334   3.5355   3.5367   3.5895
     3.6104   3.6127   3.6159   3.6341   3.6429   3.6468   3.6587   3.6595
     3.6721   3.7088   3.7110   3.7153   3.8344   3.8372   3.8779   3.8876
     3.9042   3.9494   3.9535   3.9750   3.9815   4.0192   4.0463   4.0489
     4.0498   4.0648   4.1107   4.1118   4.1219   4.1330   4.1342   4.1497
     4.1906   4.2550   4.2654   4.2674   4.2879   4.2897   4.2949   4.3889
     4.3979   4.4375   4.4393   4.4680   4.5231   4.5257   4.5370   4.5972
     4.6091   4.6139   4.6224   4.7222   5.1510   5.1516   5.1548   5.1569
     5.1720   5.1755   5.1762   5.1836   5.1902   5.1978   5.2016   5.2077
     5.2090   5.2337   5.2350   5.2359   5.2543   5.2635   5.2653   5.2664
     5.2793   5.2989   5.3076   5.3122   5.3139   5.3280   5.3359   5.3369
     5.3578   5.3589   5.3601   5.3644   5.3801   5.3922   5.4069   5.4079
     5.4133   5.4321   5.4328   5.4443   5.4460   5.4926   5.5018   5.5030
     5.5092   5.5155   5.5541   5.5594   5.5740   5.5748   5.6027   5.6100
     5.6113   5.6197   5.6251   5.6260   5.6428   5.6702   5.6814   5.7143
     5.7147   5.7167   5.7335   5.7718   5.7727   5.7734   5.8021   5.8024
     5.8096   5.8587   5.8750   5.8759   5.8785   5.9143   5.9591   5.9599
     6.0342   6.0355   6.0369   6.0588   6.0786   6.0803   6.1735   6.2061
     6.2131   6.2138   6.2663   6.2668   6.2703   6.2772   6.2851   6.3490
     6.3495   6.3654   6.3720   6.4159   6.4242   6.4252   6.4273   6.4717
     6.4979   6.4991   6.5457   6.5595   6.5949   6.5964   6.6670   6.6684
     6.6771   6.7205   6.7361   6.7383   6.7472   6.8136   6.8153   6.8448
     6.8693   6.9285   6.9369   7.0518

          k = 0.3333-0.1925 0.2714 (115773 PWs)   bands (ev):

   -28.2764 -28.2762 -28.2761 -28.2760 -28.2757 -28.2757 -28.2753 -28.2750
   -28.2750 -28.2749 -28.2740 -28.2735 -14.9259 -14.9240 -14.9235 -14.9232
   -14.9228 -14.9227 -14.9225 -14.9224 -14.9222 -14.9220 -14.9215 -14.9201
   -14.9198 -14.9181 -14.9176 -14.9173 -14.9170 -14.9169 -14.9167 -14.9166
   -14.9164 -14.9161 -14.9153 -14.9139 -14.9080 -14.9061 -14.9055 -14.9052
   -14.9049 -14.9048 -14.9046 -14.9045 -14.9043 -14.9040 -14.9034 -14.9018
   -14.8678 -14.8659 -14.8653 -14.8650 -14.8647 -14.8646 -14.8645 -14.8643
   -14.8641 -14.8638 -14.8634 -14.8618 -14.8228 -14.8206 -14.8201 -14.8199
   -14.8196 -14.8194 -14.8193 -14.8192 -14.8189 -14.8187 -14.8179 -14.8165
   -10.3390 -10.3387 -10.3378 -10.3371 -10.3366 -10.3343 -10.3342 -10.3330
   -10.3326 -10.3317 -10.3297 -10.3271 -10.3103 -10.3068 -10.3063 -10.3059
   -10.3014 -10.3006 -10.3003 -10.2965 -10.2961 -10.2938 -10.2909 -10.2875
   -10.2700 -10.2693 -10.2683 -10.2669 -10.2662 -10.2640 -10.2631 -10.2623
   -10.2615 -10.2601 -10.2593 -10.2575  -6.7507  -6.6465  -6.5604  -6.4717
    -6.4232  -6.4217  -6.3634  -6.3305  -6.3271  -6.2582  -6.2263  -6.2222
    -5.9058  -5.9021  -5.8236  -5.8224  -5.8089  -5.8018  -5.7934  -5.7615
    -5.7592  -5.7324  -5.7116  -5.7097  -5.6722  -5.6358  -5.6298  -5.6278
    -5.6261  -5.6081  -5.6013  -5.5982  -5.5675  -5.5291  -5.5236  -5.5216
    -5.5172  -5.4966  -5.4666  -5.4322  -5.4300  -5.4259  -5.4222  -5.3636
    -5.3488  -5.3464  -5.3231  -5.3002  -0.5613  -0.5592  -0.5568  -0.4373
    -0.4342  -0.4250  -0.3940  -0.3733  -0.3197  -0.3176  -0.2991  -0.2787
     1.4328   1.4852   1.4863   1.4879   1.6257   1.6416   1.7729   1.7734
     1.7820   1.7902   1.7979   1.8026   1.9144   1.9952   1.9982   2.0777
     2.1560   2.2011   2.2108   2.2462   2.2482   2.3593   2.3922   2.3940
     2.3977   2.4497   2.5114   2.5125   2.5463   2.5899   2.5909   2.6075
     2.6432   2.7106   2.7626   2.7686   2.7695   2.7905   2.8085   2.8107
     2.8381   2.8742   2.9156   2.9166   2.9206   2.9819   3.0226   3.0259
     3.0680   3.1043   3.1085   3.1327   3.1727   3.1923   3.1929   3.1947
     3.2004   3.2330   3.2620   3.2665   3.2764   3.3175   3.3200   3.3224
     3.3260   3.3869   3.3904   3.4106   3.4443   3.4486   3.4678   3.4707
     3.4714   3.4730   3.4754   3.4768   3.5313   3.5361   3.5373   3.5922
     3.6109   3.6120   3.6141   3.6334   3.6411   3.6479   3.6590   3.6632
     3.6674   3.7104   3.7111   3.7176   3.8344   3.8358   3.8808   3.8890
     3.9047   3.9486   3.9507   3.9737   3.9824   4.0201   4.0476   4.0499
     4.0515   4.0666   4.1079   4.1124   4.1199   4.1307   4.1352   4.1467
     4.1907   4.2561   4.2661   4.2682   4.2882   4.2899   4.2953   4.3865
     4.3987   4.4374   4.4401   4.4676   4.5234   4.5255   4.5351   4.5972
     4.6103   4.6144   4.6227   4.7216   5.1508   5.1526   5.1543   5.1565
     5.1718   5.1760   5.1766   5.1832   5.1906   5.1978   5.2019   5.2081
     5.2089   5.2340   5.2352   5.2362   5.2547   5.2640   5.2652   5.2661
     5.2792   5.2988   5.3073   5.3125   5.3134   5.3285   5.3360   5.3374
     5.3571   5.3582   5.3603   5.3635   5.3805   5.3933   5.4066   5.4073
     5.4129   5.4313   5.4333   5.4453   5.4458   5.4922   5.5021   5.5034
     5.5089   5.5156   5.5525   5.5595   5.5746   5.5750   5.6022   5.6104
     5.6113   5.6194   5.6252   5.6257   5.6427   5.6706   5.6812   5.7131
     5.7149   5.7171   5.7331   5.7713   5.7724   5.7737   5.8023   5.8032
     5.8096   5.8587   5.8755   5.8759   5.8785   5.9152   5.9586   5.9604
     6.0334   6.0345   6.0362   6.0604   6.0789   6.0798   6.1736   6.2060
     6.2124   6.2145   6.2656   6.2672   6.2699   6.2775   6.2850   6.3492
     6.3509   6.3656   6.3719   6.4153   6.4243   6.4254   6.4274   6.4713
     6.4978   6.4993   6.5464   6.5592   6.5958   6.5969   6.6660   6.6678
     6.6772   6.7206   6.7361   6.7369   6.7474   6.8135   6.8142   6.8447
     6.8696   6.9289   6.9369   7.0524

          k =-0.3333-0.5774 0.2714 (115827 PWs)   bands (ev):

   -28.2764 -28.2762 -28.2761 -28.2760 -28.2757 -28.2757 -28.2753 -28.2750
   -28.2750 -28.2749 -28.2740 -28.2735 -14.9259 -14.9240 -14.9235 -14.9232
   -14.9228 -14.9227 -14.9225 -14.9224 -14.9222 -14.9220 -14.9215 -14.9201
   -14.9198 -14.9181 -14.9176 -14.9173 -14.9170 -14.9169 -14.9167 -14.9166
   -14.9164 -14.9161 -14.9153 -14.9139 -14.9080 -14.9061 -14.9055 -14.9052
   -14.9049 -14.9048 -14.9046 -14.9045 -14.9043 -14.9040 -14.9034 -14.9019
   -14.8678 -14.8659 -14.8653 -14.8650 -14.8647 -14.8646 -14.8645 -14.8643
   -14.8641 -14.8638 -14.8634 -14.8618 -14.8228 -14.8206 -14.8201 -14.8199
   -14.8196 -14.8194 -14.8193 -14.8192 -14.8189 -14.8187 -14.8179 -14.8165
   -10.3390 -10.3379 -10.3370 -10.3369 -10.3364 -10.3335 -10.3333 -10.3330
   -10.3327 -10.3305 -10.3301 -10.3298 -10.3079 -10.3076 -10.3073 -10.3049
   -10.3013 -10.3006 -10.2975 -10.2973 -10.2969 -10.2919 -10.2914 -10.2913
   -10.2698 -10.2687 -10.2670 -10.2666 -10.2663 -10.2643 -10.2638 -10.2634
   -10.2629 -10.2600 -10.2594 -10.2589  -6.6196  -6.6177  -6.6168  -6.5261
    -6.5240  -6.5233  -6.3086  -6.2902  -6.2886  -6.2867  -6.2578  -6.2142
    -5.8739  -5.8566  -5.8453  -5.7832  -5.7793  -5.7782  -5.7446  -5.7417
    -5.7400  -5.7153  -5.6903  -5.6873  -5.6853  -5.6734  -5.6716  -5.6712
    -5.6684  -5.6446  -5.5573  -5.5564  -5.5533  -5.5260  -5.5243  -5.5220
    -5.5049  -5.5033  -5.5029  -5.4973  -5.4594  -5.4000  -5.3976  -5.3968
    -5.3583  -5.3247  -5.3226  -5.3209  -0.5207  -0.5074  -0.5052  -0.5037
    -0.4611  -0.4186  -0.4169  -0.4150  -0.3550  -0.2946  -0.2923  -0.2905
     1.4811   1.4828   1.4840   1.6374   1.6385   1.6396   1.6899   1.7734
     1.7756   1.7766   1.7781   1.7946   1.9811   1.9816   1.9838   2.0551
     2.1713   2.1925   2.1928   2.1950   2.2467   2.3951   2.3973   2.3985
     2.4882   2.4891   2.4909   2.5573   2.5871   2.5883   2.5891   2.5932
     2.6796   2.7357   2.7373   2.7388   2.8219   2.8229   2.8246   2.8296
     2.9005   2.9031   2.9045   2.9236   2.9366   2.9546   2.9556   2.9581
     3.0591   3.0612   3.0621   3.0866   3.0886   3.0911   3.1261   3.1810
     3.2441   3.2452   3.2462   3.2693   3.2711   3.2738   3.3220   3.3268
     3.3278   3.3290   3.3732   3.4087   3.4214   3.4623   3.4658   3.4660
     3.4911   3.4982   3.4994   3.5011   3.5352   3.5370   3.5385   3.5420
     3.5603   3.6152   3.6157   3.6191   3.6537   3.6545   3.6593   3.6966
     3.6982   3.7018   3.7208   3.7432   3.8222   3.8388   3.8412   3.8426
     3.9368   3.9398   3.9410   3.9430   4.0284   4.0297   4.0321   4.0405
     4.0659   4.0681   4.0721   4.1099   4.1114   4.1148   4.1167   4.1675
     4.2723   4.2734   4.2760   4.2889   4.3141   4.3603   4.3612   4.3648
     4.4161   4.4168   4.4192   4.4917   4.4934   4.4949   4.5092   4.5119
     4.5646   4.6670   4.6684   4.6700   5.1492   5.1568   5.1574   5.1579
     5.1593   5.1822   5.1830   5.1838   5.1980   5.1982   5.1989   5.2107
     5.2244   5.2252   5.2260   5.2517   5.2525   5.2531   5.2570   5.2692
     5.3017   5.3022   5.3026   5.3090   5.3286   5.3297   5.3298   5.3671
     5.3684   5.3692   5.3747   5.3940   5.3953   5.4084   5.4095   5.4098
     5.4320   5.4332   5.4340   5.4387   5.4840   5.4851   5.4860   5.4915
     5.5385   5.5395   5.5401   5.5431   5.5663   5.5666   5.5673   5.6050
     5.6059   5.6069   5.6382   5.6390   5.6714   5.6725   5.6735   5.7024
     5.7036   5.7045   5.7181   5.7583   5.7599   5.7605   5.8015   5.8077
     5.8202   5.8238   5.8242   5.8254   5.8896   5.8904   5.8915   6.0566
     6.0597   6.0612   6.0616   6.0779   6.1195   6.1209   6.1214   6.1348
     6.1965   6.2369   6.2386   6.2393   6.2839   6.3011   6.3030   6.3035
     6.3066   6.3848   6.3855   6.3867   6.4507   6.4664   6.4676   6.4700
     6.4913   6.4933   6.5588   6.5595   6.5615   6.6461   6.6854   6.6858
     6.6864   6.7612   6.7780   6.7785   6.7799   6.7938   6.8544   6.8550
     6.8558   6.9356   6.9360   6.9376

     highest occupied level (ev):     7.1808

!    total energy              =   -9077.18771917 Ry
     estimated scf accuracy    <          8.6E-10 Ry

     The total energy is the sum of the following terms:
     one-electron contribution =   -2776.30057926 Ry
     hartree contribution      =    2019.90594704 Ry
     xc contribution           =   -2269.38586875 Ry
     ewald contribution        =   -3895.61093762 Ry
     one-center paw contrib.   =   -2155.79628059 Ry

     convergence has been achieved in  21 iterations

     negative rho (up, down):  7.902E-01 0.000E+00

     Forces acting on atoms (cartesian axes, Ry/au):

     atom    1 type  1   force =     0.00000974    0.00019935    0.00019565
     atom    2 type  1   force =    -0.00020469    0.00025290    0.00002617
     atom    3 type  1   force =    -0.00015562    0.00030031    0.00002332
     atom    4 type  1   force =    -0.00016683    0.00025642    0.00001435
     atom    5 type  1   force =    -0.00025333   -0.00016846   -0.00032370
     atom    6 type  1   force =    -0.00034854   -0.00030321   -0.00003927
     atom    7 type  1   force =    -0.00008051   -0.00034823   -0.00002762
     atom    8 type  1   force =    -0.00016500   -0.00026991   -0.00003923
     atom    9 type  1   force =     0.00031041   -0.00000274    0.00001126
     atom   10 type  1   force =     0.00029526   -0.00001743    0.00003363
     atom   11 type  1   force =     0.00032092    0.00001691   -0.00000060
     atom   12 type  1   force =     0.00030175    0.00000723    0.00001898
     atom   13 type  2   force =     0.00326504   -0.00002460   -0.00285847
     atom   14 type  2   force =     0.00018298   -0.00037501    0.00016777
     atom   15 type  2   force =     0.00020028   -0.00037782    0.00018171
     atom   16 type  2   force =     0.00018138   -0.00040607    0.00020319
     atom   17 type  2   force =     0.00024678    0.00037368    0.00018851
     atom   18 type  2   force =     0.00022227    0.00036853    0.00019653
     atom   19 type  2   force =     0.00023122    0.00036498    0.00019278
     atom   20 type  2   force =     0.00021163    0.00035538    0.00020809
     atom   21 type  2   force =    -0.00042873    0.00001183    0.00018942
     atom   22 type  2   force =    -0.00044291    0.00002883    0.00018518
     atom   23 type  2   force =    -0.00043971    0.00002042    0.00020624
     atom   24 type  2   force =    -0.00043665    0.00001699    0.00018861
     atom   25 type  2   force =    -0.00043502   -0.00001967   -0.00019894
     atom   26 type  2   force =    -0.00062735   -0.00022472   -0.00025548
     atom   27 type  2   force =    -0.00049353   -0.00004240   -0.00034704
     atom   28 type  2   force =    -0.00044809   -0.00001498   -0.00018209
     atom   29 type  2   force =     0.00000394    0.00023407   -0.00013806
     atom   30 type  2   force =     0.00011645    0.00020950   -0.00024750
     atom   31 type  2   force =     0.00021484    0.00038551   -0.00016786
     atom   32 type  2   force =     0.00020328    0.00038748   -0.00017087
     atom   33 type  2   force =     0.00023381   -0.00037164   -0.00018405
     atom   34 type  2   force =     0.00022084   -0.00036658   -0.00015990
     atom   35 type  2   force =     0.00023773   -0.00037135   -0.00018285
     atom   36 type  2   force =     0.00023508   -0.00036428   -0.00018609
     atom   37 type  3   force =     0.00013317    0.00000519    0.00052523
     atom   38 type  3   force =     0.00023957   -0.00049589    0.00000835
     atom   39 type  3   force =     0.00032733   -0.00049671   -0.00001590
     atom   40 type  3   force =     0.00030691   -0.00055272   -0.00008453
     atom   41 type  3   force =     0.00029328    0.00050172    0.00005720
     atom   42 type  3   force =     0.00025451    0.00042076   -0.00001198
     atom   43 type  3   force =     0.00028218    0.00047438    0.00001874
     atom   44 type  3   force =     0.00025237    0.00047387    0.00000915
     atom   45 type  3   force =    -0.00056720   -0.00001664   -0.00004770
     atom   46 type  3   force =     0.00005593    0.00055868   -0.00007865
     atom   47 type  3   force =    -0.00083896   -0.00019241    0.00004516
     atom   48 type  3   force =    -0.00063850    0.00019934    0.00003651
     atom   49 type  4   force =     0.00035689   -0.00016073   -0.00010833
     atom   50 type  4   force =     0.00037063   -0.00010003    0.00001301
     atom   51 type  4   force =     0.00034436   -0.00009332    0.00001208
     atom   52 type  4   force =     0.00035625   -0.00009219    0.00002387
     atom   53 type  4   force =    -0.00006010    0.00035378   -0.00003745
     atom   54 type  4   force =    -0.00005900    0.00040462    0.00011090
     atom   55 type  4   force =    -0.00009926    0.00034925   -0.00000593
     atom   56 type  4   force =    -0.00008736    0.00034065    0.00001446
     atom   57 type  4   force =    -0.00082725   -0.00110886    0.00006364
     atom   58 type  4   force =    -0.00020609   -0.00028110   -0.00000747
     atom   59 type  4   force =    -0.00024288   -0.00025789    0.00002884
     atom   60 type  4   force =    -0.00026560   -0.00023846    0.00004053
     atom   61 type  4   force =    -0.00018524    0.00025970   -0.00001843
     atom   62 type  4   force =    -0.00030433    0.00025501    0.00002478
     atom   63 type  4   force =    -0.00025562    0.00023379   -0.00001253
     atom   64 type  4   force =    -0.00023746    0.00021490   -0.00001680
     atom   65 type  4   force =     0.00034753    0.00010417   -0.00003708
     atom   66 type  4   force =     0.00035684    0.00011306   -0.00001052
     atom   67 type  4   force =     0.00035131    0.00010228   -0.00003193
     atom   68 type  4   force =     0.00036094    0.00010967   -0.00003198
     atom   69 type  4   force =    -0.00008467   -0.00035248   -0.00000461
     atom   70 type  4   force =     0.00015514   -0.00174713    0.00210127
     atom   71 type  4   force =    -0.00007131   -0.00024768    0.00008188
     atom   72 type  4   force =    -0.00010622   -0.00034082    0.00000542
     atom   73 type  4   force =    -0.00149532    0.00152482    0.00111319
     atom   74 type  4   force =     0.00002561    0.00016151   -0.00022370
     atom   75 type  4   force =     0.00001781    0.00016274   -0.00024220
     atom   76 type  4   force =     0.00001629    0.00015006   -0.00023167
     atom   77 type  4   force =    -0.00014366   -0.00006002   -0.00024953
     atom   78 type  4   force =    -0.00012128   -0.00008118   -0.00030809
     atom   79 type  4   force =    -0.00014007   -0.00006059   -0.00023209
     atom   80 type  4   force =    -0.00014097    0.00002637   -0.00027306
     atom   81 type  4   force =     0.00012650   -0.00008856   -0.00027621
     atom   82 type  4   force =     0.00013319   -0.00009028   -0.00025342
     atom   83 type  4   force =     0.00013062   -0.00008945   -0.00025911
     atom   84 type  4   force =     0.00012904   -0.00008730   -0.00025340
     atom   85 type  4   force =     0.00009811    0.00009676    0.00023836
     atom   86 type  4   force =     0.00015612    0.00017939    0.00026729
     atom   87 type  4   force =     0.00012046    0.00008453    0.00025738
     atom   88 type  4   force =     0.00015762    0.00010230    0.00024129
     atom   89 type  4   force =     0.00010074   -0.00010942    0.00025483
     atom   90 type  4   force =    -0.00089166   -0.00011619   -0.00038610
     atom   91 type  4   force =     0.00001803   -0.00015003    0.00024560
     atom   92 type  4   force =    -0.00006386   -0.00023376    0.00026295
     atom   93 type  4   force =    -0.00012784    0.00007103    0.00023859
     atom   94 type  4   force =    -0.00014982    0.00006001    0.00021014
     atom   95 type  4   force =    -0.00013659    0.00006795    0.00023759
     atom   96 type  4   force =    -0.00014632    0.00005831    0.00024038

     Total force =     0.007140     Total SCF correction =     0.000056
     Message from routine punch:
     Nothing written, as per user request (disk_io='none')

     init_run     :     38.93s CPU     41.83s WALL (       1 calls)
     electrons    :   2036.28s CPU   2149.04s WALL (       1 calls)
     forces       :     18.80s CPU     19.34s WALL (       1 calls)

     Called by init_run:
     wfcinit      :     34.35s CPU     36.78s WALL (       1 calls)
     potinit      :      1.10s CPU      1.13s WALL (       1 calls)
     hinit0       :      1.08s CPU      1.10s WALL (       1 calls)

     Called by electrons:
     c_bands      :   1809.57s CPU   1894.96s WALL (      21 calls)
     sum_band     :    204.66s CPU    223.71s WALL (      21 calls)
     v_of_rho     :      3.76s CPU      4.37s WALL (      22 calls)
     newd         :     12.75s CPU     20.65s WALL (      22 calls)
     PAW_pot      :      5.31s CPU      5.33s WALL (      22 calls)
     mix_rho      :      0.72s CPU      0.80s WALL (      21 calls)

     Called by c_bands:
     init_us_2    :     24.72s CPU     26.24s WALL (     308 calls)
     cegterg      :   1706.05s CPU   1789.87s WALL (     147 calls)

     Called by *egterg:
     cdiaghg      :     88.16s CPU     90.60s WALL (     893 calls)
     h_psi        :    896.78s CPU    956.92s WALL (     900 calls)
     s_psi        :    180.24s CPU    181.30s WALL (     900 calls)
     g_psi        :      2.91s CPU      2.93s WALL (     746 calls)

     Called by h_psi:
     h_psi:calbec :    219.43s CPU    221.64s WALL (     900 calls)
     vloc_psi     :    493.66s CPU    545.36s WALL (     900 calls)
     add_vuspsi   :    180.48s CPU    181.70s WALL (     900 calls)

     General routines
     calbec       :    303.47s CPU    306.43s WALL (    1075 calls)
     fft          :      5.12s CPU      5.56s WALL (     295 calls)
     ffts         :      0.73s CPU      0.76s WALL (      43 calls)
     fftw         :    396.66s CPU    443.87s WALL (  432652 calls)
     interpolate  :      0.87s CPU      0.94s WALL (      22 calls)

     Parallel routines

     PWSCF        :  34m54.24s CPU  36m50.81s WALL


   This run was terminated on:   3: 3:56  21Aug2026            

=------------------------------------------------------------------------------=
   JOB DONE.
=------------------------------------------------------------------------------=
