
     Program PWSCF v.7.5 starts on 30Jun2026 at  5:47:52 
        Git branch: develop
        Last git commit: ea9b1b3d7915154c244e4a71786faaa0fdafa55c
        Last git commit date: Mon Mar 16 14:03:30 2026 +0000
        Last git commit subject: Merge branch 'dev_td_porting' into 'develop'

     This program is part of the open-source Quantum ESPRESSO suite
     for quantum simulation of materials; please cite
         "P. Giannozzi et al., J. Phys.:Condens. Matter 21 395502 (2009);
         "P. Giannozzi et al., J. Phys.:Condens. Matter 29 465901 (2017);
         "P. Giannozzi et al., J. Chem. Phys. 152 154105 (2020);
          URL http://www.quantum-espresso.org", 
     in publications or presentations arising from this work. More details at
     http://www.quantum-espresso.org/quote

     Parallel version (MPI), running on     8 processors

     MPI processes distributed on     1 nodes
     0 MiB available memory on the printing compute node when the environment starts

     Reading input from /Users/kaede/research/Waterloo Holger thermoelectric materials/thermo_candidates/SrCu2SnS4/qe/02_nscf/SrCu2SnS4.nscf.in
Warning: card &IONS ignored
Warning: card &CELL ignored

     Current dimensions of program PWSCF are:
     Max number of different atomic species (ntypx) = 10
     Max number of k-points (npk) =  40000
     Max angular momentum in pseudopotentials (lmaxx) =  4
     file Cu.paw.z_11.ld1.psl.v1.0.0-low.upf: wavefunction(s)  4S 3D renormalized

     Atomic positions and unit cell read from directory:
     ./tmp/final/SrCu2SnS4.save/


     Exact exchange band parallelism type set to band_pairs

     Message from routine setup:
     using ibrav=0 with symmetry is DISCOURAGED, use correct ibrav instead

     K-points division:     npool     =       4
     R & G space division:  proc/nbgrp/npool/nimage =       2
     Subspace diagonalization in iterative solution of the eigenvalue problem:
     a serial algorithm will be used


     Parallelization info
     --------------------
     sticks:   dense  smooth     PW     G-vecs:    dense   smooth      PW
     Min        3579    1785    477               601639   212633   29737
     Max        3580    1786    478               601644   212640   29750
     Sum        7159    3571    955              1203283   425273   59487

     Using Slab Decomposition



     bravais-lattice index     =            0
     lattice parameter (alat)  =      12.0136  a.u.
     unit-cell volume          =    3688.0115 (a.u.)^3
     number of atoms/cell      =           24
     number of atomic types    =            4
     number of electrons       =       210.00
     number of Kohn-Sham states=          140
     kinetic-energy cutoff     =      90.0000  Ry
     charge density cutoff     =     720.0000  Ry
     Exchange-correlation= SLA  PW   PBE  PBE
                           (   1   4   3   4   0   0   0)

     celldm(1)=  12.013637  celldm(2)=   0.000000  celldm(3)=   0.000000
     celldm(4)=   0.000000  celldm(5)=   0.000000  celldm(6)=   0.000000

     crystal axes: (cart. coord. in units of alat)
               a(1) = (   1.000000   0.000000   0.000000 )  
               a(2) = (  -0.500000   0.866025   0.000000 )  
               a(3) = (   0.000000   0.000000   2.456056 )  

     reciprocal axes: (cart. coord. in units 2 pi/alat)
               b(1) = (  1.000000  0.577351 -0.000000 )  
               b(2) = (  0.000000  1.154701  0.000000 )  
               b(3) = (  0.000000 -0.000000  0.407157 )  


     PseudoPot. # 1 for Cu read from file:
     /Users/kaede/scientific-tools/pseudopotentials/SSSP/1.3.0/PBE/precision/Cu.paw.z_11.ld1.psl.v1.0.0-low.upf
     MD5 check sum: 619f40885d92a09a85a8b37550532d0c
     Pseudo is Projector augmented-wave + core cor, Zval = 11.0
     Generated using &quot;atomic&quot; code by A. Dal Corso  v.6.3MaX
     Shape of augmentation charge: PSQ
     Using radial grid of 1199 points,  6 beta functions with: 
                l(1) =   0
                l(2) =   0
                l(3) =   1
                l(4) =   1
                l(5) =   2
                l(6) =   2
     Q(r) pseudized with 0 coefficients 


     PseudoPot. # 2 for S  read from file:
     /Users/kaede/scientific-tools/pseudopotentials/SSSP/1.3.0/PBE/precision/s_pbe_v1.4.uspp.F.UPF
     MD5 check sum: 88d86576ff6df21479756cfb9bdac1df
     Pseudo is Ultrasoft + core correction, Zval =  6.0
     Generated by new atomic code, or converted to UPF format
     Using radial grid of  907 points,  6 beta functions with: 
                l(1) =   0
                l(2) =   0
                l(3) =   1
                l(4) =   1
                l(5) =   2
                l(6) =   2
     Q(r) pseudized with  8 coefficients,  rinner =    1.300   1.300   1.300
                                                       1.300   1.300

     PseudoPot. # 3 for Sn read from file:
     /Users/kaede/scientific-tools/pseudopotentials/SSSP/1.3.0/PBE/precision/Sn_pbe_v1.uspp.F.UPF
     MD5 check sum: 4cf58ce39ec5d5d420df3dd08604eb00
     Pseudo is Ultrasoft + core correction, Zval = 14.0
     Generated by new atomic code, or converted to UPF format
     Using radial grid of  891 points,  6 beta functions with: 
                l(1) =   0
                l(2) =   0
                l(3) =   1
                l(4) =   1
                l(5) =   2
                l(6) =   2
     Q(r) pseudized with  6 coefficients,  rinner =    1.200   1.200   1.200
                                                       1.200   1.200

     PseudoPot. # 4 for Sr read from file:
     /Users/kaede/scientific-tools/pseudopotentials/SSSP/1.3.0/PBE/precision/Sr_pbe_v1.uspp.F.UPF
     MD5 check sum: 6b418c05fbe9db5448babca5e47b7a5b
     Pseudo is Ultrasoft + core correction, Zval = 10.0
     Generated by new atomic code, or converted to UPF format
     Using radial grid of  883 points,  6 beta functions with: 
                l(1) =   0
                l(2) =   0
                l(3) =   1
                l(4) =   1
                l(5) =   2
                l(6) =   2
     Q(r) pseudized with  6 coefficients,  rinner =    1.400   1.400   1.400
                                                       1.400   1.400

     atomic species   valence    mass     pseudopotential
     Cu               11.00    63.54600     Cu( 1.00)
     S                 6.00    32.06500     S ( 1.00)
     Sn               14.00   118.71000     Sn( 1.00)
     Sr               10.00    87.62000     Sr( 1.00)

      6 Sym. Ops. (no inversion) found ( 4 have fractional translation)


                                    s                        frac. trans.

      isym =  1     identity                                     

 cryst.   s( 1) = (     1          0          0      )
                  (     0          1          0      )
                  (     0          0          1      )

 cart.    s( 1) = (  1.0000000  0.0000000  0.0000000 )
                  (  0.0000000  1.0000000  0.0000000 )
                  (  0.0000000  0.0000000  1.0000000 )


      isym =  2     180 deg rotation - cart. axis [1,0,0]        

 cryst.   s( 2) = (     1          0          0      )    f =( -0.0000000 )
                  (    -1         -1          0      )       (  0.0000000 )
                  (     0          0         -1      )       (  0.3333330 )

 cart.    s( 2) = (  1.0000000  0.0000002  0.0000000 )    f =( -0.0000000 )
                  (  0.0000000 -1.0000000  0.0000000 )       (  0.0000000 )
                  (  0.0000000  0.0000000 -1.0000000 )       (  0.8186844 )


      isym =  3     120 deg rotation - cryst. axis [0,0,1]       

 cryst.   s( 3) = (     0          1          0      )    f =( -0.0000000 )
                  (    -1         -1          0      )       ( -0.0000000 )
                  (     0          0          1      )       ( -0.3333330 )

 cart.    s( 3) = ( -0.5000001 -0.8660256  0.0000000 )    f =(  0.0000000 )
                  (  0.8660252 -0.4999999  0.0000000 )       ( -0.0000000 )
                  (  0.0000000  0.0000000  1.0000000 )       ( -0.8186844 )


      isym =  4     120 deg rotation - cryst. axis [0,0,-1]      

 cryst.   s( 4) = (    -1         -1          0      )    f =(  0.0000000 )
                  (     1          0          0      )       (  0.0000000 )
                  (     0          0          1      )       (  0.3333330 )

 cart.    s( 4) = ( -0.4999999  0.8660256  0.0000000 )    f =(  0.0000000 )
                  ( -0.8660252 -0.5000001  0.0000000 )       (  0.0000000 )
                  (  0.0000000  0.0000000  1.0000000 )       (  0.8186844 )


      isym =  5     180 deg rotation - cryst. axis [0,1,0]       

 cryst.   s( 5) = (    -1         -1          0      )    f =( -0.0000000 )
                  (     0          1          0      )       (  0.0000000 )
                  (     0          0         -1      )       ( -0.3333340 )

 cart.    s( 5) = ( -0.4999999 -0.8660257  0.0000000 )    f =( -0.0000000 )
                  ( -0.8660252  0.4999999  0.0000000 )       (  0.0000000 )
                  (  0.0000000  0.0000000 -1.0000000 )       ( -0.8186869 )


      isym =  6     180 deg rotation - cryst. axis [1,1,0]       

 cryst.   s( 6) = (     0          1          0      )
                  (     1          0          0      )
                  (     0          0         -1      )

 cart.    s( 6) = ( -0.5000001  0.8660256  0.0000000 )
                  (  0.8660252  0.5000001  0.0000000 )
                  (  0.0000000  0.0000000 -1.0000000 )


   Cartesian axes

     site n.     atom                  positions (alat units)
         1        Sr     tau(   1) = (  -0.2811505   0.4869668   0.4093434  )
         2        Sr     tau(   2) = (   0.2188495   0.3790583   1.2280279  )
         3        Sr     tau(   3) = (   0.5623010   0.0000000   2.0467148  )
         4        Cu     tau(   4) = (  -0.2453576   0.5506422   1.0123494  )
         5        Cu     tau(   5) = (   0.1458090   0.3782174   1.8310338  )
         6        Cu     tau(   6) = (   0.0995499   0.8031898   0.1936649  )
         7        Cu     tau(   7) = (   0.5995490   0.0628353   1.4437064  )
         8        Cu     tau(   8) = (   0.2546415   0.3153830   0.6250220  )
         9        Cu     tau(   9) = (   0.6458080   0.4878077   2.2623909  )
        10        Sn     tau(  10) = (  -0.3525161   0.6105755   1.6373713  )
        11        Sn     tau(  11) = (   0.1474840   0.2554497   0.0000000  )
        12        Sn     tau(  12) = (   0.7050320   0.0000000   0.8186844  )
        13        S      tau(  13) = (  -0.1976405   0.4206328   1.9342299  )
        14        S      tau(  14) = (   0.2345415   0.4845471   0.2968585  )
        15        S      tau(  15) = (  -0.0369011   0.8268704   1.1155454  )
        16        S      tau(  16) = (   0.4630990   0.0391547   0.5218259  )
        17        S      tau(  17) = (   0.3023595   0.4453924   2.1591972  )
        18        S      tau(  18) = (   0.7345415   0.3814780   1.3405103  )
        19        S      tau(  19) = (  -0.0592995   0.3064023   0.8071827  )
        20        S      tau(  20) = (   0.2642979   0.6614683   1.6258672  )
        21        S      tau(  21) = (  -0.2049971   0.7641789   2.4445541  )
        22        S      tau(  22) = (   0.2950020   0.1018463   1.6488730  )
        23        S      tau(  23) = (   0.4406994   0.5596229   0.8301886  )
        24        S      tau(  24) = (   0.7642970   0.2045569   0.0115017  )

   Crystallographic axes

     site n.     atom                  positions (cryst. coord.)
         1        Sr     tau(   1) = (  0.0000000  0.5623010  0.1666670  )
         2        Sr     tau(   2) = (  0.4376990  0.4376990  0.5000000  )
         3        Sr     tau(   3) = (  0.5623010  0.0000000  0.8333340  )
         4        Cu     tau(   4) = (  0.0725560  0.6358270  0.4121850  )
         5        Cu     tau(   5) = (  0.3641730  0.4367280  0.7455180  )
         6        Cu     tau(   6) = (  0.5632720  0.9274440  0.0788520  )
         7        Cu     tau(   7) = (  0.6358270  0.0725560  0.5878150  )
         8        Cu     tau(   8) = (  0.4367280  0.3641730  0.2544820  )
         9        Cu     tau(   9) = (  0.9274440  0.5632720  0.9211480  )
        10        Sn     tau(  10) = (  0.0000000  0.7050320  0.6666670  )
        11        Sn     tau(  11) = (  0.2949680  0.2949680  0.0000000  )
        12        Sn     tau(  12) = (  0.7050320  0.0000000  0.3333330  )
        13        S      tau(  13) = (  0.0452120  0.4857050  0.7875350  )
        14        S      tau(  14) = (  0.5142950  0.5595070  0.1208680  )
        15        S      tau(  15) = (  0.4404930  0.9547880  0.4542020  )
        16        S      tau(  16) = (  0.4857050  0.0452120  0.2124650  )
        17        S      tau(  17) = (  0.5595070  0.5142950  0.8791320  )
        18        S      tau(  18) = (  0.9547880  0.4404930  0.5457980  )
        19        S      tau(  19) = (  0.1176020  0.3538030  0.3286500  )
        20        S      tau(  20) = (  0.6461970  0.7637980  0.6619830  )
        21        S      tau(  21) = (  0.2362020  0.8823980  0.9953170  )
        22        S      tau(  22) = (  0.3538030  0.1176020  0.6713500  )
        23        S      tau(  23) = (  0.7637980  0.6461970  0.3380170  )
        24        S      tau(  24) = (  0.8823980  0.2362020  0.0046830  )

     number of k points=   100
                       cart. coord. in units 2pi/alat
        k(    1) = (   0.0000000   0.0000000   0.0000000), wk =   0.0023148
        k(    2) = (   0.0000000   0.0000000   0.0678595), wk =   0.0046296
        k(    3) = (   0.0000000   0.0000000   0.1357190), wk =   0.0046296
        k(    4) = (   0.0000000   0.0000000  -0.2035784), wk =   0.0023148
        k(    5) = (   0.0000000   0.0962251   0.0000000), wk =   0.0138889
        k(    6) = (   0.0000000   0.0962251   0.0678595), wk =   0.0138889
        k(    7) = (   0.0000000   0.0962251   0.1357190), wk =   0.0138889
        k(    8) = (   0.0000000   0.0962251  -0.2035784), wk =   0.0138889
        k(    9) = (   0.0000000   0.1924501   0.0000000), wk =   0.0138889
        k(   10) = (   0.0000000   0.1924501   0.0678595), wk =   0.0138889
        k(   11) = (   0.0000000   0.1924501   0.1357190), wk =   0.0138889
        k(   12) = (   0.0000000   0.1924501  -0.2035784), wk =   0.0138889
        k(   13) = (   0.0000000   0.2886752   0.0000000), wk =   0.0138889
        k(   14) = (   0.0000000   0.2886752   0.0678595), wk =   0.0138889
        k(   15) = (   0.0000000   0.2886752   0.1357190), wk =   0.0138889
        k(   16) = (   0.0000000   0.2886752  -0.2035784), wk =   0.0138889
        k(   17) = (   0.0000000   0.3849003   0.0000000), wk =   0.0138889
        k(   18) = (   0.0000000   0.3849003   0.0678595), wk =   0.0138889
        k(   19) = (   0.0000000   0.3849003   0.1357190), wk =   0.0138889
        k(   20) = (   0.0000000   0.3849003  -0.2035784), wk =   0.0138889
        k(   21) = (   0.0000000   0.4811254   0.0000000), wk =   0.0138889
        k(   22) = (   0.0000000   0.4811254   0.0678595), wk =   0.0138889
        k(   23) = (   0.0000000   0.4811254   0.1357190), wk =   0.0138889
        k(   24) = (   0.0000000   0.4811254  -0.2035784), wk =   0.0138889
        k(   25) = (   0.0000000  -0.5773504   0.0000000), wk =   0.0069444
        k(   26) = (   0.0000000  -0.5773504   0.0678595), wk =   0.0138889
        k(   27) = (   0.0000000  -0.5773504   0.1357190), wk =   0.0138889
        k(   28) = (   0.0000000  -0.5773504  -0.2035784), wk =   0.0069444
        k(   29) = (   0.0833333   0.1443376   0.0000000), wk =   0.0138889
        k(   30) = (   0.0833333   0.1443376   0.0678595), wk =   0.0277778
        k(   31) = (   0.0833333   0.1443376   0.1357190), wk =   0.0277778
        k(   32) = (   0.0833333   0.1443376  -0.2035784), wk =   0.0138889
        k(   33) = (   0.0833333   0.2405627   0.0000000), wk =   0.0277778
        k(   34) = (   0.0833333   0.2405627   0.0678595), wk =   0.0277778
        k(   35) = (   0.0833333   0.2405627   0.1357190), wk =   0.0277778
        k(   36) = (   0.0833333   0.2405627  -0.2035784), wk =   0.0277778
        k(   37) = (   0.0833333   0.3367878   0.0000000), wk =   0.0277778
        k(   38) = (   0.0833333   0.3367878   0.0678595), wk =   0.0277778
        k(   39) = (   0.0833333   0.3367878   0.1357190), wk =   0.0277778
        k(   40) = (   0.0833333   0.3367878  -0.2035784), wk =   0.0277778
        k(   41) = (   0.0833333   0.4330128   0.0000000), wk =   0.0277778
        k(   42) = (   0.0833333   0.4330128   0.0678595), wk =   0.0277778
        k(   43) = (   0.0833333   0.4330128   0.1357190), wk =   0.0277778
        k(   44) = (   0.0833333   0.4330128  -0.2035784), wk =   0.0277778
        k(   45) = (   0.0833333   0.5292379   0.0000000), wk =   0.0277778
        k(   46) = (   0.0833333   0.5292379   0.0678595), wk =   0.0277778
        k(   47) = (   0.0833333   0.5292379   0.1357190), wk =   0.0277778
        k(   48) = (   0.0833333   0.5292379  -0.2035784), wk =   0.0277778
        k(   49) = (   0.1666667   0.2886752   0.0000000), wk =   0.0138889
        k(   50) = (   0.1666667   0.2886752   0.0678595), wk =   0.0277778
        k(   51) = (   0.1666667   0.2886752   0.1357190), wk =   0.0277778
        k(   52) = (   0.1666667   0.2886752  -0.2035784), wk =   0.0138889
        k(   53) = (   0.1666667   0.3849003   0.0000000), wk =   0.0277778
        k(   54) = (   0.1666667   0.3849003   0.0678595), wk =   0.0277778
        k(   55) = (   0.1666667   0.3849003   0.1357190), wk =   0.0277778
        k(   56) = (   0.1666667   0.3849003  -0.2035784), wk =   0.0277778
        k(   57) = (   0.1666667   0.4811254   0.0000000), wk =   0.0277778
        k(   58) = (   0.1666667   0.4811254   0.0678595), wk =   0.0277778
        k(   59) = (   0.1666667   0.4811254   0.1357190), wk =   0.0277778
        k(   60) = (   0.1666667   0.4811254  -0.2035784), wk =   0.0277778
        k(   61) = (   0.1666667   0.5773504   0.0000000), wk =   0.0138889
        k(   62) = (   0.1666667   0.5773504   0.0678595), wk =   0.0277778
        k(   63) = (   0.1666667   0.5773504   0.1357190), wk =   0.0277778
        k(   64) = (   0.1666667   0.5773504  -0.2035784), wk =   0.0138889
        k(   65) = (   0.2500000   0.4330128   0.0000000), wk =   0.0138889
        k(   66) = (   0.2500000   0.4330128   0.0678595), wk =   0.0277778
        k(   67) = (   0.2500000   0.4330128   0.1357190), wk =   0.0277778
        k(   68) = (   0.2500000   0.4330128  -0.2035784), wk =   0.0138889
        k(   69) = (   0.2500000   0.5292379   0.0000000), wk =   0.0277778
        k(   70) = (   0.2500000   0.5292379   0.0678595), wk =   0.0277778
        k(   71) = (   0.2500000   0.5292379   0.1357190), wk =   0.0277778
        k(   72) = (   0.2500000   0.5292379  -0.2035784), wk =   0.0277778
        k(   73) = (   0.3333333   0.5773505   0.0000000), wk =   0.0046296
        k(   74) = (   0.3333333   0.5773505   0.0678595), wk =   0.0092593
        k(   75) = (   0.3333333   0.5773505   0.1357190), wk =   0.0092593
        k(   76) = (   0.3333333   0.5773505  -0.2035784), wk =   0.0046296
        k(   77) = (   0.0000000   0.0962251  -0.0678595), wk =   0.0138889
        k(   78) = (   0.0000000   0.0962251  -0.1357190), wk =   0.0138889
        k(   79) = (   0.0000000   0.1924501  -0.0678595), wk =   0.0138889
        k(   80) = (   0.0000000   0.1924501  -0.1357190), wk =   0.0138889
        k(   81) = (   0.0000000   0.2886752  -0.0678595), wk =   0.0138889
        k(   82) = (   0.0000000   0.2886752  -0.1357190), wk =   0.0138889
        k(   83) = (   0.0000000   0.3849003  -0.0678595), wk =   0.0138889
        k(   84) = (   0.0000000   0.3849003  -0.1357190), wk =   0.0138889
        k(   85) = (   0.0000000   0.4811254  -0.0678595), wk =   0.0138889
        k(   86) = (   0.0000000   0.4811254  -0.1357190), wk =   0.0138889
        k(   87) = (  -0.0833333   0.2405627  -0.0678595), wk =   0.0277778
        k(   88) = (  -0.0833333   0.2405627  -0.1357190), wk =   0.0277778
        k(   89) = (  -0.0833333   0.3367877  -0.0678595), wk =   0.0277778
        k(   90) = (  -0.0833333   0.3367877  -0.1357190), wk =   0.0277778
        k(   91) = (  -0.0833333   0.4330128  -0.0678595), wk =   0.0277778
        k(   92) = (  -0.0833333   0.4330128  -0.1357190), wk =   0.0277778
        k(   93) = (  -0.0833333   0.5292379  -0.0678595), wk =   0.0277778
        k(   94) = (  -0.0833333   0.5292379  -0.1357190), wk =   0.0277778
        k(   95) = (  -0.1666667   0.3849003  -0.0678595), wk =   0.0277778
        k(   96) = (  -0.1666667   0.3849003  -0.1357190), wk =   0.0277778
        k(   97) = (  -0.1666667   0.4811253  -0.0678595), wk =   0.0277778
        k(   98) = (  -0.1666667   0.4811253  -0.1357190), wk =   0.0277778
        k(   99) = (  -0.2500000   0.5292379  -0.0678595), wk =   0.0277778
        k(  100) = (  -0.2500000   0.5292379  -0.1357190), wk =   0.0277778

                       cryst. coord.
        k(    1) = (   0.0000000   0.0000000   0.0000000), wk =   0.0023148
        k(    2) = (   0.0000000   0.0000000   0.1666667), wk =   0.0046296
        k(    3) = (   0.0000000   0.0000000   0.3333333), wk =   0.0046296
        k(    4) = (   0.0000000   0.0000000  -0.5000000), wk =   0.0023148
        k(    5) = (   0.0000000   0.0833333   0.0000000), wk =   0.0138889
        k(    6) = (   0.0000000   0.0833333   0.1666667), wk =   0.0138889
        k(    7) = (   0.0000000   0.0833333   0.3333333), wk =   0.0138889
        k(    8) = (   0.0000000   0.0833333  -0.5000000), wk =   0.0138889
        k(    9) = (   0.0000000   0.1666667   0.0000000), wk =   0.0138889
        k(   10) = (   0.0000000   0.1666667   0.1666667), wk =   0.0138889
        k(   11) = (   0.0000000   0.1666667   0.3333333), wk =   0.0138889
        k(   12) = (   0.0000000   0.1666667  -0.5000000), wk =   0.0138889
        k(   13) = (   0.0000000   0.2500000   0.0000000), wk =   0.0138889
        k(   14) = (   0.0000000   0.2500000   0.1666667), wk =   0.0138889
        k(   15) = (   0.0000000   0.2500000   0.3333333), wk =   0.0138889
        k(   16) = (   0.0000000   0.2500000  -0.5000000), wk =   0.0138889
        k(   17) = (   0.0000000   0.3333333   0.0000000), wk =   0.0138889
        k(   18) = (   0.0000000   0.3333333   0.1666667), wk =   0.0138889
        k(   19) = (   0.0000000   0.3333333   0.3333333), wk =   0.0138889
        k(   20) = (   0.0000000   0.3333333  -0.5000000), wk =   0.0138889
        k(   21) = (   0.0000000   0.4166667   0.0000000), wk =   0.0138889
        k(   22) = (   0.0000000   0.4166667   0.1666667), wk =   0.0138889
        k(   23) = (   0.0000000   0.4166667   0.3333333), wk =   0.0138889
        k(   24) = (   0.0000000   0.4166667  -0.5000000), wk =   0.0138889
        k(   25) = (   0.0000000  -0.5000000   0.0000000), wk =   0.0069444
        k(   26) = (   0.0000000  -0.5000000   0.1666667), wk =   0.0138889
        k(   27) = (   0.0000000  -0.5000000   0.3333333), wk =   0.0138889
        k(   28) = (   0.0000000  -0.5000000  -0.5000000), wk =   0.0069444
        k(   29) = (   0.0833333   0.0833333   0.0000000), wk =   0.0138889
        k(   30) = (   0.0833333   0.0833333   0.1666667), wk =   0.0277778
        k(   31) = (   0.0833333   0.0833333   0.3333333), wk =   0.0277778
        k(   32) = (   0.0833333   0.0833333  -0.5000000), wk =   0.0138889
        k(   33) = (   0.0833333   0.1666667   0.0000000), wk =   0.0277778
        k(   34) = (   0.0833333   0.1666667   0.1666667), wk =   0.0277778
        k(   35) = (   0.0833333   0.1666667   0.3333333), wk =   0.0277778
        k(   36) = (   0.0833333   0.1666667  -0.5000000), wk =   0.0277778
        k(   37) = (   0.0833333   0.2500000   0.0000000), wk =   0.0277778
        k(   38) = (   0.0833333   0.2500000   0.1666667), wk =   0.0277778
        k(   39) = (   0.0833333   0.2500000   0.3333333), wk =   0.0277778
        k(   40) = (   0.0833333   0.2500000  -0.5000000), wk =   0.0277778
        k(   41) = (   0.0833333   0.3333333   0.0000000), wk =   0.0277778
        k(   42) = (   0.0833333   0.3333333   0.1666667), wk =   0.0277778
        k(   43) = (   0.0833333   0.3333333   0.3333333), wk =   0.0277778
        k(   44) = (   0.0833333   0.3333333  -0.5000000), wk =   0.0277778
        k(   45) = (   0.0833333   0.4166667   0.0000000), wk =   0.0277778
        k(   46) = (   0.0833333   0.4166667   0.1666667), wk =   0.0277778
        k(   47) = (   0.0833333   0.4166667   0.3333333), wk =   0.0277778
        k(   48) = (   0.0833333   0.4166667  -0.5000000), wk =   0.0277778
        k(   49) = (   0.1666667   0.1666667   0.0000000), wk =   0.0138889
        k(   50) = (   0.1666667   0.1666667   0.1666667), wk =   0.0277778
        k(   51) = (   0.1666667   0.1666667   0.3333333), wk =   0.0277778
        k(   52) = (   0.1666667   0.1666667  -0.5000000), wk =   0.0138889
        k(   53) = (   0.1666667   0.2500000   0.0000000), wk =   0.0277778
        k(   54) = (   0.1666667   0.2500000   0.1666667), wk =   0.0277778
        k(   55) = (   0.1666667   0.2500000   0.3333333), wk =   0.0277778
        k(   56) = (   0.1666667   0.2500000  -0.5000000), wk =   0.0277778
        k(   57) = (   0.1666667   0.3333333   0.0000000), wk =   0.0277778
        k(   58) = (   0.1666667   0.3333333   0.1666667), wk =   0.0277778
        k(   59) = (   0.1666667   0.3333333   0.3333333), wk =   0.0277778
        k(   60) = (   0.1666667   0.3333333  -0.5000000), wk =   0.0277778
        k(   61) = (   0.1666667   0.4166667   0.0000000), wk =   0.0138889
        k(   62) = (   0.1666667   0.4166667   0.1666667), wk =   0.0277778
        k(   63) = (   0.1666667   0.4166667   0.3333333), wk =   0.0277778
        k(   64) = (   0.1666667   0.4166667  -0.5000000), wk =   0.0138889
        k(   65) = (   0.2500000   0.2500000   0.0000000), wk =   0.0138889
        k(   66) = (   0.2500000   0.2500000   0.1666667), wk =   0.0277778
        k(   67) = (   0.2500000   0.2500000   0.3333333), wk =   0.0277778
        k(   68) = (   0.2500000   0.2500000  -0.5000000), wk =   0.0138889
        k(   69) = (   0.2500000   0.3333333   0.0000000), wk =   0.0277778
        k(   70) = (   0.2500000   0.3333333   0.1666667), wk =   0.0277778
        k(   71) = (   0.2500000   0.3333333   0.3333333), wk =   0.0277778
        k(   72) = (   0.2500000   0.3333333  -0.5000000), wk =   0.0277778
        k(   73) = (   0.3333333   0.3333333   0.0000000), wk =   0.0046296
        k(   74) = (   0.3333333   0.3333333   0.1666667), wk =   0.0092593
        k(   75) = (   0.3333333   0.3333333   0.3333333), wk =   0.0092593
        k(   76) = (   0.3333333   0.3333333  -0.5000000), wk =   0.0046296
        k(   77) = (   0.0000000   0.0833333  -0.1666667), wk =   0.0138889
        k(   78) = (   0.0000000   0.0833333  -0.3333333), wk =   0.0138889
        k(   79) = (   0.0000000   0.1666667  -0.1666667), wk =   0.0138889
        k(   80) = (   0.0000000   0.1666667  -0.3333333), wk =   0.0138889
        k(   81) = (   0.0000000   0.2500000  -0.1666667), wk =   0.0138889
        k(   82) = (   0.0000000   0.2500000  -0.3333333), wk =   0.0138889
        k(   83) = (   0.0000000   0.3333333  -0.1666667), wk =   0.0138889
        k(   84) = (   0.0000000   0.3333333  -0.3333333), wk =   0.0138889
        k(   85) = (   0.0000000   0.4166667  -0.1666667), wk =   0.0138889
        k(   86) = (   0.0000000   0.4166667  -0.3333333), wk =   0.0138889
        k(   87) = (  -0.0833333   0.2500000  -0.1666667), wk =   0.0277778
        k(   88) = (  -0.0833333   0.2500000  -0.3333333), wk =   0.0277778
        k(   89) = (  -0.0833333   0.3333333  -0.1666667), wk =   0.0277778
        k(   90) = (  -0.0833333   0.3333333  -0.3333333), wk =   0.0277778
        k(   91) = (  -0.0833333   0.4166667  -0.1666667), wk =   0.0277778
        k(   92) = (  -0.0833333   0.4166667  -0.3333333), wk =   0.0277778
        k(   93) = (  -0.0833333   0.5000000  -0.1666667), wk =   0.0277778
        k(   94) = (  -0.0833333   0.5000000  -0.3333333), wk =   0.0277778
        k(   95) = (  -0.1666667   0.4166667  -0.1666667), wk =   0.0277778
        k(   96) = (  -0.1666667   0.4166667  -0.3333333), wk =   0.0277778
        k(   97) = (  -0.1666667   0.5000000  -0.1666667), wk =   0.0277778
        k(   98) = (  -0.1666667   0.5000000  -0.3333333), wk =   0.0277778
        k(   99) = (  -0.2500000   0.5833333  -0.1666667), wk =   0.0277778
        k(  100) = (  -0.2500000   0.5833333  -0.3333333), wk =   0.0277778

     Dense  grid:  1203283 G-vectors     FFT dimensions: ( 108, 108, 270)

     Smooth grid:   425273 G-vectors     FFT dimensions: (  75,  75, 180)

     Dynamical RAM for                 wfc:      56.80 MB

     Dynamical RAM for     wfc (w. buffer):    1476.69 MB

     Dynamical RAM for           str. fact:      36.72 MB

     Dynamical RAM for           local pot:       0.00 MB

     Dynamical RAM for          nlocal pot:     175.26 MB

     Dynamical RAM for                qrad:       8.61 MB

     Dynamical RAM for          rho,v,vnew:      63.58 MB

     Dynamical RAM for           G-vectors:      36.05 MB

     Dynamical RAM for          h,s,v(r/c):       3.59 MB

     Dynamical RAM for          <psi|beta>:       0.92 MB

     Dynamical RAM for                 psi:     113.59 MB

     Dynamical RAM for                hpsi:     113.59 MB

     Dynamical RAM for                spsi:     113.59 MB

     Dynamical RAM for      wfcinit/wfcrot:     114.04 MB

     Dynamical RAM for           addusdens:     461.31 MB

     Estimated static dynamical RAM per process >       1.86 GB

     Estimated max dynamical RAM per process >       2.31 GB

     Estimated total dynamical RAM >      18.47 GB

     The potential is recalculated from file :
     ./tmp/final/SrCu2SnS4.save/charge-density


     negative rho (up, down):  1.979E-01 0.000E+00
     Starting wfcs are  168 randomized atomic wfcs
     Checking if some PAW data can be deallocated... 
       PAW data deallocated on    6 nodes for type:  1

     Band Structure Calculation
     Davidson diagonalization with overlap

     Computing kpt #:     1  of    25 on this pool
     total cpu time spent up to now is      160.7 secs

     Computing kpt #:     2  of    25 on this pool
     total cpu time spent up to now is      329.0 secs

     Computing kpt #:     3  of    25 on this pool
     c_bands:  1 eigenvalues not converged
     total cpu time spent up to now is      513.6 secs

     Computing kpt #:     4  of    25 on this pool
     c_bands:  2 eigenvalues not converged
     total cpu time spent up to now is      692.1 secs

     Computing kpt #:     5  of    25 on this pool
     total cpu time spent up to now is      873.2 secs

     Computing kpt #:     6  of    25 on this pool
     total cpu time spent up to now is     1112.7 secs

     Computing kpt #:     7  of    25 on this pool
     total cpu time spent up to now is     1578.1 secs

     Computing kpt #:     8  of    25 on this pool
     total cpu time spent up to now is     1773.4 secs

     Computing kpt #:     9  of    25 on this pool
     total cpu time spent up to now is     1964.6 secs

     Computing kpt #:    10  of    25 on this pool
     total cpu time spent up to now is     2155.6 secs

     Computing kpt #:    11  of    25 on this pool
     c_bands:  1 eigenvalues not converged
     total cpu time spent up to now is     2352.1 secs

     Computing kpt #:    12  of    25 on this pool
     total cpu time spent up to now is     2540.6 secs

     Computing kpt #:    13  of    25 on this pool
     total cpu time spent up to now is     2727.2 secs

     Computing kpt #:    14  of    25 on this pool
     total cpu time spent up to now is     2903.7 secs

     Computing kpt #:    15  of    25 on this pool
     c_bands:  1 eigenvalues not converged
     total cpu time spent up to now is     3180.6 secs

     Computing kpt #:    16  of    25 on this pool
     total cpu time spent up to now is     3367.0 secs

     Computing kpt #:    17  of    25 on this pool
     total cpu time spent up to now is     3552.0 secs

     Computing kpt #:    18  of    25 on this pool
     total cpu time spent up to now is     3737.4 secs

     Computing kpt #:    19  of    25 on this pool
     total cpu time spent up to now is     3926.5 secs

     Computing kpt #:    20  of    25 on this pool
     total cpu time spent up to now is     4108.0 secs

     Computing kpt #:    21  of    25 on this pool
     total cpu time spent up to now is     4294.1 secs

     Computing kpt #:    22  of    25 on this pool
     total cpu time spent up to now is     4806.3 secs

     Computing kpt #:    23  of    25 on this pool
     total cpu time spent up to now is     4977.6 secs

     Computing kpt #:    24  of    25 on this pool
     total cpu time spent up to now is     5159.7 secs

     Computing kpt #:    25  of    25 on this pool
     total cpu time spent up to now is     5340.5 secs

     ethr =  4.76E-12,  avg # of iterations = 93.3

     total cpu time spent up to now is     5340.5 secs

     End of band structure calculation

          k = 0.0000 0.0000 0.0000 ( 53105 PWs)   bands (ev):

   -28.2757 -28.2755 -28.2754 -14.9223 -14.9221 -14.9221 -14.9163 -14.9162
   -14.9160 -14.9042 -14.9040 -14.9040 -14.8638 -14.8637 -14.8636 -14.8187
   -14.8185 -14.8185 -10.3309 -10.3308 -10.3243 -10.3043 -10.3041 -10.2822
   -10.2584 -10.2582 -10.2544  -6.8630  -6.5549  -6.5547  -5.7368  -5.7367
    -5.6005  -5.5168  -5.5167  -5.4323  -5.3727  -5.3725  -5.2509  -0.3507
    -0.3011  -0.3010   1.5924   1.5925   1.6564   2.0199   2.0411   2.0411
     2.3085   2.3107   2.5495   2.5495   2.8716   2.8717   3.1646   3.2275
     3.2276   3.3931   3.3931   3.4933   3.5171   3.5171   3.6908   3.6909
     3.7059   3.7953   3.7954   3.9628   4.1247   4.2011   4.2811   4.2812
     4.5357   4.5357   4.8565   5.1244   5.1779   5.1780   5.2218   5.2289
     5.2290   5.3122   5.3122   5.3240   5.4384   5.4384   5.4740   5.4985
     5.4985   5.6261   5.7248   5.7248   5.7438   5.9959   5.9960   6.1493
     6.2899   6.2900   6.5522   6.7649   6.7650   6.8082   6.9642   7.1804
     7.1804   7.5332   8.5033   8.5034   9.1779   9.1780   9.9022  10.6598
    10.7456  10.7456  10.8758  10.9131  10.9477  10.9477  10.9736  11.1994
    11.1995  11.2876  11.2878  11.4750  11.5398  11.5399  11.5672  11.9297
    11.9496  11.9714  11.9715  12.2141  12.2141  12.3247  12.3661  12.3662
    12.6344  12.6345  13.0080  13.0080

     occupation numbers 
     1.0000   1.0000   1.0000   1.0000   1.0000   1.0000   1.0000   1.0000
     1.0000   1.0000   1.0000   1.0000   1.0000   1.0000   1.0000   1.0000
     1.0000   1.0000   1.0000   1.0000   1.0000   1.0000   1.0000   1.0000
     1.0000   1.0000   1.0000   1.0000   1.0000   1.0000   1.0000   1.0000
     1.0000   1.0000   1.0000   1.0000   1.0000   1.0000   1.0000   1.0000
     1.0000   1.0000   1.0000   1.0000   1.0000   1.0000   1.0000   1.0000
     1.0000   1.0000   1.0000   1.0000   1.0000   1.0000   1.0000   1.0000
     1.0000   1.0000   1.0000   1.0000   1.0000   1.0000   1.0000   1.0000
     1.0000   1.0000   1.0000   1.0000   1.0000   1.0000   1.0000   1.0000
     1.0000   1.0000   1.0000   1.0000   1.0000   1.0000   1.0000   1.0000
     1.0000   1.0000   1.0000   1.0000   1.0000   1.0000   1.0000   1.0000
     1.0000   1.0000   1.0000   1.0000   1.0000   1.0000   1.0000   1.0000
     1.0000   1.0000   1.0000   1.0000   1.0000   1.0000   1.0000   1.0000
     1.0000   0.0000   0.0000   0.0000   0.0000   0.0000   0.0000   0.0000
     0.0000   0.0000   0.0000   0.0000   0.0000   0.0000   0.0000   0.0000
     0.0000   0.0000   0.0000   0.0000   0.0000   0.0000   0.0000   0.0000
     0.0000   0.0000   0.0000   0.0000   0.0000   0.0000   0.0000   0.0000
     0.0000   0.0000   0.0000   0.0000

          k = 0.0000 0.0000 0.0679 ( 53129 PWs)   bands (ev):

   -28.2757 -28.2755 -28.2754 -14.9223 -14.9221 -14.9221 -14.9163 -14.9162
   -14.9160 -14.9042 -14.9040 -14.9040 -14.8638 -14.8637 -14.8636 -14.8187
   -14.8185 -14.8185 -10.3318 -10.3295 -10.3245 -10.3090 -10.2986 -10.2828
   -10.2583 -10.2582 -10.2548  -6.8530  -6.6376  -6.4731  -5.7979  -5.6868
    -5.6036  -5.5419  -5.4833  -5.4324  -5.3747  -5.3651  -5.2588  -0.3503
    -0.3179  -0.2853   1.5724   1.6253   1.6438   2.0211   2.0277   2.0588
     2.2971   2.3595   2.4668   2.6230   2.8297   2.8372   3.1676   3.2106
     3.2529   3.4033   3.4174   3.4949   3.5228   3.5244   3.6334   3.6915
     3.7690   3.7797   3.8321   3.9515   4.1166   4.1996   4.2342   4.2874
     4.4974   4.6008   4.8439   5.1272   5.1634   5.1768   5.2203   5.2315
     5.2468   5.3159   5.3242   5.3264   5.4122   5.4255   5.4465   5.4994
     5.5361   5.6128   5.6910   5.7602   5.7674   5.9237   6.0809   6.1709
     6.2938   6.3224   6.4987   6.6226   6.8452   6.8705   6.8961   7.1476
     7.1887   7.6452   8.4132   8.5541   9.1189   9.2874   9.8841  10.5878
    10.7119  10.7192  10.8506  10.9424  10.9569  10.9571  11.0446  11.0951
    11.2283  11.2750  11.2783  11.4220  11.5078  11.6163  11.6483  11.8768
    11.8776  11.9891  12.0905  12.1550  12.2475  12.2962  12.3652  12.3691
    12.5106  12.8821  13.0419  13.0804

     occupation numbers 
     1.0000   1.0000   1.0000   1.0000   1.0000   1.0000   1.0000   1.0000
     1.0000   1.0000   1.0000   1.0000   1.0000   1.0000   1.0000   1.0000
     1.0000   1.0000   1.0000   1.0000   1.0000   1.0000   1.0000   1.0000
     1.0000   1.0000   1.0000   1.0000   1.0000   1.0000   1.0000   1.0000
     1.0000   1.0000   1.0000   1.0000   1.0000   1.0000   1.0000   1.0000
     1.0000   1.0000   1.0000   1.0000   1.0000   1.0000   1.0000   1.0000
     1.0000   1.0000   1.0000   1.0000   1.0000   1.0000   1.0000   1.0000
     1.0000   1.0000   1.0000   1.0000   1.0000   1.0000   1.0000   1.0000
     1.0000   1.0000   1.0000   1.0000   1.0000   1.0000   1.0000   1.0000
     1.0000   1.0000   1.0000   1.0000   1.0000   1.0000   1.0000   1.0000
     1.0000   1.0000   1.0000   1.0000   1.0000   1.0000   1.0000   1.0000
     1.0000   1.0000   1.0000   1.0000   1.0000   1.0000   1.0000   1.0000
     1.0000   1.0000   1.0000   1.0000   1.0000   1.0000   1.0000   1.0000
     1.0000   0.0000   0.0000   0.0000   0.0000   0.0000   0.0000   0.0000
     0.0000   0.0000   0.0000   0.0000   0.0000   0.0000   0.0000   0.0000
     0.0000   0.0000   0.0000   0.0000   0.0000   0.0000   0.0000   0.0000
     0.0000   0.0000   0.0000   0.0000   0.0000   0.0000   0.0000   0.0000
     0.0000   0.0000   0.0000   0.0000

          k = 0.0000 0.0000 0.1357 ( 53087 PWs)   bands (ev):

   -28.2757 -28.2755 -28.2754 -14.9223 -14.9221 -14.9221 -14.9163 -14.9161
   -14.9160 -14.9042 -14.9040 -14.9040 -14.8638 -14.8637 -14.8636 -14.8187
   -14.8185 -14.8185 -10.3324 -10.3281 -10.3254 -10.3121 -10.2930 -10.2847
   -10.2581 -10.2579 -10.2559  -6.8237  -6.7132  -6.4075  -5.8534  -5.6519
    -5.6128  -5.5561  -5.4539  -5.4337  -5.3751  -5.3456  -5.2813  -0.3481
    -0.3324  -0.2741   1.5706   1.6151   1.6578   2.0042   2.0467   2.0684
     2.3052   2.3908   2.4558   2.6677   2.7183   2.7914   3.1757   3.1989
     3.2840   3.3749   3.4769   3.4987   3.5378   3.5439   3.6387   3.6506
     3.7731   3.8299   3.9080   3.9212   4.0749   4.1651   4.2111   4.2675
     4.4833   4.6766   4.8067   5.1356   5.1469   5.1639   5.2160   5.2592
     5.2759   5.3319   5.3334   5.3347   5.3652   5.3892   5.4022   5.5257
     5.5817   5.5881   5.6603   5.7902   5.7982   5.8704   6.1748   6.2360
     6.3589   6.3598   6.3949   6.4801   6.6702   6.9411   7.0050   7.0943
     7.1698   7.8614   8.2716   8.5827   9.0936   9.4467   9.7972  10.5405
    10.6124  10.6582  10.8611  10.9673  10.9731  10.9736  11.0048  11.0744
    11.2249  11.2545  11.2766  11.3976  11.5053  11.6072  11.7786  11.8383
    11.9078  12.0245  12.0315  12.1168  12.1539  12.2197  12.4508  12.4672
    12.5945  12.9621  13.1904  13.2554

     occupation numbers 
     1.0000   1.0000   1.0000   1.0000   1.0000   1.0000   1.0000   1.0000
     1.0000   1.0000   1.0000   1.0000   1.0000   1.0000   1.0000   1.0000
     1.0000   1.0000   1.0000   1.0000   1.0000   1.0000   1.0000   1.0000
     1.0000   1.0000   1.0000   1.0000   1.0000   1.0000   1.0000   1.0000
     1.0000   1.0000   1.0000   1.0000   1.0000   1.0000   1.0000   1.0000
     1.0000   1.0000   1.0000   1.0000   1.0000   1.0000   1.0000   1.0000
     1.0000   1.0000   1.0000   1.0000   1.0000   1.0000   1.0000   1.0000
     1.0000   1.0000   1.0000   1.0000   1.0000   1.0000   1.0000   1.0000
     1.0000   1.0000   1.0000   1.0000   1.0000   1.0000   1.0000   1.0000
     1.0000   1.0000   1.0000   1.0000   1.0000   1.0000   1.0000   1.0000
     1.0000   1.0000   1.0000   1.0000   1.0000   1.0000   1.0000   1.0000
     1.0000   1.0000   1.0000   1.0000   1.0000   1.0000   1.0000   1.0000
     1.0000   1.0000   1.0000   1.0000   1.0000   1.0000   1.0000   1.0000
     1.0000   0.0000   0.0000   0.0000   0.0000   0.0000   0.0000   0.0000
     0.0000   0.0000   0.0000   0.0000   0.0000   0.0000   0.0000   0.0000
     0.0000   0.0000   0.0000   0.0000   0.0000   0.0000   0.0000   0.0000
     0.0000   0.0000   0.0000   0.0000   0.0000   0.0000   0.0000   0.0000
     0.0000   0.0000   0.0000   0.0000

          k = 0.0000 0.0000-0.2036 ( 53058 PWs)   bands (ev):

   -28.2757 -28.2755 -28.2754 -14.9223 -14.9221 -14.9221 -14.9163 -14.9161
   -14.9160 -14.9042 -14.9040 -14.9040 -14.8638 -14.8637 -14.8636 -14.8187
   -14.8185 -14.8185 -10.3326 -10.3267 -10.3265 -10.3133 -10.2883 -10.2881
   -10.2581 -10.2571 -10.2570  -6.7764  -6.7763  -6.3808  -5.8772  -5.6284
    -5.6283  -5.5606  -5.4389  -5.4387  -5.3751  -5.3138  -5.3137  -0.3427
    -0.3426  -0.2701   1.5867   1.5868   1.6720   1.9973   2.0641   2.0643
     2.3348   2.3348   2.5831   2.5831   2.6766   2.7785   3.1868   3.1870
     3.3213   3.3303   3.5002   3.5003   3.5456   3.5899   3.5900   3.6657
     3.7708   3.8787   3.8788   3.9987   3.9988   4.1290   4.2379   4.2380
     4.4802   4.7485   4.7486   5.1403   5.1485   5.1486   5.2146   5.2946
     5.2947   5.3293   5.3294   5.3469   5.3470   5.3470   5.3871   5.5580
     5.5580   5.6159   5.6342   5.8056   5.8057   5.8495   6.2730   6.2730
     6.3528   6.3529   6.3742   6.4920   6.4920   7.0240   7.0241   7.0628
     7.1431   8.0820   8.0821   8.5934   9.0867   9.6324   9.6324  10.5551
    10.5890  10.5891  10.9284  10.9284  10.9534  10.9845  10.9845  11.0441
    11.1781  11.2836  11.2836  11.5043  11.5043  11.5113  11.8618  11.8619
    11.9074  11.9075  12.0870  12.0871  12.1172  12.1929  12.4858  12.4859
    12.7370  12.8947  13.2955  13.2955

     occupation numbers 
     1.0000   1.0000   1.0000   1.0000   1.0000   1.0000   1.0000   1.0000
     1.0000   1.0000   1.0000   1.0000   1.0000   1.0000   1.0000   1.0000
     1.0000   1.0000   1.0000   1.0000   1.0000   1.0000   1.0000   1.0000
     1.0000   1.0000   1.0000   1.0000   1.0000   1.0000   1.0000   1.0000
     1.0000   1.0000   1.0000   1.0000   1.0000   1.0000   1.0000   1.0000
     1.0000   1.0000   1.0000   1.0000   1.0000   1.0000   1.0000   1.0000
     1.0000   1.0000   1.0000   1.0000   1.0000   1.0000   1.0000   1.0000
     1.0000   1.0000   1.0000   1.0000   1.0000   1.0000   1.0000   1.0000
     1.0000   1.0000   1.0000   1.0000   1.0000   1.0000   1.0000   1.0000
     1.0000   1.0000   1.0000   1.0000   1.0000   1.0000   1.0000   1.0000
     1.0000   1.0000   1.0000   1.0000   1.0000   1.0000   1.0000   1.0000
     1.0000   1.0000   1.0000   1.0000   1.0000   1.0000   1.0000   1.0000
     1.0000   1.0000   1.0000   1.0000   1.0000   1.0000   1.0000   1.0000
     1.0000   0.0000   0.0000   0.0000   0.0000   0.0000   0.0000   0.0000
     0.0000   0.0000   0.0000   0.0000   0.0000   0.0000   0.0000   0.0000
     0.0000   0.0000   0.0000   0.0000   0.0000   0.0000   0.0000   0.0000
     0.0000   0.0000   0.0000   0.0000   0.0000   0.0000   0.0000   0.0000
     0.0000   0.0000   0.0000   0.0000

          k = 0.0000 0.0962 0.0000 ( 53167 PWs)   bands (ev):

   -28.2756 -28.2755 -28.2754 -14.9222 -14.9221 -14.9220 -14.9163 -14.9162
   -14.9160 -14.9042 -14.9040 -14.9040 -14.8638 -14.8637 -14.8636 -14.8187
   -14.8185 -14.8185 -10.3313 -10.3312 -10.3249 -10.3043 -10.3038 -10.2830
   -10.2595 -10.2589 -10.2549  -6.8437  -6.5404  -6.5403  -5.7346  -5.7330
    -5.6077  -5.5371  -5.5167  -5.4394  -5.3870  -5.3834  -5.2561  -0.3758
    -0.3127  -0.3002   1.5572   1.6205   1.6684   2.0365   2.0399   2.0851
     2.3258   2.3404   2.5751   2.6018   2.8639   2.8741   3.1670   3.2105
     3.2185   3.3777   3.3906   3.4582   3.5278   3.5321   3.6505   3.6585
     3.7138   3.8203   3.8367   3.9670   4.1236   4.1955   4.2810   4.2842
     4.5214   4.5298   4.8221   5.1381   5.1757   5.1891   5.2233   5.2309
     5.2403   5.3124   5.3196   5.3347   5.4348   5.4489   5.4803   5.4858
     5.5063   5.6415   5.7140   5.7211   5.7650   5.9861   6.0035   6.1482
     6.2778   6.2934   6.5461   6.7572   6.7601   6.7944   6.9471   6.9519
     7.1532   7.7789   8.4929   8.5076   9.2179   9.2208   9.9360  10.5690
    10.6526  10.7435  10.7829  10.8715  10.8841  10.9693  11.0044  11.1593
    11.2088  11.2859  11.3112  11.4052  11.5184  11.5921  11.6349  11.8522
    11.9188  12.0521  12.1264  12.1995  12.2687  12.3059  12.4074  12.4376
    12.6100  12.6723  12.9214  12.9885

     occupation numbers 
     1.0000   1.0000   1.0000   1.0000   1.0000   1.0000   1.0000   1.0000
     1.0000   1.0000   1.0000   1.0000   1.0000   1.0000   1.0000   1.0000
     1.0000   1.0000   1.0000   1.0000   1.0000   1.0000   1.0000   1.0000
     1.0000   1.0000   1.0000   1.0000   1.0000   1.0000   1.0000   1.0000
     1.0000   1.0000   1.0000   1.0000   1.0000   1.0000   1.0000   1.0000
     1.0000   1.0000   1.0000   1.0000   1.0000   1.0000   1.0000   1.0000
     1.0000   1.0000   1.0000   1.0000   1.0000   1.0000   1.0000   1.0000
     1.0000   1.0000   1.0000   1.0000   1.0000   1.0000   1.0000   1.0000
     1.0000   1.0000   1.0000   1.0000   1.0000   1.0000   1.0000   1.0000
     1.0000   1.0000   1.0000   1.0000   1.0000   1.0000   1.0000   1.0000
     1.0000   1.0000   1.0000   1.0000   1.0000   1.0000   1.0000   1.0000
     1.0000   1.0000   1.0000   1.0000   1.0000   1.0000   1.0000   1.0000
     1.0000   1.0000   1.0000   1.0000   1.0000   1.0000   1.0000   1.0000
     1.0000   0.0000   0.0000   0.0000   0.0000   0.0000   0.0000   0.0000
     0.0000   0.0000   0.0000   0.0000   0.0000   0.0000   0.0000   0.0000
     0.0000   0.0000   0.0000   0.0000   0.0000   0.0000   0.0000   0.0000
     0.0000   0.0000   0.0000   0.0000   0.0000   0.0000   0.0000   0.0000
     0.0000   0.0000   0.0000   0.0000

          k = 0.0000 0.0962 0.0679 ( 53163 PWs)   bands (ev):

   -28.2756 -28.2755 -28.2754 -14.9222 -14.9221 -14.9220 -14.9163 -14.9161
   -14.9160 -14.9042 -14.9040 -14.9040 -14.8638 -14.8637 -14.8636 -14.8187
   -14.8185 -14.8185 -10.3323 -10.3300 -10.3251 -10.3086 -10.2986 -10.2836
   -10.2595 -10.2587 -10.2554  -6.8340  -6.6218  -6.4603  -5.7917  -5.6873
    -5.6100  -5.5536  -5.4936  -5.4399  -5.3896  -5.3738  -5.2639  -0.3735
    -0.3290  -0.2869   1.5466   1.6430   1.6616   2.0030   2.0642   2.0942
     2.3259   2.3700   2.5169   2.6532   2.8161   2.8574   3.1672   3.1956
     3.2432   3.3729   3.4184   3.4686   3.5223   3.5458   3.6167   3.6923
     3.7089   3.8381   3.8497   3.9588   4.1090   4.1951   4.2422   4.2904
     4.4892   4.5872   4.8106   5.1392   5.1722   5.1830   5.2152   5.2381
     5.2521   5.3009   5.3352   5.3447   5.4114   5.4469   5.4519   5.4939
     5.5336   5.6310   5.6842   5.7542   5.7806   5.9214   6.0817   6.1698
     6.2800   6.3230   6.4971   6.6207   6.7847   6.8454   6.8869   7.0349
     7.1452   7.8381   8.4220   8.5472   9.1620   9.3265   9.9143  10.5474
    10.6093  10.6818  10.7592  10.8528  10.9476  10.9814  11.0751  11.1442
    11.1709  11.2206  11.3090  11.3976  11.5341  11.6306  11.6798  11.8447
    11.8849  12.0566  12.1057  12.1994  12.2668  12.2975  12.3814  12.4626
    12.5393  12.8471  12.9282  13.1115

     occupation numbers 
     1.0000   1.0000   1.0000   1.0000   1.0000   1.0000   1.0000   1.0000
     1.0000   1.0000   1.0000   1.0000   1.0000   1.0000   1.0000   1.0000
     1.0000   1.0000   1.0000   1.0000   1.0000   1.0000   1.0000   1.0000
     1.0000   1.0000   1.0000   1.0000   1.0000   1.0000   1.0000   1.0000
     1.0000   1.0000   1.0000   1.0000   1.0000   1.0000   1.0000   1.0000
     1.0000   1.0000   1.0000   1.0000   1.0000   1.0000   1.0000   1.0000
     1.0000   1.0000   1.0000   1.0000   1.0000   1.0000   1.0000   1.0000
     1.0000   1.0000   1.0000   1.0000   1.0000   1.0000   1.0000   1.0000
     1.0000   1.0000   1.0000   1.0000   1.0000   1.0000   1.0000   1.0000
     1.0000   1.0000   1.0000   1.0000   1.0000   1.0000   1.0000   1.0000
     1.0000   1.0000   1.0000   1.0000   1.0000   1.0000   1.0000   1.0000
     1.0000   1.0000   1.0000   1.0000   1.0000   1.0000   1.0000   1.0000
     1.0000   1.0000   1.0000   1.0000   1.0000   1.0000   1.0000   1.0000
     1.0000   0.0000   0.0000   0.0000   0.0000   0.0000   0.0000   0.0000
     0.0000   0.0000   0.0000   0.0000   0.0000   0.0000   0.0000   0.0000
     0.0000   0.0000   0.0000   0.0000   0.0000   0.0000   0.0000   0.0000
     0.0000   0.0000   0.0000   0.0000   0.0000   0.0000   0.0000   0.0000
     0.0000   0.0000   0.0000   0.0000

          k = 0.0000 0.0962 0.1357 ( 53136 PWs)   bands (ev):

   -28.2756 -28.2755 -28.2754 -14.9222 -14.9221 -14.9220 -14.9163 -14.9161
   -14.9160 -14.9042 -14.9040 -14.9040 -14.8638 -14.8637 -14.8636 -14.8187
   -14.8185 -14.8185 -10.3329 -10.3285 -10.3259 -10.3117 -10.2933 -10.2855
   -10.2594 -10.2583 -10.2565  -6.8051  -6.6961  -6.3962  -5.8451  -5.6548
    -5.6175  -5.5683  -5.4656  -5.4420  -5.3921  -5.3504  -5.2860  -0.3689
    -0.3461  -0.2755   1.5477   1.6216   1.6920   1.9731   2.0857   2.1033
     2.3377   2.4082   2.4954   2.6741   2.7362   2.8116   3.1689   3.1922
     3.2722   3.3547   3.4564   3.4873   3.5137   3.5690   3.6244   3.6771
     3.7294   3.8595   3.9010   3.9441   4.0635   4.1581   4.2268   4.2728
     4.4787   4.6568   4.7782   5.1418   5.1600   5.1770   5.2083   5.2544
     5.2756   5.3015   5.3489   5.3613   5.3732   5.4053   5.4275   5.5253
     5.5601   5.6150   5.6578   5.7859   5.8017   5.8690   6.1774   6.2326
     6.3187   6.3674   6.4089   6.4784   6.6203   6.9169   6.9859   7.0396
     7.1233   7.9833   8.3063   8.5725   9.1403   9.4797   9.8210  10.4768
    10.5524  10.6425  10.7717  10.8650  10.9700  11.0139  11.0514  11.0685
    11.1750  11.1918  11.3174  11.3805  11.4892  11.7144  11.7771  11.8652
    11.8751  11.9680  12.0693  12.0977  12.2375  12.3092  12.4591  12.4730
    12.6492  12.8511  13.1422  13.2862

     occupation numbers 
     1.0000   1.0000   1.0000   1.0000   1.0000   1.0000   1.0000   1.0000
     1.0000   1.0000   1.0000   1.0000   1.0000   1.0000   1.0000   1.0000
     1.0000   1.0000   1.0000   1.0000   1.0000   1.0000   1.0000   1.0000
     1.0000   1.0000   1.0000   1.0000   1.0000   1.0000   1.0000   1.0000
     1.0000   1.0000   1.0000   1.0000   1.0000   1.0000   1.0000   1.0000
     1.0000   1.0000   1.0000   1.0000   1.0000   1.0000   1.0000   1.0000
     1.0000   1.0000   1.0000   1.0000   1.0000   1.0000   1.0000   1.0000
     1.0000   1.0000   1.0000   1.0000   1.0000   1.0000   1.0000   1.0000
     1.0000   1.0000   1.0000   1.0000   1.0000   1.0000   1.0000   1.0000
     1.0000   1.0000   1.0000   1.0000   1.0000   1.0000   1.0000   1.0000
     1.0000   1.0000   1.0000   1.0000   1.0000   1.0000   1.0000   1.0000
     1.0000   1.0000   1.0000   1.0000   1.0000   1.0000   1.0000   1.0000
     1.0000   1.0000   1.0000   1.0000   1.0000   1.0000   1.0000   1.0000
     1.0000   0.0000   0.0000   0.0000   0.0000   0.0000   0.0000   0.0000
     0.0000   0.0000   0.0000   0.0000   0.0000   0.0000   0.0000   0.0000
     0.0000   0.0000   0.0000   0.0000   0.0000   0.0000   0.0000   0.0000
     0.0000   0.0000   0.0000   0.0000   0.0000   0.0000   0.0000   0.0000
     0.0000   0.0000   0.0000   0.0000

          k = 0.0000 0.0962-0.2036 ( 53130 PWs)   bands (ev):

   -28.2756 -28.2755 -28.2754 -14.9222 -14.9221 -14.9220 -14.9163 -14.9161
   -14.9160 -14.9042 -14.9040 -14.9040 -14.8638 -14.8637 -14.8636 -14.8187
   -14.8185 -14.8185 -10.3331 -10.3272 -10.3271 -10.3127 -10.2888 -10.2886
   -10.2592 -10.2578 -10.2575  -6.7590  -6.7578  -6.3702  -5.8681  -5.6355
    -5.6289  -5.5733  -5.4499  -5.4476  -5.3935  -5.3200  -5.3155  -0.3666
    -0.3528  -0.2716   1.5624   1.5948   1.7092   1.9615   2.0973   2.1037
     2.3564   2.3866   2.5799   2.5989   2.7051   2.8020   3.1682   3.1943
     3.3033   3.3186   3.4767   3.4868   3.5247   3.5957   3.6015   3.6863
     3.7366   3.8888   3.8935   3.9904   4.0029   4.1221   4.2390   4.2565
     4.4775   4.7090   4.7399   5.1418   5.1581   5.1710   5.2063   5.2755
     5.2788   5.3242   5.3339   5.3508   5.3727   5.3922   5.4055   5.5548
     5.5574   5.6109   5.6445   5.8027   5.8058   5.8486   6.2635   6.2769
     6.3390   6.3496   6.3828   6.4616   6.4734   6.9809   6.9978   7.0428
     7.0966   8.1458   8.1620   8.5813   9.1359   9.6548   9.6609  10.4256
    10.5788  10.6080  10.8453  10.8604  10.9172  10.9866  11.0142  11.0933
    11.1154  11.2424  11.3129  11.3680  11.5233  11.7370  11.7862  11.8439
    11.8904  11.9419  12.0368  12.0780  12.2353  12.2904  12.4731  12.5141
    12.7299  12.8495  13.2348  13.2741

     occupation numbers 
     1.0000   1.0000   1.0000   1.0000   1.0000   1.0000   1.0000   1.0000
     1.0000   1.0000   1.0000   1.0000   1.0000   1.0000   1.0000   1.0000
     1.0000   1.0000   1.0000   1.0000   1.0000   1.0000   1.0000   1.0000
     1.0000   1.0000   1.0000   1.0000   1.0000   1.0000   1.0000   1.0000
     1.0000   1.0000   1.0000   1.0000   1.0000   1.0000   1.0000   1.0000
     1.0000   1.0000   1.0000   1.0000   1.0000   1.0000   1.0000   1.0000
     1.0000   1.0000   1.0000   1.0000   1.0000   1.0000   1.0000   1.0000
     1.0000   1.0000   1.0000   1.0000   1.0000   1.0000   1.0000   1.0000
     1.0000   1.0000   1.0000   1.0000   1.0000   1.0000   1.0000   1.0000
     1.0000   1.0000   1.0000   1.0000   1.0000   1.0000   1.0000   1.0000
     1.0000   1.0000   1.0000   1.0000   1.0000   1.0000   1.0000   1.0000
     1.0000   1.0000   1.0000   1.0000   1.0000   1.0000   1.0000   1.0000
     1.0000   1.0000   1.0000   1.0000   1.0000   1.0000   1.0000   1.0000
     1.0000   0.0000   0.0000   0.0000   0.0000   0.0000   0.0000   0.0000
     0.0000   0.0000   0.0000   0.0000   0.0000   0.0000   0.0000   0.0000
     0.0000   0.0000   0.0000   0.0000   0.0000   0.0000   0.0000   0.0000
     0.0000   0.0000   0.0000   0.0000   0.0000   0.0000   0.0000   0.0000
     0.0000   0.0000   0.0000   0.0000

          k = 0.0000 0.1925 0.0000 ( 53147 PWs)   bands (ev):

   -28.2756 -28.2755 -28.2753 -14.9221 -14.9220 -14.9220 -14.9162 -14.9161
   -14.9160 -14.9041 -14.9040 -14.9040 -14.8638 -14.8637 -14.8636 -14.8187
   -14.8185 -14.8185 -10.3326 -10.3325 -10.3266 -10.3043 -10.3030 -10.2852
   -10.2627 -10.2604 -10.2563  -6.7877  -6.4992  -6.4979  -5.7316  -5.7238
    -5.6292  -5.5950  -5.5162  -5.4621  -5.4221  -5.4148  -5.2703  -0.4354
    -0.3372  -0.3031   1.5013   1.6520   1.6885   2.0277   2.1157   2.2069
     2.3637   2.4086   2.6575   2.7348   2.8442   2.8848   3.1482   3.1756
     3.2044   3.3237   3.3720   3.4336   3.5222   3.5429   3.6109   3.6347
     3.7083   3.8492   3.8960   3.9802   4.1115   4.1774   4.2822   4.3029
     4.4834   4.5178   4.7485   5.1540   5.1741   5.2144   5.2274   5.2370
     5.2606   5.3135   5.3363   5.3650   5.4332   5.4507   5.4852   5.5022
     5.5434   5.6676   5.6952   5.7171   5.8083   5.9512   6.0202   6.1601
     6.2510   6.2989   6.5239   6.6045   6.7296   6.7624   6.7927   6.9087
     7.0805   8.0975   8.4655   8.5087   9.3288   9.3476  10.0013  10.3741
    10.4658  10.5771  10.6734  10.7592  10.8857  10.9419  11.0185  11.0922
    11.1662  11.3065  11.3881  11.4433  11.5295  11.6010  11.7212  11.8237
    11.9452  12.1099  12.1199  12.2412  12.3437  12.3956  12.4796  12.5622
    12.6075  12.6849  12.8398  12.9150

     occupation numbers 
     1.0000   1.0000   1.0000   1.0000   1.0000   1.0000   1.0000   1.0000
     1.0000   1.0000   1.0000   1.0000   1.0000   1.0000   1.0000   1.0000
     1.0000   1.0000   1.0000   1.0000   1.0000   1.0000   1.0000   1.0000
     1.0000   1.0000   1.0000   1.0000   1.0000   1.0000   1.0000   1.0000
     1.0000   1.0000   1.0000   1.0000   1.0000   1.0000   1.0000   1.0000
     1.0000   1.0000   1.0000   1.0000   1.0000   1.0000   1.0000   1.0000
     1.0000   1.0000   1.0000   1.0000   1.0000   1.0000   1.0000   1.0000
     1.0000   1.0000   1.0000   1.0000   1.0000   1.0000   1.0000   1.0000
     1.0000   1.0000   1.0000   1.0000   1.0000   1.0000   1.0000   1.0000
     1.0000   1.0000   1.0000   1.0000   1.0000   1.0000   1.0000   1.0000
     1.0000   1.0000   1.0000   1.0000   1.0000   1.0000   1.0000   1.0000
     1.0000   1.0000   1.0000   1.0000   1.0000   1.0000   1.0000   1.0000
     1.0000   1.0000   1.0000   1.0000   1.0000   1.0000   1.0000   1.0000
     1.0000   0.0000   0.0000   0.0000   0.0000   0.0000   0.0000   0.0000
     0.0000   0.0000   0.0000   0.0000   0.0000   0.0000   0.0000   0.0000
     0.0000   0.0000   0.0000   0.0000   0.0000   0.0000   0.0000   0.0000
     0.0000   0.0000   0.0000   0.0000   0.0000   0.0000   0.0000   0.0000
     0.0000   0.0000   0.0000   0.0000

          k = 0.0000 0.1925 0.0679 ( 53146 PWs)   bands (ev):

   -28.2756 -28.2755 -28.2753 -14.9221 -14.9220 -14.9220 -14.9162 -14.9161
   -14.9160 -14.9041 -14.9040 -14.9040 -14.8638 -14.8637 -14.8636 -14.8187
   -14.8185 -14.8185 -10.3336 -10.3313 -10.3268 -10.3079 -10.2986 -10.2859
   -10.2627 -10.2600 -10.2568  -6.7783  -6.5757  -6.4234  -5.7741  -5.6945
    -5.6284  -5.5982  -5.5126  -5.4644  -5.4268  -5.3954  -5.2782  -0.4303
    -0.3560  -0.2899   1.4879   1.6562   1.7259   1.9710   2.1392   2.2162
     2.3836   2.4020   2.6396   2.7352   2.8259   2.8882   3.1322   3.1697
     3.2141   3.3192   3.4064   3.4412   3.4956   3.5709   3.6019   3.6399
     3.7142   3.8625   3.8947   3.9793   4.0895   4.1788   4.2721   4.3021
     4.4637   4.5540   4.7386   5.1561   5.1799   5.1988   5.2179   5.2426
     5.2632   5.2983   5.3524   5.3718   5.4239   5.4544   5.4799   5.5028
     5.5582   5.6655   5.6746   5.7428   5.8092   5.9002   6.0818   6.1798
     6.2480   6.3259   6.4886   6.5383   6.6572   6.7983   6.8492   6.9281
     7.0751   8.1269   8.4290   8.5297   9.2832   9.4422   9.9797  10.3591
    10.4201  10.5611  10.6677  10.7089  10.9299  11.0061  11.0228  11.0613
    11.1478  11.3037  11.3661  11.4755  11.5551  11.6042  11.6905  11.8669
    11.8794  12.0472  12.1345  12.2036  12.3355  12.4519  12.4846  12.5271
    12.5977  12.7260  12.8899  13.0697

     occupation numbers 
     1.0000   1.0000   1.0000   1.0000   1.0000   1.0000   1.0000   1.0000
     1.0000   1.0000   1.0000   1.0000   1.0000   1.0000   1.0000   1.0000
     1.0000   1.0000   1.0000   1.0000   1.0000   1.0000   1.0000   1.0000
     1.0000   1.0000   1.0000   1.0000   1.0000   1.0000   1.0000   1.0000
     1.0000   1.0000   1.0000   1.0000   1.0000   1.0000   1.0000   1.0000
     1.0000   1.0000   1.0000   1.0000   1.0000   1.0000   1.0000   1.0000
     1.0000   1.0000   1.0000   1.0000   1.0000   1.0000   1.0000   1.0000
     1.0000   1.0000   1.0000   1.0000   1.0000   1.0000   1.0000   1.0000
     1.0000   1.0000   1.0000   1.0000   1.0000   1.0000   1.0000   1.0000
     1.0000   1.0000   1.0000   1.0000   1.0000   1.0000   1.0000   1.0000
     1.0000   1.0000   1.0000   1.0000   1.0000   1.0000   1.0000   1.0000
     1.0000   1.0000   1.0000   1.0000   1.0000   1.0000   1.0000   1.0000
     1.0000   1.0000   1.0000   1.0000   1.0000   1.0000   1.0000   1.0000
     1.0000   0.0000   0.0000   0.0000   0.0000   0.0000   0.0000   0.0000
     0.0000   0.0000   0.0000   0.0000   0.0000   0.0000   0.0000   0.0000
     0.0000   0.0000   0.0000   0.0000   0.0000   0.0000   0.0000   0.0000
     0.0000   0.0000   0.0000   0.0000   0.0000   0.0000   0.0000   0.0000
     0.0000   0.0000   0.0000   0.0000

          k = 0.0000 0.1925 0.1357 ( 53139 PWs)   bands (ev):

   -28.2756 -28.2755 -28.2753 -14.9221 -14.9220 -14.9220 -14.9162 -14.9161
   -14.9160 -14.9041 -14.9040 -14.9040 -14.8638 -14.8637 -14.8636 -14.8187
   -14.8185 -14.8185 -10.3342 -10.3299 -10.3274 -10.3104 -10.2940 -10.2877
   -10.2625 -10.2595 -10.2579  -6.7506  -6.6465  -6.3638  -5.8214  -5.6715
    -5.6286  -5.6079  -5.4965  -5.4675  -5.4324  -5.3635  -5.2996  -0.4251
    -0.3732  -0.2789   1.4874   1.6417   1.7823   1.9146   2.1554   2.2106
     2.3984   2.4486   2.6079   2.7109   2.7890   2.8745   3.1323   3.1708
     3.2321   3.3181   3.4108   3.4732   3.4770   3.5911   3.6331   3.6421
     3.7119   3.8884   3.9042   3.9746   4.0477   4.1474   4.2554   4.2940
     4.4676   4.5962   4.7210   5.1563   5.1830   5.1900   5.2009   5.2541
     5.2635   5.3071   5.3596   5.3796   5.4126   5.4314   5.4922   5.5154
     5.5593   5.6425   5.6697   5.7722   5.8095   5.8580   6.1728   6.2063
     6.2852   6.3652   6.4150   6.4270   6.5591   6.8444   6.9281   6.9367
     7.0521   8.2033   8.3714   8.5451   9.2712   9.5763   9.8782  10.2699
    10.4478  10.5524  10.6686  10.7127  10.9268  10.9899  11.0096  11.0814
    11.1278  11.2392  11.3505  11.4426  11.5716  11.6691  11.7417  11.8460
    11.9085  11.9378  12.0631  12.2478  12.2727  12.4172  12.5261  12.5833
    12.6050  12.7592  13.0946  13.2090

     occupation numbers 
     1.0000   1.0000   1.0000   1.0000   1.0000   1.0000   1.0000   1.0000
     1.0000   1.0000   1.0000   1.0000   1.0000   1.0000   1.0000   1.0000
     1.0000   1.0000   1.0000   1.0000   1.0000   1.0000   1.0000   1.0000
     1.0000   1.0000   1.0000   1.0000   1.0000   1.0000   1.0000   1.0000
     1.0000   1.0000   1.0000   1.0000   1.0000   1.0000   1.0000   1.0000
     1.0000   1.0000   1.0000   1.0000   1.0000   1.0000   1.0000   1.0000
     1.0000   1.0000   1.0000   1.0000   1.0000   1.0000   1.0000   1.0000
     1.0000   1.0000   1.0000   1.0000   1.0000   1.0000   1.0000   1.0000
     1.0000   1.0000   1.0000   1.0000   1.0000   1.0000   1.0000   1.0000
     1.0000   1.0000   1.0000   1.0000   1.0000   1.0000   1.0000   1.0000
     1.0000   1.0000   1.0000   1.0000   1.0000   1.0000   1.0000   1.0000
     1.0000   1.0000   1.0000   1.0000   1.0000   1.0000   1.0000   1.0000
     1.0000   1.0000   1.0000   1.0000   1.0000   1.0000   1.0000   1.0000
     1.0000   0.0000   0.0000   0.0000   0.0000   0.0000   0.0000   0.0000
     0.0000   0.0000   0.0000   0.0000   0.0000   0.0000   0.0000   0.0000
     0.0000   0.0000   0.0000   0.0000   0.0000   0.0000   0.0000   0.0000
     0.0000   0.0000   0.0000   0.0000   0.0000   0.0000   0.0000   0.0000
     0.0000   0.0000   0.0000   0.0000

          k = 0.0000 0.1925-0.2036 ( 53154 PWs)   bands (ev):

   -28.2756 -28.2755 -28.2753 -14.9221 -14.9220 -14.9220 -14.9162 -14.9161
   -14.9160 -14.9041 -14.9040 -14.9040 -14.8638 -14.8637 -14.8636 -14.8187
   -14.8185 -14.8185 -10.3345 -10.3289 -10.3282 -10.3112 -10.2910 -10.2896
   -10.2621 -10.2595 -10.2585  -6.7089  -6.7030  -6.3398  -5.8428  -5.6600
    -5.6319  -5.6131  -5.4817  -5.4717  -5.4366  -5.3385  -5.3217  -0.4266
    -0.3746  -0.2763   1.4996   1.6235   1.7871   1.9178   2.1559   2.2007
     2.4059   2.5036   2.5939   2.6546   2.7794   2.8721   3.1318   3.1845
     3.2423   3.3040   3.4022   3.4749   3.5008   3.6101   3.6250   3.6644
     3.7025   3.8971   3.9233   3.9779   4.0188   4.1130   4.2397   4.2997
     4.4749   4.6142   4.7132   5.1529   5.1763   5.1935   5.1999   5.2614
     5.2660   5.3351   5.3397   5.3703   5.4202   5.4299   5.4738   5.5383
     5.5565   5.6186   5.6719   5.7852   5.8065   5.8504   6.2153   6.2776
     6.2810   6.3186   6.3889   6.4367   6.4768   6.8797   6.9174   6.9853
     7.0171   8.2751   8.3171   8.5479   9.2733   9.7101   9.7413  10.2246
    10.4753  10.5660  10.6980  10.7764  10.8222  10.9669  10.9853  11.0395
    11.1873  11.2130  11.3719  11.3884  11.6006  11.6690  11.7782  11.8174
    11.8604  11.9776  12.0390  12.2317  12.3189  12.4070  12.5271  12.5394
    12.6362  12.8104  13.2035  13.2164

     occupation numbers 
     1.0000   1.0000   1.0000   1.0000   1.0000   1.0000   1.0000   1.0000
     1.0000   1.0000   1.0000   1.0000   1.0000   1.0000   1.0000   1.0000
     1.0000   1.0000   1.0000   1.0000   1.0000   1.0000   1.0000   1.0000
     1.0000   1.0000   1.0000   1.0000   1.0000   1.0000   1.0000   1.0000
     1.0000   1.0000   1.0000   1.0000   1.0000   1.0000   1.0000   1.0000
     1.0000   1.0000   1.0000   1.0000   1.0000   1.0000   1.0000   1.0000
     1.0000   1.0000   1.0000   1.0000   1.0000   1.0000   1.0000   1.0000
     1.0000   1.0000   1.0000   1.0000   1.0000   1.0000   1.0000   1.0000
     1.0000   1.0000   1.0000   1.0000   1.0000   1.0000   1.0000   1.0000
     1.0000   1.0000   1.0000   1.0000   1.0000   1.0000   1.0000   1.0000
     1.0000   1.0000   1.0000   1.0000   1.0000   1.0000   1.0000   1.0000
     1.0000   1.0000   1.0000   1.0000   1.0000   1.0000   1.0000   1.0000
     1.0000   1.0000   1.0000   1.0000   1.0000   1.0000   1.0000   1.0000
     1.0000   0.0000   0.0000   0.0000   0.0000   0.0000   0.0000   0.0000
     0.0000   0.0000   0.0000   0.0000   0.0000   0.0000   0.0000   0.0000
     0.0000   0.0000   0.0000   0.0000   0.0000   0.0000   0.0000   0.0000
     0.0000   0.0000   0.0000   0.0000   0.0000   0.0000   0.0000   0.0000
     0.0000   0.0000   0.0000   0.0000

          k = 0.0000 0.2887 0.0000 ( 53145 PWs)   bands (ev):

   -28.2756 -28.2755 -28.2753 -14.9220 -14.9220 -14.9219 -14.9161 -14.9161
   -14.9160 -14.9040 -14.9040 -14.9039 -14.8639 -14.8637 -14.8636 -14.8187
   -14.8185 -14.8185 -10.3344 -10.3341 -10.3292 -10.3049 -10.3022 -10.2882
   -10.2664 -10.2622 -10.2581  -6.6998  -6.4366  -6.4316  -5.7438  -5.7213
    -5.6851  -5.6476  -5.5175  -5.5090  -5.4601  -5.4492  -5.2903  -0.5041
    -0.3606  -0.3083   1.4544   1.6385   1.7444   2.0031   2.2466   2.3316
     2.4082   2.5114   2.7755   2.8275   2.8488   2.9509   3.0818   3.1419
     3.1898   3.2797   3.3427   3.4390   3.5059   3.5324   3.5813   3.6434
     3.6976   3.8630   3.9446   3.9960   4.1039   4.1470   4.2727   4.3367
     4.4301   4.5169   4.6766   5.1540   5.1696   5.2197   5.2413   5.2539
     5.2767   5.3232   5.3452   5.3695   5.4619   5.4692   5.5118   5.5369
     5.5857   5.6742   5.7015   5.7323   5.8363   5.9253   6.0261   6.1746
     6.2332   6.2918   6.4061   6.4826   6.6739   6.7260   6.7401   6.8452
     6.9880   8.3133   8.4469   8.4939   9.4879   9.5414   9.9896  10.1670
    10.3188  10.3997  10.6218  10.6623  10.8122  10.9169  10.9998  11.0491
    11.1712  11.2726  11.4185  11.5289  11.6098  11.6598  11.7155  11.8718
    12.0440  12.0649  12.0971  12.2565  12.3283  12.3825  12.4899  12.6120
    12.6530  12.7304  12.8336  12.9033

     occupation numbers 
     1.0000   1.0000   1.0000   1.0000   1.0000   1.0000   1.0000   1.0000
     1.0000   1.0000   1.0000   1.0000   1.0000   1.0000   1.0000   1.0000
     1.0000   1.0000   1.0000   1.0000   1.0000   1.0000   1.0000   1.0000
     1.0000   1.0000   1.0000   1.0000   1.0000   1.0000   1.0000   1.0000
     1.0000   1.0000   1.0000   1.0000   1.0000   1.0000   1.0000   1.0000
     1.0000   1.0000   1.0000   1.0000   1.0000   1.0000   1.0000   1.0000
     1.0000   1.0000   1.0000   1.0000   1.0000   1.0000   1.0000   1.0000
     1.0000   1.0000   1.0000   1.0000   1.0000   1.0000   1.0000   1.0000
     1.0000   1.0000   1.0000   1.0000   1.0000   1.0000   1.0000   1.0000
     1.0000   1.0000   1.0000   1.0000   1.0000   1.0000   1.0000   1.0000
     1.0000   1.0000   1.0000   1.0000   1.0000   1.0000   1.0000   1.0000
     1.0000   1.0000   1.0000   1.0000   1.0000   1.0000   1.0000   1.0000
     1.0000   1.0000   1.0000   1.0000   1.0000   1.0000   1.0000   1.0000
     1.0000   0.0000   0.0000   0.0000   0.0000   0.0000   0.0000   0.0000
     0.0000   0.0000   0.0000   0.0000   0.0000   0.0000   0.0000   0.0000
     0.0000   0.0000   0.0000   0.0000   0.0000   0.0000   0.0000   0.0000
     0.0000   0.0000   0.0000   0.0000   0.0000   0.0000   0.0000   0.0000
     0.0000   0.0000   0.0000   0.0000

          k = 0.0000 0.2887 0.0679 ( 53160 PWs)   bands (ev):

   -28.2756 -28.2755 -28.2753 -14.9220 -14.9220 -14.9219 -14.9162 -14.9161
   -14.9160 -14.9040 -14.9040 -14.9039 -14.8639 -14.8637 -14.8636 -14.8187
   -14.8185 -14.8185 -10.3353 -10.3331 -10.3292 -10.3074 -10.2987 -10.2891
   -10.2664 -10.2617 -10.2586  -6.6911  -6.5035  -6.3681  -5.7528  -5.7249
    -5.6759  -5.6533  -5.5303  -5.5068  -5.4717  -5.4150  -5.2985  -0.4981
    -0.3809  -0.2946   1.4381   1.6601   1.7953   1.9302   2.2466   2.3533
     2.4048   2.5177   2.7403   2.8326   2.8815   2.9609   3.0705   3.0973
     3.1940   3.2774   3.3864   3.4306   3.4913   3.5565   3.5712   3.6390
     3.7120   3.8670   3.9377   4.0018   4.0797   4.1552   4.2874   4.3289
     4.4251   4.5238   4.6713   5.1596   5.1719   5.2180   5.2343   5.2383
     5.2698   5.3270   5.3554   5.3734   5.4390   5.4749   5.5178   5.5530
     5.5917   5.6779   5.6997   5.7456   5.8367   5.8718   6.0670   6.1764
     6.2520   6.2768   6.3945   6.4730   6.6461   6.7150   6.7816   6.8475
     6.9852   8.3287   8.4276   8.5078   9.4557   9.6195   9.9882  10.1276
    10.2817  10.4046  10.6017  10.6638  10.8508  10.9338  10.9622  11.1000
    11.1566  11.2722  11.4454  11.5488  11.5824  11.6320  11.7138  11.8116
    12.0086  12.0381  12.1067  12.1728  12.3415  12.3943  12.5494  12.6107
    12.6430  12.8076  12.8817  12.9569

     occupation numbers 
     1.0000   1.0000   1.0000   1.0000   1.0000   1.0000   1.0000   1.0000
     1.0000   1.0000   1.0000   1.0000   1.0000   1.0000   1.0000   1.0000
     1.0000   1.0000   1.0000   1.0000   1.0000   1.0000   1.0000   1.0000
     1.0000   1.0000   1.0000   1.0000   1.0000   1.0000   1.0000   1.0000
     1.0000   1.0000   1.0000   1.0000   1.0000   1.0000   1.0000   1.0000
     1.0000   1.0000   1.0000   1.0000   1.0000   1.0000   1.0000   1.0000
     1.0000   1.0000   1.0000   1.0000   1.0000   1.0000   1.0000   1.0000
     1.0000   1.0000   1.0000   1.0000   1.0000   1.0000   1.0000   1.0000
     1.0000   1.0000   1.0000   1.0000   1.0000   1.0000   1.0000   1.0000
     1.0000   1.0000   1.0000   1.0000   1.0000   1.0000   1.0000   1.0000
     1.0000   1.0000   1.0000   1.0000   1.0000   1.0000   1.0000   1.0000
     1.0000   1.0000   1.0000   1.0000   1.0000   1.0000   1.0000   1.0000
     1.0000   1.0000   1.0000   1.0000   1.0000   1.0000   1.0000   1.0000
     1.0000   0.0000   0.0000   0.0000   0.0000   0.0000   0.0000   0.0000
     0.0000   0.0000   0.0000   0.0000   0.0000   0.0000   0.0000   0.0000
     0.0000   0.0000   0.0000   0.0000   0.0000   0.0000   0.0000   0.0000
     0.0000   0.0000   0.0000   0.0000   0.0000   0.0000   0.0000   0.0000
     0.0000   0.0000   0.0000   0.0000

          k = 0.0000 0.2887 0.1357 ( 53194 PWs)   bands (ev):

   -28.2756 -28.2755 -28.2753 -14.9220 -14.9220 -14.9219 -14.9162 -14.9161
   -14.9160 -14.9040 -14.9040 -14.9039 -14.8639 -14.8637 -14.8636 -14.8187
   -14.8185 -14.8185 -10.3360 -10.3321 -10.3295 -10.3090 -10.2953 -10.2908
   -10.2660 -10.2612 -10.2597  -6.6657  -6.5684  -6.3159  -5.7882  -5.7173
    -5.6771  -5.6450  -5.5339  -5.5046  -5.4784  -5.3799  -5.3173  -0.4934
    -0.3968  -0.2841   1.4344   1.6731   1.8423   1.8783   2.2318   2.3135
     2.4612   2.5558   2.6947   2.7995   2.8791   2.9765   3.0721   3.0889
     3.2003   3.2858   3.3758   3.4522   3.4816   3.5691   3.5926   3.6476
     3.7122   3.8797   3.9364   4.0036   4.0489   4.1361   4.2610   4.3361
     4.4517   4.5227   4.6689   5.1649   5.1739   5.1974   5.2218   5.2555
     5.2592   5.3431   5.3629   5.3871   5.4240   5.4734   5.5162   5.5724
     5.5935   5.6649   5.6958   5.7590   5.8321   5.8374   6.1027   6.1940
     6.2347   6.2985   6.3791   6.4616   6.5796   6.7353   6.8347   6.8421
     6.9652   8.3608   8.4155   8.5169   9.4540   9.7250   9.9178  10.1008
    10.2679  10.4060  10.6155  10.6336  10.8007  10.9241  11.0181  11.0919
    11.1745  11.2929  11.3528  11.4808  11.5911  11.6937  11.7415  11.7989
    11.9353  11.9612  12.1247  12.1815  12.2852  12.4168  12.5048  12.6541
    12.7414  12.8097  12.9985  13.0895

     occupation numbers 
     1.0000   1.0000   1.0000   1.0000   1.0000   1.0000   1.0000   1.0000
     1.0000   1.0000   1.0000   1.0000   1.0000   1.0000   1.0000   1.0000
     1.0000   1.0000   1.0000   1.0000   1.0000   1.0000   1.0000   1.0000
     1.0000   1.0000   1.0000   1.0000   1.0000   1.0000   1.0000   1.0000
     1.0000   1.0000   1.0000   1.0000   1.0000   1.0000   1.0000   1.0000
     1.0000   1.0000   1.0000   1.0000   1.0000   1.0000   1.0000   1.0000
     1.0000   1.0000   1.0000   1.0000   1.0000   1.0000   1.0000   1.0000
     1.0000   1.0000   1.0000   1.0000   1.0000   1.0000   1.0000   1.0000
     1.0000   1.0000   1.0000   1.0000   1.0000   1.0000   1.0000   1.0000
     1.0000   1.0000   1.0000   1.0000   1.0000   1.0000   1.0000   1.0000
     1.0000   1.0000   1.0000   1.0000   1.0000   1.0000   1.0000   1.0000
     1.0000   1.0000   1.0000   1.0000   1.0000   1.0000   1.0000   1.0000
     1.0000   1.0000   1.0000   1.0000   1.0000   1.0000   1.0000   1.0000
     1.0000   0.0000   0.0000   0.0000   0.0000   0.0000   0.0000   0.0000
     0.0000   0.0000   0.0000   0.0000   0.0000   0.0000   0.0000   0.0000
     0.0000   0.0000   0.0000   0.0000   0.0000   0.0000   0.0000   0.0000
     0.0000   0.0000   0.0000   0.0000   0.0000   0.0000   0.0000   0.0000
     0.0000   0.0000   0.0000   0.0000

          k = 0.0000 0.2887-0.2036 ( 53180 PWs)   bands (ev):

   -28.2756 -28.2755 -28.2753 -14.9220 -14.9220 -14.9219 -14.9162 -14.9160
   -14.9160 -14.9040 -14.9040 -14.9039 -14.8639 -14.8637 -14.8636 -14.8187
   -14.8185 -14.8185 -10.3363 -10.3314 -10.3299 -10.3092 -10.2946 -10.2911
   -10.2656 -10.2615 -10.2599  -6.6316  -6.6161  -6.2947  -5.8086  -5.7114
    -5.6838  -5.6359  -5.5281  -5.5035  -5.4830  -5.3666  -5.3284  -0.4959
    -0.3955  -0.2830   1.4446   1.6724   1.7693   1.9659   2.1951   2.3074
     2.4810   2.6118   2.6734   2.7249   2.8857   2.9804   3.0754   3.1098
     3.2104   3.2839   3.3521   3.4693   3.4822   3.5732   3.6169   3.6543
     3.6989   3.8890   3.9441   4.0017   4.0340   4.1112   4.2319   4.3482
     4.4773   4.5124   4.6715   5.1624   5.1717   5.1888   5.2237   5.2622
     5.2715   5.3509   5.3624   5.3841   5.4309   5.4764   5.5174   5.5694
     5.5919   5.6462   5.6875   5.7546   5.8267   5.8559   6.1180   6.1686
     6.2576   6.3044   6.3756   6.4871   6.5163   6.7643   6.8087   6.8855
     6.9374   8.3703   8.4277   8.5141   9.4652   9.7804   9.8648  10.0705
    10.3070  10.4162  10.5816  10.6651  10.7421  10.8940  11.0197  11.0838
    11.2185  11.2649  11.3794  11.4303  11.5911  11.6196  11.8077  11.8276
    11.8809  11.9698  12.1315  12.2038  12.2770  12.4315  12.5081  12.6752
    12.7243  12.8117  13.0169  13.1181

     occupation numbers 
     1.0000   1.0000   1.0000   1.0000   1.0000   1.0000   1.0000   1.0000
     1.0000   1.0000   1.0000   1.0000   1.0000   1.0000   1.0000   1.0000
     1.0000   1.0000   1.0000   1.0000   1.0000   1.0000   1.0000   1.0000
     1.0000   1.0000   1.0000   1.0000   1.0000   1.0000   1.0000   1.0000
     1.0000   1.0000   1.0000   1.0000   1.0000   1.0000   1.0000   1.0000
     1.0000   1.0000   1.0000   1.0000   1.0000   1.0000   1.0000   1.0000
     1.0000   1.0000   1.0000   1.0000   1.0000   1.0000   1.0000   1.0000
     1.0000   1.0000   1.0000   1.0000   1.0000   1.0000   1.0000   1.0000
     1.0000   1.0000   1.0000   1.0000   1.0000   1.0000   1.0000   1.0000
     1.0000   1.0000   1.0000   1.0000   1.0000   1.0000   1.0000   1.0000
     1.0000   1.0000   1.0000   1.0000   1.0000   1.0000   1.0000   1.0000
     1.0000   1.0000   1.0000   1.0000   1.0000   1.0000   1.0000   1.0000
     1.0000   1.0000   1.0000   1.0000   1.0000   1.0000   1.0000   1.0000
     1.0000   0.0000   0.0000   0.0000   0.0000   0.0000   0.0000   0.0000
     0.0000   0.0000   0.0000   0.0000   0.0000   0.0000   0.0000   0.0000
     0.0000   0.0000   0.0000   0.0000   0.0000   0.0000   0.0000   0.0000
     0.0000   0.0000   0.0000   0.0000   0.0000   0.0000   0.0000   0.0000
     0.0000   0.0000   0.0000   0.0000

          k = 0.0000 0.3849 0.0000 ( 53210 PWs)   bands (ev):

   -28.2756 -28.2755 -28.2753 -14.9219 -14.9219 -14.9218 -14.9161 -14.9160
   -14.9159 -14.9040 -14.9040 -14.9039 -14.8639 -14.8637 -14.8636 -14.8187
   -14.8185 -14.8184 -10.3363 -10.3356 -10.3320 -10.3063 -10.3016 -10.2907
   -10.2690 -10.2638 -10.2601  -6.5896  -6.3653  -6.3488  -5.8197  -5.7771
    -5.7225  -5.6474  -5.5679  -5.5275  -5.5043  -5.4513  -5.3131  -0.5620
    -0.3771  -0.3124   1.4190   1.6402   1.8283   1.9549   2.3390   2.3936
     2.4497   2.6170   2.8219   2.8539   2.9147   3.0042   3.0502   3.1240
     3.2341   3.2689   3.3387   3.4496   3.5001   3.5137   3.5615   3.6461
     3.6941   3.8596   3.9781   4.0300   4.0926   4.1257   4.2480   4.3682
     4.3784   4.5287   4.6265   5.1465   5.1691   5.2213   5.2495   5.2672
     5.2888   5.3183   5.3493   5.3568   5.4929   5.5123   5.5271   5.5608
     5.6302   5.6778   5.7291   5.7559   5.8634   5.9503   5.9900   6.1446
     6.2252   6.2704   6.3771   6.4408   6.5754   6.6507   6.6835   6.7776
     6.9041   8.3841   8.4279   8.5002   9.6426   9.7543   9.9575   9.9941
    10.2124  10.3228  10.5967  10.6417  10.7420  10.8219  10.9617  11.0501
    11.2234  11.2446  11.4228  11.5478  11.6063  11.7454  11.7686  11.8708
    11.9514  12.0242  12.1096  12.1973  12.3580  12.4177  12.4673  12.5633
    12.6127  12.7144  12.8492  12.9335

     occupation numbers 
     1.0000   1.0000   1.0000   1.0000   1.0000   1.0000   1.0000   1.0000
     1.0000   1.0000   1.0000   1.0000   1.0000   1.0000   1.0000   1.0000
     1.0000   1.0000   1.0000   1.0000   1.0000   1.0000   1.0000   1.0000
     1.0000   1.0000   1.0000   1.0000   1.0000   1.0000   1.0000   1.0000
     1.0000   1.0000   1.0000   1.0000   1.0000   1.0000   1.0000   1.0000
     1.0000   1.0000   1.0000   1.0000   1.0000   1.0000   1.0000   1.0000
     1.0000   1.0000   1.0000   1.0000   1.0000   1.0000   1.0000   1.0000
     1.0000   1.0000   1.0000   1.0000   1.0000   1.0000   1.0000   1.0000
     1.0000   1.0000   1.0000   1.0000   1.0000   1.0000   1.0000   1.0000
     1.0000   1.0000   1.0000   1.0000   1.0000   1.0000   1.0000   1.0000
     1.0000   1.0000   1.0000   1.0000   1.0000   1.0000   1.0000   1.0000
     1.0000   1.0000   1.0000   1.0000   1.0000   1.0000   1.0000   1.0000
     1.0000   1.0000   1.0000   1.0000   1.0000   1.0000   1.0000   1.0000
     1.0000   0.0000   0.0000   0.0000   0.0000   0.0000   0.0000   0.0000
     0.0000   0.0000   0.0000   0.0000   0.0000   0.0000   0.0000   0.0000
     0.0000   0.0000   0.0000   0.0000   0.0000   0.0000   0.0000   0.0000
     0.0000   0.0000   0.0000   0.0000   0.0000   0.0000   0.0000   0.0000
     0.0000   0.0000   0.0000   0.0000

          k = 0.0000 0.3849 0.0679 ( 53166 PWs)   bands (ev):

   -28.2756 -28.2755 -28.2753 -14.9219 -14.9219 -14.9218 -14.9161 -14.9160
   -14.9159 -14.9040 -14.9040 -14.9039 -14.8639 -14.8637 -14.8636 -14.8187
   -14.8185 -14.8184 -10.3369 -10.3352 -10.3317 -10.3076 -10.2993 -10.2918
   -10.2690 -10.2633 -10.2605  -6.5823  -6.4131  -6.3067  -5.8201  -5.7604
    -5.7175  -5.6789  -5.5711  -5.5296  -5.5103  -5.4242  -5.3203  -0.5564
    -0.3961  -0.2996   1.4056   1.6873   1.8285   1.9192   2.3316   2.3703
     2.4838   2.6082   2.8363   2.8590   2.9200   3.0190   3.0406   3.0874
     3.2238   3.2561   3.3792   3.4435   3.5088   3.5274   3.5421   3.6410
     3.7012   3.8659   3.9734   4.0344   4.0695   4.1393   4.2642   4.3558
     4.3805   4.5226   4.6307   5.1561   5.1663   5.2275   5.2422   5.2446
     5.2790   5.3394   5.3452   5.3656   5.4497   5.5274   5.5564   5.5678
     5.6318   5.6705   5.7413   5.7691   5.8506   5.9201   6.0075   6.1552
     6.1817   6.2817   6.3602   6.4751   6.5829   6.6380   6.7024   6.7735
     6.8922   8.3927   8.4185   8.5070   9.6173   9.8102   9.9037  10.0372
    10.1936  10.3242  10.5972  10.6834  10.6981  10.8670  10.9266  11.1052
    11.2010  11.2645  11.4348  11.5500  11.6073  11.6526  11.7490  11.8141
    11.8638  12.0773  12.0820  12.1716  12.3326  12.3836  12.5463  12.5730
    12.7059  12.7846  12.8559  12.9402

     occupation numbers 
     1.0000   1.0000   1.0000   1.0000   1.0000   1.0000   1.0000   1.0000
     1.0000   1.0000   1.0000   1.0000   1.0000   1.0000   1.0000   1.0000
     1.0000   1.0000   1.0000   1.0000   1.0000   1.0000   1.0000   1.0000
     1.0000   1.0000   1.0000   1.0000   1.0000   1.0000   1.0000   1.0000
     1.0000   1.0000   1.0000   1.0000   1.0000   1.0000   1.0000   1.0000
     1.0000   1.0000   1.0000   1.0000   1.0000   1.0000   1.0000   1.0000
     1.0000   1.0000   1.0000   1.0000   1.0000   1.0000   1.0000   1.0000
     1.0000   1.0000   1.0000   1.0000   1.0000   1.0000   1.0000   1.0000
     1.0000   1.0000   1.0000   1.0000   1.0000   1.0000   1.0000   1.0000
     1.0000   1.0000   1.0000   1.0000   1.0000   1.0000   1.0000   1.0000
     1.0000   1.0000   1.0000   1.0000   1.0000   1.0000   1.0000   1.0000
     1.0000   1.0000   1.0000   1.0000   1.0000   1.0000   1.0000   1.0000
     1.0000   1.0000   1.0000   1.0000   1.0000   1.0000   1.0000   1.0000
     1.0000   0.0000   0.0000   0.0000   0.0000   0.0000   0.0000   0.0000
     0.0000   0.0000   0.0000   0.0000   0.0000   0.0000   0.0000   0.0000
     0.0000   0.0000   0.0000   0.0000   0.0000   0.0000   0.0000   0.0000
     0.0000   0.0000   0.0000   0.0000   0.0000   0.0000   0.0000   0.0000
     0.0000   0.0000   0.0000   0.0000

          k = 0.0000 0.3849 0.1357 ( 53156 PWs)   bands (ev):

   -28.2756 -28.2755 -28.2753 -14.9219 -14.9219 -14.9218 -14.9161 -14.9160
   -14.9159 -14.9040 -14.9040 -14.9039 -14.8639 -14.8637 -14.8636 -14.8187
   -14.8185 -14.8184 -10.3377 -10.3345 -10.3316 -10.3080 -10.2977 -10.2931
   -10.2686 -10.2630 -10.2611  -6.5611  -6.4684  -6.2654  -5.8216  -5.7531
    -5.7334  -5.6818  -5.5726  -5.5301  -5.5161  -5.3991  -5.3314  -0.5516
    -0.4109  -0.2901   1.4053   1.7226   1.7730   1.9666   2.2854   2.3341
     2.5582   2.5996   2.8252   2.8502   2.9059   3.0081   3.0765   3.0782
     3.2135   3.2662   3.3770   3.4500   3.5060   3.5364   3.5580   3.6442
     3.6958   3.8784   3.9717   4.0323   4.0539   4.1298   4.2401   4.3671
     4.3920   4.5212   4.6311   5.1642   5.1722   5.2043   5.2286   5.2600
     5.2653   5.3595   5.3677   5.3801   5.4095   5.5236   5.5557   5.6070
     5.6307   5.6603   5.7389   5.7840   5.8393   5.8943   6.0189   6.1115
     6.2032   6.2870   6.3546   6.5068   6.5662   6.6471   6.7396   6.7481
     6.8661   8.4019   8.4154   8.5203   9.6197   9.8400   9.9107  10.0762
    10.1770  10.3124  10.5943  10.6141  10.6645  10.8748  10.9833  11.1250
    11.1673  11.2880  11.4655  11.4771  11.6034  11.6212  11.7362  11.7936
    11.7964  12.0335  12.0971  12.1553  12.3214  12.3836  12.5339  12.5664
    12.8123  12.8544  12.9288  12.9795

     occupation numbers 
     1.0000   1.0000   1.0000   1.0000   1.0000   1.0000   1.0000   1.0000
     1.0000   1.0000   1.0000   1.0000   1.0000   1.0000   1.0000   1.0000
     1.0000   1.0000   1.0000   1.0000   1.0000   1.0000   1.0000   1.0000
     1.0000   1.0000   1.0000   1.0000   1.0000   1.0000   1.0000   1.0000
     1.0000   1.0000   1.0000   1.0000   1.0000   1.0000   1.0000   1.0000
     1.0000   1.0000   1.0000   1.0000   1.0000   1.0000   1.0000   1.0000
     1.0000   1.0000   1.0000   1.0000   1.0000   1.0000   1.0000   1.0000
     1.0000   1.0000   1.0000   1.0000   1.0000   1.0000   1.0000   1.0000
     1.0000   1.0000   1.0000   1.0000   1.0000   1.0000   1.0000   1.0000
     1.0000   1.0000   1.0000   1.0000   1.0000   1.0000   1.0000   1.0000
     1.0000   1.0000   1.0000   1.0000   1.0000   1.0000   1.0000   1.0000
     1.0000   1.0000   1.0000   1.0000   1.0000   1.0000   1.0000   1.0000
     1.0000   1.0000   1.0000   1.0000   1.0000   1.0000   1.0000   1.0000
     1.0000   0.0000   0.0000   0.0000   0.0000   0.0000   0.0000   0.0000
     0.0000   0.0000   0.0000   0.0000   0.0000   0.0000   0.0000   0.0000
     0.0000   0.0000   0.0000   0.0000   0.0000   0.0000   0.0000   0.0000
     0.0000   0.0000   0.0000   0.0000   0.0000   0.0000   0.0000   0.0000
     0.0000   0.0000   0.0000   0.0000

          k = 0.0000 0.3849-0.2036 ( 53190 PWs)   bands (ev):

   -28.2756 -28.2755 -28.2753 -14.9219 -14.9219 -14.9218 -14.9161 -14.9160
   -14.9159 -14.9040 -14.9040 -14.9039 -14.8639 -14.8637 -14.8636 -14.8187
   -14.8185 -14.8184 -10.3381 -10.3341 -10.3317 -10.3074 -10.2987 -10.2926
   -10.2681 -10.2635 -10.2610  -6.5376  -6.5046  -6.2469  -5.8244  -5.7725
    -5.7385  -5.6575  -5.5715  -5.5309  -5.5192  -5.3981  -5.3326  -0.5532
    -0.4096  -0.2898   1.4177   1.6801   1.7727   2.0429   2.2109   2.3478
     2.5670   2.6305   2.7834   2.8299   2.9183   2.9930   3.0735   3.1331
     3.2054   3.2805   3.3523   3.4615   3.4876   3.5393   3.5945   3.6501
     3.6782   3.8854   3.9761   4.0244   4.0531   4.1157   4.2087   4.3818
     4.3988   4.5273   4.6272   5.1660   5.1747   5.1897   5.2257   5.2643
     5.2834   5.3553   5.3738   5.3958   5.4027   5.5158   5.5549   5.6095
     5.6319   5.6711   5.7282   5.7512   5.8624   5.8927   6.0273   6.0772
     6.2386   6.2818   6.3579   6.5253   6.5317   6.6774   6.7123   6.7644
     6.8494   8.3972   8.4258   8.5275   9.6401   9.8197   9.9874  10.0349
    10.2047  10.3227  10.5085  10.5324  10.7184  10.8886  10.9520  11.1312
    11.1722  11.3274  11.4066  11.4960  11.5623  11.6330  11.7432  11.7684
    11.8593  12.0062  12.0909  12.1517  12.3467  12.4141  12.5067  12.5882
    12.7790  12.8286  12.9208  13.0816

     occupation numbers 
     1.0000   1.0000   1.0000   1.0000   1.0000   1.0000   1.0000   1.0000
     1.0000   1.0000   1.0000   1.0000   1.0000   1.0000   1.0000   1.0000
     1.0000   1.0000   1.0000   1.0000   1.0000   1.0000   1.0000   1.0000
     1.0000   1.0000   1.0000   1.0000   1.0000   1.0000   1.0000   1.0000
     1.0000   1.0000   1.0000   1.0000   1.0000   1.0000   1.0000   1.0000
     1.0000   1.0000   1.0000   1.0000   1.0000   1.0000   1.0000   1.0000
     1.0000   1.0000   1.0000   1.0000   1.0000   1.0000   1.0000   1.0000
     1.0000   1.0000   1.0000   1.0000   1.0000   1.0000   1.0000   1.0000
     1.0000   1.0000   1.0000   1.0000   1.0000   1.0000   1.0000   1.0000
     1.0000   1.0000   1.0000   1.0000   1.0000   1.0000   1.0000   1.0000
     1.0000   1.0000   1.0000   1.0000   1.0000   1.0000   1.0000   1.0000
     1.0000   1.0000   1.0000   1.0000   1.0000   1.0000   1.0000   1.0000
     1.0000   1.0000   1.0000   1.0000   1.0000   1.0000   1.0000   1.0000
     1.0000   0.0000   0.0000   0.0000   0.0000   0.0000   0.0000   0.0000
     0.0000   0.0000   0.0000   0.0000   0.0000   0.0000   0.0000   0.0000
     0.0000   0.0000   0.0000   0.0000   0.0000   0.0000   0.0000   0.0000
     0.0000   0.0000   0.0000   0.0000   0.0000   0.0000   0.0000   0.0000
     0.0000   0.0000   0.0000   0.0000

          k = 0.0000 0.4811 0.0000 ( 53168 PWs)   bands (ev):

   -28.2756 -28.2755 -28.2753 -14.9219 -14.9218 -14.9217 -14.9161 -14.9159
   -14.9159 -14.9039 -14.9039 -14.9039 -14.8639 -14.8637 -14.8636 -14.8187
   -14.8185 -14.8184 -10.3378 -10.3364 -10.3344 -10.3081 -10.3014 -10.2921
   -10.2701 -10.2647 -10.2618  -6.4770  -6.3112  -6.2638  -5.9317  -5.8298
    -5.7649  -5.6302  -5.6039  -5.5426  -5.5383  -5.4376  -5.3346  -0.5990
    -0.3860  -0.3147   1.3945   1.6761   1.8543   1.9878   2.3052   2.4132
     2.4889   2.6245   2.8102   2.9235   2.9445   2.9875   3.0723   3.1491
     3.2702   3.3368   3.3935   3.4549   3.4781   3.4980   3.5673   3.6442
     3.6877   3.8370   4.0026   4.0599   4.1016   4.1251   4.2267   4.3032
     4.4089   4.5268   4.6147   5.1466   5.1748   5.2313   5.2441   5.2710
     5.2824   5.3133   5.3387   5.3707   5.4810   5.4908   5.5850   5.5931
     5.6366   5.6830   5.7520   5.8053   5.8978   5.9470   5.9897   6.1464
     6.2278   6.2730   6.3390   6.4162   6.4537   6.5911   6.6412   6.7419
     6.8299   8.3385   8.4080   8.5616   9.6945   9.8156   9.9955  10.0675
    10.1298  10.3023  10.5316  10.6034  10.7275  10.8129  10.9323  11.0669
    11.2402  11.2673  11.4459  11.5511  11.5631  11.6642  11.7234  11.7879
    11.9214  11.9892  12.0929  12.1387  12.3020  12.3370  12.4765  12.5638
    12.6958  12.7149  12.8184  12.9047

     occupation numbers 
     1.0000   1.0000   1.0000   1.0000   1.0000   1.0000   1.0000   1.0000
     1.0000   1.0000   1.0000   1.0000   1.0000   1.0000   1.0000   1.0000
     1.0000   1.0000   1.0000   1.0000   1.0000   1.0000   1.0000   1.0000
     1.0000   1.0000   1.0000   1.0000   1.0000   1.0000   1.0000   1.0000
     1.0000   1.0000   1.0000   1.0000   1.0000   1.0000   1.0000   1.0000
     1.0000   1.0000   1.0000   1.0000   1.0000   1.0000   1.0000   1.0000
     1.0000   1.0000   1.0000   1.0000   1.0000   1.0000   1.0000   1.0000
     1.0000   1.0000   1.0000   1.0000   1.0000   1.0000   1.0000   1.0000
     1.0000   1.0000   1.0000   1.0000   1.0000   1.0000   1.0000   1.0000
     1.0000   1.0000   1.0000   1.0000   1.0000   1.0000   1.0000   1.0000
     1.0000   1.0000   1.0000   1.0000   1.0000   1.0000   1.0000   1.0000
     1.0000   1.0000   1.0000   1.0000   1.0000   1.0000   1.0000   1.0000
     1.0000   1.0000   1.0000   1.0000   1.0000   1.0000   1.0000   1.0000
     1.0000   0.0000   0.0000   0.0000   0.0000   0.0000   0.0000   0.0000
     0.0000   0.0000   0.0000   0.0000   0.0000   0.0000   0.0000   0.0000
     0.0000   0.0000   0.0000   0.0000   0.0000   0.0000   0.0000   0.0000
     0.0000   0.0000   0.0000   0.0000   0.0000   0.0000   0.0000   0.0000
     0.0000   0.0000   0.0000   0.0000

          k = 0.0000 0.4811 0.0679 ( 53193 PWs)   bands (ev):

   -28.2756 -28.2755 -28.2753 -14.9219 -14.9218 -14.9217 -14.9161 -14.9159
   -14.9159 -14.9039 -14.9039 -14.9039 -14.8639 -14.8637 -14.8636 -14.8187
   -14.8185 -14.8184 -10.3381 -10.3367 -10.3338 -10.3084 -10.3004 -10.2930
   -10.2701 -10.2644 -10.2620  -6.4728  -6.3212  -6.2623  -5.9266  -5.8194
    -5.7578  -5.6615  -5.6014  -5.5404  -5.5386  -5.4257  -5.3378  -0.5945
    -0.4008  -0.3048   1.3902   1.7249   1.7921   2.0172   2.3102   2.4003
     2.4584   2.6529   2.8009   2.8960   2.9652   3.0217   3.0627   3.1450
     3.2568   3.3261   3.4164   3.4516   3.4700   3.5117   3.5583   3.6431
     3.6883   3.8500   4.0058   4.0399   4.1034   4.1324   4.2337   4.2926
     4.4036   4.5312   4.6187   5.1560   5.1696   5.2236   5.2446   5.2630
     5.2815   5.3260   5.3331   5.3808   5.4353   5.5401   5.5811   5.5924
     5.6372   5.6774   5.7696   5.8109   5.8773   5.9404   6.0053   6.1438
     6.2027   6.2647   6.3160   6.4401   6.4653   6.6123   6.6506   6.7423
     6.8063   8.3524   8.4045   8.5541   9.6782   9.8037  10.0036  10.0791
    10.1719  10.3128  10.4876  10.6262  10.7318  10.8174  10.9711  11.1018
    11.2261  11.2509  11.4519  11.5163  11.5518  11.5830  11.7405  11.7495
    11.8584  12.0115  12.0493  12.1218  12.2485  12.3864  12.4933  12.6906
    12.7080  12.7333  12.8250  12.9273

     occupation numbers 
     1.0000   1.0000   1.0000   1.0000   1.0000   1.0000   1.0000   1.0000
     1.0000   1.0000   1.0000   1.0000   1.0000   1.0000   1.0000   1.0000
     1.0000   1.0000   1.0000   1.0000   1.0000   1.0000   1.0000   1.0000
     1.0000   1.0000   1.0000   1.0000   1.0000   1.0000   1.0000   1.0000
     1.0000   1.0000   1.0000   1.0000   1.0000   1.0000   1.0000   1.0000
     1.0000   1.0000   1.0000   1.0000   1.0000   1.0000   1.0000   1.0000
     1.0000   1.0000   1.0000   1.0000   1.0000   1.0000   1.0000   1.0000
     1.0000   1.0000   1.0000   1.0000   1.0000   1.0000   1.0000   1.0000
     1.0000   1.0000   1.0000   1.0000   1.0000   1.0000   1.0000   1.0000
     1.0000   1.0000   1.0000   1.0000   1.0000   1.0000   1.0000   1.0000
     1.0000   1.0000   1.0000   1.0000   1.0000   1.0000   1.0000   1.0000
     1.0000   1.0000   1.0000   1.0000   1.0000   1.0000   1.0000   1.0000
     1.0000   1.0000   1.0000   1.0000   1.0000   1.0000   1.0000   1.0000
     1.0000   0.0000   0.0000   0.0000   0.0000   0.0000   0.0000   0.0000
     0.0000   0.0000   0.0000   0.0000   0.0000   0.0000   0.0000   0.0000
     0.0000   0.0000   0.0000   0.0000   0.0000   0.0000   0.0000   0.0000
     0.0000   0.0000   0.0000   0.0000   0.0000   0.0000   0.0000   0.0000
     0.0000   0.0000   0.0000   0.0000

          k = 0.0000 0.4811 0.1357 ( 53193 PWs)   bands (ev):

   -28.2756 -28.2755 -28.2753 -14.9219 -14.9218 -14.9217 -14.9161 -14.9159
   -14.9159 -14.9039 -14.9039 -14.9039 -14.8639 -14.8637 -14.8636 -14.8187
   -14.8185 -14.8184 -10.3389 -10.3365 -10.3332 -10.3078 -10.3002 -10.2939
   -10.2697 -10.2646 -10.2619  -6.4598  -6.3588  -6.2381  -5.9277  -5.8122
    -5.7392  -5.6912  -5.5996  -5.5414  -5.5400  -5.4198  -5.3378  -0.5893
    -0.4153  -0.2961   1.3994   1.6783   1.8316   2.0515   2.2867   2.3665
     2.4610   2.6658   2.8013   2.8581   2.9912   3.0069   3.0892   3.1596
     3.2526   3.3240   3.4083   3.4498   3.4889   3.5234   3.5410   3.6501
     3.6781   3.8756   4.0039   4.0273   4.1051   4.1270   4.2027   4.2986
     4.4069   4.5472   4.6132   5.1591   5.1852   5.1993   5.2441   5.2551
     5.2821   5.3367   5.3540   5.3777   5.4142   5.5551   5.5732   5.5988
     5.6486   5.6751   5.7607   5.8229   5.8731   5.9415   6.0165   6.0971
     6.1913   6.2524   6.3296   6.4457   6.4853   6.6497   6.6667   6.7187
     6.7729   8.3709   8.3978   8.5530   9.6732   9.8042  10.0298  10.0955
    10.2505  10.2985  10.4198  10.6129  10.7078  10.8373  11.0395  11.0649
    11.1902  11.2674  11.4219  11.5057  11.5562  11.6120  11.6825  11.7338
    11.7788  11.9603  12.0178  12.1363  12.2283  12.4130  12.4956  12.6608
    12.7958  12.8331  12.9140  12.9556

     occupation numbers 
     1.0000   1.0000   1.0000   1.0000   1.0000   1.0000   1.0000   1.0000
     1.0000   1.0000   1.0000   1.0000   1.0000   1.0000   1.0000   1.0000
     1.0000   1.0000   1.0000   1.0000   1.0000   1.0000   1.0000   1.0000
     1.0000   1.0000   1.0000   1.0000   1.0000   1.0000   1.0000   1.0000
     1.0000   1.0000   1.0000   1.0000   1.0000   1.0000   1.0000   1.0000
     1.0000   1.0000   1.0000   1.0000   1.0000   1.0000   1.0000   1.0000
     1.0000   1.0000   1.0000   1.0000   1.0000   1.0000   1.0000   1.0000
     1.0000   1.0000   1.0000   1.0000   1.0000   1.0000   1.0000   1.0000
     1.0000   1.0000   1.0000   1.0000   1.0000   1.0000   1.0000   1.0000
     1.0000   1.0000   1.0000   1.0000   1.0000   1.0000   1.0000   1.0000
     1.0000   1.0000   1.0000   1.0000   1.0000   1.0000   1.0000   1.0000
     1.0000   1.0000   1.0000   1.0000   1.0000   1.0000   1.0000   1.0000
     1.0000   1.0000   1.0000   1.0000   1.0000   1.0000   1.0000   1.0000
     1.0000   0.0000   0.0000   0.0000   0.0000   0.0000   0.0000   0.0000
     0.0000   0.0000   0.0000   0.0000   0.0000   0.0000   0.0000   0.0000
     0.0000   0.0000   0.0000   0.0000   0.0000   0.0000   0.0000   0.0000
     0.0000   0.0000   0.0000   0.0000   0.0000   0.0000   0.0000   0.0000
     0.0000   0.0000   0.0000   0.0000

          k = 0.0000 0.4811-0.2036 ( 53138 PWs)   bands (ev):

   -28.2756 -28.2755 -28.2753 -14.9219 -14.9218 -14.9217 -14.9161 -14.9159
   -14.9159 -14.9039 -14.9039 -14.9039 -14.8639 -14.8637 -14.8636 -14.8187
   -14.8185 -14.8184 -10.3392 -10.3363 -10.3331 -10.3067 -10.3015 -10.2937
   -10.2693 -10.2652 -10.2617  -6.4478  -6.3836  -6.2214  -5.9334  -5.8149
    -5.7429  -5.6782  -5.5986  -5.5460  -5.5395  -5.4249  -5.3344  -0.5889
    -0.4169  -0.2950   1.4157   1.6212   1.8863   2.0688   2.2411   2.3732
     2.4742   2.6468   2.8159   2.8469   2.9681   3.0038   3.1295   3.1531
     3.2671   3.3310   3.3858   3.4526   3.5034   3.5213   3.5422   3.6541
     3.6656   3.8912   3.9955   4.0346   4.0977   4.1268   4.1718   4.3051
     4.4141   4.5654   4.5980   5.1640   5.1744   5.2100   5.2336   5.2600
     5.2895   5.3336   5.3538   5.3783   5.4217   5.5414   5.5691   5.6072
     5.6697   5.6729   5.7380   5.8177   5.8870   5.9536   6.0097   6.0682
     6.2000   6.2515   6.3451   6.4438   6.4914   6.6644   6.6721   6.6878
     6.7710   8.3772   8.3909   8.5616   9.6827   9.8152  10.0563  10.1054
    10.2388  10.3247  10.4122  10.4980  10.7232  10.8991  10.9495  11.1065
    11.1437  11.2969  11.4488  11.5093  11.5645  11.6142  11.6819  11.7241
    11.7677  11.9218  11.9648  12.1628  12.3229  12.3896  12.5427  12.5540
    12.8182  12.8639  12.8892  13.0806

     occupation numbers 
     1.0000   1.0000   1.0000   1.0000   1.0000   1.0000   1.0000   1.0000
     1.0000   1.0000   1.0000   1.0000   1.0000   1.0000   1.0000   1.0000
     1.0000   1.0000   1.0000   1.0000   1.0000   1.0000   1.0000   1.0000
     1.0000   1.0000   1.0000   1.0000   1.0000   1.0000   1.0000   1.0000
     1.0000   1.0000   1.0000   1.0000   1.0000   1.0000   1.0000   1.0000
     1.0000   1.0000   1.0000   1.0000   1.0000   1.0000   1.0000   1.0000
     1.0000   1.0000   1.0000   1.0000   1.0000   1.0000   1.0000   1.0000
     1.0000   1.0000   1.0000   1.0000   1.0000   1.0000   1.0000   1.0000
     1.0000   1.0000   1.0000   1.0000   1.0000   1.0000   1.0000   1.0000
     1.0000   1.0000   1.0000   1.0000   1.0000   1.0000   1.0000   1.0000
     1.0000   1.0000   1.0000   1.0000   1.0000   1.0000   1.0000   1.0000
     1.0000   1.0000   1.0000   1.0000   1.0000   1.0000   1.0000   1.0000
     1.0000   1.0000   1.0000   1.0000   1.0000   1.0000   1.0000   1.0000
     1.0000   0.0000   0.0000   0.0000   0.0000   0.0000   0.0000   0.0000
     0.0000   0.0000   0.0000   0.0000   0.0000   0.0000   0.0000   0.0000
     0.0000   0.0000   0.0000   0.0000   0.0000   0.0000   0.0000   0.0000
     0.0000   0.0000   0.0000   0.0000   0.0000   0.0000   0.0000   0.0000
     0.0000   0.0000   0.0000   0.0000

          k = 0.0000-0.5774 0.0000 ( 53178 PWs)   bands (ev):

   -28.2756 -28.2755 -28.2753 -14.9219 -14.9218 -14.9217 -14.9161 -14.9159
   -14.9159 -14.9039 -14.9039 -14.9039 -14.8639 -14.8637 -14.8636 -14.8187
   -14.8185 -14.8184 -10.3383 -10.3364 -10.3356 -10.3089 -10.3013 -10.2925
   -10.2703 -10.2650 -10.2626  -6.4166  -6.2991  -6.2180  -5.9897  -5.8492
    -5.7959  -5.6183  -5.6132  -5.5587  -5.5446  -5.4286  -5.3451  -0.6114
    -0.3887  -0.3154   1.3853   1.7172   1.8062   2.0852   2.2480   2.4047
     2.4611   2.6632   2.7842   2.9250   2.9537   3.0275   3.0461   3.2146
     3.2576   3.3777   3.4272   3.4361   3.4761   3.4950   3.5850   3.6270
     3.6901   3.8257   4.0208   4.0359   4.1253   4.1735   4.2095   4.2444
     4.4247   4.5185   4.6207   5.1551   5.1739   5.2273   5.2516   5.2664
     5.2782   5.3109   5.3371   5.3752   5.4711   5.4769   5.6010   5.6183
     5.6469   5.6592   5.7826   5.8209   5.9034   5.9273   6.0264   6.1509
     6.2626   6.2627   6.3348   6.3634   6.3892   6.5711   6.6377   6.7474
     6.7814   8.2980   8.4086   8.5972   9.6737   9.8207  10.0192  10.0968
    10.2242  10.2620  10.4372  10.6296  10.7628  10.7929  10.9579  11.0295
    11.2564  11.2624  11.4009  11.5577  11.5875  11.6712  11.6949  11.7358
    11.9234  11.9636  12.0205  12.1403  12.1587  12.3043  12.4494  12.6698
    12.6764  12.8041  12.8162  12.9740

     occupation numbers 
     1.0000   1.0000   1.0000   1.0000   1.0000   1.0000   1.0000   1.0000
     1.0000   1.0000   1.0000   1.0000   1.0000   1.0000   1.0000   1.0000
     1.0000   1.0000   1.0000   1.0000   1.0000   1.0000   1.0000   1.0000
     1.0000   1.0000   1.0000   1.0000   1.0000   1.0000   1.0000   1.0000
     1.0000   1.0000   1.0000   1.0000   1.0000   1.0000   1.0000   1.0000
     1.0000   1.0000   1.0000   1.0000   1.0000   1.0000   1.0000   1.0000
     1.0000   1.0000   1.0000   1.0000   1.0000   1.0000   1.0000   1.0000
     1.0000   1.0000   1.0000   1.0000   1.0000   1.0000   1.0000   1.0000
     1.0000   1.0000   1.0000   1.0000   1.0000   1.0000   1.0000   1.0000
     1.0000   1.0000   1.0000   1.0000   1.0000   1.0000   1.0000   1.0000
     1.0000   1.0000   1.0000   1.0000   1.0000   1.0000   1.0000   1.0000
     1.0000   1.0000   1.0000   1.0000   1.0000   1.0000   1.0000   1.0000
     1.0000   1.0000   1.0000   1.0000   1.0000   1.0000   1.0000   1.0000
     1.0000   0.0000   0.0000   0.0000   0.0000   0.0000   0.0000   0.0000
     0.0000   0.0000   0.0000   0.0000   0.0000   0.0000   0.0000   0.0000
     0.0000   0.0000   0.0000   0.0000   0.0000   0.0000   0.0000   0.0000
     0.0000   0.0000   0.0000   0.0000   0.0000   0.0000   0.0000   0.0000
     0.0000   0.0000   0.0000   0.0000

          k = 0.0000-0.5774 0.0679 ( 53180 PWs)   bands (ev):

   -28.2756 -28.2755 -28.2753 -14.9219 -14.9218 -14.9217 -14.9161 -14.9159
   -14.9159 -14.9039 -14.9039 -14.9039 -14.8639 -14.8637 -14.8636 -14.8187
   -14.8185 -14.8184 -10.3387 -10.3368 -10.3349 -10.3085 -10.3015 -10.2929
   -10.2702 -10.2652 -10.2624  -6.4140  -6.3003  -6.2223  -5.9902  -5.8444
    -5.7894  -5.6308  -5.6121  -5.5558  -5.5447  -5.4306  -5.3424  -0.6089
    -0.3972  -0.3097   1.3926   1.6733   1.8578   2.0778   2.2562   2.4030
     2.4440   2.6479   2.7954   2.8916   2.9830   3.0066   3.0855   3.2086
     3.2631   3.3803   3.4244   3.4378   3.4649   3.5049   3.5729   3.6317
     3.6886   3.8419   4.0121   4.0423   4.1232   4.1624   4.2064   4.2403
     4.4236   4.5323   4.6167   5.1512   5.1874   5.2136   5.2491   5.2688
     5.2828   5.3111   5.3373   5.3872   5.4250   5.5173   5.5975   5.6174
     5.6462   5.6671   5.7719   5.8213   5.8927   5.9505   6.0291   6.1334
     6.2404   6.2911   6.2977   6.3758   6.3997   6.5953   6.6391   6.7349
     6.7749   8.3085   8.4044   8.5943   9.6698   9.8259  10.0403  10.0938
    10.2395  10.2726  10.4085  10.6352  10.7539  10.8019  10.9474  11.0740
    11.1970  11.3085  11.3620  11.5595  11.5848  11.6217  11.7140  11.7641
    11.8599  11.9306  12.0283  12.0965  12.1445  12.3292  12.5002  12.6625
    12.7096  12.8106  12.9046  12.9790

     occupation numbers 
     1.0000   1.0000   1.0000   1.0000   1.0000   1.0000   1.0000   1.0000
     1.0000   1.0000   1.0000   1.0000   1.0000   1.0000   1.0000   1.0000
     1.0000   1.0000   1.0000   1.0000   1.0000   1.0000   1.0000   1.0000
     1.0000   1.0000   1.0000   1.0000   1.0000   1.0000   1.0000   1.0000
     1.0000   1.0000   1.0000   1.0000   1.0000   1.0000   1.0000   1.0000
     1.0000   1.0000   1.0000   1.0000   1.0000   1.0000   1.0000   1.0000
     1.0000   1.0000   1.0000   1.0000   1.0000   1.0000   1.0000   1.0000
     1.0000   1.0000   1.0000   1.0000   1.0000   1.0000   1.0000   1.0000
     1.0000   1.0000   1.0000   1.0000   1.0000   1.0000   1.0000   1.0000
     1.0000   1.0000   1.0000   1.0000   1.0000   1.0000   1.0000   1.0000
     1.0000   1.0000   1.0000   1.0000   1.0000   1.0000   1.0000   1.0000
     1.0000   1.0000   1.0000   1.0000   1.0000   1.0000   1.0000   1.0000
     1.0000   1.0000   1.0000   1.0000   1.0000   1.0000   1.0000   1.0000
     1.0000   0.0000   0.0000   0.0000   0.0000   0.0000   0.0000   0.0000
     0.0000   0.0000   0.0000   0.0000   0.0000   0.0000   0.0000   0.0000
     0.0000   0.0000   0.0000   0.0000   0.0000   0.0000   0.0000   0.0000
     0.0000   0.0000   0.0000   0.0000   0.0000   0.0000   0.0000   0.0000
     0.0000   0.0000   0.0000   0.0000

          k = 0.0000-0.5774 0.1357 ( 53192 PWs)   bands (ev):

   -28.2756 -28.2755 -28.2753 -14.9219 -14.9218 -14.9217 -14.9161 -14.9159
   -14.9159 -14.9039 -14.9039 -14.9039 -14.8639 -14.8637 -14.8636 -14.8187
   -14.8185 -14.8184 -10.3393 -10.3371 -10.3340 -10.3074 -10.3019 -10.2937
   -10.2698 -10.2657 -10.2621  -6.4085  -6.3036  -6.2303  -5.9915  -5.8344
    -5.7731  -5.6558  -5.6117  -5.5519  -5.5445  -5.4344  -5.3372  -0.6036
    -0.4122  -0.3008   1.4096   1.6190   1.9357   2.0534   2.2764   2.3897
     2.4167   2.6231   2.7984   2.8724   2.9758   3.0460   3.1068   3.2047
     3.2743   3.3842   3.4200   3.4403   3.4493   3.5187   3.5503   3.6450
     3.6807   3.8762   3.9952   4.0558   4.1176   4.1487   4.1720   4.2510
     4.4220   4.5598   4.6056   5.1539   5.1868   5.2166   5.2479   5.2590
     5.2770   5.3292   5.3417   5.3741   5.4201   5.5324   5.5885   5.6198
     5.6516   5.6818   5.7550   5.8174   5.8834   5.9886   6.0426   6.0978
     6.1919   6.2688   6.3259   6.3712   6.4295   6.6413   6.6430   6.7091
     6.7528   8.3342   8.3938   8.5865   9.6616   9.8382  10.0865  10.0925
    10.2285  10.3233  10.3770  10.6085  10.7796  10.7983  10.9499  11.1191
    11.1369  11.2970  11.3654  11.5526  11.5688  11.6353  11.6886  11.7352
    11.7692  11.8654  11.9393  12.1349  12.2307  12.3488  12.4824  12.6099
    12.7994  12.9131  12.9831  13.0733

     occupation numbers 
     1.0000   1.0000   1.0000   1.0000   1.0000   1.0000   1.0000   1.0000
     1.0000   1.0000   1.0000   1.0000   1.0000   1.0000   1.0000   1.0000
     1.0000   1.0000   1.0000   1.0000   1.0000   1.0000   1.0000   1.0000
     1.0000   1.0000   1.0000   1.0000   1.0000   1.0000   1.0000   1.0000
     1.0000   1.0000   1.0000   1.0000   1.0000   1.0000   1.0000   1.0000
     1.0000   1.0000   1.0000   1.0000   1.0000   1.0000   1.0000   1.0000
     1.0000   1.0000   1.0000   1.0000   1.0000   1.0000   1.0000   1.0000
     1.0000   1.0000   1.0000   1.0000   1.0000   1.0000   1.0000   1.0000
     1.0000   1.0000   1.0000   1.0000   1.0000   1.0000   1.0000   1.0000
     1.0000   1.0000   1.0000   1.0000   1.0000   1.0000   1.0000   1.0000
     1.0000   1.0000   1.0000   1.0000   1.0000   1.0000   1.0000   1.0000
     1.0000   1.0000   1.0000   1.0000   1.0000   1.0000   1.0000   1.0000
     1.0000   1.0000   1.0000   1.0000   1.0000   1.0000   1.0000   1.0000
     1.0000   0.0000   0.0000   0.0000   0.0000   0.0000   0.0000   0.0000
     0.0000   0.0000   0.0000   0.0000   0.0000   0.0000   0.0000   0.0000
     0.0000   0.0000   0.0000   0.0000   0.0000   0.0000   0.0000   0.0000
     0.0000   0.0000   0.0000   0.0000   0.0000   0.0000   0.0000   0.0000
     0.0000   0.0000   0.0000   0.0000

          k = 0.0000-0.5774-0.2036 ( 53192 PWs)   bands (ev):

   -28.2756 -28.2755 -28.2753 -14.9219 -14.9218 -14.9217 -14.9161 -14.9159
   -14.9159 -14.9039 -14.9039 -14.9039 -14.8639 -14.8637 -14.8636 -14.8187
   -14.8185 -14.8184 -10.3396 -10.3372 -10.3336 -10.3068 -10.3022 -10.2942
   -10.2695 -10.2659 -10.2620  -6.4054  -6.3058  -6.2340  -5.9924  -5.8295
    -5.7616  -5.6709  -5.6116  -5.5505  -5.5443  -5.4362  -5.3349  -0.6007
    -0.4191  -0.2970   1.4200   1.5956   1.9954   2.0152   2.2911   2.3702
     2.4117   2.6119   2.7912   2.8743   2.9712   3.0852   3.0898   3.2062
     3.2818   3.3851   3.4178   3.4387   3.4450   3.5305   3.5341   3.6598
     3.6684   3.8960   3.9844   4.0674   4.1109   4.1434   4.1514   4.2570
     4.4215   4.5802   4.5923   5.1630   5.1720   5.2296   5.2496   5.2524
     5.2704   5.3321   5.3534   5.3573   5.4296   5.5314   5.5849   5.6190
     5.6560   5.6924   5.7466   5.8147   5.8793   6.0142   6.0627   6.0677
     6.1551   6.2662   6.3439   6.3621   6.4460   6.6458   6.6677   6.6991
     6.7299   8.3526   8.3844   8.5814   9.6575   9.8450  10.0823  10.1452
    10.1849  10.3234  10.4293  10.5583  10.7801  10.8170  10.9955  11.0296
    11.1604  11.2702  11.4731  11.4797  11.5936  11.6014  11.6784  11.7014
    11.7445  11.8613  11.8723  12.1552  12.3305  12.3599  12.4314  12.5634
    12.8584  12.9295  13.0654  13.1146

     occupation numbers 
     1.0000   1.0000   1.0000   1.0000   1.0000   1.0000   1.0000   1.0000
     1.0000   1.0000   1.0000   1.0000   1.0000   1.0000   1.0000   1.0000
     1.0000   1.0000   1.0000   1.0000   1.0000   1.0000   1.0000   1.0000
     1.0000   1.0000   1.0000   1.0000   1.0000   1.0000   1.0000   1.0000
     1.0000   1.0000   1.0000   1.0000   1.0000   1.0000   1.0000   1.0000
     1.0000   1.0000   1.0000   1.0000   1.0000   1.0000   1.0000   1.0000
     1.0000   1.0000   1.0000   1.0000   1.0000   1.0000   1.0000   1.0000
     1.0000   1.0000   1.0000   1.0000   1.0000   1.0000   1.0000   1.0000
     1.0000   1.0000   1.0000   1.0000   1.0000   1.0000   1.0000   1.0000
     1.0000   1.0000   1.0000   1.0000   1.0000   1.0000   1.0000   1.0000
     1.0000   1.0000   1.0000   1.0000   1.0000   1.0000   1.0000   1.0000
     1.0000   1.0000   1.0000   1.0000   1.0000   1.0000   1.0000   1.0000
     1.0000   1.0000   1.0000   1.0000   1.0000   1.0000   1.0000   1.0000
     1.0000   0.0000   0.0000   0.0000   0.0000   0.0000   0.0000   0.0000
     0.0000   0.0000   0.0000   0.0000   0.0000   0.0000   0.0000   0.0000
     0.0000   0.0000   0.0000   0.0000   0.0000   0.0000   0.0000   0.0000
     0.0000   0.0000   0.0000   0.0000   0.0000   0.0000   0.0000   0.0000
     0.0000   0.0000   0.0000   0.0000

          k = 0.0833 0.1443 0.0000 ( 53156 PWs)   bands (ev):

   -28.2756 -28.2755 -28.2753 -14.9222 -14.9221 -14.9220 -14.9162 -14.9161
   -14.9160 -14.9041 -14.9040 -14.9039 -14.8638 -14.8637 -14.8636 -14.8187
   -14.8185 -14.8185 -10.3322 -10.3321 -10.3261 -10.3043 -10.3033 -10.2845
   -10.2616 -10.2601 -10.2559  -6.8061  -6.5124  -6.5119  -5.7313  -5.7269
    -5.6225  -5.5751  -5.5172  -5.4541  -5.4128  -5.4040  -5.2658  -0.4156
    -0.3343  -0.2999   1.5195   1.6562   1.6690   2.0401   2.0715   2.1757
     2.3509   2.3940   2.6282   2.6906   2.8495   2.8840   3.1542   3.1931
     3.2018   3.3370   3.3905   3.4281   3.5289   3.5419   3.6237   3.6298
     3.7175   3.8310   3.8868   3.9776   4.1145   4.1843   4.2888   4.2906
     4.4921   4.5229   4.7695   5.1536   5.1741   5.2036   5.2288   5.2348
     5.2572   5.3096   5.3292   5.3617   5.4315   5.4515   5.4726   5.5111
     5.5217   5.6632   5.6989   5.7177   5.7954   5.9611   6.0184   6.1537
     6.2571   6.2988   6.5314   6.6716   6.7360   6.7637   6.8196   6.9216
     7.1039   8.0176   8.4787   8.5043   9.2993   9.2994   9.9846  10.4598
    10.4684  10.6694  10.7213  10.7463  10.8775  10.9256  11.0416  11.1340
    11.2349  11.2764  11.2983  11.4557  11.5211  11.5894  11.7163  11.8832
    11.8892  12.0585  12.1402  12.2336  12.3067  12.4055  12.4214  12.5574
    12.6418  12.6824  12.8408  12.9237

     occupation numbers 
     1.0000   1.0000   1.0000   1.0000   1.0000   1.0000   1.0000   1.0000
     1.0000   1.0000   1.0000   1.0000   1.0000   1.0000   1.0000   1.0000
     1.0000   1.0000   1.0000   1.0000   1.0000   1.0000   1.0000   1.0000
     1.0000   1.0000   1.0000   1.0000   1.0000   1.0000   1.0000   1.0000
     1.0000   1.0000   1.0000   1.0000   1.0000   1.0000   1.0000   1.0000
     1.0000   1.0000   1.0000   1.0000   1.0000   1.0000   1.0000   1.0000
     1.0000   1.0000   1.0000   1.0000   1.0000   1.0000   1.0000   1.0000
     1.0000   1.0000   1.0000   1.0000   1.0000   1.0000   1.0000   1.0000
     1.0000   1.0000   1.0000   1.0000   1.0000   1.0000   1.0000   1.0000
     1.0000   1.0000   1.0000   1.0000   1.0000   1.0000   1.0000   1.0000
     1.0000   1.0000   1.0000   1.0000   1.0000   1.0000   1.0000   1.0000
     1.0000   1.0000   1.0000   1.0000   1.0000   1.0000   1.0000   1.0000
     1.0000   1.0000   1.0000   1.0000   1.0000   1.0000   1.0000   1.0000
     1.0000   0.0000   0.0000   0.0000   0.0000   0.0000   0.0000   0.0000
     0.0000   0.0000   0.0000   0.0000   0.0000   0.0000   0.0000   0.0000
     0.0000   0.0000   0.0000   0.0000   0.0000   0.0000   0.0000   0.0000
     0.0000   0.0000   0.0000   0.0000   0.0000   0.0000   0.0000   0.0000
     0.0000   0.0000   0.0000   0.0000

          k = 0.0833 0.1443 0.0679 ( 53168 PWs)   bands (ev):

   -28.2756 -28.2755 -28.2753 -14.9222 -14.9221 -14.9220 -14.9162 -14.9161
   -14.9160 -14.9041 -14.9040 -14.9039 -14.8638 -14.8637 -14.8636 -14.8187
   -14.8185 -14.8185 -10.3332 -10.3308 -10.3263 -10.3079 -10.2989 -10.2851
   -10.2615 -10.2600 -10.2563  -6.7966  -6.5908  -6.4353  -5.7814  -5.6882
    -5.6244  -5.5825  -5.5043  -5.4551  -5.4187  -5.3899  -5.2731  -0.4138
    -0.3459  -0.2906   1.5210   1.6317   1.7024   2.0042   2.0967   2.1763
     2.3656   2.4093   2.5932   2.7055   2.8230   2.8734   3.1469   3.1837
     3.2290   3.3299   3.3892   3.4548   3.5189   3.5691   3.6093   3.6432
     3.7145   3.8437   3.8946   3.9717   4.0962   4.1817   4.2510   4.3039
     4.4792   4.5585   4.7619   5.1554   5.1713   5.2002   5.2147   5.2477
     5.2640   5.2990   5.3365   5.3700   5.4205   5.4504   5.4777   5.4980
     5.5367   5.6508   5.6800   5.7444   5.8031   5.9153   6.0781   6.1666
     6.2679   6.3200   6.4917   6.5869   6.6748   6.8120   6.8700   6.9461
     7.0938   8.0538   8.4360   8.5292   9.2482   9.3963   9.9561  10.4042
    10.4866  10.6507  10.6972  10.7549  10.8937  10.9359  11.0392  11.1175
    11.2105  11.2637  11.2977  11.4450  11.5224  11.6304  11.7646  11.7913
    11.9536  12.0526  12.0866  12.2096  12.3142  12.3905  12.4427  12.5177
    12.5978  12.8077  12.8702  13.0687

     occupation numbers 
     1.0000   1.0000   1.0000   1.0000   1.0000   1.0000   1.0000   1.0000
     1.0000   1.0000   1.0000   1.0000   1.0000   1.0000   1.0000   1.0000
     1.0000   1.0000   1.0000   1.0000   1.0000   1.0000   1.0000   1.0000
     1.0000   1.0000   1.0000   1.0000   1.0000   1.0000   1.0000   1.0000
     1.0000   1.0000   1.0000   1.0000   1.0000   1.0000   1.0000   1.0000
     1.0000   1.0000   1.0000   1.0000   1.0000   1.0000   1.0000   1.0000
     1.0000   1.0000   1.0000   1.0000   1.0000   1.0000   1.0000   1.0000
     1.0000   1.0000   1.0000   1.0000   1.0000   1.0000   1.0000   1.0000
     1.0000   1.0000   1.0000   1.0000   1.0000   1.0000   1.0000   1.0000
     1.0000   1.0000   1.0000   1.0000   1.0000   1.0000   1.0000   1.0000
     1.0000   1.0000   1.0000   1.0000   1.0000   1.0000   1.0000   1.0000
     1.0000   1.0000   1.0000   1.0000   1.0000   1.0000   1.0000   1.0000
     1.0000   1.0000   1.0000   1.0000   1.0000   1.0000   1.0000   1.0000
     1.0000   0.0000   0.0000   0.0000   0.0000   0.0000   0.0000   0.0000
     0.0000   0.0000   0.0000   0.0000   0.0000   0.0000   0.0000   0.0000
     0.0000   0.0000   0.0000   0.0000   0.0000   0.0000   0.0000   0.0000
     0.0000   0.0000   0.0000   0.0000   0.0000   0.0000   0.0000   0.0000
     0.0000   0.0000   0.0000   0.0000

          k = 0.0833 0.1443 0.1357 ( 53160 PWs)   bands (ev):

   -28.2756 -28.2755 -28.2753 -14.9222 -14.9221 -14.9220 -14.9163 -14.9161
   -14.9160 -14.9041 -14.9040 -14.9039 -14.8638 -14.8637 -14.8636 -14.8187
   -14.8185 -14.8185 -10.3338 -10.3294 -10.3270 -10.3107 -10.2940 -10.2868
   -10.2613 -10.2597 -10.2573  -6.7686  -6.6628  -6.3742  -5.8300  -5.6615
    -5.6285  -5.5938  -5.4834  -5.4591  -5.4227  -5.3615  -5.2940  -0.4088
    -0.3636  -0.2789   1.5263   1.6062   1.7512   1.9500   2.1245   2.1765
     2.3858   2.4510   2.5621   2.6800   2.7909   2.8440   3.1399   3.1933
     3.2494   3.3170   3.4062   3.4784   3.5079   3.5929   3.6322   3.6528
     3.7068   3.8723   3.9118   3.9662   4.0525   4.1448   4.2379   4.2942
     4.4744   4.6109   4.7413   5.1600   5.1638   5.1961   5.2018   5.2516
     5.2755   5.3056   5.3493   5.3650   5.4166   5.4268   5.4637   5.5188
     5.5542   5.6272   5.6670   5.7764   5.8091   5.8676   6.1726   6.2068
     6.3035   6.3583   6.4196   6.4556   6.5631   6.8692   6.9442   6.9706
     7.0667   8.1454   8.3594   8.5506   9.2311   9.5371   9.8583  10.3233
    10.4794  10.6479  10.6897  10.7676  10.9202  10.9450  10.9964  11.0520
    11.2074  11.2417  11.3306  11.4093  11.5330  11.6533  11.7869  11.8309
    11.9213  12.0178  12.0552  12.1189  12.3357  12.3969  12.4763  12.4964
    12.6689  12.7904  13.0628  13.2289

     occupation numbers 
     1.0000   1.0000   1.0000   1.0000   1.0000   1.0000   1.0000   1.0000
     1.0000   1.0000   1.0000   1.0000   1.0000   1.0000   1.0000   1.0000
     1.0000   1.0000   1.0000   1.0000   1.0000   1.0000   1.0000   1.0000
     1.0000   1.0000   1.0000   1.0000   1.0000   1.0000   1.0000   1.0000
     1.0000   1.0000   1.0000   1.0000   1.0000   1.0000   1.0000   1.0000
     1.0000   1.0000   1.0000   1.0000   1.0000   1.0000   1.0000   1.0000
     1.0000   1.0000   1.0000   1.0000   1.0000   1.0000   1.0000   1.0000
     1.0000   1.0000   1.0000   1.0000   1.0000   1.0000   1.0000   1.0000
     1.0000   1.0000   1.0000   1.0000   1.0000   1.0000   1.0000   1.0000
     1.0000   1.0000   1.0000   1.0000   1.0000   1.0000   1.0000   1.0000
     1.0000   1.0000   1.0000   1.0000   1.0000   1.0000   1.0000   1.0000
     1.0000   1.0000   1.0000   1.0000   1.0000   1.0000   1.0000   1.0000
     1.0000   1.0000   1.0000   1.0000   1.0000   1.0000   1.0000   1.0000
     1.0000   0.0000   0.0000   0.0000   0.0000   0.0000   0.0000   0.0000
     0.0000   0.0000   0.0000   0.0000   0.0000   0.0000   0.0000   0.0000
     0.0000   0.0000   0.0000   0.0000   0.0000   0.0000   0.0000   0.0000
     0.0000   0.0000   0.0000   0.0000   0.0000   0.0000   0.0000   0.0000
     0.0000   0.0000   0.0000   0.0000

          k = 0.0833 0.1443-0.2036 ( 53120 PWs)   bands (ev):

   -28.2756 -28.2755 -28.2753 -14.9222 -14.9221 -14.9220 -14.9163 -14.9161
   -14.9160 -14.9041 -14.9040 -14.9039 -14.8638 -14.8637 -14.8636 -14.8187
   -14.8185 -14.8185 -10.3340 -10.3284 -10.3278 -10.3117 -10.2902 -10.2894
   -10.2611 -10.2592 -10.2580  -6.7253  -6.7211  -6.3497  -5.8508  -5.6503
    -5.6316  -5.5991  -5.4695  -5.4668  -5.4238  -5.3316  -5.3205  -0.4049
    -0.3725  -0.2743   1.5309   1.5940   1.7818   1.9176   2.1374   2.1749
     2.3998   2.4564   2.5929   2.6354   2.7550   2.8475   3.1384   3.1981
     3.2604   3.3052   3.4211   3.4837   3.5027   3.6097   3.6181   3.6845
     3.7009   3.8949   3.9073   3.9952   4.0055   4.1143   4.2443   4.2841
     4.4744   4.6400   4.7246   5.1577   5.1659   5.1911   5.1981   5.2520
     5.2793   5.3291   5.3353   5.3715   5.3967   5.4373   5.4422   5.5459
     5.5524   5.6143   5.6646   5.7944   5.8033   5.8500   6.2341   6.2698
     6.3113   6.3321   6.3873   6.4413   6.4620   6.9069   6.9436   7.0196
     7.0285   8.2476   8.2673   8.5585   9.2290   9.6947   9.7122  10.2813
    10.4793  10.6286  10.7224  10.8188  10.8655  10.9492  10.9928  11.0077
    11.2074  11.2349  11.3314  11.3984  11.5487  11.7128  11.7514  11.8362
    11.9014  12.0101  12.0204  12.0920  12.3448  12.3943  12.4822  12.5609
    12.6769  12.7771  13.1562  13.2542

     occupation numbers 
     1.0000   1.0000   1.0000   1.0000   1.0000   1.0000   1.0000   1.0000
     1.0000   1.0000   1.0000   1.0000   1.0000   1.0000   1.0000   1.0000
     1.0000   1.0000   1.0000   1.0000   1.0000   1.0000   1.0000   1.0000
     1.0000   1.0000   1.0000   1.0000   1.0000   1.0000   1.0000   1.0000
     1.0000   1.0000   1.0000   1.0000   1.0000   1.0000   1.0000   1.0000
     1.0000   1.0000   1.0000   1.0000   1.0000   1.0000   1.0000   1.0000
     1.0000   1.0000   1.0000   1.0000   1.0000   1.0000   1.0000   1.0000
     1.0000   1.0000   1.0000   1.0000   1.0000   1.0000   1.0000   1.0000
     1.0000   1.0000   1.0000   1.0000   1.0000   1.0000   1.0000   1.0000
     1.0000   1.0000   1.0000   1.0000   1.0000   1.0000   1.0000   1.0000
     1.0000   1.0000   1.0000   1.0000   1.0000   1.0000   1.0000   1.0000
     1.0000   1.0000   1.0000   1.0000   1.0000   1.0000   1.0000   1.0000
     1.0000   1.0000   1.0000   1.0000   1.0000   1.0000   1.0000   1.0000
     1.0000   0.0000   0.0000   0.0000   0.0000   0.0000   0.0000   0.0000
     0.0000   0.0000   0.0000   0.0000   0.0000   0.0000   0.0000   0.0000
     0.0000   0.0000   0.0000   0.0000   0.0000   0.0000   0.0000   0.0000
     0.0000   0.0000   0.0000   0.0000   0.0000   0.0000   0.0000   0.0000
     0.0000   0.0000   0.0000   0.0000

          k = 0.0833 0.2406 0.0000 ( 53115 PWs)   bands (ev):

   -28.2756 -28.2755 -28.2753 -14.9220 -14.9220 -14.9219 -14.9162 -14.9161
   -14.9159 -14.9041 -14.9040 -14.9039 -14.8638 -14.8637 -14.8636 -14.8187
   -14.8185 -14.8185 -10.3337 -10.3335 -10.3282 -10.3045 -10.3025 -10.2872
   -10.2649 -10.2619 -10.2574  -6.7341  -6.4599  -6.4581  -5.7314  -5.7209
    -5.6544  -5.6396  -5.5201  -5.4871  -5.4489  -5.4397  -5.2828  -0.4744
    -0.3617  -0.3038   1.4823   1.6554   1.6969   2.0404   2.1436   2.3268
     2.3929   2.4735   2.7342   2.8028   2.8301   2.9267   3.0969   3.1640
     3.1906   3.2833   3.3752   3.4183   3.5135   3.5394   3.5949   3.6379
     3.7112   3.8332   3.9341   3.9986   4.1002   4.1626   4.2922   4.3169
     4.4410   4.5175   4.7016   5.1543   5.1754   5.2161   5.2336   5.2495
     5.2804   5.3125   5.3407   5.3919   5.4272   5.4591   5.5052   5.5353
     5.5595   5.6808   5.6915   5.7307   5.8228   5.9262   6.0362   6.1718
     6.2320   6.2928   6.4608   6.4975   6.6874   6.7281   6.7986   6.8686
     7.0210   8.2504   8.4605   8.4889   9.4350   9.4579   9.9751  10.2907
    10.3345  10.4844  10.6156  10.6754  10.7851  10.9300  11.0096  11.1131
    11.2062  11.3218  11.4065  11.4959  11.5584  11.6051  11.7794  11.8478
    11.9571  12.0417  12.1489  12.2507  12.3393  12.4453  12.4822  12.5790
    12.6282  12.7498  12.8147  12.8692

     occupation numbers 
     1.0000   1.0000   1.0000   1.0000   1.0000   1.0000   1.0000   1.0000
     1.0000   1.0000   1.0000   1.0000   1.0000   1.0000   1.0000   1.0000
     1.0000   1.0000   1.0000   1.0000   1.0000   1.0000   1.0000   1.0000
     1.0000   1.0000   1.0000   1.0000   1.0000   1.0000   1.0000   1.0000
     1.0000   1.0000   1.0000   1.0000   1.0000   1.0000   1.0000   1.0000
     1.0000   1.0000   1.0000   1.0000   1.0000   1.0000   1.0000   1.0000
     1.0000   1.0000   1.0000   1.0000   1.0000   1.0000   1.0000   1.0000
     1.0000   1.0000   1.0000   1.0000   1.0000   1.0000   1.0000   1.0000
     1.0000   1.0000   1.0000   1.0000   1.0000   1.0000   1.0000   1.0000
     1.0000   1.0000   1.0000   1.0000   1.0000   1.0000   1.0000   1.0000
     1.0000   1.0000   1.0000   1.0000   1.0000   1.0000   1.0000   1.0000
     1.0000   1.0000   1.0000   1.0000   1.0000   1.0000   1.0000   1.0000
     1.0000   1.0000   1.0000   1.0000   1.0000   1.0000   1.0000   1.0000
     1.0000   0.0000   0.0000   0.0000   0.0000   0.0000   0.0000   0.0000
     0.0000   0.0000   0.0000   0.0000   0.0000   0.0000   0.0000   0.0000
     0.0000   0.0000   0.0000   0.0000   0.0000   0.0000   0.0000   0.0000
     0.0000   0.0000   0.0000   0.0000   0.0000   0.0000   0.0000   0.0000
     0.0000   0.0000   0.0000   0.0000

          k = 0.0833 0.2406 0.0679 ( 53136 PWs)   bands (ev):

   -28.2756 -28.2755 -28.2753 -14.9220 -14.9220 -14.9219 -14.9162 -14.9161
   -14.9160 -14.9041 -14.9040 -14.9039 -14.8638 -14.8637 -14.8636 -14.8187
   -14.8185 -14.8185 -10.3347 -10.3324 -10.3283 -10.3072 -10.2990 -10.2879
   -10.2648 -10.2617 -10.2578  -6.7251  -6.5317  -6.3888  -5.7614  -5.7051
    -5.6507  -5.6399  -5.5229  -5.4898  -5.4587  -5.4123  -5.2903  -0.4698
    -0.3769  -0.2937   1.4738   1.6454   1.7482   1.9797   2.1690   2.3255
     2.4099   2.4719   2.7211   2.7724   2.8575   2.9295   3.0916   3.1292
     3.2121   3.2856   3.3796   3.4340   3.5002   3.5640   3.5900   3.6380
     3.7150   3.8412   3.9326   3.9989   4.0810   4.1623   4.2815   4.3234
     4.4404   4.5267   4.6977   5.1586   5.1788   5.2035   5.2303   5.2480
     5.2766   5.3077   5.3529   5.3942   5.4222   5.4635   5.5067   5.5321
     5.5718   5.6695   5.6936   5.7438   5.8198   5.8911   6.0759   6.1698
     6.2513   6.3021   6.4342   6.4767   6.6378   6.7508   6.8235   6.8780
     7.0179   8.2693   8.4356   8.5079   9.3967   9.5395   9.9612  10.2475
    10.3196  10.4801  10.6048  10.6724  10.8212  10.9331  11.0350  11.0950
    11.1683  11.2884  11.4278  11.5187  11.5884  11.6168  11.7146  11.8738
    11.9391  11.9878  12.1469  12.2270  12.3306  12.4133  12.5097  12.5393
    12.6821  12.7618  12.8523  13.0163

     occupation numbers 
     1.0000   1.0000   1.0000   1.0000   1.0000   1.0000   1.0000   1.0000
     1.0000   1.0000   1.0000   1.0000   1.0000   1.0000   1.0000   1.0000
     1.0000   1.0000   1.0000   1.0000   1.0000   1.0000   1.0000   1.0000
     1.0000   1.0000   1.0000   1.0000   1.0000   1.0000   1.0000   1.0000
     1.0000   1.0000   1.0000   1.0000   1.0000   1.0000   1.0000   1.0000
     1.0000   1.0000   1.0000   1.0000   1.0000   1.0000   1.0000   1.0000
     1.0000   1.0000   1.0000   1.0000   1.0000   1.0000   1.0000   1.0000
     1.0000   1.0000   1.0000   1.0000   1.0000   1.0000   1.0000   1.0000
     1.0000   1.0000   1.0000   1.0000   1.0000   1.0000   1.0000   1.0000
     1.0000   1.0000   1.0000   1.0000   1.0000   1.0000   1.0000   1.0000
     1.0000   1.0000   1.0000   1.0000   1.0000   1.0000   1.0000   1.0000
     1.0000   1.0000   1.0000   1.0000   1.0000   1.0000   1.0000   1.0000
     1.0000   1.0000   1.0000   1.0000   1.0000   1.0000   1.0000   1.0000
     1.0000   0.0000   0.0000   0.0000   0.0000   0.0000   0.0000   0.0000
     0.0000   0.0000   0.0000   0.0000   0.0000   0.0000   0.0000   0.0000
     0.0000   0.0000   0.0000   0.0000   0.0000   0.0000   0.0000   0.0000
     0.0000   0.0000   0.0000   0.0000   0.0000   0.0000   0.0000   0.0000
     0.0000   0.0000   0.0000   0.0000

          k = 0.0833 0.2406 0.1357 ( 53165 PWs)   bands (ev):

   -28.2756 -28.2755 -28.2753 -14.9220 -14.9220 -14.9219 -14.9162 -14.9161
   -14.9160 -14.9041 -14.9040 -14.9039 -14.8638 -14.8637 -14.8636 -14.8187
   -14.8185 -14.8185 -10.3354 -10.3312 -10.3287 -10.3093 -10.2951 -10.2895
   -10.2645 -10.2613 -10.2587  -6.6987  -6.5989  -6.3337  -5.8015  -5.6926
    -5.6489  -5.6391  -5.5196  -5.4923  -5.4647  -5.3766  -5.3099  -0.4641
    -0.3940  -0.2830   1.4738   1.6318   1.8217   1.9058   2.1840   2.3034
     2.4380   2.5089   2.6778   2.7491   2.8515   2.9242   3.0916   3.1245
     3.2303   3.2917   3.3621   3.4662   3.4891   3.5814   3.6083   3.6501
     3.7089   3.8624   3.9306   3.9997   4.0493   4.1345   4.2634   4.3238
     4.4605   4.5350   4.6943   5.1640   5.1818   5.1925   5.2153   5.2443
     5.2792   5.3168   5.3753   5.3803   5.4328   5.4583   5.5027   5.5451
     5.5717   5.6511   5.6897   5.7642   5.8123   5.8598   6.1310   6.1802
     6.2827   6.3092   6.3943   6.4437   6.5590   6.7770   6.8634   6.8943
     7.0008   8.3162   8.4052   8.5223   9.3887   9.6544   9.8923  10.1777
    10.3012  10.4909  10.6191  10.6710  10.8435  10.9312  11.0033  11.0553
    11.1889  11.2624  11.3946  11.4960  11.5924  11.6720  11.7321  11.8486
    11.8917  11.9477  12.1173  12.2239  12.3242  12.4064  12.4789  12.6018
    12.6669  12.7768  13.0058  13.1753

     occupation numbers 
     1.0000   1.0000   1.0000   1.0000   1.0000   1.0000   1.0000   1.0000
     1.0000   1.0000   1.0000   1.0000   1.0000   1.0000   1.0000   1.0000
     1.0000   1.0000   1.0000   1.0000   1.0000   1.0000   1.0000   1.0000
     1.0000   1.0000   1.0000   1.0000   1.0000   1.0000   1.0000   1.0000
     1.0000   1.0000   1.0000   1.0000   1.0000   1.0000   1.0000   1.0000
     1.0000   1.0000   1.0000   1.0000   1.0000   1.0000   1.0000   1.0000
     1.0000   1.0000   1.0000   1.0000   1.0000   1.0000   1.0000   1.0000
     1.0000   1.0000   1.0000   1.0000   1.0000   1.0000   1.0000   1.0000
     1.0000   1.0000   1.0000   1.0000   1.0000   1.0000   1.0000   1.0000
     1.0000   1.0000   1.0000   1.0000   1.0000   1.0000   1.0000   1.0000
     1.0000   1.0000   1.0000   1.0000   1.0000   1.0000   1.0000   1.0000
     1.0000   1.0000   1.0000   1.0000   1.0000   1.0000   1.0000   1.0000
     1.0000   1.0000   1.0000   1.0000   1.0000   1.0000   1.0000   1.0000
     1.0000   0.0000   0.0000   0.0000   0.0000   0.0000   0.0000   0.0000
     0.0000   0.0000   0.0000   0.0000   0.0000   0.0000   0.0000   0.0000
     0.0000   0.0000   0.0000   0.0000   0.0000   0.0000   0.0000   0.0000
     0.0000   0.0000   0.0000   0.0000   0.0000   0.0000   0.0000   0.0000
     0.0000   0.0000   0.0000   0.0000

          k = 0.0833 0.2406-0.2036 ( 53168 PWs)   bands (ev):

   -28.2756 -28.2755 -28.2753 -14.9220 -14.9220 -14.9219 -14.9162 -14.9161
   -14.9160 -14.9041 -14.9040 -14.9039 -14.8638 -14.8637 -14.8636 -14.8187
   -14.8185 -14.8185 -10.3356 -10.3305 -10.3292 -10.3100 -10.2929 -10.2909
   -10.2642 -10.2614 -10.2591  -6.6613  -6.6504  -6.3117  -5.8204  -5.6870
    -5.6516  -5.6373  -5.5129  -5.4942  -5.4678  -5.3538  -5.3281  -0.4641
    -0.3972  -0.2800   1.4824   1.6203   1.8263   1.9080   2.1807   2.2914
     2.4485   2.5530   2.6517   2.7154   2.8438   2.9252   3.0929   3.1351
     3.2423   3.2856   3.3523   3.4793   3.4895   3.5854   3.6305   3.6485
     3.7054   3.8783   3.9270   4.0062   4.0316   4.1067   4.2499   4.3275
     4.4755   4.5350   4.6948   5.1637   5.1765   5.1948   5.2130   5.2407
     5.2857   5.3364   5.3500   5.4001   5.4278   5.4653   5.4994   5.5520
     5.5639   5.6359   5.6879   5.7692   5.8116   5.8558   6.1530   6.2020
     6.2687   6.3118   6.3879   6.4633   6.4911   6.7969   6.8559   6.9313
     6.9760   8.3533   8.3834   8.5248   9.3930   9.7520   9.8031  10.1441
    10.2950  10.5111  10.6222  10.7325  10.7915  10.8929  10.9779  11.0407
    11.2230  11.2842  11.3763  11.4726  11.5739  11.6545  11.7638  11.8289
    11.8682  11.9748  12.0742  12.2389  12.3541  12.4270  12.4939  12.5601
    12.7025  12.7415  13.0683  13.2197

     occupation numbers 
     1.0000   1.0000   1.0000   1.0000   1.0000   1.0000   1.0000   1.0000
     1.0000   1.0000   1.0000   1.0000   1.0000   1.0000   1.0000   1.0000
     1.0000   1.0000   1.0000   1.0000   1.0000   1.0000   1.0000   1.0000
     1.0000   1.0000   1.0000   1.0000   1.0000   1.0000   1.0000   1.0000
     1.0000   1.0000   1.0000   1.0000   1.0000   1.0000   1.0000   1.0000
     1.0000   1.0000   1.0000   1.0000   1.0000   1.0000   1.0000   1.0000
     1.0000   1.0000   1.0000   1.0000   1.0000   1.0000   1.0000   1.0000
     1.0000   1.0000   1.0000   1.0000   1.0000   1.0000   1.0000   1.0000
     1.0000   1.0000   1.0000   1.0000   1.0000   1.0000   1.0000   1.0000
     1.0000   1.0000   1.0000   1.0000   1.0000   1.0000   1.0000   1.0000
     1.0000   1.0000   1.0000   1.0000   1.0000   1.0000   1.0000   1.0000
     1.0000   1.0000   1.0000   1.0000   1.0000   1.0000   1.0000   1.0000
     1.0000   1.0000   1.0000   1.0000   1.0000   1.0000   1.0000   1.0000
     1.0000   0.0000   0.0000   0.0000   0.0000   0.0000   0.0000   0.0000
     0.0000   0.0000   0.0000   0.0000   0.0000   0.0000   0.0000   0.0000
     0.0000   0.0000   0.0000   0.0000   0.0000   0.0000   0.0000   0.0000
     0.0000   0.0000   0.0000   0.0000   0.0000   0.0000   0.0000   0.0000
     0.0000   0.0000   0.0000   0.0000

          k = 0.0833 0.3368 0.0000 ( 53147 PWs)   bands (ev):

   -28.2756 -28.2755 -28.2753 -14.9220 -14.9219 -14.9218 -14.9161 -14.9160
   -14.9159 -14.9040 -14.9040 -14.9039 -14.8639 -14.8637 -14.8636 -14.8187
   -14.8185 -14.8185 -10.3355 -10.3351 -10.3308 -10.3053 -10.3019 -10.2901
   -10.2678 -10.2638 -10.2593  -6.6345  -6.3915  -6.3838  -5.7709  -5.7433
    -5.7124  -5.6621  -5.5456  -5.5296  -5.4832  -5.4579  -5.3044  -0.5327
    -0.3806  -0.3111   1.4528   1.6472   1.7571   2.0043   2.2631   2.3666
     2.4903   2.5764   2.8057   2.8233   2.8862   3.0114   3.0385   3.1222
     3.2068   3.2635   3.3500   3.4422   3.4989   3.5236   3.5749   3.6486
     3.7030   3.8353   3.9706   4.0177   4.0921   4.1394   4.2829   4.3421
     4.3945   4.5231   4.6449   5.1446   5.1752   5.2178   5.2374   5.2676
     5.2967   5.3166   5.3427   5.3817   5.4728   5.4947   5.5330   5.5530
     5.5979   5.6857   5.7169   5.7568   5.8318   5.9354   6.0242   6.1471
     6.2223   6.2669   6.3950   6.4488   6.6185   6.6615   6.7543   6.8032
     6.9332   8.3655   8.4311   8.4970   9.5840   9.6610   9.8948  10.1219
    10.2782  10.3208  10.5413  10.6597  10.7486  10.8855  10.9603  11.0517
    11.2454  11.3074  11.4538  11.5193  11.5784  11.7765  11.7956  11.8459
    11.9269  12.0592  12.0854  12.2531  12.3412  12.4018  12.4649  12.5930
    12.6673  12.7088  12.8188  12.9123

     occupation numbers 
     1.0000   1.0000   1.0000   1.0000   1.0000   1.0000   1.0000   1.0000
     1.0000   1.0000   1.0000   1.0000   1.0000   1.0000   1.0000   1.0000
     1.0000   1.0000   1.0000   1.0000   1.0000   1.0000   1.0000   1.0000
     1.0000   1.0000   1.0000   1.0000   1.0000   1.0000   1.0000   1.0000
     1.0000   1.0000   1.0000   1.0000   1.0000   1.0000   1.0000   1.0000
     1.0000   1.0000   1.0000   1.0000   1.0000   1.0000   1.0000   1.0000
     1.0000   1.0000   1.0000   1.0000   1.0000   1.0000   1.0000   1.0000
     1.0000   1.0000   1.0000   1.0000   1.0000   1.0000   1.0000   1.0000
     1.0000   1.0000   1.0000   1.0000   1.0000   1.0000   1.0000   1.0000
     1.0000   1.0000   1.0000   1.0000   1.0000   1.0000   1.0000   1.0000
     1.0000   1.0000   1.0000   1.0000   1.0000   1.0000   1.0000   1.0000
     1.0000   1.0000   1.0000   1.0000   1.0000   1.0000   1.0000   1.0000
     1.0000   1.0000   1.0000   1.0000   1.0000   1.0000   1.0000   1.0000
     1.0000   0.0000   0.0000   0.0000   0.0000   0.0000   0.0000   0.0000
     0.0000   0.0000   0.0000   0.0000   0.0000   0.0000   0.0000   0.0000
     0.0000   0.0000   0.0000   0.0000   0.0000   0.0000   0.0000   0.0000
     0.0000   0.0000   0.0000   0.0000   0.0000   0.0000   0.0000   0.0000
     0.0000   0.0000   0.0000   0.0000

          k = 0.0833 0.3368 0.0679 ( 53168 PWs)   bands (ev):

   -28.2756 -28.2755 -28.2753 -14.9220 -14.9219 -14.9218 -14.9162 -14.9160
   -14.9159 -14.9040 -14.9040 -14.9039 -14.8639 -14.8637 -14.8636 -14.8187
   -14.8185 -14.8185 -10.3363 -10.3344 -10.3307 -10.3071 -10.2992 -10.2911
   -10.2679 -10.2633 -10.2596  -6.6265  -6.4503  -6.3293  -5.7732  -5.7348
    -5.7116  -5.6768  -5.5527  -5.5320  -5.4948  -5.4256  -5.3117  -0.5271
    -0.3979  -0.2999   1.4403   1.6655   1.8006   1.9400   2.2728   2.3656
     2.5017   2.5693   2.7854   2.8452   2.9094   2.9987   3.0532   3.0740
     3.2097   3.2581   3.3779   3.4367   3.5007   3.5294   3.5771   3.6425
     3.7078   3.8419   3.9636   4.0247   4.0729   4.1457   4.2928   4.3397
     4.3957   4.5144   4.6480   5.1522   5.1748   5.2122   5.2400   5.2518
     5.2884   5.3239   5.3499   5.3853   5.4461   5.5056   5.5421   5.5663
     5.6008   5.6840   5.7224   5.7699   5.8178   5.9089   6.0428   6.1417
     6.2047   6.2825   6.3868   6.4640   6.6202   6.6491   6.7542   6.8072
     6.9340   8.3726   8.4200   8.5085   9.5578   9.7219   9.8827  10.1128
    10.2411  10.3258  10.5566  10.6629  10.7886  10.8881  10.9345  11.0786
    11.2085  11.3005  11.4340  11.5484  11.6185  11.6905  11.7893  11.8386
    11.8872  12.0358  12.0959  12.2017  12.2932  12.3901  12.5555  12.6103
    12.6476  12.7863  12.8643  12.9338

     occupation numbers 
     1.0000   1.0000   1.0000   1.0000   1.0000   1.0000   1.0000   1.0000
     1.0000   1.0000   1.0000   1.0000   1.0000   1.0000   1.0000   1.0000
     1.0000   1.0000   1.0000   1.0000   1.0000   1.0000   1.0000   1.0000
     1.0000   1.0000   1.0000   1.0000   1.0000   1.0000   1.0000   1.0000
     1.0000   1.0000   1.0000   1.0000   1.0000   1.0000   1.0000   1.0000
     1.0000   1.0000   1.0000   1.0000   1.0000   1.0000   1.0000   1.0000
     1.0000   1.0000   1.0000   1.0000   1.0000   1.0000   1.0000   1.0000
     1.0000   1.0000   1.0000   1.0000   1.0000   1.0000   1.0000   1.0000
     1.0000   1.0000   1.0000   1.0000   1.0000   1.0000   1.0000   1.0000
     1.0000   1.0000   1.0000   1.0000   1.0000   1.0000   1.0000   1.0000
     1.0000   1.0000   1.0000   1.0000   1.0000   1.0000   1.0000   1.0000
     1.0000   1.0000   1.0000   1.0000   1.0000   1.0000   1.0000   1.0000
     1.0000   1.0000   1.0000   1.0000   1.0000   1.0000   1.0000   1.0000
     1.0000   0.0000   0.0000   0.0000   0.0000   0.0000   0.0000   0.0000
     0.0000   0.0000   0.0000   0.0000   0.0000   0.0000   0.0000   0.0000
     0.0000   0.0000   0.0000   0.0000   0.0000   0.0000   0.0000   0.0000
     0.0000   0.0000   0.0000   0.0000   0.0000   0.0000   0.0000   0.0000
     0.0000   0.0000   0.0000   0.0000

          k = 0.0833 0.3368 0.1357 ( 53172 PWs)   bands (ev):

   -28.2756 -28.2755 -28.2753 -14.9220 -14.9219 -14.9218 -14.9162 -14.9160
   -14.9159 -14.9040 -14.9040 -14.9039 -14.8639 -14.8637 -14.8636 -14.8187
   -14.8185 -14.8185 -10.3371 -10.3336 -10.3307 -10.3081 -10.2967 -10.2926
   -10.2675 -10.2630 -10.2603  -6.6032  -6.5099  -6.2833  -5.7815  -5.7472
    -5.7121  -5.6701  -5.5598  -5.5298  -5.5024  -5.3929  -5.3269  -0.5217
    -0.4136  -0.2900   1.4377   1.6802   1.8130   1.9236   2.2506   2.3530
     2.5370   2.5810   2.7485   2.8461   2.9189   2.9852   3.0504   3.0756
     3.2161   3.2668   3.3642   3.4531   3.4965   3.5362   3.5994   3.6459
     3.7019   3.8583   3.9540   4.0302   4.0530   4.1281   4.2670   4.3585
     4.4134   4.5024   4.6528   5.1611   5.1786   5.2002   5.2260   5.2463
     5.2896   5.3345   5.3730   5.3921   5.4259   5.4982   5.5431   5.5835
     5.6174   5.6746   5.7161   5.7682   5.8207   5.8817   6.0532   6.1243
     6.2167   6.2974   6.3755   6.4868   6.5751   6.6625   6.7770   6.8021
     6.9217   8.3836   8.4183   8.5207   9.5565   9.7957   9.8738  10.0984
    10.1960  10.3197  10.5684  10.6577  10.7600  10.9092  10.9499  11.0531
    11.1839  11.3243  11.4402  11.5067  11.6201  11.6589  11.7422  11.8523
    11.8785  12.0085  12.0745  12.1744  12.2698  12.3827  12.5116  12.6105
    12.7437  12.8102  12.9772  13.0481

     occupation numbers 
     1.0000   1.0000   1.0000   1.0000   1.0000   1.0000   1.0000   1.0000
     1.0000   1.0000   1.0000   1.0000   1.0000   1.0000   1.0000   1.0000
     1.0000   1.0000   1.0000   1.0000   1.0000   1.0000   1.0000   1.0000
     1.0000   1.0000   1.0000   1.0000   1.0000   1.0000   1.0000   1.0000
     1.0000   1.0000   1.0000   1.0000   1.0000   1.0000   1.0000   1.0000
     1.0000   1.0000   1.0000   1.0000   1.0000   1.0000   1.0000   1.0000
     1.0000   1.0000   1.0000   1.0000   1.0000   1.0000   1.0000   1.0000
     1.0000   1.0000   1.0000   1.0000   1.0000   1.0000   1.0000   1.0000
     1.0000   1.0000   1.0000   1.0000   1.0000   1.0000   1.0000   1.0000
     1.0000   1.0000   1.0000   1.0000   1.0000   1.0000   1.0000   1.0000
     1.0000   1.0000   1.0000   1.0000   1.0000   1.0000   1.0000   1.0000
     1.0000   1.0000   1.0000   1.0000   1.0000   1.0000   1.0000   1.0000
     1.0000   1.0000   1.0000   1.0000   1.0000   1.0000   1.0000   1.0000
     1.0000   0.0000   0.0000   0.0000   0.0000   0.0000   0.0000   0.0000
     0.0000   0.0000   0.0000   0.0000   0.0000   0.0000   0.0000   0.0000
     0.0000   0.0000   0.0000   0.0000   0.0000   0.0000   0.0000   0.0000
     0.0000   0.0000   0.0000   0.0000   0.0000   0.0000   0.0000   0.0000
     0.0000   0.0000   0.0000   0.0000

          k = 0.0833 0.3368-0.2036 ( 53186 PWs)   bands (ev):

   -28.2756 -28.2755 -28.2753 -14.9220 -14.9219 -14.9218 -14.9162 -14.9160
   -14.9159 -14.9040 -14.9040 -14.9039 -14.8639 -14.8637 -14.8636 -14.8187
   -14.8185 -14.8185 -10.3374 -10.3332 -10.3309 -10.3080 -10.2967 -10.2926
   -10.2671 -10.2633 -10.2605  -6.5748  -6.5512  -6.2642  -5.7933  -5.7549
    -5.7146  -5.6549  -5.5603  -5.5268  -5.5071  -5.3833  -5.3339  -0.5230
    -0.4139  -0.2885   1.4461   1.6832   1.7600   1.9934   2.2061   2.3618
     2.5325   2.6244   2.7183   2.8136   2.9277   2.9797   3.0549   3.0955
     3.2275   3.2725   3.3399   3.4684   3.4869   3.5410   3.6211   3.6492
     3.6927   3.8693   3.9485   4.0271   4.0543   4.1052   4.2431   4.3714
     4.4250   4.4999   4.6546   5.1617   5.1797   5.1936   5.2225   5.2461
     5.3049   5.3434   5.3609   5.4090   5.4296   5.4830   5.5470   5.5835
     5.6300   5.6678   5.7003   5.7470   5.8493   5.8722   6.0535   6.1082
     6.2486   6.2932   6.3706   6.5140   6.5245   6.6876   6.7589   6.8267
     6.9033   8.3840   8.4297   8.5227   9.5691   9.8017   9.9156  10.0581
    10.1876  10.3238  10.5700  10.6280  10.7481  10.8825  10.9397  11.0663
    11.2016  11.3702  11.4270  11.4828  11.5714  11.6490  11.7471  11.8240
    11.9065  12.0368  12.0662  12.1454  12.2812  12.4077  12.4894  12.6202
    12.7506  12.7911  12.9898  13.0862

     occupation numbers 
     1.0000   1.0000   1.0000   1.0000   1.0000   1.0000   1.0000   1.0000
     1.0000   1.0000   1.0000   1.0000   1.0000   1.0000   1.0000   1.0000
     1.0000   1.0000   1.0000   1.0000   1.0000   1.0000   1.0000   1.0000
     1.0000   1.0000   1.0000   1.0000   1.0000   1.0000   1.0000   1.0000
     1.0000   1.0000   1.0000   1.0000   1.0000   1.0000   1.0000   1.0000
     1.0000   1.0000   1.0000   1.0000   1.0000   1.0000   1.0000   1.0000
     1.0000   1.0000   1.0000   1.0000   1.0000   1.0000   1.0000   1.0000
     1.0000   1.0000   1.0000   1.0000   1.0000   1.0000   1.0000   1.0000
     1.0000   1.0000   1.0000   1.0000   1.0000   1.0000   1.0000   1.0000
     1.0000   1.0000   1.0000   1.0000   1.0000   1.0000   1.0000   1.0000
     1.0000   1.0000   1.0000   1.0000   1.0000   1.0000   1.0000   1.0000
     1.0000   1.0000   1.0000   1.0000   1.0000   1.0000   1.0000   1.0000
     1.0000   1.0000   1.0000   1.0000   1.0000   1.0000   1.0000   1.0000
     1.0000   0.0000   0.0000   0.0000   0.0000   0.0000   0.0000   0.0000
     0.0000   0.0000   0.0000   0.0000   0.0000   0.0000   0.0000   0.0000
     0.0000   0.0000   0.0000   0.0000   0.0000   0.0000   0.0000   0.0000
     0.0000   0.0000   0.0000   0.0000   0.0000   0.0000   0.0000   0.0000
     0.0000   0.0000   0.0000   0.0000

          k = 0.0833 0.4330 0.0000 ( 53187 PWs)   bands (ev):

   -28.2756 -28.2755 -28.2753 -14.9219 -14.9218 -14.9218 -14.9161 -14.9160
   -14.9159 -14.9040 -14.9039 -14.9039 -14.8639 -14.8637 -14.8636 -14.8187
   -14.8185 -14.8184 -10.3372 -10.3362 -10.3333 -10.3070 -10.3016 -10.2922
   -10.2695 -10.2650 -10.2612  -6.5208  -6.3258  -6.2994  -5.8748  -5.8015
    -5.7424  -5.6546  -5.5970  -5.5501  -5.5162  -5.4464  -5.3276  -0.5766
    -0.3893  -0.3185   1.4279   1.6692   1.8549   1.9489   2.3176   2.3827
     2.5207   2.6185   2.8215   2.8608   2.9313   2.9730   3.0777   3.1394
     3.2495   3.3011   3.3745   3.4664   3.4775   3.5024   3.5764   3.6532
     3.6958   3.8272   3.9881   4.0557   4.0816   4.1310   4.2605   4.3262
     4.3983   4.5310   4.6115   5.1410   5.1719   5.2291   5.2475   5.2580
     5.2991   5.3158   5.3432   5.3835   5.4777   5.5098   5.5549   5.5922
     5.6172   5.6907   5.7452   5.7909   5.8778   5.9533   5.9851   6.1302
     6.2216   6.2733   6.3708   6.4218   6.5235   6.5907   6.6833   6.7532
     6.8595   8.3524   8.4055   8.5440   9.6579   9.7946   9.9403  10.0640
    10.1225  10.3006  10.5195  10.6384  10.7289  10.8383  10.9333  11.0537
    11.2566  11.3328  11.4593  11.5112  11.5870  11.7039  11.7782  11.8103
    11.9185  11.9862  12.0517  12.2066  12.3571  12.3937  12.4901  12.5525
    12.6248  12.7342  12.8223  12.8776

     occupation numbers 
     1.0000   1.0000   1.0000   1.0000   1.0000   1.0000   1.0000   1.0000
     1.0000   1.0000   1.0000   1.0000   1.0000   1.0000   1.0000   1.0000
     1.0000   1.0000   1.0000   1.0000   1.0000   1.0000   1.0000   1.0000
     1.0000   1.0000   1.0000   1.0000   1.0000   1.0000   1.0000   1.0000
     1.0000   1.0000   1.0000   1.0000   1.0000   1.0000   1.0000   1.0000
     1.0000   1.0000   1.0000   1.0000   1.0000   1.0000   1.0000   1.0000
     1.0000   1.0000   1.0000   1.0000   1.0000   1.0000   1.0000   1.0000
     1.0000   1.0000   1.0000   1.0000   1.0000   1.0000   1.0000   1.0000
     1.0000   1.0000   1.0000   1.0000   1.0000   1.0000   1.0000   1.0000
     1.0000   1.0000   1.0000   1.0000   1.0000   1.0000   1.0000   1.0000
     1.0000   1.0000   1.0000   1.0000   1.0000   1.0000   1.0000   1.0000
     1.0000   1.0000   1.0000   1.0000   1.0000   1.0000   1.0000   1.0000
     1.0000   1.0000   1.0000   1.0000   1.0000   1.0000   1.0000   1.0000
     1.0000   0.0000   0.0000   0.0000   0.0000   0.0000   0.0000   0.0000
     0.0000   0.0000   0.0000   0.0000   0.0000   0.0000   0.0000   0.0000
     0.0000   0.0000   0.0000   0.0000   0.0000   0.0000   0.0000   0.0000
     0.0000   0.0000   0.0000   0.0000   0.0000   0.0000   0.0000   0.0000
     0.0000   0.0000   0.0000   0.0000

          k = 0.0833 0.4330 0.0679 ( 53182 PWs)   bands (ev):

   -28.2756 -28.2755 -28.2753 -14.9219 -14.9218 -14.9218 -14.9161 -14.9160
   -14.9159 -14.9040 -14.9039 -14.9039 -14.8639 -14.8637 -14.8636 -14.8187
   -14.8185 -14.8184 -10.3376 -10.3362 -10.3329 -10.3077 -10.3000 -10.2932
   -10.2696 -10.2646 -10.2614  -6.5149  -6.3571  -6.2750  -5.8717  -5.7890
    -5.7347  -5.6849  -5.5960  -5.5551  -5.5179  -5.4277  -5.3329  -0.5715
    -0.4057  -0.3077   1.4197   1.7151   1.8177   1.9495   2.3275   2.3671
     2.5127   2.6266   2.8164   2.8703   2.9175   3.0052   3.0672   3.1367
     3.2327   3.2907   3.4004   3.4549   3.4758   3.5146   3.5814   3.6414
     3.6977   3.8390   3.9864   4.0442   4.0804   4.1392   4.2695   4.3129
     4.4007   4.5225   4.6206   5.1507   5.1680   5.2288   5.2368   5.2552
     5.2959   5.3222   5.3421   5.3931   5.4447   5.5364   5.5670   5.5897
     5.6167   5.6838   5.7609   5.8016   5.8571   5.9535   5.9897   6.1106
     6.2063   6.2787   6.3458   6.4604   6.5256   6.6023   6.6822   6.7518
     6.8510   8.3594   8.4038   8.5417   9.6358   9.7993   9.9360  10.0926
    10.1325  10.2990  10.5443  10.6388  10.7335  10.8640  10.9108  11.0797
    11.2351  11.3411  11.4330  11.5244  11.5649  11.6601  11.7052  11.8075
    11.8922  11.9563  12.0668  12.1858  12.3492  12.3786  12.5162  12.5963
    12.6681  12.7729  12.8540  12.8993

     occupation numbers 
     1.0000   1.0000   1.0000   1.0000   1.0000   1.0000   1.0000   1.0000
     1.0000   1.0000   1.0000   1.0000   1.0000   1.0000   1.0000   1.0000
     1.0000   1.0000   1.0000   1.0000   1.0000   1.0000   1.0000   1.0000
     1.0000   1.0000   1.0000   1.0000   1.0000   1.0000   1.0000   1.0000
     1.0000   1.0000   1.0000   1.0000   1.0000   1.0000   1.0000   1.0000
     1.0000   1.0000   1.0000   1.0000   1.0000   1.0000   1.0000   1.0000
     1.0000   1.0000   1.0000   1.0000   1.0000   1.0000   1.0000   1.0000
     1.0000   1.0000   1.0000   1.0000   1.0000   1.0000   1.0000   1.0000
     1.0000   1.0000   1.0000   1.0000   1.0000   1.0000   1.0000   1.0000
     1.0000   1.0000   1.0000   1.0000   1.0000   1.0000   1.0000   1.0000
     1.0000   1.0000   1.0000   1.0000   1.0000   1.0000   1.0000   1.0000
     1.0000   1.0000   1.0000   1.0000   1.0000   1.0000   1.0000   1.0000
     1.0000   1.0000   1.0000   1.0000   1.0000   1.0000   1.0000   1.0000
     1.0000   0.0000   0.0000   0.0000   0.0000   0.0000   0.0000   0.0000
     0.0000   0.0000   0.0000   0.0000   0.0000   0.0000   0.0000   0.0000
     0.0000   0.0000   0.0000   0.0000   0.0000   0.0000   0.0000   0.0000
     0.0000   0.0000   0.0000   0.0000   0.0000   0.0000   0.0000   0.0000
     0.0000   0.0000   0.0000   0.0000

          k = 0.0833 0.4330 0.1357 ( 53171 PWs)   bands (ev):

   -28.2756 -28.2755 -28.2753 -14.9219 -14.9218 -14.9218 -14.9161 -14.9160
   -14.9159 -14.9040 -14.9039 -14.9039 -14.8639 -14.8637 -14.8636 -14.8187
   -14.8185 -14.8184 -10.3384 -10.3358 -10.3325 -10.3075 -10.2992 -10.2943
   -10.2693 -10.2646 -10.2616  -6.4975  -6.4044  -6.2418  -5.8716  -5.7833
    -5.7227  -5.7092  -5.5959  -5.5578  -5.5223  -5.4119  -5.3383  -0.5659
    -0.4208  -0.2986   1.4226   1.7348   1.7748   1.9981   2.2815   2.3667
     2.5234   2.6376   2.8102   2.8340   2.9225   3.0258   3.0819   3.1364
     3.2297   3.2912   3.3944   3.4539   3.4831   3.5282   3.5806   3.6448
     3.6896   3.8617   3.9770   4.0395   4.0767   4.1295   4.2459   4.3204
     4.4072   4.5260   4.6231   5.1575   5.1786   5.2064   5.2306   5.2529
     5.2973   5.3412   5.3540   5.3916   5.4243   5.5324   5.5796   5.5916
     5.6309   5.6799   5.7596   5.8072   5.8545   5.9393   6.0003   6.0702
     6.2132   6.2685   6.3475   6.4840   6.5257   6.6220   6.7017   6.7302
     6.8315   8.3672   8.4016   8.5480   9.6357   9.7904   9.9655  10.0930
    10.1925  10.2841  10.5141  10.6123  10.7216  10.8581  10.9932  11.0522
    11.1873  11.3494  11.4535  11.5089  11.5674  11.6074  11.6826  11.7843
    11.8525  11.9264  12.0414  12.1649  12.3077  12.4136  12.5103  12.5633
    12.7893  12.8554  12.8785  12.9741

     occupation numbers 
     1.0000   1.0000   1.0000   1.0000   1.0000   1.0000   1.0000   1.0000
     1.0000   1.0000   1.0000   1.0000   1.0000   1.0000   1.0000   1.0000
     1.0000   1.0000   1.0000   1.0000   1.0000   1.0000   1.0000   1.0000
     1.0000   1.0000   1.0000   1.0000   1.0000   1.0000   1.0000   1.0000
     1.0000   1.0000   1.0000   1.0000   1.0000   1.0000   1.0000   1.0000
     1.0000   1.0000   1.0000   1.0000   1.0000   1.0000   1.0000   1.0000
     1.0000   1.0000   1.0000   1.0000   1.0000   1.0000   1.0000   1.0000
     1.0000   1.0000   1.0000   1.0000   1.0000   1.0000   1.0000   1.0000
     1.0000   1.0000   1.0000   1.0000   1.0000   1.0000   1.0000   1.0000
     1.0000   1.0000   1.0000   1.0000   1.0000   1.0000   1.0000   1.0000
     1.0000   1.0000   1.0000   1.0000   1.0000   1.0000   1.0000   1.0000
     1.0000   1.0000   1.0000   1.0000   1.0000   1.0000   1.0000   1.0000
     1.0000   1.0000   1.0000   1.0000   1.0000   1.0000   1.0000   1.0000
     1.0000   0.0000   0.0000   0.0000   0.0000   0.0000   0.0000   0.0000
     0.0000   0.0000   0.0000   0.0000   0.0000   0.0000   0.0000   0.0000
     0.0000   0.0000   0.0000   0.0000   0.0000   0.0000   0.0000   0.0000
     0.0000   0.0000   0.0000   0.0000   0.0000   0.0000   0.0000   0.0000
     0.0000   0.0000   0.0000   0.0000

          k = 0.0833 0.4330-0.2036 ( 53142 PWs)   bands (ev):

   -28.2756 -28.2755 -28.2753 -14.9219 -14.9218 -14.9218 -14.9161 -14.9160
   -14.9159 -14.9040 -14.9039 -14.9039 -14.8639 -14.8637 -14.8636 -14.8187
   -14.8185 -14.8184 -10.3387 -10.3356 -10.3324 -10.3067 -10.3003 -10.2940
   -10.2689 -10.2651 -10.2615  -6.4802  -6.4339  -6.2251  -5.8750  -5.7914
    -5.7407  -5.6795  -5.5971  -5.5566  -5.5266  -5.4135  -5.3370  -0.5662
    -0.4216  -0.2975   1.4341   1.6784   1.8028   2.0553   2.2193   2.3836
     2.5343   2.6376   2.7886   2.8287   2.9174   3.0262   3.1043   3.1350
     3.2421   3.3010   3.3706   3.4595   3.4891   3.5295   3.5843   3.6575
     3.6749   3.8760   3.9683   4.0472   4.0683   4.1165   4.2228   4.3308
     4.4112   4.5373   4.6169   5.1587   5.1799   5.2033   5.2271   5.2527
     5.3124   5.3425   5.3572   5.3826   5.4336   5.5173   5.5737   5.5954
     5.6548   5.6800   5.7440   5.7877   5.8797   5.9280   5.9974   6.0634
     6.2239   6.2647   6.3541   6.4780   6.5257   6.6446   6.6899   6.7324
     6.8177   8.3686   8.3996   8.5573   9.6555   9.7849   9.9991  10.0719
    10.2453  10.2685  10.4556  10.5575  10.7179  10.9211  10.9374  11.0783
    11.1833  11.3475  11.4486  11.4985  11.5838  11.6385  11.6758  11.7606
    11.8525  11.9055  12.0110  12.1974  12.3183  12.3923  12.5068  12.5534
    12.7893  12.8533  12.9124  13.0508

     occupation numbers 
     1.0000   1.0000   1.0000   1.0000   1.0000   1.0000   1.0000   1.0000
     1.0000   1.0000   1.0000   1.0000   1.0000   1.0000   1.0000   1.0000
     1.0000   1.0000   1.0000   1.0000   1.0000   1.0000   1.0000   1.0000
     1.0000   1.0000   1.0000   1.0000   1.0000   1.0000   1.0000   1.0000
     1.0000   1.0000   1.0000   1.0000   1.0000   1.0000   1.0000   1.0000
     1.0000   1.0000   1.0000   1.0000   1.0000   1.0000   1.0000   1.0000
     1.0000   1.0000   1.0000   1.0000   1.0000   1.0000   1.0000   1.0000
     1.0000   1.0000   1.0000   1.0000   1.0000   1.0000   1.0000   1.0000
     1.0000   1.0000   1.0000   1.0000   1.0000   1.0000   1.0000   1.0000
     1.0000   1.0000   1.0000   1.0000   1.0000   1.0000   1.0000   1.0000
     1.0000   1.0000   1.0000   1.0000   1.0000   1.0000   1.0000   1.0000
     1.0000   1.0000   1.0000   1.0000   1.0000   1.0000   1.0000   1.0000
     1.0000   1.0000   1.0000   1.0000   1.0000   1.0000   1.0000   1.0000
     1.0000   0.0000   0.0000   0.0000   0.0000   0.0000   0.0000   0.0000
     0.0000   0.0000   0.0000   0.0000   0.0000   0.0000   0.0000   0.0000
     0.0000   0.0000   0.0000   0.0000   0.0000   0.0000   0.0000   0.0000
     0.0000   0.0000   0.0000   0.0000   0.0000   0.0000   0.0000   0.0000
     0.0000   0.0000   0.0000   0.0000

          k = 0.0833 0.5292 0.0000 ( 53204 PWs)   bands (ev):

   -28.2756 -28.2755 -28.2753 -14.9218 -14.9218 -14.9217 -14.9161 -14.9159
   -14.9159 -14.9039 -14.9039 -14.9039 -14.8639 -14.8637 -14.8636 -14.8187
   -14.8185 -14.8184 -10.3382 -10.3364 -10.3352 -10.3084 -10.3015 -10.2932
   -10.2701 -10.2654 -10.2626  -6.4243  -6.2941  -6.2287  -5.9652  -5.8405
    -5.7854  -5.6409  -5.6243  -5.5635  -5.5349  -5.4305  -5.3464  -0.5994
    -0.3917  -0.3233   1.4117   1.7265   1.8345   2.0292   2.2389   2.4218
     2.4842   2.6265   2.8000   2.9055   2.9447   2.9998   3.0460   3.2107
     3.2605   3.3640   3.4128   3.4391   3.4813   3.4930   3.6038   3.6483
     3.6887   3.8124   4.0020   4.0399   4.1285   4.1519   4.2307   4.2803
     4.4215   4.5249   4.6100   5.1507   5.1686   5.2263   5.2496   5.2679
     5.2876   5.3150   5.3428   5.3852   5.4701   5.4844   5.5844   5.6135
     5.6377   5.6771   5.7786   5.8204   5.8927   5.9457   6.0135   6.1532
     6.2467   6.2755   6.3384   6.3685   6.4328   6.5576   6.6527   6.7396
     6.7967   8.2893   8.4099   8.5936   9.6618   9.7713  10.0012  10.0961
    10.1806  10.2676  10.4744  10.5838  10.7633  10.8116  10.9573  11.0859
    11.2750  11.3114  11.4162  11.4682  11.5883  11.6592  11.7269  11.7799
    11.8923  11.9309  12.0266  12.1137  12.2777  12.3534  12.4330  12.6207
    12.6795  12.7991  12.8466  12.9531

     occupation numbers 
     1.0000   1.0000   1.0000   1.0000   1.0000   1.0000   1.0000   1.0000
     1.0000   1.0000   1.0000   1.0000   1.0000   1.0000   1.0000   1.0000
     1.0000   1.0000   1.0000   1.0000   1.0000   1.0000   1.0000   1.0000
     1.0000   1.0000   1.0000   1.0000   1.0000   1.0000   1.0000   1.0000
     1.0000   1.0000   1.0000   1.0000   1.0000   1.0000   1.0000   1.0000
     1.0000   1.0000   1.0000   1.0000   1.0000   1.0000   1.0000   1.0000
     1.0000   1.0000   1.0000   1.0000   1.0000   1.0000   1.0000   1.0000
     1.0000   1.0000   1.0000   1.0000   1.0000   1.0000   1.0000   1.0000
     1.0000   1.0000   1.0000   1.0000   1.0000   1.0000   1.0000   1.0000
     1.0000   1.0000   1.0000   1.0000   1.0000   1.0000   1.0000   1.0000
     1.0000   1.0000   1.0000   1.0000   1.0000   1.0000   1.0000   1.0000
     1.0000   1.0000   1.0000   1.0000   1.0000   1.0000   1.0000   1.0000
     1.0000   1.0000   1.0000   1.0000   1.0000   1.0000   1.0000   1.0000
     1.0000   0.0000   0.0000   0.0000   0.0000   0.0000   0.0000   0.0000
     0.0000   0.0000   0.0000   0.0000   0.0000   0.0000   0.0000   0.0000
     0.0000   0.0000   0.0000   0.0000   0.0000   0.0000   0.0000   0.0000
     0.0000   0.0000   0.0000   0.0000   0.0000   0.0000   0.0000   0.0000
     0.0000   0.0000   0.0000   0.0000

          k = 0.0833 0.5292 0.0679 ( 53183 PWs)   bands (ev):

   -28.2756 -28.2755 -28.2753 -14.9218 -14.9218 -14.9217 -14.9161 -14.9159
   -14.9159 -14.9039 -14.9039 -14.9039 -14.8639 -14.8637 -14.8636 -14.8187
   -14.8185 -14.8184 -10.3385 -10.3369 -10.3344 -10.3083 -10.3011 -10.2938
   -10.2701 -10.2654 -10.2625  -6.4221  -6.2889  -6.2414  -5.9610  -5.8326
    -5.7807  -5.6588  -5.6200  -5.5683  -5.5312  -5.4274  -5.3460  -0.5958
    -0.4038  -0.3152   1.4129   1.7361   1.8161   2.0478   2.2474   2.4123
     2.4619   2.6325   2.7931   2.8803   2.9533   3.0304   3.0553   3.2095
     3.2557   3.3596   3.4204   3.4333   3.4655   3.5087   3.5980   3.6467
     3.6930   3.8275   3.9986   4.0375   4.1280   4.1480   4.2347   4.2651
     4.4219   4.5320   4.6121   5.1535   5.1722   5.2172   5.2480   5.2640
     5.2954   5.3173   5.3412   5.3913   5.4343   5.5191   5.5837   5.6177
     5.6301   5.6816   5.7824   5.8201   5.8816   5.9490   6.0241   6.1462
     6.2238   6.2731   6.3128   6.3887   6.4405   6.5880   6.6522   6.7398
     6.7811   8.3023   8.4037   8.5883   9.6527   9.7596  10.0152  10.0984
    10.2081  10.2864  10.4524  10.6035  10.7509  10.8442  10.9475  11.1113
    11.2522  11.3096  11.4040  11.4470  11.5587  11.6373  11.7117  11.7921
    11.8310  11.9489  11.9677  12.1344  12.2637  12.3356  12.5039  12.6531
    12.7030  12.8044  12.8757  12.9813

     occupation numbers 
     1.0000   1.0000   1.0000   1.0000   1.0000   1.0000   1.0000   1.0000
     1.0000   1.0000   1.0000   1.0000   1.0000   1.0000   1.0000   1.0000
     1.0000   1.0000   1.0000   1.0000   1.0000   1.0000   1.0000   1.0000
     1.0000   1.0000   1.0000   1.0000   1.0000   1.0000   1.0000   1.0000
     1.0000   1.0000   1.0000   1.0000   1.0000   1.0000   1.0000   1.0000
     1.0000   1.0000   1.0000   1.0000   1.0000   1.0000   1.0000   1.0000
     1.0000   1.0000   1.0000   1.0000   1.0000   1.0000   1.0000   1.0000
     1.0000   1.0000   1.0000   1.0000   1.0000   1.0000   1.0000   1.0000
     1.0000   1.0000   1.0000   1.0000   1.0000   1.0000   1.0000   1.0000
     1.0000   1.0000   1.0000   1.0000   1.0000   1.0000   1.0000   1.0000
     1.0000   1.0000   1.0000   1.0000   1.0000   1.0000   1.0000   1.0000
     1.0000   1.0000   1.0000   1.0000   1.0000   1.0000   1.0000   1.0000
     1.0000   1.0000   1.0000   1.0000   1.0000   1.0000   1.0000   1.0000
     1.0000   0.0000   0.0000   0.0000   0.0000   0.0000   0.0000   0.0000
     0.0000   0.0000   0.0000   0.0000   0.0000   0.0000   0.0000   0.0000
     0.0000   0.0000   0.0000   0.0000   0.0000   0.0000   0.0000   0.0000
     0.0000   0.0000   0.0000   0.0000   0.0000   0.0000   0.0000   0.0000
     0.0000   0.0000   0.0000   0.0000

          k = 0.0833 0.5292 0.1357 ( 53176 PWs)   bands (ev):

   -28.2756 -28.2755 -28.2753 -14.9218 -14.9218 -14.9217 -14.9161 -14.9159
   -14.9159 -14.9039 -14.9039 -14.9039 -14.8639 -14.8637 -14.8636 -14.8187
   -14.8185 -14.8184 -10.3391 -10.3371 -10.3336 -10.3074 -10.3012 -10.2947
   -10.2698 -10.2658 -10.2622  -6.4144  -6.3056  -6.2363  -5.9625  -5.8241
    -5.7658  -5.6780  -5.6177  -5.5735  -5.5291  -5.4299  -5.3417  -0.5900
    -0.4192  -0.3061   1.4242   1.6789   1.8748   2.0547   2.2635   2.3894
     2.4442   2.6157   2.7965   2.8543   2.9421   3.0615   3.0913   3.2057
     3.2622   3.3592   3.4115   3.4378   3.4534   3.5246   3.5736   3.6610
     3.6896   3.8619   3.9799   4.0505   4.1126   4.1378   4.2184   4.2595
     4.4261   4.5524   4.6070   5.1545   5.1827   5.2082   5.2451   5.2564
     5.2952   5.3298   5.3548   5.3750   5.4266   5.5297   5.5826   5.6184
     5.6330   5.6953   5.7675   5.8177   5.8765   5.9698   6.0427   6.1077
     6.1804   6.2593   6.3379   6.3940   6.4522   6.6360   6.6582   6.7232
     6.7534   8.3267   8.3891   8.5847   9.6506   9.7458  10.0441  10.1058
    10.2618  10.2968  10.4137  10.6024  10.7546  10.8586  10.9800  11.0862
    11.1907  11.3503  11.3779  11.4448  11.5605  11.5981  11.6871  11.7461
    11.8036  11.9037  11.9290  12.1387  12.2906  12.3476  12.5130  12.6164
    12.7965  12.8667  12.9336  13.0263

     occupation numbers 
     1.0000   1.0000   1.0000   1.0000   1.0000   1.0000   1.0000   1.0000
     1.0000   1.0000   1.0000   1.0000   1.0000   1.0000   1.0000   1.0000
     1.0000   1.0000   1.0000   1.0000   1.0000   1.0000   1.0000   1.0000
     1.0000   1.0000   1.0000   1.0000   1.0000   1.0000   1.0000   1.0000
     1.0000   1.0000   1.0000   1.0000   1.0000   1.0000   1.0000   1.0000
     1.0000   1.0000   1.0000   1.0000   1.0000   1.0000   1.0000   1.0000
     1.0000   1.0000   1.0000   1.0000   1.0000   1.0000   1.0000   1.0000
     1.0000   1.0000   1.0000   1.0000   1.0000   1.0000   1.0000   1.0000
     1.0000   1.0000   1.0000   1.0000   1.0000   1.0000   1.0000   1.0000
     1.0000   1.0000   1.0000   1.0000   1.0000   1.0000   1.0000   1.0000
     1.0000   1.0000   1.0000   1.0000   1.0000   1.0000   1.0000   1.0000
     1.0000   1.0000   1.0000   1.0000   1.0000   1.0000   1.0000   1.0000
     1.0000   1.0000   1.0000   1.0000   1.0000   1.0000   1.0000   1.0000
     1.0000   0.0000   0.0000   0.0000   0.0000   0.0000   0.0000   0.0000
     0.0000   0.0000   0.0000   0.0000   0.0000   0.0000   0.0000   0.0000
     0.0000   0.0000   0.0000   0.0000   0.0000   0.0000   0.0000   0.0000
     0.0000   0.0000   0.0000   0.0000   0.0000   0.0000   0.0000   0.0000
     0.0000   0.0000   0.0000   0.0000

          k = 0.0833 0.5292-0.2036 ( 53182 PWs)   bands (ev):

   -28.2756 -28.2755 -28.2753 -14.9218 -14.9218 -14.9217 -14.9161 -14.9159
   -14.9159 -14.9039 -14.9039 -14.9039 -14.8639 -14.8637 -14.8636 -14.8187
   -14.8185 -14.8184 -10.3394 -10.3371 -10.3334 -10.3064 -10.3021 -10.2948
   -10.2695 -10.2662 -10.2620  -6.4078  -6.3230  -6.2241  -5.9675  -5.8231
    -5.7597  -5.6778  -5.6180  -5.5750  -5.5296  -5.4349  -5.3382  -0.5881
    -0.4238  -0.3036   1.4363   1.6389   1.9302   2.0362   2.2633   2.3940
     2.4395   2.5917   2.8004   2.8585   2.9212   3.0659   3.1228   3.1919
     3.2793   3.3634   3.3983   3.4412   3.4553   3.5343   3.5554   3.6705
     3.6826   3.8864   3.9639   4.0664   4.0961   4.1273   4.2052   4.2636
     4.4295   4.5724   4.5933   5.1589   5.1727   5.2224   5.2406   5.2561
     5.2905   5.3360   5.3525   5.3727   5.4324   5.5225   5.5826   5.6116
     5.6494   5.7038   5.7506   5.8141   5.8776   5.9952   6.0443   6.0766
     6.1681   6.2561   6.3562   6.3990   6.4488   6.6543   6.6761   6.6955
     6.7442   8.3404   8.3774   8.5874   9.6581   9.7402  10.0634  10.1214
    10.2479  10.3003  10.4428  10.5328  10.7636  10.8978  10.9803  11.0599
    11.1621  11.3168  11.4487  11.4638  11.5603  11.6068  11.6446  11.6875
    11.8202  11.8623  11.9187  12.1690  12.3162  12.3708  12.4889  12.5590
    12.8505  12.8961  12.9665  13.0867

     occupation numbers 
     1.0000   1.0000   1.0000   1.0000   1.0000   1.0000   1.0000   1.0000
     1.0000   1.0000   1.0000   1.0000   1.0000   1.0000   1.0000   1.0000
     1.0000   1.0000   1.0000   1.0000   1.0000   1.0000   1.0000   1.0000
     1.0000   1.0000   1.0000   1.0000   1.0000   1.0000   1.0000   1.0000
     1.0000   1.0000   1.0000   1.0000   1.0000   1.0000   1.0000   1.0000
     1.0000   1.0000   1.0000   1.0000   1.0000   1.0000   1.0000   1.0000
     1.0000   1.0000   1.0000   1.0000   1.0000   1.0000   1.0000   1.0000
     1.0000   1.0000   1.0000   1.0000   1.0000   1.0000   1.0000   1.0000
     1.0000   1.0000   1.0000   1.0000   1.0000   1.0000   1.0000   1.0000
     1.0000   1.0000   1.0000   1.0000   1.0000   1.0000   1.0000   1.0000
     1.0000   1.0000   1.0000   1.0000   1.0000   1.0000   1.0000   1.0000
     1.0000   1.0000   1.0000   1.0000   1.0000   1.0000   1.0000   1.0000
     1.0000   1.0000   1.0000   1.0000   1.0000   1.0000   1.0000   1.0000
     1.0000   0.0000   0.0000   0.0000   0.0000   0.0000   0.0000   0.0000
     0.0000   0.0000   0.0000   0.0000   0.0000   0.0000   0.0000   0.0000
     0.0000   0.0000   0.0000   0.0000   0.0000   0.0000   0.0000   0.0000
     0.0000   0.0000   0.0000   0.0000   0.0000   0.0000   0.0000   0.0000
     0.0000   0.0000   0.0000   0.0000

          k = 0.1667 0.2887 0.0000 ( 53160 PWs)   bands (ev):

   -28.2756 -28.2755 -28.2753 -14.9220 -14.9220 -14.9218 -14.9162 -14.9161
   -14.9159 -14.9040 -14.9040 -14.9039 -14.8638 -14.8637 -14.8636 -14.8187
   -14.8185 -14.8185 -10.3351 -10.3350 -10.3303 -10.3049 -10.3021 -10.2900
   -10.2671 -10.2642 -10.2589  -6.6501  -6.3985  -6.3984  -5.7485  -5.7317
    -5.6940  -5.6844  -5.5408  -5.5288  -5.4714  -5.4663  -5.3014  -0.5142
    -0.3901  -0.3096   1.4847   1.6756   1.6867   2.0827   2.1447   2.3972
     2.4947   2.5637   2.7746   2.8444   2.8530   3.0104   3.0256   3.1343
     3.1974   3.2598   3.3723   3.4256   3.5027   3.5299   3.5799   3.6506
     3.7209   3.8016   3.9595   4.0303   4.0847   4.1511   4.3195   4.3210
     4.3865   4.5207   4.6548   5.1438   5.1878   5.1964   5.2468   5.2656
     5.2982   5.3186   5.3399   5.4028   5.4552   5.4833   5.5352   5.5642
     5.5706   5.6946   5.7069   5.7801   5.7992   5.9307   6.0467   6.1385
     6.2190   6.2600   6.4104   6.4520   6.6152   6.6763   6.8063   6.8104
     6.9391   8.3494   8.4341   8.4944   9.5654   9.6165   9.8556  10.1975
    10.3120  10.3309  10.5328  10.6029  10.7187  10.9063  11.0047  11.0659
    11.2739  11.3913  11.4538  11.5333  11.5341  11.7307  11.7389  11.8436
    12.0021  12.0279  12.1579  12.2781  12.2886  12.4550  12.4609  12.5765
    12.6490  12.7004  12.7990  12.8042

     occupation numbers 
     1.0000   1.0000   1.0000   1.0000   1.0000   1.0000   1.0000   1.0000
     1.0000   1.0000   1.0000   1.0000   1.0000   1.0000   1.0000   1.0000
     1.0000   1.0000   1.0000   1.0000   1.0000   1.0000   1.0000   1.0000
     1.0000   1.0000   1.0000   1.0000   1.0000   1.0000   1.0000   1.0000
     1.0000   1.0000   1.0000   1.0000   1.0000   1.0000   1.0000   1.0000
     1.0000   1.0000   1.0000   1.0000   1.0000   1.0000   1.0000   1.0000
     1.0000   1.0000   1.0000   1.0000   1.0000   1.0000   1.0000   1.0000
     1.0000   1.0000   1.0000   1.0000   1.0000   1.0000   1.0000   1.0000
     1.0000   1.0000   1.0000   1.0000   1.0000   1.0000   1.0000   1.0000
     1.0000   1.0000   1.0000   1.0000   1.0000   1.0000   1.0000   1.0000
     1.0000   1.0000   1.0000   1.0000   1.0000   1.0000   1.0000   1.0000
     1.0000   1.0000   1.0000   1.0000   1.0000   1.0000   1.0000   1.0000
     1.0000   1.0000   1.0000   1.0000   1.0000   1.0000   1.0000   1.0000
     1.0000   0.0000   0.0000   0.0000   0.0000   0.0000   0.0000   0.0000
     0.0000   0.0000   0.0000   0.0000   0.0000   0.0000   0.0000   0.0000
     0.0000   0.0000   0.0000   0.0000   0.0000   0.0000   0.0000   0.0000
     0.0000   0.0000   0.0000   0.0000   0.0000   0.0000   0.0000   0.0000
     0.0000   0.0000   0.0000   0.0000

          k = 0.1667 0.2887 0.0679 ( 53164 PWs)   bands (ev):

   -28.2756 -28.2755 -28.2753 -14.9220 -14.9220 -14.9218 -14.9162 -14.9161
   -14.9159 -14.9040 -14.9040 -14.9039 -14.8638 -14.8637 -14.8636 -14.8187
   -14.8185 -14.8185 -10.3361 -10.3339 -10.3304 -10.3062 -10.3002 -10.2904
   -10.2669 -10.2641 -10.2592  -6.6419  -6.4638  -6.3363  -5.7567  -5.7385
    -5.6944  -5.6756  -5.5477  -5.5258  -5.4923  -5.4343  -5.3070  -0.5116
    -0.3996  -0.3030   1.4839   1.6541   1.7230   2.0463   2.1658   2.3989
     2.4964   2.5640   2.7713   2.8232   2.8764   2.9861   3.0504   3.1081
     3.2175   3.2638   3.3529   3.4443   3.5025   3.5346   3.5903   3.6510
     3.7110   3.8156   3.9551   4.0293   4.0777   4.1415   4.2895   4.3504
     4.3938   4.5122   4.6594   5.1477   5.1863   5.1958   5.2372   5.2669
     5.2980   5.3206   5.3484   5.4107   5.4336   5.4962   5.5354   5.5601
     5.5836   5.6842   5.7130   5.7695   5.8072   5.9179   6.0551   6.1238
     6.2241   6.2836   6.3994   6.4545   6.5991   6.6802   6.7843   6.8372
     6.9379   8.3548   8.4313   8.5025   9.5496   9.6602   9.8567  10.1870
    10.2492  10.3683  10.4998  10.6646  10.7383  10.8628  11.0135  11.0496
    11.2766  11.3033  11.4753  11.5208  11.6276  11.7232  11.7440  11.8365
    11.9363  12.0364  12.1483  12.1955  12.2868  12.4023  12.4887  12.6061
    12.6566  12.7608  12.7874  12.9317

     occupation numbers 
     1.0000   1.0000   1.0000   1.0000   1.0000   1.0000   1.0000   1.0000
     1.0000   1.0000   1.0000   1.0000   1.0000   1.0000   1.0000   1.0000
     1.0000   1.0000   1.0000   1.0000   1.0000   1.0000   1.0000   1.0000
     1.0000   1.0000   1.0000   1.0000   1.0000   1.0000   1.0000   1.0000
     1.0000   1.0000   1.0000   1.0000   1.0000   1.0000   1.0000   1.0000
     1.0000   1.0000   1.0000   1.0000   1.0000   1.0000   1.0000   1.0000
     1.0000   1.0000   1.0000   1.0000   1.0000   1.0000   1.0000   1.0000
     1.0000   1.0000   1.0000   1.0000   1.0000   1.0000   1.0000   1.0000
     1.0000   1.0000   1.0000   1.0000   1.0000   1.0000   1.0000   1.0000
     1.0000   1.0000   1.0000   1.0000   1.0000   1.0000   1.0000   1.0000
     1.0000   1.0000   1.0000   1.0000   1.0000   1.0000   1.0000   1.0000
     1.0000   1.0000   1.0000   1.0000   1.0000   1.0000   1.0000   1.0000
     1.0000   1.0000   1.0000   1.0000   1.0000   1.0000   1.0000   1.0000
     1.0000   0.0000   0.0000   0.0000   0.0000   0.0000   0.0000   0.0000
     0.0000   0.0000   0.0000   0.0000   0.0000   0.0000   0.0000   0.0000
     0.0000   0.0000   0.0000   0.0000   0.0000   0.0000   0.0000   0.0000
     0.0000   0.0000   0.0000   0.0000   0.0000   0.0000   0.0000   0.0000
     0.0000   0.0000   0.0000   0.0000

          k = 0.1667 0.2887 0.1357 ( 53168 PWs)   bands (ev):

   -28.2756 -28.2755 -28.2753 -14.9220 -14.9220 -14.9218 -14.9162 -14.9161
   -14.9159 -14.9040 -14.9040 -14.9039 -14.8638 -14.8637 -14.8636 -14.8187
   -14.8185 -14.8185 -10.3368 -10.3331 -10.3305 -10.3077 -10.2974 -10.2917
   -10.2665 -10.2639 -10.2597  -6.6179  -6.5245  -6.2889  -5.7792  -5.7417
    -5.6876  -5.6714  -5.5560  -5.5244  -5.5026  -5.3976  -5.3224  -0.5053
    -0.4168  -0.2925   1.4828   1.6388   1.7767   1.9817   2.1933   2.3976
     2.4892   2.5881   2.7373   2.8233   2.9028   2.9556   3.0603   3.0886
     3.2449   3.2711   3.3278   3.4657   3.4995   3.5372   3.6163   3.6549
     3.6980   3.8413   3.9409   4.0300   4.0679   4.1141   4.2735   4.3616
     4.4170   4.4935   4.6674   5.1571   5.1824   5.1978   5.2247   5.2519
     5.3015   5.3289   5.3679   5.4089   5.4328   5.4844   5.5390   5.5662
     5.6056   5.6723   5.7035   5.7592   5.8238   5.8904   6.0604   6.1201
     6.2380   6.3022   6.3854   6.4679   6.5595   6.6852   6.7782   6.8548
     6.9359   8.3681   8.4244   8.5171   9.5393   9.7378   9.8650  10.1511
    10.1717  10.3437  10.5578  10.6931  10.7713  10.8612  10.9517  11.0135
    11.2515  11.3231  11.4761  11.5428  11.6233  11.6990  11.7213  11.8002
    11.9152  12.0283  12.1090  12.1856  12.2635  12.3739  12.4524  12.6235
    12.6938  12.7678  12.9307  13.0537

     occupation numbers 
     1.0000   1.0000   1.0000   1.0000   1.0000   1.0000   1.0000   1.0000
     1.0000   1.0000   1.0000   1.0000   1.0000   1.0000   1.0000   1.0000
     1.0000   1.0000   1.0000   1.0000   1.0000   1.0000   1.0000   1.0000
     1.0000   1.0000   1.0000   1.0000   1.0000   1.0000   1.0000   1.0000
     1.0000   1.0000   1.0000   1.0000   1.0000   1.0000   1.0000   1.0000
     1.0000   1.0000   1.0000   1.0000   1.0000   1.0000   1.0000   1.0000
     1.0000   1.0000   1.0000   1.0000   1.0000   1.0000   1.0000   1.0000
     1.0000   1.0000   1.0000   1.0000   1.0000   1.0000   1.0000   1.0000
     1.0000   1.0000   1.0000   1.0000   1.0000   1.0000   1.0000   1.0000
     1.0000   1.0000   1.0000   1.0000   1.0000   1.0000   1.0000   1.0000
     1.0000   1.0000   1.0000   1.0000   1.0000   1.0000   1.0000   1.0000
     1.0000   1.0000   1.0000   1.0000   1.0000   1.0000   1.0000   1.0000
     1.0000   1.0000   1.0000   1.0000   1.0000   1.0000   1.0000   1.0000
     1.0000   0.0000   0.0000   0.0000   0.0000   0.0000   0.0000   0.0000
     0.0000   0.0000   0.0000   0.0000   0.0000   0.0000   0.0000   0.0000
     0.0000   0.0000   0.0000   0.0000   0.0000   0.0000   0.0000   0.0000
     0.0000   0.0000   0.0000   0.0000   0.0000   0.0000   0.0000   0.0000
     0.0000   0.0000   0.0000   0.0000

          k = 0.1667 0.2887-0.2036 ( 53162 PWs)   bands (ev):

   -28.2756 -28.2755 -28.2753 -14.9220 -14.9220 -14.9218 -14.9162 -14.9160
   -14.9159 -14.9040 -14.9040 -14.9039 -14.8638 -14.8637 -14.8636 -14.8187
   -14.8185 -14.8185 -10.3371 -10.3329 -10.3304 -10.3083 -10.2954 -10.2931
   -10.2663 -10.2638 -10.2601  -6.5875  -6.5675  -6.2706  -5.7905  -5.7423
    -5.6779  -5.6773  -5.5587  -5.5248  -5.5047  -5.3759  -5.3364  -0.5014
    -0.4253  -0.2881   1.4824   1.6335   1.8127   1.9408   2.2055   2.3945
     2.4835   2.6129   2.7098   2.8261   2.9260   2.9303   3.0516   3.0938
     3.2641   3.2668   3.3183   3.4754   3.4947   3.5375   3.6350   3.6459
     3.7013   3.8549   3.9296   4.0315   4.0702   4.0917   4.2697   4.3628
     4.4334   4.4805   4.6709   5.1627   5.1810   5.2023   5.2158   5.2421
     5.3010   5.3506   5.3518   5.4302   5.4390   5.4573   5.5436   5.5730
     5.6173   5.6657   5.6928   5.7557   5.8410   5.8688   6.0594   6.1264
     6.2498   6.2941   6.3839   6.4985   6.5174   6.6885   6.7784   6.8598
     6.9354   8.3773   8.4189   8.5240   9.5372   9.7856   9.8714  10.1226
    10.1279  10.3320  10.6074  10.6690  10.8368  10.8388  10.9493  10.9574
    11.2416  11.4030  11.4194  11.5520  11.6078  11.6511  11.7074  11.8007
    11.9073  12.0320  12.1003  12.1655  12.3165  12.3401  12.4419  12.6061
    12.7322  12.7483  13.0033  13.0972

     occupation numbers 
     1.0000   1.0000   1.0000   1.0000   1.0000   1.0000   1.0000   1.0000
     1.0000   1.0000   1.0000   1.0000   1.0000   1.0000   1.0000   1.0000
     1.0000   1.0000   1.0000   1.0000   1.0000   1.0000   1.0000   1.0000
     1.0000   1.0000   1.0000   1.0000   1.0000   1.0000   1.0000   1.0000
     1.0000   1.0000   1.0000   1.0000   1.0000   1.0000   1.0000   1.0000
     1.0000   1.0000   1.0000   1.0000   1.0000   1.0000   1.0000   1.0000
     1.0000   1.0000   1.0000   1.0000   1.0000   1.0000   1.0000   1.0000
     1.0000   1.0000   1.0000   1.0000   1.0000   1.0000   1.0000   1.0000
     1.0000   1.0000   1.0000   1.0000   1.0000   1.0000   1.0000   1.0000
     1.0000   1.0000   1.0000   1.0000   1.0000   1.0000   1.0000   1.0000
     1.0000   1.0000   1.0000   1.0000   1.0000   1.0000   1.0000   1.0000
     1.0000   1.0000   1.0000   1.0000   1.0000   1.0000   1.0000   1.0000
     1.0000   1.0000   1.0000   1.0000   1.0000   1.0000   1.0000   1.0000
     1.0000   0.0000   0.0000   0.0000   0.0000   0.0000   0.0000   0.0000
     0.0000   0.0000   0.0000   0.0000   0.0000   0.0000   0.0000   0.0000
     0.0000   0.0000   0.0000   0.0000   0.0000   0.0000   0.0000   0.0000
     0.0000   0.0000   0.0000   0.0000   0.0000   0.0000   0.0000   0.0000
     0.0000   0.0000   0.0000   0.0000

          k = 0.1667 0.3849 0.0000 ( 53183 PWs)   bands (ev):

   -28.2756 -28.2755 -28.2753 -14.9219 -14.9218 -14.9217 -14.9161 -14.9160
   -14.9159 -14.9040 -14.9040 -14.9038 -14.8639 -14.8637 -14.8636 -14.8187
   -14.8185 -14.8185 -10.3367 -10.3360 -10.3326 -10.3058 -10.3019 -10.2927
   -10.2685 -10.2661 -10.2607  -6.5451  -6.3319  -6.3227  -5.8253  -5.7637
    -5.7349  -5.6935  -5.5875  -5.5667  -5.5003  -5.4568  -5.3242  -0.5481
    -0.4044  -0.3222   1.4931   1.6734   1.7605   2.0386   2.2210   2.3814
     2.5543   2.6582   2.7560   2.8425   2.9081   2.9478   3.0981   3.1341
     3.2299   3.2785   3.3778   3.4535   3.4963   3.5128   3.5767   3.6670
     3.7218   3.7841   3.9683   4.0573   4.0760   4.1484   4.2987   4.3380
     4.3805   4.5259   4.6156   5.1370   5.1743   5.2104   5.2457   5.2713
     5.3006   5.3267   5.3443   5.4137   5.4692   5.5103   5.5557   5.5801
     5.5935   5.6987   5.7439   5.7938   5.8483   5.9397   6.0209   6.0973
     6.2220   6.2739   6.4007   6.4174   6.5485   6.6016   6.7382   6.7848
     6.8624   8.3404   8.4015   8.5448   9.5968   9.7534   9.9042  10.0515
    10.1860  10.3121  10.4340  10.6335  10.7557  10.8664  10.9704  11.0364
    11.2928  11.3833  11.4628  11.5301  11.5669  11.6901  11.7609  11.8763
    11.9525  12.0407  12.0861  12.2336  12.3485  12.4155  12.4743  12.5528
    12.6132  12.7432  12.8018  12.8556

     occupation numbers 
     1.0000   1.0000   1.0000   1.0000   1.0000   1.0000   1.0000   1.0000
     1.0000   1.0000   1.0000   1.0000   1.0000   1.0000   1.0000   1.0000
     1.0000   1.0000   1.0000   1.0000   1.0000   1.0000   1.0000   1.0000
     1.0000   1.0000   1.0000   1.0000   1.0000   1.0000   1.0000   1.0000
     1.0000   1.0000   1.0000   1.0000   1.0000   1.0000   1.0000   1.0000
     1.0000   1.0000   1.0000   1.0000   1.0000   1.0000   1.0000   1.0000
     1.0000   1.0000   1.0000   1.0000   1.0000   1.0000   1.0000   1.0000
     1.0000   1.0000   1.0000   1.0000   1.0000   1.0000   1.0000   1.0000
     1.0000   1.0000   1.0000   1.0000   1.0000   1.0000   1.0000   1.0000
     1.0000   1.0000   1.0000   1.0000   1.0000   1.0000   1.0000   1.0000
     1.0000   1.0000   1.0000   1.0000   1.0000   1.0000   1.0000   1.0000
     1.0000   1.0000   1.0000   1.0000   1.0000   1.0000   1.0000   1.0000
     1.0000   1.0000   1.0000   1.0000   1.0000   1.0000   1.0000   1.0000
     1.0000   0.0000   0.0000   0.0000   0.0000   0.0000   0.0000   0.0000
     0.0000   0.0000   0.0000   0.0000   0.0000   0.0000   0.0000   0.0000
     0.0000   0.0000   0.0000   0.0000   0.0000   0.0000   0.0000   0.0000
     0.0000   0.0000   0.0000   0.0000   0.0000   0.0000   0.0000   0.0000
     0.0000   0.0000   0.0000   0.0000

          k = 0.1667 0.3849 0.0679 ( 53161 PWs)   bands (ev):

   -28.2756 -28.2755 -28.2753 -14.9219 -14.9218 -14.9217 -14.9161 -14.9160
   -14.9159 -14.9040 -14.9040 -14.9038 -14.8639 -14.8637 -14.8636 -14.8187
   -14.8185 -14.8185 -10.3373 -10.3357 -10.3323 -10.3065 -10.3005 -10.2935
   -10.2686 -10.2657 -10.2609  -6.5383  -6.3794  -6.2804  -5.8237  -5.7546
    -5.7319  -5.7103  -5.5887  -5.5709  -5.5097  -5.4360  -5.3289  -0.5434
    -0.4175  -0.3141   1.4867   1.6789   1.7891   1.9905   2.2468   2.3805
     2.5647   2.6291   2.7612   2.8340   2.9254   2.9557   3.0873   3.1363
     3.2237   3.2762   3.3847   3.4496   3.4938   3.5196   3.5933   3.6565
     3.7109   3.8038   3.9627   4.0566   4.0727   4.1446   4.3027   4.3267
     4.3932   4.5114   4.6261   5.1443   5.1721   5.2109   5.2356   5.2730
     5.3058   5.3228   5.3462   5.4201   5.4508   5.5146   5.5679   5.5762
     5.6018   5.6944   5.7497   5.7973   5.8402   5.9372   6.0234   6.0784
     6.2132   6.2879   6.3749   6.4531   6.5598   6.5916   6.7187   6.7887
     6.8738   8.3410   8.4008   8.5480   9.5847   9.7649   9.9088  10.0573
    10.1701  10.3157  10.4521  10.6766  10.7670  10.8390  10.9468  11.0694
    11.2641  11.3138  11.5028  11.5178  11.5863  11.6786  11.7668  11.8485
    11.9192  11.9981  12.1156  12.1746  12.3246  12.3794  12.4862  12.5989
    12.6717  12.7814  12.8433  12.8829

     occupation numbers 
     1.0000   1.0000   1.0000   1.0000   1.0000   1.0000   1.0000   1.0000
     1.0000   1.0000   1.0000   1.0000   1.0000   1.0000   1.0000   1.0000
     1.0000   1.0000   1.0000   1.0000   1.0000   1.0000   1.0000   1.0000
     1.0000   1.0000   1.0000   1.0000   1.0000   1.0000   1.0000   1.0000
     1.0000   1.0000   1.0000   1.0000   1.0000   1.0000   1.0000   1.0000
     1.0000   1.0000   1.0000   1.0000   1.0000   1.0000   1.0000   1.0000
     1.0000   1.0000   1.0000   1.0000   1.0000   1.0000   1.0000   1.0000
     1.0000   1.0000   1.0000   1.0000   1.0000   1.0000   1.0000   1.0000
     1.0000   1.0000   1.0000   1.0000   1.0000   1.0000   1.0000   1.0000
     1.0000   1.0000   1.0000   1.0000   1.0000   1.0000   1.0000   1.0000
     1.0000   1.0000   1.0000   1.0000   1.0000   1.0000   1.0000   1.0000
     1.0000   1.0000   1.0000   1.0000   1.0000   1.0000   1.0000   1.0000
     1.0000   1.0000   1.0000   1.0000   1.0000   1.0000   1.0000   1.0000
     1.0000   0.0000   0.0000   0.0000   0.0000   0.0000   0.0000   0.0000
     0.0000   0.0000   0.0000   0.0000   0.0000   0.0000   0.0000   0.0000
     0.0000   0.0000   0.0000   0.0000   0.0000   0.0000   0.0000   0.0000
     0.0000   0.0000   0.0000   0.0000   0.0000   0.0000   0.0000   0.0000
     0.0000   0.0000   0.0000   0.0000

          k = 0.1667 0.3849 0.1357 ( 53155 PWs)   bands (ev):

   -28.2756 -28.2755 -28.2753 -14.9219 -14.9218 -14.9217 -14.9161 -14.9160
   -14.9159 -14.9040 -14.9040 -14.9038 -14.8639 -14.8637 -14.8636 -14.8187
   -14.8185 -14.8185 -10.3381 -10.3354 -10.3319 -10.3068 -10.2989 -10.2948
   -10.2685 -10.2656 -10.2612  -6.5185  -6.4302  -6.2440  -5.8215  -5.7586
    -5.7344  -5.7113  -5.5972  -5.5675  -5.5198  -5.4116  -5.3381  -0.5362
    -0.4347  -0.3044   1.4831   1.6910   1.8010   1.9663   2.2422   2.4040
     2.5643   2.6149   2.7291   2.8348   2.9346   2.9738   3.0892   3.1299
     3.2276   3.2793   3.3730   3.4580   3.4897   3.5288   3.6218   3.6432
     3.6975   3.8352   3.9472   4.0548   4.0720   4.1234   4.2881   4.3327
     4.4064   4.4992   4.6371   5.1547   5.1760   5.2094   5.2172   5.2664
     5.3126   5.3352   5.3581   5.4095   5.4477   5.4954   5.5721   5.5925
     5.6200   5.6927   5.7476   5.7791   5.8547   5.9224   6.0094   6.0713
     6.2223   6.2800   6.3678   6.4892   6.5621   6.5806   6.7083   6.7888
     6.8800   8.3425   8.3999   8.5566   9.5828   9.7748   9.9277  10.0611
    10.1609  10.2942  10.4945  10.6594  10.7923  10.8557  10.9184  11.0562
    11.2103  11.3469  11.4934  11.5534  11.5987  11.6451  11.7274  11.7835
    11.8859  11.9976  12.0478  12.1840  12.2932  12.3449  12.4688  12.5696
    12.7777  12.8626  12.8761  13.0064

     occupation numbers 
     1.0000   1.0000   1.0000   1.0000   1.0000   1.0000   1.0000   1.0000
     1.0000   1.0000   1.0000   1.0000   1.0000   1.0000   1.0000   1.0000
     1.0000   1.0000   1.0000   1.0000   1.0000   1.0000   1.0000   1.0000
     1.0000   1.0000   1.0000   1.0000   1.0000   1.0000   1.0000   1.0000
     1.0000   1.0000   1.0000   1.0000   1.0000   1.0000   1.0000   1.0000
     1.0000   1.0000   1.0000   1.0000   1.0000   1.0000   1.0000   1.0000
     1.0000   1.0000   1.0000   1.0000   1.0000   1.0000   1.0000   1.0000
     1.0000   1.0000   1.0000   1.0000   1.0000   1.0000   1.0000   1.0000
     1.0000   1.0000   1.0000   1.0000   1.0000   1.0000   1.0000   1.0000
     1.0000   1.0000   1.0000   1.0000   1.0000   1.0000   1.0000   1.0000
     1.0000   1.0000   1.0000   1.0000   1.0000   1.0000   1.0000   1.0000
     1.0000   1.0000   1.0000   1.0000   1.0000   1.0000   1.0000   1.0000
     1.0000   1.0000   1.0000   1.0000   1.0000   1.0000   1.0000   1.0000
     1.0000   0.0000   0.0000   0.0000   0.0000   0.0000   0.0000   0.0000
     0.0000   0.0000   0.0000   0.0000   0.0000   0.0000   0.0000   0.0000
     0.0000   0.0000   0.0000   0.0000   0.0000   0.0000   0.0000   0.0000
     0.0000   0.0000   0.0000   0.0000   0.0000   0.0000   0.0000   0.0000
     0.0000   0.0000   0.0000   0.0000

          k = 0.1667 0.3849-0.2036 ( 53146 PWs)   bands (ev):

   -28.2756 -28.2755 -28.2753 -14.9219 -14.9218 -14.9217 -14.9161 -14.9160
   -14.9159 -14.9040 -14.9040 -14.9038 -14.8639 -14.8637 -14.8636 -14.8187
   -14.8185 -14.8185 -10.3383 -10.3352 -10.3318 -10.3067 -10.2987 -10.2952
   -10.2682 -10.2658 -10.2612  -6.4976  -6.4624  -6.2289  -5.8210  -5.7723
    -5.7387  -5.6955  -5.6031  -5.5618  -5.5255  -5.4039  -5.3419  -0.5342
    -0.4396  -0.3015   1.4853   1.7018   1.7728   1.9950   2.2169   2.4349
     2.5385   2.6392   2.6939   2.8358   2.9307   2.9869   3.0986   3.1209
     3.2393   3.2824   3.3584   3.4670   3.4872   3.5321   3.6227   3.6546
     3.6888   3.8526   3.9349   4.0538   4.0785   4.1026   4.2759   4.3407
     4.4091   4.5001   4.6397   5.1574   5.1807   5.2054   5.2136   5.2600
     5.3186   5.3505   5.3579   5.4069   5.4512   5.4746   5.5733   5.5996
     5.6369   5.6964   5.7333   5.7625   5.8788   5.9052   5.9934   6.0837
     6.2356   6.2658   6.3668   6.5011   6.5436   6.5992   6.6999   6.7957
     6.8747   8.3434   8.3997   8.5623   9.5915   9.7776   9.9420  10.0568
    10.1583  10.2809  10.5342  10.5920  10.7753  10.8985  10.9486  10.9989
    11.2241  11.4171  11.4426  11.5512  11.6160  11.6507  11.6745  11.7891
    11.8297  11.9961  12.0658  12.1635  12.2858  12.3473  12.4247  12.5791
    12.7974  12.8558  12.9451  13.0354

     occupation numbers 
     1.0000   1.0000   1.0000   1.0000   1.0000   1.0000   1.0000   1.0000
     1.0000   1.0000   1.0000   1.0000   1.0000   1.0000   1.0000   1.0000
     1.0000   1.0000   1.0000   1.0000   1.0000   1.0000   1.0000   1.0000
     1.0000   1.0000   1.0000   1.0000   1.0000   1.0000   1.0000   1.0000
     1.0000   1.0000   1.0000   1.0000   1.0000   1.0000   1.0000   1.0000
     1.0000   1.0000   1.0000   1.0000   1.0000   1.0000   1.0000   1.0000
     1.0000   1.0000   1.0000   1.0000   1.0000   1.0000   1.0000   1.0000
     1.0000   1.0000   1.0000   1.0000   1.0000   1.0000   1.0000   1.0000
     1.0000   1.0000   1.0000   1.0000   1.0000   1.0000   1.0000   1.0000
     1.0000   1.0000   1.0000   1.0000   1.0000   1.0000   1.0000   1.0000
     1.0000   1.0000   1.0000   1.0000   1.0000   1.0000   1.0000   1.0000
     1.0000   1.0000   1.0000   1.0000   1.0000   1.0000   1.0000   1.0000
     1.0000   1.0000   1.0000   1.0000   1.0000   1.0000   1.0000   1.0000
     1.0000   0.0000   0.0000   0.0000   0.0000   0.0000   0.0000   0.0000
     0.0000   0.0000   0.0000   0.0000   0.0000   0.0000   0.0000   0.0000
     0.0000   0.0000   0.0000   0.0000   0.0000   0.0000   0.0000   0.0000
     0.0000   0.0000   0.0000   0.0000   0.0000   0.0000   0.0000   0.0000
     0.0000   0.0000   0.0000   0.0000

          k = 0.1667 0.4811 0.0000 ( 53213 PWs)   bands (ev):

   -28.2756 -28.2755 -28.2753 -14.9218 -14.9218 -14.9217 -14.9161 -14.9160
   -14.9159 -14.9039 -14.9039 -14.9038 -14.8639 -14.8637 -14.8636 -14.8187
   -14.8185 -14.8184 -10.3380 -10.3364 -10.3344 -10.3072 -10.3017 -10.2947
   -10.2693 -10.2667 -10.2626  -6.4378  -6.2846  -6.2481  -5.9109  -5.8183
    -5.7675  -5.6899  -5.6377  -5.5841  -5.5185  -5.4363  -5.3479  -0.5709
    -0.4038  -0.3377   1.4880   1.7243   1.8772   1.9561   2.2301   2.3866
     2.5380   2.6132   2.8133   2.8415   2.9085   2.9624   3.0569   3.2120
     3.2610   3.3308   3.3952   3.4410   3.4980   3.5109   3.6053   3.6797
     3.7032   3.7791   3.9744   4.0388   4.1210   4.1628   4.2671   4.3230
     4.4169   4.5279   4.5911   5.1436   5.1600   5.2191   5.2486   5.2716
     5.3040   5.3269   5.3522   5.4135   5.4609   5.5000   5.5564   5.6030
     5.6312   5.6958   5.7751   5.8190   5.8756   5.9648   6.0067   6.1389
     6.2296   6.2892   6.3616   6.3898   6.4861   6.5379   6.6925   6.7375
     6.8121   8.2697   8.4117   8.5882   9.5972   9.7194   9.9574  10.0754
    10.1694  10.2822  10.4411  10.5689  10.7907  10.8648  10.9489  11.0910
    11.2727  11.3137  11.4358  11.5182  11.5736  11.6386  11.7202  11.7814
    11.9399  11.9935  12.0498  12.1425  12.3744  12.4245  12.4883  12.5936
    12.6610  12.7134  12.8088  12.9238

     occupation numbers 
     1.0000   1.0000   1.0000   1.0000   1.0000   1.0000   1.0000   1.0000
     1.0000   1.0000   1.0000   1.0000   1.0000   1.0000   1.0000   1.0000
     1.0000   1.0000   1.0000   1.0000   1.0000   1.0000   1.0000   1.0000
     1.0000   1.0000   1.0000   1.0000   1.0000   1.0000   1.0000   1.0000
     1.0000   1.0000   1.0000   1.0000   1.0000   1.0000   1.0000   1.0000
     1.0000   1.0000   1.0000   1.0000   1.0000   1.0000   1.0000   1.0000
     1.0000   1.0000   1.0000   1.0000   1.0000   1.0000   1.0000   1.0000
     1.0000   1.0000   1.0000   1.0000   1.0000   1.0000   1.0000   1.0000
     1.0000   1.0000   1.0000   1.0000   1.0000   1.0000   1.0000   1.0000
     1.0000   1.0000   1.0000   1.0000   1.0000   1.0000   1.0000   1.0000
     1.0000   1.0000   1.0000   1.0000   1.0000   1.0000   1.0000   1.0000
     1.0000   1.0000   1.0000   1.0000   1.0000   1.0000   1.0000   1.0000
     1.0000   1.0000   1.0000   1.0000   1.0000   1.0000   1.0000   1.0000
     1.0000   0.0000   0.0000   0.0000   0.0000   0.0000   0.0000   0.0000
     0.0000   0.0000   0.0000   0.0000   0.0000   0.0000   0.0000   0.0000
     0.0000   0.0000   0.0000   0.0000   0.0000   0.0000   0.0000   0.0000
     0.0000   0.0000   0.0000   0.0000   0.0000   0.0000   0.0000   0.0000
     0.0000   0.0000   0.0000   0.0000

          k = 0.1667 0.4811 0.0679 ( 53181 PWs)   bands (ev):

   -28.2756 -28.2755 -28.2753 -14.9218 -14.9218 -14.9217 -14.9161 -14.9160
   -14.9159 -14.9039 -14.9039 -14.9038 -14.8639 -14.8637 -14.8636 -14.8187
   -14.8185 -14.8184 -10.3382 -10.3368 -10.3338 -10.3072 -10.3010 -10.2954
   -10.2696 -10.2665 -10.2625  -6.4340  -6.2950  -6.2447  -5.9057  -5.8119
    -5.7647  -5.7037  -5.6314  -5.5922  -5.5191  -5.4301  -5.3491  -0.5662
    -0.4179  -0.3285   1.4846   1.7515   1.8431   1.9649   2.2468   2.3789
     2.5297   2.6100   2.7923   2.8293   2.9137   2.9950   3.0665   3.2115
     3.2546   3.3241   3.3987   3.4377   3.4844   3.5232   3.6272   3.6474
     3.7133   3.7973   3.9701   4.0380   4.1221   4.1549   4.2662   4.3100
     4.4272   4.5189   4.6031   5.1483   5.1632   5.2133   5.2459   5.2678
     5.3095   5.3253   5.3506   5.4243   5.4421   5.5084   5.5645   5.6014
     5.6293   5.6993   5.7806   5.8126   5.8758   5.9614   6.0112   6.1230
     6.2190   6.2897   6.3439   6.4076   6.4852   6.5676   6.6759   6.7398
     6.8163   8.2802   8.4018   8.5869   9.5717   9.7261   9.9644  10.0766
    10.1741  10.3033  10.4610  10.5939  10.8035  10.8733  10.9177  11.1194
    11.2324  11.2928  11.4423  11.5010  11.5597  11.5984  11.7193  11.7886
    11.9137  11.9755  12.0078  12.1803  12.3461  12.4063  12.5094  12.6149
    12.6760  12.7913  12.8228  12.9307

     occupation numbers 
     1.0000   1.0000   1.0000   1.0000   1.0000   1.0000   1.0000   1.0000
     1.0000   1.0000   1.0000   1.0000   1.0000   1.0000   1.0000   1.0000
     1.0000   1.0000   1.0000   1.0000   1.0000   1.0000   1.0000   1.0000
     1.0000   1.0000   1.0000   1.0000   1.0000   1.0000   1.0000   1.0000
     1.0000   1.0000   1.0000   1.0000   1.0000   1.0000   1.0000   1.0000
     1.0000   1.0000   1.0000   1.0000   1.0000   1.0000   1.0000   1.0000
     1.0000   1.0000   1.0000   1.0000   1.0000   1.0000   1.0000   1.0000
     1.0000   1.0000   1.0000   1.0000   1.0000   1.0000   1.0000   1.0000
     1.0000   1.0000   1.0000   1.0000   1.0000   1.0000   1.0000   1.0000
     1.0000   1.0000   1.0000   1.0000   1.0000   1.0000   1.0000   1.0000
     1.0000   1.0000   1.0000   1.0000   1.0000   1.0000   1.0000   1.0000
     1.0000   1.0000   1.0000   1.0000   1.0000   1.0000   1.0000   1.0000
     1.0000   1.0000   1.0000   1.0000   1.0000   1.0000   1.0000   1.0000
     1.0000   0.0000   0.0000   0.0000   0.0000   0.0000   0.0000   0.0000
     0.0000   0.0000   0.0000   0.0000   0.0000   0.0000   0.0000   0.0000
     0.0000   0.0000   0.0000   0.0000   0.0000   0.0000   0.0000   0.0000
     0.0000   0.0000   0.0000   0.0000   0.0000   0.0000   0.0000   0.0000
     0.0000   0.0000   0.0000   0.0000

          k = 0.1667 0.4811 0.1357 ( 53175 PWs)   bands (ev):

   -28.2756 -28.2755 -28.2753 -14.9218 -14.9217 -14.9217 -14.9161 -14.9160
   -14.9159 -14.9039 -14.9039 -14.9038 -14.8639 -14.8637 -14.8636 -14.8187
   -14.8185 -14.8184 -10.3388 -10.3370 -10.3331 -10.3066 -10.3006 -10.2965
   -10.2695 -10.2667 -10.2622  -6.4221  -6.3284  -6.2242  -5.9048  -5.8077
    -5.7597  -5.7101  -5.6272  -5.5996  -5.5220  -5.4284  -5.3474  -0.5587
    -0.4356  -0.3186   1.4861   1.7732   1.8005   1.9963   2.2481   2.3934
     2.5122   2.5909   2.7685   2.8093   2.9160   3.0241   3.1067   3.1931
     3.2646   3.3219   3.3894   3.4456   3.4693   3.5364   3.6126   3.6591
     3.7109   3.8358   3.9500   4.0492   4.1109   4.1331   4.2671   4.2891
     4.4381   4.5247   4.6108   5.1505   5.1756   5.2074   5.2343   5.2653
     5.3127   5.3361   5.3579   5.4066   5.4446   5.5018   5.5742   5.6108
     5.6247   5.7141   5.7727   5.8021   5.8752   5.9589   6.0345   6.0787
     6.2129   6.2664   6.3489   6.4245   6.4982   6.5955   6.6668   6.7363
     6.8134   8.3008   8.3795   8.5914   9.5564   9.7136   9.9906  10.0720
    10.2003  10.3302  10.4724  10.5926  10.7775  10.9048  10.9524  11.0883
    11.2044  11.3142  11.4159  11.5017  11.5361  11.5879  11.6771  11.7985
    11.8432  11.9412  11.9673  12.1837  12.3284  12.3929  12.5084  12.5941
    12.7793  12.8286  12.8892  12.9973

     occupation numbers 
     1.0000   1.0000   1.0000   1.0000   1.0000   1.0000   1.0000   1.0000
     1.0000   1.0000   1.0000   1.0000   1.0000   1.0000   1.0000   1.0000
     1.0000   1.0000   1.0000   1.0000   1.0000   1.0000   1.0000   1.0000
     1.0000   1.0000   1.0000   1.0000   1.0000   1.0000   1.0000   1.0000
     1.0000   1.0000   1.0000   1.0000   1.0000   1.0000   1.0000   1.0000
     1.0000   1.0000   1.0000   1.0000   1.0000   1.0000   1.0000   1.0000
     1.0000   1.0000   1.0000   1.0000   1.0000   1.0000   1.0000   1.0000
     1.0000   1.0000   1.0000   1.0000   1.0000   1.0000   1.0000   1.0000
     1.0000   1.0000   1.0000   1.0000   1.0000   1.0000   1.0000   1.0000
     1.0000   1.0000   1.0000   1.0000   1.0000   1.0000   1.0000   1.0000
     1.0000   1.0000   1.0000   1.0000   1.0000   1.0000   1.0000   1.0000
     1.0000   1.0000   1.0000   1.0000   1.0000   1.0000   1.0000   1.0000
     1.0000   1.0000   1.0000   1.0000   1.0000   1.0000   1.0000   1.0000
     1.0000   0.0000   0.0000   0.0000   0.0000   0.0000   0.0000   0.0000
     0.0000   0.0000   0.0000   0.0000   0.0000   0.0000   0.0000   0.0000
     0.0000   0.0000   0.0000   0.0000   0.0000   0.0000   0.0000   0.0000
     0.0000   0.0000   0.0000   0.0000   0.0000   0.0000   0.0000   0.0000
     0.0000   0.0000   0.0000   0.0000

          k = 0.1667 0.4811-0.2036 ( 53174 PWs)   bands (ev):

   -28.2756 -28.2755 -28.2753 -14.9218 -14.9217 -14.9217 -14.9161 -14.9160
   -14.9159 -14.9039 -14.9039 -14.9038 -14.8639 -14.8637 -14.8636 -14.8187
   -14.8185 -14.8184 -10.3391 -10.3370 -10.3329 -10.3056 -10.3015 -10.2965
   -10.2692 -10.2671 -10.2621  -6.4114  -6.3500  -6.2112  -5.9088  -5.8099
    -5.7620  -5.6979  -5.6326  -5.5959  -5.5252  -5.4320  -5.3447  -0.5562
    -0.4407  -0.3159   1.4910   1.7393   1.8196   2.0212   2.2276   2.4324
     2.4942   2.5683   2.7563   2.8108   2.9079   3.0339   3.1456   3.1623
     3.2799   3.3246   3.3810   3.4552   3.4624   3.5427   3.5916   3.6833
     3.6994   3.8658   3.9278   4.0630   4.0994   4.1152   4.2684   4.2804
     4.4410   4.5360   4.6085   5.1522   5.1736   5.2146   5.2307   5.2617
     5.3169   5.3403   5.3653   5.3927   5.4531   5.4870   5.5798   5.6050
     5.6400   5.7229   5.7600   5.7969   5.8686   5.9692   6.0308   6.0762
     6.2033   6.2537   6.3633   6.4281   6.4977   6.6138   6.6573   6.7435
     6.8030   8.3132   8.3644   8.5979   9.5629   9.6988  10.0069  10.0729
    10.2193  10.3311  10.4826  10.5505  10.7347  10.9493  11.0077  11.0586
    11.1910  11.3505  11.3943  11.4755  11.5675  11.5935  11.6532  11.7651
    11.8181  11.9021  12.0146  12.1421  12.3099  12.3965  12.5218  12.5693
    12.7955  12.8762  12.9387  13.0216

     occupation numbers 
     1.0000   1.0000   1.0000   1.0000   1.0000   1.0000   1.0000   1.0000
     1.0000   1.0000   1.0000   1.0000   1.0000   1.0000   1.0000   1.0000
     1.0000   1.0000   1.0000   1.0000   1.0000   1.0000   1.0000   1.0000
     1.0000   1.0000   1.0000   1.0000   1.0000   1.0000   1.0000   1.0000
     1.0000   1.0000   1.0000   1.0000   1.0000   1.0000   1.0000   1.0000
     1.0000   1.0000   1.0000   1.0000   1.0000   1.0000   1.0000   1.0000
     1.0000   1.0000   1.0000   1.0000   1.0000   1.0000   1.0000   1.0000
     1.0000   1.0000   1.0000   1.0000   1.0000   1.0000   1.0000   1.0000
     1.0000   1.0000   1.0000   1.0000   1.0000   1.0000   1.0000   1.0000
     1.0000   1.0000   1.0000   1.0000   1.0000   1.0000   1.0000   1.0000
     1.0000   1.0000   1.0000   1.0000   1.0000   1.0000   1.0000   1.0000
     1.0000   1.0000   1.0000   1.0000   1.0000   1.0000   1.0000   1.0000
     1.0000   1.0000   1.0000   1.0000   1.0000   1.0000   1.0000   1.0000
     1.0000   0.0000   0.0000   0.0000   0.0000   0.0000   0.0000   0.0000
     0.0000   0.0000   0.0000   0.0000   0.0000   0.0000   0.0000   0.0000
     0.0000   0.0000   0.0000   0.0000   0.0000   0.0000   0.0000   0.0000
     0.0000   0.0000   0.0000   0.0000   0.0000   0.0000   0.0000   0.0000
     0.0000   0.0000   0.0000   0.0000

          k = 0.1667 0.5774 0.0000 ( 53218 PWs)   bands (ev):

   -28.2756 -28.2755 -28.2753 -14.9218 -14.9217 -14.9217 -14.9161 -14.9159
   -14.9159 -14.9039 -14.9039 -14.9039 -14.8639 -14.8637 -14.8636 -14.8187
   -14.8185 -14.8184 -10.3385 -10.3362 -10.3354 -10.3079 -10.3017 -10.2953
   -10.2696 -10.2665 -10.2635  -6.3790  -6.2779  -6.2110  -5.9535  -5.8349
    -5.7955  -5.6734  -5.6687  -5.5892  -5.5244  -5.4235  -5.3610  -0.5790
    -0.4000  -0.3459   1.4826   1.8091   1.8300   2.0235   2.1391   2.4235
     2.4906   2.6098   2.8187   2.8573   2.9263   2.9602   3.0367   3.2443
     3.2670   3.3694   3.3902   3.4329   3.5000   3.5000   3.6428   3.6714
     3.6922   3.7803   3.9804   4.0273   4.1338   4.2168   4.2252   4.3063
     4.4367   4.5242   4.5865   5.1526   5.1557   5.2080   5.2558   5.2838
     5.3043   5.3199   5.3606   5.3995   5.4710   5.4762   5.5538   5.6181
     5.6543   5.6825   5.8055   5.8083   5.8809   5.9792   6.0248   6.1692
     6.2562   6.2927   6.3169   6.3719   6.4531   6.5094   6.6757   6.7355
     6.7820   8.2319   8.4272   8.6025   9.6012   9.6899   9.9076  10.1515
    10.1667  10.3222  10.4657  10.5070  10.8057  10.8232  10.9828  11.1443
    11.2177  11.3193  11.3785  11.5324  11.5766  11.6097  11.6769  11.7135
    11.9375  11.9919  12.0693  12.0936  12.3618  12.4234  12.4341  12.6335
    12.6589  12.7194  12.8232  13.1038

     occupation numbers 
     1.0000   1.0000   1.0000   1.0000   1.0000   1.0000   1.0000   1.0000
     1.0000   1.0000   1.0000   1.0000   1.0000   1.0000   1.0000   1.0000
     1.0000   1.0000   1.0000   1.0000   1.0000   1.0000   1.0000   1.0000
     1.0000   1.0000   1.0000   1.0000   1.0000   1.0000   1.0000   1.0000
     1.0000   1.0000   1.0000   1.0000   1.0000   1.0000   1.0000   1.0000
     1.0000   1.0000   1.0000   1.0000   1.0000   1.0000   1.0000   1.0000
     1.0000   1.0000   1.0000   1.0000   1.0000   1.0000   1.0000   1.0000
     1.0000   1.0000   1.0000   1.0000   1.0000   1.0000   1.0000   1.0000
     1.0000   1.0000   1.0000   1.0000   1.0000   1.0000   1.0000   1.0000
     1.0000   1.0000   1.0000   1.0000   1.0000   1.0000   1.0000   1.0000
     1.0000   1.0000   1.0000   1.0000   1.0000   1.0000   1.0000   1.0000
     1.0000   1.0000   1.0000   1.0000   1.0000   1.0000   1.0000   1.0000
     1.0000   1.0000   1.0000   1.0000   1.0000   1.0000   1.0000   1.0000
     1.0000   0.0000   0.0000   0.0000   0.0000   0.0000   0.0000   0.0000
     0.0000   0.0000   0.0000   0.0000   0.0000   0.0000   0.0000   0.0000
     0.0000   0.0000   0.0000   0.0000   0.0000   0.0000   0.0000   0.0000
     0.0000   0.0000   0.0000   0.0000   0.0000   0.0000   0.0000   0.0000
     0.0000   0.0000   0.0000   0.0000

          k = 0.1667 0.5774 0.0679 ( 53222 PWs)   bands (ev):

   -28.2756 -28.2755 -28.2753 -14.9218 -14.9217 -14.9217 -14.9161 -14.9159
   -14.9159 -14.9039 -14.9039 -14.9039 -14.8639 -14.8637 -14.8636 -14.8187
   -14.8185 -14.8184 -10.3387 -10.3369 -10.3345 -10.3074 -10.3018 -10.2957
   -10.2696 -10.2668 -10.2632  -6.3770  -6.2771  -6.2161  -5.9540  -5.8316
    -5.7926  -5.6807  -5.6604  -5.5926  -5.5240  -5.4297  -5.3564  -0.5756
    -0.4114  -0.3381   1.4852   1.7749   1.8663   2.0099   2.1650   2.4219
     2.4874   2.5852   2.8239   2.8355   2.9085   2.9828   3.0681   3.2386
     3.2724   3.3710   3.3903   3.4286   3.4810   3.5177   3.6198   3.6744
     3.7132   3.7932   3.9718   4.0361   4.1269   4.1885   4.2380   4.2970
     4.4407   4.5350   4.5871   5.1484   5.1636   5.2103   5.2548   5.2690
     5.3152   5.3267   5.3569   5.3961   5.4519   5.4950   5.5601   5.6154
     5.6504   5.6919   5.7927   5.8125   5.8761   5.9882   6.0280   6.1596
     6.2277   6.2815   6.3278   6.3851   6.4398   6.5497   6.6747   6.7240
     6.7835   8.2442   8.4116   8.6060   9.5883   9.6744   9.9497  10.1278
    10.1910  10.3171  10.4692  10.5180  10.8136  10.8563  10.9703  11.1203
    11.2256  11.3134  11.3814  11.4991  11.5426  11.6064  11.6827  11.7668
    11.8787  11.9450  12.0200  12.1438  12.3204  12.4108  12.4835  12.6184
    12.6912  12.7731  12.8640  13.0555

     occupation numbers 
     1.0000   1.0000   1.0000   1.0000   1.0000   1.0000   1.0000   1.0000
     1.0000   1.0000   1.0000   1.0000   1.0000   1.0000   1.0000   1.0000
     1.0000   1.0000   1.0000   1.0000   1.0000   1.0000   1.0000   1.0000
     1.0000   1.0000   1.0000   1.0000   1.0000   1.0000   1.0000   1.0000
     1.0000   1.0000   1.0000   1.0000   1.0000   1.0000   1.0000   1.0000
     1.0000   1.0000   1.0000   1.0000   1.0000   1.0000   1.0000   1.0000
     1.0000   1.0000   1.0000   1.0000   1.0000   1.0000   1.0000   1.0000
     1.0000   1.0000   1.0000   1.0000   1.0000   1.0000   1.0000   1.0000
     1.0000   1.0000   1.0000   1.0000   1.0000   1.0000   1.0000   1.0000
     1.0000   1.0000   1.0000   1.0000   1.0000   1.0000   1.0000   1.0000
     1.0000   1.0000   1.0000   1.0000   1.0000   1.0000   1.0000   1.0000
     1.0000   1.0000   1.0000   1.0000   1.0000   1.0000   1.0000   1.0000
     1.0000   1.0000   1.0000   1.0000   1.0000   1.0000   1.0000   1.0000
     1.0000   0.0000   0.0000   0.0000   0.0000   0.0000   0.0000   0.0000
     0.0000   0.0000   0.0000   0.0000   0.0000   0.0000   0.0000   0.0000
     0.0000   0.0000   0.0000   0.0000   0.0000   0.0000   0.0000   0.0000
     0.0000   0.0000   0.0000   0.0000   0.0000   0.0000   0.0000   0.0000
     0.0000   0.0000   0.0000   0.0000

          k = 0.1667 0.5774 0.1357 ( 53211 PWs)   bands (ev):

   -28.2756 -28.2755 -28.2753 -14.9218 -14.9217 -14.9217 -14.9161 -14.9160
   -14.9159 -14.9039 -14.9039 -14.9039 -14.8639 -14.8637 -14.8636 -14.8187
   -14.8185 -14.8184 -10.3391 -10.3375 -10.3336 -10.3062 -10.3022 -10.2965
   -10.2696 -10.2674 -10.2626  -6.3728  -6.2753  -6.2266  -5.9555  -5.8235
    -5.7876  -5.6880  -5.6489  -5.6026  -5.5219  -5.4408  -5.3487  -0.5681
    -0.4303  -0.3270   1.4908   1.7431   1.9072   1.9827   2.2203   2.4164
     2.4808   2.5299   2.8033   2.8411   2.8838   3.0169   3.1173   3.2192
     3.2878   3.3721   3.3957   3.4187   3.4619   3.5342   3.5898   3.6870
     3.7209   3.8375   3.9477   4.0569   4.1083   4.1519   4.2457   4.2776
     4.4491   4.5548   4.5873   5.1498   5.1680   5.2183   5.2481   5.2608
     5.3051   5.3403   5.3610   5.3962   5.4410   5.4969   5.5727   5.6173
     5.6406   5.7144   5.7770   5.8050   5.8676   6.0053   6.0441   6.1319
     6.1776   6.2627   6.3591   6.3951   6.4365   6.6056   6.6644   6.7180
     6.7742   8.2753   8.3767   8.6107   9.5692   9.6498  10.0106  10.1116
    10.2255  10.3062  10.4705  10.5460  10.8486  10.9039  10.9425  11.0931
    11.2289  11.2883  11.3776  11.4358  11.5307  11.5870  11.6959  11.7755
    11.8321  11.8804  11.9710  12.1780  12.2942  12.3857  12.5123  12.6124
    12.7750  12.8294  12.9262  13.0399

     occupation numbers 
     1.0000   1.0000   1.0000   1.0000   1.0000   1.0000   1.0000   1.0000
     1.0000   1.0000   1.0000   1.0000   1.0000   1.0000   1.0000   1.0000
     1.0000   1.0000   1.0000   1.0000   1.0000   1.0000   1.0000   1.0000
     1.0000   1.0000   1.0000   1.0000   1.0000   1.0000   1.0000   1.0000
     1.0000   1.0000   1.0000   1.0000   1.0000   1.0000   1.0000   1.0000
     1.0000   1.0000   1.0000   1.0000   1.0000   1.0000   1.0000   1.0000
     1.0000   1.0000   1.0000   1.0000   1.0000   1.0000   1.0000   1.0000
     1.0000   1.0000   1.0000   1.0000   1.0000   1.0000   1.0000   1.0000
     1.0000   1.0000   1.0000   1.0000   1.0000   1.0000   1.0000   1.0000
     1.0000   1.0000   1.0000   1.0000   1.0000   1.0000   1.0000   1.0000
     1.0000   1.0000   1.0000   1.0000   1.0000   1.0000   1.0000   1.0000
     1.0000   1.0000   1.0000   1.0000   1.0000   1.0000   1.0000   1.0000
     1.0000   1.0000   1.0000   1.0000   1.0000   1.0000   1.0000   1.0000
     1.0000   0.0000   0.0000   0.0000   0.0000   0.0000   0.0000   0.0000
     0.0000   0.0000   0.0000   0.0000   0.0000   0.0000   0.0000   0.0000
     0.0000   0.0000   0.0000   0.0000   0.0000   0.0000   0.0000   0.0000
     0.0000   0.0000   0.0000   0.0000   0.0000   0.0000   0.0000   0.0000
     0.0000   0.0000   0.0000   0.0000

          k = 0.1667 0.5774-0.2036 ( 53192 PWs)   bands (ev):

   -28.2756 -28.2755 -28.2753 -14.9218 -14.9217 -14.9217 -14.9161 -14.9160
   -14.9159 -14.9039 -14.9039 -14.9039 -14.8639 -14.8637 -14.8636 -14.8187
   -14.8185 -14.8184 -10.3393 -10.3377 -10.3333 -10.3054 -10.3025 -10.2970
   -10.2695 -10.2677 -10.2623  -6.3705  -6.2741  -6.2322  -5.9564  -5.8188
    -5.7857  -5.6909  -5.6414  -5.6104  -5.5202  -5.4461  -5.3454  -0.5638
    -0.4391  -0.3226   1.4937   1.7311   1.9346   1.9594   2.2555   2.4086
     2.4798   2.4962   2.7927   2.8511   2.8719   3.0294   3.1484   3.1990
     3.2971   3.3708   3.4073   3.4094   3.4506   3.5449   3.5742   3.6973
     3.7159   3.8792   3.9183   4.0795   4.0876   4.1340   4.2525   4.2642
     4.4533   4.5649   4.5862   5.1529   5.1670   5.2264   5.2394   5.2623
     5.2981   5.3377   5.3662   5.4081   5.4340   5.4906   5.5798   5.6252
     5.6295   5.7334   5.7639   5.7989   5.8629   6.0177   6.0583   6.1104
     6.1518   6.2582   6.3671   6.4190   6.4221   6.6390   6.6448   6.7308
     6.7577   8.3009   8.3503   8.6122   9.5622   9.6385  10.0285  10.1090
    10.2612  10.2885  10.4750  10.5567  10.8722  10.8858  10.9807  11.0858
    11.1749  11.3087  11.3541  11.4303  11.5312  11.5843  11.7046  11.7122
    11.8420  11.8461  11.9847  12.1695  12.3082  12.3618  12.5226  12.6105
    12.8069  12.8931  12.9306  12.9932

     occupation numbers 
     1.0000   1.0000   1.0000   1.0000   1.0000   1.0000   1.0000   1.0000
     1.0000   1.0000   1.0000   1.0000   1.0000   1.0000   1.0000   1.0000
     1.0000   1.0000   1.0000   1.0000   1.0000   1.0000   1.0000   1.0000
     1.0000   1.0000   1.0000   1.0000   1.0000   1.0000   1.0000   1.0000
     1.0000   1.0000   1.0000   1.0000   1.0000   1.0000   1.0000   1.0000
     1.0000   1.0000   1.0000   1.0000   1.0000   1.0000   1.0000   1.0000
     1.0000   1.0000   1.0000   1.0000   1.0000   1.0000   1.0000   1.0000
     1.0000   1.0000   1.0000   1.0000   1.0000   1.0000   1.0000   1.0000
     1.0000   1.0000   1.0000   1.0000   1.0000   1.0000   1.0000   1.0000
     1.0000   1.0000   1.0000   1.0000   1.0000   1.0000   1.0000   1.0000
     1.0000   1.0000   1.0000   1.0000   1.0000   1.0000   1.0000   1.0000
     1.0000   1.0000   1.0000   1.0000   1.0000   1.0000   1.0000   1.0000
     1.0000   1.0000   1.0000   1.0000   1.0000   1.0000   1.0000   1.0000
     1.0000   0.0000   0.0000   0.0000   0.0000   0.0000   0.0000   0.0000
     0.0000   0.0000   0.0000   0.0000   0.0000   0.0000   0.0000   0.0000
     0.0000   0.0000   0.0000   0.0000   0.0000   0.0000   0.0000   0.0000
     0.0000   0.0000   0.0000   0.0000   0.0000   0.0000   0.0000   0.0000
     0.0000   0.0000   0.0000   0.0000

          k = 0.2500 0.4330 0.0000 ( 53218 PWs)   bands (ev):

   -28.2756 -28.2755 -28.2753 -14.9218 -14.9218 -14.9216 -14.9161 -14.9160
   -14.9158 -14.9040 -14.9039 -14.9038 -14.8639 -14.8637 -14.8636 -14.8187
   -14.8185 -14.8185 -10.3379 -10.3364 -10.3341 -10.3065 -10.3019 -10.2955
   -10.2682 -10.2681 -10.2625  -6.4439  -6.2785  -6.2589  -5.8739  -5.8110
    -5.7411  -5.7391  -5.6331  -5.6040  -5.5110  -5.4404  -5.3482  -0.5528
    -0.4152  -0.3433   1.5628   1.6850   1.8328   2.0149   2.2214   2.3267
     2.5694   2.6560   2.7549   2.8221   2.9112   2.9423   3.0641   3.2028
     3.2897   3.2938   3.3899   3.4413   3.5105   3.5231   3.5894   3.7026
     3.7253   3.7445   3.9616   4.0375   4.1175   4.1774   4.2799   4.3468
     4.4108   4.5223   4.5852   5.1413   5.1571   5.2089   5.2522   5.2813
     5.3017   5.3352   5.3569   5.4415   5.4484   5.5089   5.5360   5.5990
     5.6285   5.7062   5.7810   5.8011   5.8826   5.9493   6.0247   6.1257
     6.2232   6.2917   6.3857   6.3975   6.4891   6.5366   6.7127   6.7822
     6.7838   8.2590   8.4125   8.5858   9.5631   9.6877   9.9492  10.0409
    10.2383  10.2825  10.3493  10.5914  10.8557  10.8658  10.9617  11.0277
    11.2568  11.3476  11.3781  11.5237  11.5547  11.6764  11.7608  11.8163
    11.9774  11.9958  12.1324  12.1340  12.4080  12.4400  12.4924  12.5891
    12.6246  12.7454  12.8524  12.9215

     occupation numbers 
     1.0000   1.0000   1.0000   1.0000   1.0000   1.0000   1.0000   1.0000
     1.0000   1.0000   1.0000   1.0000   1.0000   1.0000   1.0000   1.0000
     1.0000   1.0000   1.0000   1.0000   1.0000   1.0000   1.0000   1.0000
     1.0000   1.0000   1.0000   1.0000   1.0000   1.0000   1.0000   1.0000
     1.0000   1.0000   1.0000   1.0000   1.0000   1.0000   1.0000   1.0000
     1.0000   1.0000   1.0000   1.0000   1.0000   1.0000   1.0000   1.0000
     1.0000   1.0000   1.0000   1.0000   1.0000   1.0000   1.0000   1.0000
     1.0000   1.0000   1.0000   1.0000   1.0000   1.0000   1.0000   1.0000
     1.0000   1.0000   1.0000   1.0000   1.0000   1.0000   1.0000   1.0000
     1.0000   1.0000   1.0000   1.0000   1.0000   1.0000   1.0000   1.0000
     1.0000   1.0000   1.0000   1.0000   1.0000   1.0000   1.0000   1.0000
     1.0000   1.0000   1.0000   1.0000   1.0000   1.0000   1.0000   1.0000
     1.0000   1.0000   1.0000   1.0000   1.0000   1.0000   1.0000   1.0000
     1.0000   0.0000   0.0000   0.0000   0.0000   0.0000   0.0000   0.0000
     0.0000   0.0000   0.0000   0.0000   0.0000   0.0000   0.0000   0.0000
     0.0000   0.0000   0.0000   0.0000   0.0000   0.0000   0.0000   0.0000
     0.0000   0.0000   0.0000   0.0000   0.0000   0.0000   0.0000   0.0000
     0.0000   0.0000   0.0000   0.0000

          k = 0.2500 0.4330 0.0679 ( 53194 PWs)   bands (ev):

   -28.2756 -28.2755 -28.2753 -14.9218 -14.9218 -14.9216 -14.9161 -14.9160
   -14.9158 -14.9040 -14.9039 -14.9038 -14.8639 -14.8637 -14.8636 -14.8187
   -14.8185 -14.8185 -10.3382 -10.3366 -10.3336 -10.3062 -10.3018 -10.2959
   -10.2685 -10.2679 -10.2624  -6.4386  -6.3075  -6.2350  -5.8708  -5.8136
    -5.7490  -5.7300  -5.6342  -5.6033  -5.5157  -5.4372  -5.3482  -0.5487
    -0.4264  -0.3363   1.5580   1.6935   1.8360   2.0044   2.2199   2.3470
     2.5670   2.6558   2.7102   2.8168   2.9288   2.9541   3.0793   3.1956
     3.2890   3.2973   3.3858   3.4425   3.5001   3.5321   3.5970   3.6873
     3.7214   3.7739   3.9550   4.0416   4.1131   4.1630   4.2811   4.3343
     4.4235   4.5162   4.5953   5.1441   5.1597   5.2089   5.2448   5.2803
     5.3080   5.3402   5.3543   5.4297   5.4551   5.5032   5.5446   5.5973
     5.6324   5.7111   5.7785   5.7968   5.8791   5.9467   6.0319   6.1105
     6.2203   6.2866   6.3690   6.4172   6.4934   6.5558   6.6890   6.7745
     6.8078   8.2669   8.3999   8.5906   9.5446   9.6973   9.9575  10.0356
    10.2231  10.3101  10.3660  10.6105  10.8225  10.8863  10.9394  11.0625
    11.2207  11.3458  11.4194  11.5188  11.5584  11.6406  11.7486  11.8079
    11.9278  11.9859  12.1007  12.1460  12.3378  12.3906  12.5413  12.6036
    12.6954  12.8039  12.8670  12.9246

     occupation numbers 
     1.0000   1.0000   1.0000   1.0000   1.0000   1.0000   1.0000   1.0000
     1.0000   1.0000   1.0000   1.0000   1.0000   1.0000   1.0000   1.0000
     1.0000   1.0000   1.0000   1.0000   1.0000   1.0000   1.0000   1.0000
     1.0000   1.0000   1.0000   1.0000   1.0000   1.0000   1.0000   1.0000
     1.0000   1.0000   1.0000   1.0000   1.0000   1.0000   1.0000   1.0000
     1.0000   1.0000   1.0000   1.0000   1.0000   1.0000   1.0000   1.0000
     1.0000   1.0000   1.0000   1.0000   1.0000   1.0000   1.0000   1.0000
     1.0000   1.0000   1.0000   1.0000   1.0000   1.0000   1.0000   1.0000
     1.0000   1.0000   1.0000   1.0000   1.0000   1.0000   1.0000   1.0000
     1.0000   1.0000   1.0000   1.0000   1.0000   1.0000   1.0000   1.0000
     1.0000   1.0000   1.0000   1.0000   1.0000   1.0000   1.0000   1.0000
     1.0000   1.0000   1.0000   1.0000   1.0000   1.0000   1.0000   1.0000
     1.0000   1.0000   1.0000   1.0000   1.0000   1.0000   1.0000   1.0000
     1.0000   0.0000   0.0000   0.0000   0.0000   0.0000   0.0000   0.0000
     0.0000   0.0000   0.0000   0.0000   0.0000   0.0000   0.0000   0.0000
     0.0000   0.0000   0.0000   0.0000   0.0000   0.0000   0.0000   0.0000
     0.0000   0.0000   0.0000   0.0000   0.0000   0.0000   0.0000   0.0000
     0.0000   0.0000   0.0000   0.0000

          k = 0.2500 0.4330 0.1357 ( 53168 PWs)   bands (ev):

   -28.2756 -28.2755 -28.2753 -14.9218 -14.9218 -14.9216 -14.9161 -14.9160
   -14.9158 -14.9040 -14.9039 -14.9038 -14.8639 -14.8637 -14.8636 -14.8187
   -14.8185 -14.8185 -10.3387 -10.3369 -10.3329 -10.3056 -10.3013 -10.2970
   -10.2688 -10.2678 -10.2622  -6.4242  -6.3428  -6.2139  -5.8641  -5.8190
    -5.7548  -5.7217  -5.6369  -5.6023  -5.5230  -5.4324  -5.3480  -0.5388
    -0.4471  -0.3257   1.5497   1.7093   1.8436   1.9828   2.2175   2.3985
     2.5583   2.6287   2.6554   2.8104   2.9509   2.9712   3.1131   3.1783
     3.2905   3.2993   3.3781   3.4497   3.4840   3.5425   3.6084   3.6764
     3.7143   3.8227   3.9342   4.0518   4.1045   4.1338   4.2839   4.3130
     4.4419   4.5094   4.6106   5.1492   5.1670   5.2086   5.2341   5.2742
     5.3105   5.3534   5.3618   5.4180   5.4522   5.4845   5.5653   5.6031
     5.6336   5.7261   5.7729   5.7829   5.8679   5.9486   6.0378   6.0906
     6.2127   6.2689   6.3628   6.4345   6.5223   6.5750   6.6490   6.7780
     6.8276   8.2855   8.3738   8.5986   9.5179   9.7023   9.9702  10.0362
    10.1999  10.3464  10.4304  10.6361  10.7367  10.9032  10.9594  11.0983
    11.1974  11.3679  11.4521  11.4767  11.5605  11.5999  11.6852  11.7892
    11.8595  11.9782  12.0653  12.1332  12.2728  12.3683  12.5710  12.5840
    12.8152  12.8509  12.9013  12.9908

     occupation numbers 
     1.0000   1.0000   1.0000   1.0000   1.0000   1.0000   1.0000   1.0000
     1.0000   1.0000   1.0000   1.0000   1.0000   1.0000   1.0000   1.0000
     1.0000   1.0000   1.0000   1.0000   1.0000   1.0000   1.0000   1.0000
     1.0000   1.0000   1.0000   1.0000   1.0000   1.0000   1.0000   1.0000
     1.0000   1.0000   1.0000   1.0000   1.0000   1.0000   1.0000   1.0000
     1.0000   1.0000   1.0000   1.0000   1.0000   1.0000   1.0000   1.0000
     1.0000   1.0000   1.0000   1.0000   1.0000   1.0000   1.0000   1.0000
     1.0000   1.0000   1.0000   1.0000   1.0000   1.0000   1.0000   1.0000
     1.0000   1.0000   1.0000   1.0000   1.0000   1.0000   1.0000   1.0000
     1.0000   1.0000   1.0000   1.0000   1.0000   1.0000   1.0000   1.0000
     1.0000   1.0000   1.0000   1.0000   1.0000   1.0000   1.0000   1.0000
     1.0000   1.0000   1.0000   1.0000   1.0000   1.0000   1.0000   1.0000
     1.0000   1.0000   1.0000   1.0000   1.0000   1.0000   1.0000   1.0000
     1.0000   0.0000   0.0000   0.0000   0.0000   0.0000   0.0000   0.0000
     0.0000   0.0000   0.0000   0.0000   0.0000   0.0000   0.0000   0.0000
     0.0000   0.0000   0.0000   0.0000   0.0000   0.0000   0.0000   0.0000
     0.0000   0.0000   0.0000   0.0000   0.0000   0.0000   0.0000   0.0000
     0.0000   0.0000   0.0000   0.0000

          k = 0.2500 0.4330-0.2036 ( 53166 PWs)   bands (ev):

   -28.2756 -28.2755 -28.2753 -14.9218 -14.9218 -14.9216 -14.9161 -14.9160
   -14.9158 -14.9040 -14.9039 -14.9038 -14.8639 -14.8637 -14.8636 -14.8187
   -14.8185 -14.8185 -10.3389 -10.3370 -10.3326 -10.3054 -10.3007 -10.2978
   -10.2689 -10.2677 -10.2621  -6.4125  -6.3618  -6.2063  -5.8604  -5.8219
    -5.7568  -5.7181  -5.6388  -5.6021  -5.5258  -5.4305  -5.3479  -0.5324
    -0.4579  -0.3213   1.5461   1.7167   1.8484   1.9713   2.2164   2.4419
     2.5371   2.5912   2.6545   2.8087   2.9593   2.9773   3.1381   3.1620
     3.2897   3.3004   3.3751   3.4606   3.4700   3.5470   3.6112   3.6772
     3.7093   3.8557   3.9123   4.0590   4.1028   4.1153   4.2901   4.2982
     4.4494   4.5075   4.6169   5.1517   5.1713   5.2100   5.2280   5.2684
     5.3115   5.3608   5.3681   5.4232   5.4381   5.4742   5.5744   5.6165
     5.6266   5.7433   5.7617   5.7738   5.8608   5.9543   6.0293   6.0915
     6.2064   6.2617   6.3561   6.4507   6.5436   6.5709   6.6320   6.7812
     6.8340   8.2981   8.3583   8.6021   9.5072   9.7010   9.9712  10.0449
    10.1880  10.3589  10.5289  10.5590  10.7239  10.8864  11.0435  11.0604
    11.2019  11.3837  11.4351  11.4826  11.5480  11.6005  11.6271  11.7965
    11.8071  12.0075  12.0446  12.1241  12.2230  12.3904  12.5480  12.5993
    12.8607  12.8814  12.9053  13.0429

     occupation numbers 
     1.0000   1.0000   1.0000   1.0000   1.0000   1.0000   1.0000   1.0000
     1.0000   1.0000   1.0000   1.0000   1.0000   1.0000   1.0000   1.0000
     1.0000   1.0000   1.0000   1.0000   1.0000   1.0000   1.0000   1.0000
     1.0000   1.0000   1.0000   1.0000   1.0000   1.0000   1.0000   1.0000
     1.0000   1.0000   1.0000   1.0000   1.0000   1.0000   1.0000   1.0000
     1.0000   1.0000   1.0000   1.0000   1.0000   1.0000   1.0000   1.0000
     1.0000   1.0000   1.0000   1.0000   1.0000   1.0000   1.0000   1.0000
     1.0000   1.0000   1.0000   1.0000   1.0000   1.0000   1.0000   1.0000
     1.0000   1.0000   1.0000   1.0000   1.0000   1.0000   1.0000   1.0000
     1.0000   1.0000   1.0000   1.0000   1.0000   1.0000   1.0000   1.0000
     1.0000   1.0000   1.0000   1.0000   1.0000   1.0000   1.0000   1.0000
     1.0000   1.0000   1.0000   1.0000   1.0000   1.0000   1.0000   1.0000
     1.0000   1.0000   1.0000   1.0000   1.0000   1.0000   1.0000   1.0000
     1.0000   0.0000   0.0000   0.0000   0.0000   0.0000   0.0000   0.0000
     0.0000   0.0000   0.0000   0.0000   0.0000   0.0000   0.0000   0.0000
     0.0000   0.0000   0.0000   0.0000   0.0000   0.0000   0.0000   0.0000
     0.0000   0.0000   0.0000   0.0000   0.0000   0.0000   0.0000   0.0000
     0.0000   0.0000   0.0000   0.0000

          k = 0.2500 0.5292 0.0000 ( 53234 PWs)   bands (ev):

   -28.2756 -28.2755 -28.2753 -14.9218 -14.9217 -14.9217 -14.9161 -14.9160
   -14.9159 -14.9040 -14.9039 -14.9038 -14.8639 -14.8637 -14.8636 -14.8187
   -14.8185 -14.8185 -10.3386 -10.3361 -10.3352 -10.3072 -10.3015 -10.2976
   -10.2693 -10.2671 -10.2643  -6.3555  -6.2659  -6.2091  -5.9052  -5.8392
    -5.7991  -5.7196  -5.6791  -5.6229  -5.5145  -5.4190  -5.3719  -0.5538
    -0.4089  -0.3672   1.5986   1.7582   1.8912   1.9658   2.1677   2.3025
     2.5585   2.6197   2.8068   2.8286   2.8856   2.9216   3.0525   3.2385
     3.2909   3.3548   3.3747   3.4456   3.5137   3.5186   3.5989   3.7078
     3.7190   3.7582   3.9688   4.0150   4.1362   4.2363   4.2709   4.3185
     4.4611   4.5124   4.5585   5.1421   5.1585   5.1929   5.2725   5.2915
     5.3074   5.3283   5.3806   5.4150   5.4609   5.4831   5.5198   5.6297
     5.6467   5.6984   5.7990   5.8172   5.8696   6.0054   6.0406   6.1664
     6.2487   6.2898   6.3607   6.3928   6.4438   6.4784   6.7129   6.7320
     6.7691   8.1923   8.4567   8.5852   9.5663   9.6265   9.8017  10.1533
    10.2241  10.3530  10.4104  10.5426  10.8093  10.8802  10.9556  11.0250
    11.1995  11.2936  11.4121  11.5099  11.5935  11.6365  11.6817  11.7228
    11.9358  11.9958  12.1308  12.1722  12.4404  12.4917  12.5251  12.6142
    12.6349  12.6922  12.8015  13.0296

     occupation numbers 
     1.0000   1.0000   1.0000   1.0000   1.0000   1.0000   1.0000   1.0000
     1.0000   1.0000   1.0000   1.0000   1.0000   1.0000   1.0000   1.0000
     1.0000   1.0000   1.0000   1.0000   1.0000   1.0000   1.0000   1.0000
     1.0000   1.0000   1.0000   1.0000   1.0000   1.0000   1.0000   1.0000
     1.0000   1.0000   1.0000   1.0000   1.0000   1.0000   1.0000   1.0000
     1.0000   1.0000   1.0000   1.0000   1.0000   1.0000   1.0000   1.0000
     1.0000   1.0000   1.0000   1.0000   1.0000   1.0000   1.0000   1.0000
     1.0000   1.0000   1.0000   1.0000   1.0000   1.0000   1.0000   1.0000
     1.0000   1.0000   1.0000   1.0000   1.0000   1.0000   1.0000   1.0000
     1.0000   1.0000   1.0000   1.0000   1.0000   1.0000   1.0000   1.0000
     1.0000   1.0000   1.0000   1.0000   1.0000   1.0000   1.0000   1.0000
     1.0000   1.0000   1.0000   1.0000   1.0000   1.0000   1.0000   1.0000
     1.0000   1.0000   1.0000   1.0000   1.0000   1.0000   1.0000   1.0000
     1.0000   0.0000   0.0000   0.0000   0.0000   0.0000   0.0000   0.0000
     0.0000   0.0000   0.0000   0.0000   0.0000   0.0000   0.0000   0.0000
     0.0000   0.0000   0.0000   0.0000   0.0000   0.0000   0.0000   0.0000
     0.0000   0.0000   0.0000   0.0000   0.0000   0.0000   0.0000   0.0000
     0.0000   0.0000   0.0000   0.0000

          k = 0.2500 0.5292 0.0679 ( 53222 PWs)   bands (ev):

   -28.2756 -28.2755 -28.2753 -14.9218 -14.9217 -14.9217 -14.9161 -14.9160
   -14.9159 -14.9040 -14.9039 -14.9038 -14.8639 -14.8637 -14.8636 -14.8187
   -14.8185 -14.8185 -10.3387 -10.3369 -10.3343 -10.3067 -10.3015 -10.2980
   -10.2694 -10.2676 -10.2637  -6.3540  -6.2626  -6.2163  -5.9020  -5.8420
    -5.7978  -5.7221  -5.6708  -5.6250  -5.5147  -5.4288  -5.3651  -0.5486
    -0.4255  -0.3560   1.5952   1.7665   1.8797   1.9711   2.1786   2.3101
     2.5465   2.6108   2.7700   2.8194   2.8967   2.9472   3.0762   3.2229
     3.3005   3.3533   3.3780   3.4397   3.4990   3.5320   3.5967   3.6953
     3.7392   3.7713   3.9607   4.0237   4.1306   4.2057   4.2728   4.3195
     4.4665   4.5116   4.5703   5.1436   5.1611   5.1971   5.2669   5.2735
     5.3209   5.3430   5.3622   5.4230   5.4498   5.4893   5.5317   5.6243
     5.6450   5.7062   5.7994   5.8067   5.8674   6.0029   6.0468   6.1578
     6.2327   6.2884   6.3441   6.3935   6.4511   6.5181   6.6857   6.7374
     6.7856   8.2066   8.4275   8.5981   9.5195   9.6320   9.8510  10.1216
    10.2341  10.3710  10.4308  10.5539  10.8012  10.8957  10.9586  11.0461
    11.1583  11.3031  11.4457  11.4740  11.5543  11.6342  11.6895  11.7278
    11.9160  11.9708  12.0931  12.1500  12.3838  12.4662  12.5856  12.6310
    12.6962  12.7216  12.8323  12.9948

     occupation numbers 
     1.0000   1.0000   1.0000   1.0000   1.0000   1.0000   1.0000   1.0000
     1.0000   1.0000   1.0000   1.0000   1.0000   1.0000   1.0000   1.0000
     1.0000   1.0000   1.0000   1.0000   1.0000   1.0000   1.0000   1.0000
     1.0000   1.0000   1.0000   1.0000   1.0000   1.0000   1.0000   1.0000
     1.0000   1.0000   1.0000   1.0000   1.0000   1.0000   1.0000   1.0000
     1.0000   1.0000   1.0000   1.0000   1.0000   1.0000   1.0000   1.0000
     1.0000   1.0000   1.0000   1.0000   1.0000   1.0000   1.0000   1.0000
     1.0000   1.0000   1.0000   1.0000   1.0000   1.0000   1.0000   1.0000
     1.0000   1.0000   1.0000   1.0000   1.0000   1.0000   1.0000   1.0000
     1.0000   1.0000   1.0000   1.0000   1.0000   1.0000   1.0000   1.0000
     1.0000   1.0000   1.0000   1.0000   1.0000   1.0000   1.0000   1.0000
     1.0000   1.0000   1.0000   1.0000   1.0000   1.0000   1.0000   1.0000
     1.0000   1.0000   1.0000   1.0000   1.0000   1.0000   1.0000   1.0000
     1.0000   0.0000   0.0000   0.0000   0.0000   0.0000   0.0000   0.0000
     0.0000   0.0000   0.0000   0.0000   0.0000   0.0000   0.0000   0.0000
     0.0000   0.0000   0.0000   0.0000   0.0000   0.0000   0.0000   0.0000
     0.0000   0.0000   0.0000   0.0000   0.0000   0.0000   0.0000   0.0000
     0.0000   0.0000   0.0000   0.0000

          k = 0.2500 0.5292 0.1357 ( 53213 PWs)   bands (ev):

   -28.2756 -28.2755 -28.2753 -14.9218 -14.9217 -14.9217 -14.9161 -14.9160
   -14.9158 -14.9040 -14.9039 -14.9038 -14.8639 -14.8637 -14.8636 -14.8187
   -14.8185 -14.8185 -10.3389 -10.3377 -10.3334 -10.3054 -10.3017 -10.2989
   -10.2695 -10.2683 -10.2629  -6.3490  -6.2654  -6.2211  -5.9018  -5.8430
    -5.7989  -5.7190  -5.6566  -5.6305  -5.5137  -5.4473  -5.3549  -0.5362
    -0.4509  -0.3431   1.5902   1.7753   1.8726   1.9684   2.2069   2.3285
     2.5293   2.5761   2.7120   2.8228   2.9162   2.9737   3.1167   3.1934
     3.3199   3.3547   3.3836   3.4340   3.4750   3.5470   3.5849   3.7013
     3.7370   3.8237   3.9347   4.0466   4.1110   4.1595   4.2726   4.3108
     4.4743   4.5229   4.5843   5.1472   5.1633   5.2108   5.2487   5.2681
     5.3109   5.3523   5.3770   5.4222   5.4379   5.4842   5.5560   5.6203
     5.6397   5.7275   5.7873   5.7947   5.8513   6.0114   6.0664   6.1254
     6.2018   6.2795   6.3224   6.4193   6.4813   6.5558   6.6435   6.7542
     6.7970   8.2442   8.3688   8.6168   9.4747   9.6080   9.9377  10.0842
    10.2510  10.3703  10.4781  10.5812  10.7623  10.9038  11.0035  11.0795
    11.1435  11.3170  11.4137  11.4548  11.5163  11.5900  11.6958  11.7661
    11.8496  11.9330  12.0253  12.1197  12.3117  12.4802  12.5965  12.6613
    12.7443  12.8179  12.9040  12.9590

     occupation numbers 
     1.0000   1.0000   1.0000   1.0000   1.0000   1.0000   1.0000   1.0000
     1.0000   1.0000   1.0000   1.0000   1.0000   1.0000   1.0000   1.0000
     1.0000   1.0000   1.0000   1.0000   1.0000   1.0000   1.0000   1.0000
     1.0000   1.0000   1.0000   1.0000   1.0000   1.0000   1.0000   1.0000
     1.0000   1.0000   1.0000   1.0000   1.0000   1.0000   1.0000   1.0000
     1.0000   1.0000   1.0000   1.0000   1.0000   1.0000   1.0000   1.0000
     1.0000   1.0000   1.0000   1.0000   1.0000   1.0000   1.0000   1.0000
     1.0000   1.0000   1.0000   1.0000   1.0000   1.0000   1.0000   1.0000
     1.0000   1.0000   1.0000   1.0000   1.0000   1.0000   1.0000   1.0000
     1.0000   1.0000   1.0000   1.0000   1.0000   1.0000   1.0000   1.0000
     1.0000   1.0000   1.0000   1.0000   1.0000   1.0000   1.0000   1.0000
     1.0000   1.0000   1.0000   1.0000   1.0000   1.0000   1.0000   1.0000
     1.0000   1.0000   1.0000   1.0000   1.0000   1.0000   1.0000   1.0000
     1.0000   0.0000   0.0000   0.0000   0.0000   0.0000   0.0000   0.0000
     0.0000   0.0000   0.0000   0.0000   0.0000   0.0000   0.0000   0.0000
     0.0000   0.0000   0.0000   0.0000   0.0000   0.0000   0.0000   0.0000
     0.0000   0.0000   0.0000   0.0000   0.0000   0.0000   0.0000   0.0000
     0.0000   0.0000   0.0000   0.0000

          k = 0.2500 0.5292-0.2036 ( 53204 PWs)   bands (ev):

   -28.2756 -28.2755 -28.2753 -14.9218 -14.9217 -14.9217 -14.9161 -14.9160
   -14.9158 -14.9040 -14.9039 -14.9038 -14.8639 -14.8637 -14.8636 -14.8187
   -14.8185 -14.8185 -10.3390 -10.3380 -10.3330 -10.3042 -10.3025 -10.2994
   -10.2694 -10.2688 -10.2626  -6.3452  -6.2725  -6.2183  -5.9046  -5.8411
    -5.8012  -5.7143  -5.6503  -5.6336  -5.5121  -5.4574  -5.3506  -0.5281
    -0.4636  -0.3385   1.5884   1.7748   1.8777   1.9615   2.2232   2.3429
     2.5185   2.5541   2.6882   2.8276   2.9255   2.9812   3.1451   3.1683
     3.3300   3.3573   3.3875   3.4434   3.4517   3.5552   3.5744   3.7124
     3.7284   3.8830   3.8895   4.0707   4.0881   4.1375   4.2766   4.3006
     4.4784   4.5310   4.5886   5.1499   5.1625   5.2225   5.2403   5.2661
     5.2991   5.3559   5.3880   5.4216   5.4497   5.4606   5.5690   5.6211
     5.6379   5.7524   5.7637   5.7919   5.8383   6.0247   6.0777   6.1096
     6.1762   6.2702   6.3263   6.4365   6.4916   6.5730   6.6186   6.7716
     6.7918   8.2819   8.3228   8.6245   9.4616   9.5915   9.9759  10.0729
    10.2655  10.3542  10.5184  10.5774  10.7354  10.8923  11.0533  11.1157
    11.1473  11.3001  11.3800  11.4568  11.4989  11.5771  11.6875  11.7898
    11.8058  11.9260  12.0187  12.0781  12.2814  12.5049  12.5932  12.6492
    12.7747  12.8862  12.9018  12.9461

     occupation numbers 
     1.0000   1.0000   1.0000   1.0000   1.0000   1.0000   1.0000   1.0000
     1.0000   1.0000   1.0000   1.0000   1.0000   1.0000   1.0000   1.0000
     1.0000   1.0000   1.0000   1.0000   1.0000   1.0000   1.0000   1.0000
     1.0000   1.0000   1.0000   1.0000   1.0000   1.0000   1.0000   1.0000
     1.0000   1.0000   1.0000   1.0000   1.0000   1.0000   1.0000   1.0000
     1.0000   1.0000   1.0000   1.0000   1.0000   1.0000   1.0000   1.0000
     1.0000   1.0000   1.0000   1.0000   1.0000   1.0000   1.0000   1.0000
     1.0000   1.0000   1.0000   1.0000   1.0000   1.0000   1.0000   1.0000
     1.0000   1.0000   1.0000   1.0000   1.0000   1.0000   1.0000   1.0000
     1.0000   1.0000   1.0000   1.0000   1.0000   1.0000   1.0000   1.0000
     1.0000   1.0000   1.0000   1.0000   1.0000   1.0000   1.0000   1.0000
     1.0000   1.0000   1.0000   1.0000   1.0000   1.0000   1.0000   1.0000
     1.0000   1.0000   1.0000   1.0000   1.0000   1.0000   1.0000   1.0000
     1.0000   0.0000   0.0000   0.0000   0.0000   0.0000   0.0000   0.0000
     0.0000   0.0000   0.0000   0.0000   0.0000   0.0000   0.0000   0.0000
     0.0000   0.0000   0.0000   0.0000   0.0000   0.0000   0.0000   0.0000
     0.0000   0.0000   0.0000   0.0000   0.0000   0.0000   0.0000   0.0000
     0.0000   0.0000   0.0000   0.0000

          k = 0.3333 0.5774 0.0000 ( 53280 PWs)   bands (ev):

   -28.2756 -28.2755 -28.2753 -14.9218 -14.9217 -14.9216 -14.9161 -14.9159
   -14.9158 -14.9040 -14.9039 -14.9038 -14.8638 -14.8637 -14.8637 -14.8186
   -14.8185 -14.8185 -10.3388 -10.3357 -10.3356 -10.3072 -10.3001 -10.3000
   -10.2696 -10.2660 -10.2658  -6.2923  -6.2921  -6.1926  -5.8650  -5.8507
    -5.8505  -5.7077  -5.7076  -5.6448  -5.5118  -5.3967  -5.3966  -0.5441
    -0.3960  -0.3959   1.7343   1.7344   1.7997   2.0818   2.0819   2.2554
     2.5973   2.5974   2.8371   2.8372   2.8495   2.8682   3.0620   3.2710
     3.2711   3.3615   3.3702   3.4872   3.4872   3.5476   3.5476   3.7281
     3.7282   3.7564   3.9869   3.9869   4.1406   4.2849   4.2849   4.2939
     4.4962   4.5150   4.5151   5.1372   5.1730   5.1730   5.3006   5.3023
     5.3024   5.3134   5.4077   5.4077   5.4573   5.4882   5.4882   5.6407
     5.6720   5.6721   5.8238   5.8239   5.8438   6.0480   6.0480   6.1581
     6.2839   6.2839   6.3746   6.4166   6.4166   6.4226   6.7251   6.7407
     6.7408   8.1592   8.5293   8.5294   9.5748   9.6456   9.6456  10.2205
    10.2206  10.3107  10.5588  10.5589  10.6706  10.9173  10.9467  10.9468
    11.2507  11.2507  11.4750  11.4751  11.5631  11.6253  11.6815  11.6815
    11.8809  12.0510  12.2123  12.2123  12.5017  12.5057  12.5058  12.5896
    12.5897  12.6427  12.9172  13.0685

     occupation numbers 
     1.0000   1.0000   1.0000   1.0000   1.0000   1.0000   1.0000   1.0000
     1.0000   1.0000   1.0000   1.0000   1.0000   1.0000   1.0000   1.0000
     1.0000   1.0000   1.0000   1.0000   1.0000   1.0000   1.0000   1.0000
     1.0000   1.0000   1.0000   1.0000   1.0000   1.0000   1.0000   1.0000
     1.0000   1.0000   1.0000   1.0000   1.0000   1.0000   1.0000   1.0000
     1.0000   1.0000   1.0000   1.0000   1.0000   1.0000   1.0000   1.0000
     1.0000   1.0000   1.0000   1.0000   1.0000   1.0000   1.0000   1.0000
     1.0000   1.0000   1.0000   1.0000   1.0000   1.0000   1.0000   1.0000
     1.0000   1.0000   1.0000   1.0000   1.0000   1.0000   1.0000   1.0000
     1.0000   1.0000   1.0000   1.0000   1.0000   1.0000   1.0000   1.0000
     1.0000   1.0000   1.0000   1.0000   1.0000   1.0000   1.0000   1.0000
     1.0000   1.0000   1.0000   1.0000   1.0000   1.0000   1.0000   1.0000
     1.0000   1.0000   1.0000   1.0000   1.0000   1.0000   1.0000   1.0000
     1.0000   0.0000   0.0000   0.0000   0.0000   0.0000   0.0000   0.0000
     0.0000   0.0000   0.0000   0.0000   0.0000   0.0000   0.0000   0.0000
     0.0000   0.0000   0.0000   0.0000   0.0000   0.0000   0.0000   0.0000
     0.0000   0.0000   0.0000   0.0000   0.0000   0.0000   0.0000   0.0000
     0.0000   0.0000   0.0000   0.0000

          k = 0.3333 0.5774 0.0679 ( 53208 PWs)   bands (ev):

   -28.2756 -28.2755 -28.2753 -14.9218 -14.9217 -14.9216 -14.9161 -14.9159
   -14.9158 -14.9040 -14.9039 -14.9038 -14.8638 -14.8637 -14.8637 -14.8186
   -14.8185 -14.8185 -10.3388 -10.3370 -10.3344 -10.3066 -10.3005 -10.3002
   -10.2696 -10.2675 -10.2643  -6.3024  -6.2771  -6.1985  -5.8632  -5.8629
    -5.8438  -5.7138  -5.6931  -5.6433  -5.5109  -5.4265  -5.3729  -0.5379
    -0.4271  -0.3710   1.7090   1.7585   1.7982   2.0626   2.1190   2.2549
     2.5815   2.5949   2.7710   2.8221   2.8791   2.9110   3.0880   3.2257
     3.3040   3.3617   3.3813   3.4514   3.5198   3.5271   3.5574   3.7160
     3.7531   3.7637   3.9657   4.0105   4.1326   4.2264   4.2907   4.3166
     4.5018   4.5019   4.5413   5.1408   5.1621   5.1902   5.2770   5.2783
     5.3257   5.3488   5.3702   5.4154   5.4514   5.4983   5.5036   5.6404
     5.6519   5.6922   5.8143   5.8245   5.8362   6.0453   6.0580   6.1529
     6.2502   6.2854   6.3409   6.4149   6.4566   6.4570   6.6940   6.7353
     6.7763   8.1758   8.4526   8.5873   9.5391   9.5539   9.7820  10.1486
    10.2972  10.3170  10.5494  10.5603  10.6620  10.9530  10.9642  10.9766
    11.1373  11.3310  11.4629  11.4986  11.5556  11.6285  11.6529  11.6545
    11.8925  12.0088  12.1427  12.1642  12.4221  12.5335  12.5588  12.6403
    12.6451  12.7003  12.8995  13.0240

     occupation numbers 
     1.0000   1.0000   1.0000   1.0000   1.0000   1.0000   1.0000   1.0000
     1.0000   1.0000   1.0000   1.0000   1.0000   1.0000   1.0000   1.0000
     1.0000   1.0000   1.0000   1.0000   1.0000   1.0000   1.0000   1.0000
     1.0000   1.0000   1.0000   1.0000   1.0000   1.0000   1.0000   1.0000
     1.0000   1.0000   1.0000   1.0000   1.0000   1.0000   1.0000   1.0000
     1.0000   1.0000   1.0000   1.0000   1.0000   1.0000   1.0000   1.0000
     1.0000   1.0000   1.0000   1.0000   1.0000   1.0000   1.0000   1.0000
     1.0000   1.0000   1.0000   1.0000   1.0000   1.0000   1.0000   1.0000
     1.0000   1.0000   1.0000   1.0000   1.0000   1.0000   1.0000   1.0000
     1.0000   1.0000   1.0000   1.0000   1.0000   1.0000   1.0000   1.0000
     1.0000   1.0000   1.0000   1.0000   1.0000   1.0000   1.0000   1.0000
     1.0000   1.0000   1.0000   1.0000   1.0000   1.0000   1.0000   1.0000
     1.0000   1.0000   1.0000   1.0000   1.0000   1.0000   1.0000   1.0000
     1.0000   0.0000   0.0000   0.0000   0.0000   0.0000   0.0000   0.0000
     0.0000   0.0000   0.0000   0.0000   0.0000   0.0000   0.0000   0.0000
     0.0000   0.0000   0.0000   0.0000   0.0000   0.0000   0.0000   0.0000
     0.0000   0.0000   0.0000   0.0000   0.0000   0.0000   0.0000   0.0000
     0.0000   0.0000   0.0000   0.0000

          k = 0.3333 0.5774 0.1357 ( 53241 PWs)   bands (ev):

   -28.2756 -28.2755 -28.2753 -14.9218 -14.9217 -14.9216 -14.9161 -14.9160
   -14.9158 -14.9040 -14.9039 -14.9038 -14.8638 -14.8637 -14.8637 -14.8186
   -14.8185 -14.8185 -10.3389 -10.3380 -10.3334 -10.3050 -10.3012 -10.3010
   -10.2696 -10.2688 -10.2632  -6.3080  -6.2576  -6.2143  -5.8746  -5.8576
    -5.8447  -5.7151  -5.6724  -5.6433  -5.5047  -5.4586  -5.3578  -0.5201
    -0.4609  -0.3550   1.6903   1.7760   1.7939   2.0554   2.1708   2.2474
     2.5571   2.5923   2.6789   2.8275   2.9241   2.9365   3.1267   3.1809
     3.3215   3.3739   3.4072   3.4206   3.4927   3.5399   3.5610   3.7197
     3.7439   3.8215   3.9382   4.0400   4.1087   4.1680   4.2897   4.3146
     4.5074   4.5116   4.5644   5.1485   5.1570   5.2105   5.2562   5.2681
     5.3088   5.3742   5.3934   5.3948   5.4380   5.4906   5.5431   5.6379
     5.6385   5.7170   5.8011   5.8075   5.8205   6.0567   6.0768   6.1347
     6.1952   6.2839   6.3061   6.4500   6.4916   6.4922   6.6456   6.7604
     6.7926   8.2218   8.3684   8.6217   9.4819   9.5092   9.9060  10.1002
    10.3307  10.3442  10.5500  10.5601  10.6403  11.0149  11.0180  11.0281
    11.0683  11.3696  11.3966  11.4618  11.5620  11.6053  11.6122  11.7084
    11.8507  12.0103  12.0284  12.0687  12.3722  12.4957  12.6107  12.7211
    12.7583  12.7841  12.8759  12.9817

     occupation numbers 
     1.0000   1.0000   1.0000   1.0000   1.0000   1.0000   1.0000   1.0000
     1.0000   1.0000   1.0000   1.0000   1.0000   1.0000   1.0000   1.0000
     1.0000   1.0000   1.0000   1.0000   1.0000   1.0000   1.0000   1.0000
     1.0000   1.0000   1.0000   1.0000   1.0000   1.0000   1.0000   1.0000
     1.0000   1.0000   1.0000   1.0000   1.0000   1.0000   1.0000   1.0000
     1.0000   1.0000   1.0000   1.0000   1.0000   1.0000   1.0000   1.0000
     1.0000   1.0000   1.0000   1.0000   1.0000   1.0000   1.0000   1.0000
     1.0000   1.0000   1.0000   1.0000   1.0000   1.0000   1.0000   1.0000
     1.0000   1.0000   1.0000   1.0000   1.0000   1.0000   1.0000   1.0000
     1.0000   1.0000   1.0000   1.0000   1.0000   1.0000   1.0000   1.0000
     1.0000   1.0000   1.0000   1.0000   1.0000   1.0000   1.0000   1.0000
     1.0000   1.0000   1.0000   1.0000   1.0000   1.0000   1.0000   1.0000
     1.0000   1.0000   1.0000   1.0000   1.0000   1.0000   1.0000   1.0000
     1.0000   0.0000   0.0000   0.0000   0.0000   0.0000   0.0000   0.0000
     0.0000   0.0000   0.0000   0.0000   0.0000   0.0000   0.0000   0.0000
     0.0000   0.0000   0.0000   0.0000   0.0000   0.0000   0.0000   0.0000
     0.0000   0.0000   0.0000   0.0000   0.0000   0.0000   0.0000   0.0000
     0.0000   0.0000   0.0000   0.0000

          k = 0.3333 0.5774-0.2036 ( 53184 PWs)   bands (ev):

   -28.2756 -28.2755 -28.2753 -14.9218 -14.9217 -14.9216 -14.9161 -14.9160
   -14.9158 -14.9040 -14.9039 -14.9038 -14.8638 -14.8637 -14.8637 -14.8186
   -14.8185 -14.8185 -10.3387 -10.3386 -10.3330 -10.3030 -10.3028 -10.3012
   -10.2695 -10.2693 -10.2628  -6.3098  -6.2355  -6.2354  -5.8791  -5.8506
    -5.8505  -5.7151  -5.6531  -5.6531  -5.4869  -5.4868  -5.3526  -0.4933
    -0.4932  -0.3495   1.6835   1.7869   1.7870   2.0539   2.2199   2.2199
     2.5461   2.6151   2.6152   2.8323   2.9448   2.9448   3.1508   3.1509
     3.3267   3.3952   3.3952   3.4483   3.4483   3.5464   3.5615   3.7312
     3.7312   3.8733   3.9029   4.0747   4.0747   4.1427   4.2994   4.2995
     4.5143   4.5144   4.5733   5.1541   5.1542   5.2238   5.2444   5.2794
     5.2794   5.3820   5.3998   5.3999   5.4575   5.4575   5.5614   5.6357
     5.6357   5.7480   5.7657   5.8089   5.8089   6.0704   6.1054   6.1054
     6.1650   6.2890   6.2890   6.4737   6.5044   6.5045   6.6199   6.7851
     6.7852   8.2886   8.2887   8.6329   9.4761   9.4762   9.9582  10.0839
    10.3455  10.3456  10.5425  10.6019  10.6019  10.9842  11.0608  11.0608
    11.1178  11.3544  11.3545  11.4125  11.5721  11.5721  11.6362  11.7831
    11.7832  11.9506  12.0397  12.0398  12.3990  12.3990  12.6638  12.7353
    12.8045  12.8045  12.9275  12.9276

     occupation numbers 
     1.0000   1.0000   1.0000   1.0000   1.0000   1.0000   1.0000   1.0000
     1.0000   1.0000   1.0000   1.0000   1.0000   1.0000   1.0000   1.0000
     1.0000   1.0000   1.0000   1.0000   1.0000   1.0000   1.0000   1.0000
     1.0000   1.0000   1.0000   1.0000   1.0000   1.0000   1.0000   1.0000
     1.0000   1.0000   1.0000   1.0000   1.0000   1.0000   1.0000   1.0000
     1.0000   1.0000   1.0000   1.0000   1.0000   1.0000   1.0000   1.0000
     1.0000   1.0000   1.0000   1.0000   1.0000   1.0000   1.0000   1.0000
     1.0000   1.0000   1.0000   1.0000   1.0000   1.0000   1.0000   1.0000
     1.0000   1.0000   1.0000   1.0000   1.0000   1.0000   1.0000   1.0000
     1.0000   1.0000   1.0000   1.0000   1.0000   1.0000   1.0000   1.0000
     1.0000   1.0000   1.0000   1.0000   1.0000   1.0000   1.0000   1.0000
     1.0000   1.0000   1.0000   1.0000   1.0000   1.0000   1.0000   1.0000
     1.0000   1.0000   1.0000   1.0000   1.0000   1.0000   1.0000   1.0000
     1.0000   0.0000   0.0000   0.0000   0.0000   0.0000   0.0000   0.0000
     0.0000   0.0000   0.0000   0.0000   0.0000   0.0000   0.0000   0.0000
     0.0000   0.0000   0.0000   0.0000   0.0000   0.0000   0.0000   0.0000
     0.0000   0.0000   0.0000   0.0000   0.0000   0.0000   0.0000   0.0000
     0.0000   0.0000   0.0000   0.0000

          k = 0.0000 0.0962-0.0679 ( 53163 PWs)   bands (ev):

   -28.2756 -28.2755 -28.2754 -14.9222 -14.9221 -14.9220 -14.9163 -14.9161
   -14.9160 -14.9042 -14.9040 -14.9040 -14.8638 -14.8637 -14.8636 -14.8187
   -14.8185 -14.8185 -10.3323 -10.3300 -10.3252 -10.3086 -10.2987 -10.2836
   -10.2593 -10.2590 -10.2553  -6.8340  -6.6217  -6.4603  -5.7923  -5.6863
    -5.6106  -5.5545  -5.4913  -5.4397  -5.3920  -5.3730  -5.2637  -0.3756
    -0.3248  -0.2889   1.5673   1.6033   1.6774   2.0098   2.0667   2.0861
     2.3252   2.3796   2.5092   2.6530   2.8225   2.8500   3.1650   3.2033
     3.2424   3.3732   3.4056   3.4727   3.5294   3.5482   3.6188   3.6733
     3.7276   3.8241   3.8605   3.9565   4.1106   4.1936   4.2365   4.2926
     4.4926   4.5852   4.8118   5.1412   5.1633   5.1908   5.2145   5.2414
     5.2515   5.3100   5.3222   5.3475   5.4168   5.4290   5.4656   5.4998
     5.5236   5.6292   5.6854   5.7532   5.7832   5.9232   6.0800   6.1661
     6.2890   6.3164   6.4977   6.6204   6.7906   6.8433   6.8897   7.0315
     7.1415   7.8397   8.4252   8.5446   9.1637   9.3231   9.9127  10.5325
    10.6212  10.6969  10.7728  10.8730  10.9417  10.9711  11.0277  11.1339
    11.1808  11.2721  11.2832  11.3852  11.5292  11.6085  11.7044  11.8184
    11.9703  11.9938  12.1463  12.1760  12.2478  12.3243  12.3735  12.4714
    12.5101  12.8789  12.9628  13.0487

     occupation numbers 
     1.0000   1.0000   1.0000   1.0000   1.0000   1.0000   1.0000   1.0000
     1.0000   1.0000   1.0000   1.0000   1.0000   1.0000   1.0000   1.0000
     1.0000   1.0000   1.0000   1.0000   1.0000   1.0000   1.0000   1.0000
     1.0000   1.0000   1.0000   1.0000   1.0000   1.0000   1.0000   1.0000
     1.0000   1.0000   1.0000   1.0000   1.0000   1.0000   1.0000   1.0000
     1.0000   1.0000   1.0000   1.0000   1.0000   1.0000   1.0000   1.0000
     1.0000   1.0000   1.0000   1.0000   1.0000   1.0000   1.0000   1.0000
     1.0000   1.0000   1.0000   1.0000   1.0000   1.0000   1.0000   1.0000
     1.0000   1.0000   1.0000   1.0000   1.0000   1.0000   1.0000   1.0000
     1.0000   1.0000   1.0000   1.0000   1.0000   1.0000   1.0000   1.0000
     1.0000   1.0000   1.0000   1.0000   1.0000   1.0000   1.0000   1.0000
     1.0000   1.0000   1.0000   1.0000   1.0000   1.0000   1.0000   1.0000
     1.0000   1.0000   1.0000   1.0000   1.0000   1.0000   1.0000   1.0000
     1.0000   0.0000   0.0000   0.0000   0.0000   0.0000   0.0000   0.0000
     0.0000   0.0000   0.0000   0.0000   0.0000   0.0000   0.0000   0.0000
     0.0000   0.0000   0.0000   0.0000   0.0000   0.0000   0.0000   0.0000
     0.0000   0.0000   0.0000   0.0000   0.0000   0.0000   0.0000   0.0000
     0.0000   0.0000   0.0000   0.0000

          k = 0.0000 0.0962-0.1357 ( 53136 PWs)   bands (ev):

   -28.2756 -28.2755 -28.2754 -14.9222 -14.9221 -14.9220 -14.9163 -14.9161
   -14.9160 -14.9042 -14.9040 -14.9040 -14.8638 -14.8637 -14.8636 -14.8187
   -14.8185 -14.8185 -10.3329 -10.3285 -10.3260 -10.3116 -10.2933 -10.2854
   -10.2591 -10.2587 -10.2564  -6.8051  -6.6961  -6.3961  -5.8454  -5.6537
    -5.6186  -5.5686  -5.4636  -5.4420  -5.3938  -5.3509  -5.2855  -0.3723
    -0.3417  -0.2765   1.5751   1.5862   1.6967   1.9782   2.0895   2.0957
     2.3361   2.4336   2.4729   2.6674   2.7487   2.8056   3.1651   3.1997
     3.2740   3.3482   3.4462   3.4865   3.5345   3.5685   3.6250   3.6637
     3.7386   3.8532   3.9154   3.9325   4.0662   4.1546   4.2206   4.2775
     4.4805   4.6553   4.7799   5.1478   5.1499   5.1811   5.2083   5.2594
     5.2733   5.3187   5.3227   5.3598   5.3899   5.4021   5.4223   5.5269
     5.5595   5.6097   5.6598   5.7848   5.8049   5.8696   6.1751   6.2283
     6.3392   6.3479   6.4119   6.4787   6.6235   6.9173   6.9889   7.0382
     7.1182   7.9845   8.3084   8.5711   9.1412   9.4765   9.8204  10.4707
    10.5540  10.6589  10.7848  10.8975  10.9498  10.9863  10.9917  11.0882
    11.1972  11.2450  11.2974  11.3309  11.5512  11.6338  11.7669  11.8727
    11.9288  11.9912  12.0371  12.1087  12.2648  12.2822  12.4512  12.4640
    12.6318  12.9195  13.1092  13.2049

     occupation numbers 
     1.0000   1.0000   1.0000   1.0000   1.0000   1.0000   1.0000   1.0000
     1.0000   1.0000   1.0000   1.0000   1.0000   1.0000   1.0000   1.0000
     1.0000   1.0000   1.0000   1.0000   1.0000   1.0000   1.0000   1.0000
     1.0000   1.0000   1.0000   1.0000   1.0000   1.0000   1.0000   1.0000
     1.0000   1.0000   1.0000   1.0000   1.0000   1.0000   1.0000   1.0000
     1.0000   1.0000   1.0000   1.0000   1.0000   1.0000   1.0000   1.0000
     1.0000   1.0000   1.0000   1.0000   1.0000   1.0000   1.0000   1.0000
     1.0000   1.0000   1.0000   1.0000   1.0000   1.0000   1.0000   1.0000
     1.0000   1.0000   1.0000   1.0000   1.0000   1.0000   1.0000   1.0000
     1.0000   1.0000   1.0000   1.0000   1.0000   1.0000   1.0000   1.0000
     1.0000   1.0000   1.0000   1.0000   1.0000   1.0000   1.0000   1.0000
     1.0000   1.0000   1.0000   1.0000   1.0000   1.0000   1.0000   1.0000
     1.0000   1.0000   1.0000   1.0000   1.0000   1.0000   1.0000   1.0000
     1.0000   0.0000   0.0000   0.0000   0.0000   0.0000   0.0000   0.0000
     0.0000   0.0000   0.0000   0.0000   0.0000   0.0000   0.0000   0.0000
     0.0000   0.0000   0.0000   0.0000   0.0000   0.0000   0.0000   0.0000
     0.0000   0.0000   0.0000   0.0000   0.0000   0.0000   0.0000   0.0000
     0.0000   0.0000   0.0000   0.0000

          k = 0.0000 0.1925-0.0679 ( 53146 PWs)   bands (ev):

   -28.2756 -28.2755 -28.2753 -14.9221 -14.9220 -14.9220 -14.9162 -14.9161
   -14.9160 -14.9041 -14.9040 -14.9040 -14.8638 -14.8637 -14.8636 -14.8187
   -14.8185 -14.8185 -10.3336 -10.3312 -10.3269 -10.3074 -10.2993 -10.2856
   -10.2624 -10.2606 -10.2566  -6.7784  -6.5756  -6.4230  -5.7794  -5.6862
    -5.6338  -5.5997  -5.5020  -5.4606  -5.4353  -5.3992  -5.2765  -0.4366
    -0.3419  -0.2975   1.5168   1.6232   1.6987   2.0486   2.0959   2.1990
     2.3784   2.4431   2.6175   2.7303   2.8307   2.8750   3.1475   3.1724
     3.2343   3.3122   3.3512   3.4618   3.5278   3.5683   3.6214   3.6288
     3.6972   3.8577   3.9105   3.9691   4.0967   4.1709   4.2356   4.3175
     4.4901   4.5360   4.7454   5.1535   5.1694   5.2081   5.2223   5.2542
     5.2725   5.3115   5.3225   5.3767   5.4305   5.4498   5.4876   5.5118
     5.5293   5.6472   5.6847   5.7393   5.8145   5.9219   6.0660   6.1589
     6.2846   6.3055   6.4895   6.5487   6.6618   6.7954   6.8632   6.9129
     7.0671   8.1279   8.4480   8.5165   9.2959   9.4198   9.9642  10.3273
    10.5098  10.5947  10.6671  10.7817  10.8707  10.8990  10.9786  11.0787
    11.1902  11.2987  11.3055  11.4708  11.5352  11.6342  11.7255  11.8522
    11.9647  12.0711  12.1332  12.1845  12.3342  12.4091  12.4691  12.4826
    12.6210  12.7964  12.8966  13.0371

     occupation numbers 
     1.0000   1.0000   1.0000   1.0000   1.0000   1.0000   1.0000   1.0000
     1.0000   1.0000   1.0000   1.0000   1.0000   1.0000   1.0000   1.0000
     1.0000   1.0000   1.0000   1.0000   1.0000   1.0000   1.0000   1.0000
     1.0000   1.0000   1.0000   1.0000   1.0000   1.0000   1.0000   1.0000
     1.0000   1.0000   1.0000   1.0000   1.0000   1.0000   1.0000   1.0000
     1.0000   1.0000   1.0000   1.0000   1.0000   1.0000   1.0000   1.0000
     1.0000   1.0000   1.0000   1.0000   1.0000   1.0000   1.0000   1.0000
     1.0000   1.0000   1.0000   1.0000   1.0000   1.0000   1.0000   1.0000
     1.0000   1.0000   1.0000   1.0000   1.0000   1.0000   1.0000   1.0000
     1.0000   1.0000   1.0000   1.0000   1.0000   1.0000   1.0000   1.0000
     1.0000   1.0000   1.0000   1.0000   1.0000   1.0000   1.0000   1.0000
     1.0000   1.0000   1.0000   1.0000   1.0000   1.0000   1.0000   1.0000
     1.0000   1.0000   1.0000   1.0000   1.0000   1.0000   1.0000   1.0000
     1.0000   0.0000   0.0000   0.0000   0.0000   0.0000   0.0000   0.0000
     0.0000   0.0000   0.0000   0.0000   0.0000   0.0000   0.0000   0.0000
     0.0000   0.0000   0.0000   0.0000   0.0000   0.0000   0.0000   0.0000
     0.0000   0.0000   0.0000   0.0000   0.0000   0.0000   0.0000   0.0000
     0.0000   0.0000   0.0000   0.0000

          k = 0.0000 0.1925-0.1357 ( 53139 PWs)   bands (ev):

   -28.2756 -28.2755 -28.2753 -14.9221 -14.9220 -14.9220 -14.9162 -14.9161
   -14.9160 -14.9041 -14.9040 -14.9040 -14.8638 -14.8637 -14.8636 -14.8187
   -14.8185 -14.8185 -10.3343 -10.3298 -10.3276 -10.3101 -10.2947 -10.2871
   -10.2621 -10.2603 -10.2576  -6.7508  -6.6464  -6.3634  -5.8244  -5.6631
    -5.6377  -5.6072  -5.4859  -5.4653  -5.4394  -5.3701  -5.2960  -0.4331
    -0.3606  -0.2833   1.5156   1.6126   1.7370   1.9859   2.1294   2.1992
     2.3966   2.5183   2.5579   2.6783   2.8293   2.8528   3.1338   3.1883
     3.2460   3.2951   3.3755   3.4770   3.5193   3.6107   3.6312   3.6400
     3.6866   3.8801   3.9417   3.9481   4.0563   4.1331   4.2235   4.3134
     4.4806   4.5856   4.7295   5.1529   5.1688   5.1992   5.2121   5.2643
     5.2728   5.3181   5.3335   5.3690   5.4327   5.4472   5.4687   5.5165
     5.5569   5.6199   5.6743   5.7701   5.8140   5.8748   6.1593   6.1870
     6.3180   6.3419   6.4129   6.4519   6.5577   6.8508   6.9179   6.9455
     7.0386   8.2012   8.3884   8.5369   9.2777   9.5551   9.8725  10.2588
    10.4872  10.6418  10.6710  10.7228  10.8868  10.9203  10.9479  11.0350
    11.1981  11.2789  11.3199  11.4437  11.5496  11.6537  11.7358  11.8490
    11.8999  12.0334  12.0864  12.2398  12.3107  12.3980  12.4637  12.5114
    12.6351  12.8403  13.0590  13.2014

     occupation numbers 
     1.0000   1.0000   1.0000   1.0000   1.0000   1.0000   1.0000   1.0000
     1.0000   1.0000   1.0000   1.0000   1.0000   1.0000   1.0000   1.0000
     1.0000   1.0000   1.0000   1.0000   1.0000   1.0000   1.0000   1.0000
     1.0000   1.0000   1.0000   1.0000   1.0000   1.0000   1.0000   1.0000
     1.0000   1.0000   1.0000   1.0000   1.0000   1.0000   1.0000   1.0000
     1.0000   1.0000   1.0000   1.0000   1.0000   1.0000   1.0000   1.0000
     1.0000   1.0000   1.0000   1.0000   1.0000   1.0000   1.0000   1.0000
     1.0000   1.0000   1.0000   1.0000   1.0000   1.0000   1.0000   1.0000
     1.0000   1.0000   1.0000   1.0000   1.0000   1.0000   1.0000   1.0000
     1.0000   1.0000   1.0000   1.0000   1.0000   1.0000   1.0000   1.0000
     1.0000   1.0000   1.0000   1.0000   1.0000   1.0000   1.0000   1.0000
     1.0000   1.0000   1.0000   1.0000   1.0000   1.0000   1.0000   1.0000
     1.0000   1.0000   1.0000   1.0000   1.0000   1.0000   1.0000   1.0000
     1.0000   0.0000   0.0000   0.0000   0.0000   0.0000   0.0000   0.0000
     0.0000   0.0000   0.0000   0.0000   0.0000   0.0000   0.0000   0.0000
     0.0000   0.0000   0.0000   0.0000   0.0000   0.0000   0.0000   0.0000
     0.0000   0.0000   0.0000   0.0000   0.0000   0.0000   0.0000   0.0000
     0.0000   0.0000   0.0000   0.0000

          k = 0.0000 0.2887-0.0679 ( 53160 PWs)   bands (ev):

   -28.2756 -28.2755 -28.2753 -14.9220 -14.9220 -14.9219 -14.9161 -14.9161
   -14.9160 -14.9040 -14.9040 -14.9039 -14.8639 -14.8637 -14.8636 -14.8187
   -14.8185 -14.8185 -10.3354 -10.3328 -10.3295 -10.3058 -10.3011 -10.2882
   -10.2660 -10.2625 -10.2583  -6.6912  -6.5044  -6.3659  -5.7716  -5.7074
    -5.6943  -5.6353  -5.5170  -5.4976  -5.4785  -5.4344  -5.2943  -0.5061
    -0.3604  -0.3067   1.4685   1.6297   1.7191   2.0624   2.1900   2.3140
     2.4459   2.5393   2.7485   2.7745   2.8633   2.9636   3.0802   3.1600
     3.2123   3.2784   3.3019   3.4614   3.5086   3.5425   3.6064   3.6471
     3.6750   3.8717   3.9576   3.9818   4.0944   4.1382   4.2255   4.3532
     4.4585   4.5075   4.6791   5.1538   5.1651   5.2055   5.2434   5.2718
     5.3023   5.3073   5.3370   5.3836   5.4565   5.4869   5.5004   5.5433
     5.5771   5.6537   5.6991   5.7359   5.8325   5.9325   6.0367   6.1411
     6.2685   6.3212   6.3873   6.4663   6.6243   6.7318   6.8019   6.8318
     6.9732   8.3232   8.4664   8.4838   9.4961   9.5589   9.9602  10.1729
    10.3794  10.3923  10.5400  10.7099  10.8090  10.8888  10.9132  11.0678
    11.1911  11.2909  11.3584  11.5202  11.6347  11.6624  11.7070  11.9905
    12.0152  12.0463  12.0862  12.1429  12.3643  12.3977  12.4425  12.6391
    12.6740  12.7462  12.8968  12.9995

     occupation numbers 
     1.0000   1.0000   1.0000   1.0000   1.0000   1.0000   1.0000   1.0000
     1.0000   1.0000   1.0000   1.0000   1.0000   1.0000   1.0000   1.0000
     1.0000   1.0000   1.0000   1.0000   1.0000   1.0000   1.0000   1.0000
     1.0000   1.0000   1.0000   1.0000   1.0000   1.0000   1.0000   1.0000
     1.0000   1.0000   1.0000   1.0000   1.0000   1.0000   1.0000   1.0000
     1.0000   1.0000   1.0000   1.0000   1.0000   1.0000   1.0000   1.0000
     1.0000   1.0000   1.0000   1.0000   1.0000   1.0000   1.0000   1.0000
     1.0000   1.0000   1.0000   1.0000   1.0000   1.0000   1.0000   1.0000
     1.0000   1.0000   1.0000   1.0000   1.0000   1.0000   1.0000   1.0000
     1.0000   1.0000   1.0000   1.0000   1.0000   1.0000   1.0000   1.0000
     1.0000   1.0000   1.0000   1.0000   1.0000   1.0000   1.0000   1.0000
     1.0000   1.0000   1.0000   1.0000   1.0000   1.0000   1.0000   1.0000
     1.0000   1.0000   1.0000   1.0000   1.0000   1.0000   1.0000   1.0000
     1.0000   0.0000   0.0000   0.0000   0.0000   0.0000   0.0000   0.0000
     0.0000   0.0000   0.0000   0.0000   0.0000   0.0000   0.0000   0.0000
     0.0000   0.0000   0.0000   0.0000   0.0000   0.0000   0.0000   0.0000
     0.0000   0.0000   0.0000   0.0000   0.0000   0.0000   0.0000   0.0000
     0.0000   0.0000   0.0000   0.0000

          k = 0.0000 0.2887-0.1357 ( 53194 PWs)   bands (ev):

   -28.2756 -28.2755 -28.2753 -14.9220 -14.9220 -14.9219 -14.9162 -14.9161
   -14.9160 -14.9040 -14.9040 -14.9039 -14.8639 -14.8637 -14.8636 -14.8187
   -14.8185 -14.8185 -10.3361 -10.3317 -10.3300 -10.3081 -10.2976 -10.2892
   -10.2655 -10.2623 -10.2591  -6.6659  -6.5686  -6.3141  -5.8001  -5.7060
    -5.6924  -5.6311  -5.5210  -5.4971  -5.4880  -5.3981  -5.3094  -0.5025
    -0.3792  -0.2920   1.4617   1.6527   1.7217   2.0566   2.1546   2.3144
     2.4709   2.5961   2.7066   2.7100   2.8866   2.9768   3.0733   3.1392
     3.2267   3.2640   3.3254   3.4738   3.4946   3.5673   3.6380   3.6450
     3.6670   3.8853   3.9617   3.9786   4.0604   4.1186   4.2125   4.3569
     4.4831   4.5014   4.6765   5.1588   5.1631   5.1949   5.2337   5.2762
     5.2858   5.3350   5.3472   5.3784   5.4610   5.4687   5.5286   5.5409
     5.5861   5.6392   5.6874   5.7487   5.8272   5.8949   6.0968   6.1254
     6.2936   6.3271   6.3656   6.4598   6.5583   6.7642   6.8027   6.8665
     6.9471   8.3483   8.4551   8.4989   9.4765   9.6653   9.9272  10.1110
    10.3516  10.4352  10.5464  10.6404  10.8211  10.8444  10.9547  11.0694
    11.1865  11.3386  11.3702  11.4626  11.5774  11.6387  11.7493  11.8924
    11.9598  12.0147  12.1038  12.1735  12.3528  12.4171  12.4725  12.6251
    12.6980  12.8184  13.0274  13.0470

     occupation numbers 
     1.0000   1.0000   1.0000   1.0000   1.0000   1.0000   1.0000   1.0000
     1.0000   1.0000   1.0000   1.0000   1.0000   1.0000   1.0000   1.0000
     1.0000   1.0000   1.0000   1.0000   1.0000   1.0000   1.0000   1.0000
     1.0000   1.0000   1.0000   1.0000   1.0000   1.0000   1.0000   1.0000
     1.0000   1.0000   1.0000   1.0000   1.0000   1.0000   1.0000   1.0000
     1.0000   1.0000   1.0000   1.0000   1.0000   1.0000   1.0000   1.0000
     1.0000   1.0000   1.0000   1.0000   1.0000   1.0000   1.0000   1.0000
     1.0000   1.0000   1.0000   1.0000   1.0000   1.0000   1.0000   1.0000
     1.0000   1.0000   1.0000   1.0000   1.0000   1.0000   1.0000   1.0000
     1.0000   1.0000   1.0000   1.0000   1.0000   1.0000   1.0000   1.0000
     1.0000   1.0000   1.0000   1.0000   1.0000   1.0000   1.0000   1.0000
     1.0000   1.0000   1.0000   1.0000   1.0000   1.0000   1.0000   1.0000
     1.0000   1.0000   1.0000   1.0000   1.0000   1.0000   1.0000   1.0000
     1.0000   0.0000   0.0000   0.0000   0.0000   0.0000   0.0000   0.0000
     0.0000   0.0000   0.0000   0.0000   0.0000   0.0000   0.0000   0.0000
     0.0000   0.0000   0.0000   0.0000   0.0000   0.0000   0.0000   0.0000
     0.0000   0.0000   0.0000   0.0000   0.0000   0.0000   0.0000   0.0000
     0.0000   0.0000   0.0000   0.0000

          k = 0.0000 0.3849-0.0679 ( 53166 PWs)   bands (ev):

   -28.2756 -28.2755 -28.2753 -14.9219 -14.9219 -14.9218 -14.9161 -14.9160
   -14.9159 -14.9040 -14.9040 -14.9039 -14.8639 -14.8637 -14.8636 -14.8187
   -14.8185 -14.8184 -10.3372 -10.3345 -10.3323 -10.3043 -10.3038 -10.2904
   -10.2685 -10.2642 -10.2601  -6.5820  -6.4187  -6.2976  -5.8192  -5.7933
    -5.7263  -5.6297  -5.5670  -5.5243  -5.5129  -5.4496  -5.3138  -0.5634
    -0.3758  -0.3123   1.4353   1.6106   1.8072   2.0231   2.2851   2.3599
     2.5109   2.6272   2.7859   2.8561   2.9040   2.9888   3.0600   3.1718
     3.2426   3.2804   3.2961   3.4603   3.4893   3.5206   3.5863   3.6498
     3.6794   3.8663   3.9824   4.0223   4.0944   4.1150   4.2088   4.3823
     4.3892   4.5356   4.6215   5.1454   5.1708   5.2090   5.2471   5.2849
     5.2993   5.3047   5.3588   5.3739   5.4639   5.5156   5.5357   5.5739
     5.6230   5.6785   5.7209   5.7429   5.8744   5.9421   6.0051   6.0988
     6.2635   6.2784   6.3902   6.4256   6.5599   6.6560   6.7091   6.7580
     6.8946   8.3829   8.4348   8.5076   9.6931   9.7148   9.9604  10.0325
    10.2286  10.3194  10.5095  10.6069  10.7662  10.8184  10.9661  11.0385
    11.1716  11.2699  11.4214  11.5453  11.6346  11.7484  11.7861  11.9055
    11.9271  11.9711  12.1769  12.2059  12.2571  12.4226  12.4414  12.5615
    12.6371  12.8118  12.8514  12.9527

     occupation numbers 
     1.0000   1.0000   1.0000   1.0000   1.0000   1.0000   1.0000   1.0000
     1.0000   1.0000   1.0000   1.0000   1.0000   1.0000   1.0000   1.0000
     1.0000   1.0000   1.0000   1.0000   1.0000   1.0000   1.0000   1.0000
     1.0000   1.0000   1.0000   1.0000   1.0000   1.0000   1.0000   1.0000
     1.0000   1.0000   1.0000   1.0000   1.0000   1.0000   1.0000   1.0000
     1.0000   1.0000   1.0000   1.0000   1.0000   1.0000   1.0000   1.0000
     1.0000   1.0000   1.0000   1.0000   1.0000   1.0000   1.0000   1.0000
     1.0000   1.0000   1.0000   1.0000   1.0000   1.0000   1.0000   1.0000
     1.0000   1.0000   1.0000   1.0000   1.0000   1.0000   1.0000   1.0000
     1.0000   1.0000   1.0000   1.0000   1.0000   1.0000   1.0000   1.0000
     1.0000   1.0000   1.0000   1.0000   1.0000   1.0000   1.0000   1.0000
     1.0000   1.0000   1.0000   1.0000   1.0000   1.0000   1.0000   1.0000
     1.0000   1.0000   1.0000   1.0000   1.0000   1.0000   1.0000   1.0000
     1.0000   0.0000   0.0000   0.0000   0.0000   0.0000   0.0000   0.0000
     0.0000   0.0000   0.0000   0.0000   0.0000   0.0000   0.0000   0.0000
     0.0000   0.0000   0.0000   0.0000   0.0000   0.0000   0.0000   0.0000
     0.0000   0.0000   0.0000   0.0000   0.0000   0.0000   0.0000   0.0000
     0.0000   0.0000   0.0000   0.0000

          k = 0.0000 0.3849-0.1357 ( 53156 PWs)   bands (ev):

   -28.2756 -28.2755 -28.2753 -14.9219 -14.9219 -14.9218 -14.9161 -14.9160
   -14.9159 -14.9040 -14.9040 -14.9039 -14.8639 -14.8637 -14.8636 -14.8187
   -14.8185 -14.8184 -10.3379 -10.3339 -10.3322 -10.3060 -10.3013 -10.2912
   -10.2681 -10.2641 -10.2605  -6.5603  -6.4718  -6.2587  -5.8229  -5.7919
    -5.7317  -5.6350  -5.5690  -5.5283  -5.5203  -5.4224  -5.3219  -0.5593
    -0.3936  -0.2991   1.4338   1.6257   1.7904   2.0773   2.2001   2.3602
     2.5471   2.6427   2.7615   2.8388   2.9186   2.9815   3.0677   3.1939
     3.2001   3.2767   3.3238   3.4720   3.4757   3.5336   3.6108   3.6477
     3.6674   3.8797   3.9819   4.0198   4.0657   4.1196   4.1907   4.3872
     4.3975   4.5355   4.6219   5.1542   5.1715   5.1973   5.2346   5.2787
     5.2976   5.3282   5.3630   5.3922   5.4327   5.5088   5.5533   5.6022
     5.6184   5.6817   5.7167   5.7337   5.8780   5.9143   6.0346   6.0592
     6.2694   6.2769   6.3718   6.4708   6.5456   6.6767   6.7194   6.7471
     6.8688   8.3887   8.4340   8.5216   9.6703   9.7711   9.9747  10.0509
    10.2277  10.3338  10.4451  10.5528  10.7775  10.8210  10.9616  11.0942
    11.1390  11.3179  11.4472  11.4811  11.6078  11.6925  11.7790  11.8145
    11.9183  11.9442  12.1028  12.1973  12.3720  12.4242  12.4340  12.5940
    12.7032  12.8007  12.8922  13.0722

     occupation numbers 
     1.0000   1.0000   1.0000   1.0000   1.0000   1.0000   1.0000   1.0000
     1.0000   1.0000   1.0000   1.0000   1.0000   1.0000   1.0000   1.0000
     1.0000   1.0000   1.0000   1.0000   1.0000   1.0000   1.0000   1.0000
     1.0000   1.0000   1.0000   1.0000   1.0000   1.0000   1.0000   1.0000
     1.0000   1.0000   1.0000   1.0000   1.0000   1.0000   1.0000   1.0000
     1.0000   1.0000   1.0000   1.0000   1.0000   1.0000   1.0000   1.0000
     1.0000   1.0000   1.0000   1.0000   1.0000   1.0000   1.0000   1.0000
     1.0000   1.0000   1.0000   1.0000   1.0000   1.0000   1.0000   1.0000
     1.0000   1.0000   1.0000   1.0000   1.0000   1.0000   1.0000   1.0000
     1.0000   1.0000   1.0000   1.0000   1.0000   1.0000   1.0000   1.0000
     1.0000   1.0000   1.0000   1.0000   1.0000   1.0000   1.0000   1.0000
     1.0000   1.0000   1.0000   1.0000   1.0000   1.0000   1.0000   1.0000
     1.0000   1.0000   1.0000   1.0000   1.0000   1.0000   1.0000   1.0000
     1.0000   0.0000   0.0000   0.0000   0.0000   0.0000   0.0000   0.0000
     0.0000   0.0000   0.0000   0.0000   0.0000   0.0000   0.0000   0.0000
     0.0000   0.0000   0.0000   0.0000   0.0000   0.0000   0.0000   0.0000
     0.0000   0.0000   0.0000   0.0000   0.0000   0.0000   0.0000   0.0000
     0.0000   0.0000   0.0000   0.0000

          k = 0.0000 0.4811-0.0679 ( 53193 PWs)   bands (ev):

   -28.2756 -28.2755 -28.2753 -14.9219 -14.9218 -14.9217 -14.9161 -14.9159
   -14.9159 -14.9039 -14.9039 -14.9039 -14.8639 -14.8637 -14.8636 -14.8187
   -14.8185 -14.8184 -10.3384 -10.3358 -10.3344 -10.3069 -10.3027 -10.2920
   -10.2697 -10.2652 -10.2616  -6.4705  -6.3419  -6.2355  -5.9374  -5.8338
    -5.7617  -5.6201  -5.6029  -5.5493  -5.5382  -5.4423  -5.3318  -0.5986
    -0.3882  -0.3129   1.4102   1.6215   1.9305   1.9699   2.2852   2.4007
     2.5082   2.6085   2.8281   2.9002   2.9265   2.9813   3.1001   3.1650
     3.2802   3.3485   3.3656   3.4664   3.4777   3.4988   3.5711   3.6391
     3.6826   3.8499   4.0004   4.0633   4.1016   4.1158   4.1983   4.3076
     4.4176   4.5432   4.6026   5.1434   5.1839   5.2240   5.2444   5.2647
     5.2961   5.3011   5.3537   5.3852   5.4381   5.5173   5.5733   5.6107
     5.6375   5.6880   5.7297   5.8055   5.9069   5.9540   5.9930   6.1088
     6.2345   6.2769   6.3666   6.4039   6.4540   6.6033   6.6432   6.7214
     6.8296   8.3391   8.4070   8.5694   9.7054   9.8324  10.0110  10.0612
    10.1427  10.3115  10.4834  10.5608  10.7599  10.7875  10.9458  11.0608
    11.1868  11.2908  11.4136  11.5571  11.6278  11.6955  11.7323  11.7849
    11.9053  11.9540  12.0478  12.1274  12.2549  12.3787  12.4863  12.5952
    12.6853  12.7623  12.8439  12.9259

     occupation numbers 
     1.0000   1.0000   1.0000   1.0000   1.0000   1.0000   1.0000   1.0000
     1.0000   1.0000   1.0000   1.0000   1.0000   1.0000   1.0000   1.0000
     1.0000   1.0000   1.0000   1.0000   1.0000   1.0000   1.0000   1.0000
     1.0000   1.0000   1.0000   1.0000   1.0000   1.0000   1.0000   1.0000
     1.0000   1.0000   1.0000   1.0000   1.0000   1.0000   1.0000   1.0000
     1.0000   1.0000   1.0000   1.0000   1.0000   1.0000   1.0000   1.0000
     1.0000   1.0000   1.0000   1.0000   1.0000   1.0000   1.0000   1.0000
     1.0000   1.0000   1.0000   1.0000   1.0000   1.0000   1.0000   1.0000
     1.0000   1.0000   1.0000   1.0000   1.0000   1.0000   1.0000   1.0000
     1.0000   1.0000   1.0000   1.0000   1.0000   1.0000   1.0000   1.0000
     1.0000   1.0000   1.0000   1.0000   1.0000   1.0000   1.0000   1.0000
     1.0000   1.0000   1.0000   1.0000   1.0000   1.0000   1.0000   1.0000
     1.0000   1.0000   1.0000   1.0000   1.0000   1.0000   1.0000   1.0000
     1.0000   0.0000   0.0000   0.0000   0.0000   0.0000   0.0000   0.0000
     0.0000   0.0000   0.0000   0.0000   0.0000   0.0000   0.0000   0.0000
     0.0000   0.0000   0.0000   0.0000   0.0000   0.0000   0.0000   0.0000
     0.0000   0.0000   0.0000   0.0000   0.0000   0.0000   0.0000   0.0000
     0.0000   0.0000   0.0000   0.0000

          k = 0.0000 0.4811-0.1357 ( 53193 PWs)   bands (ev):

   -28.2756 -28.2755 -28.2753 -14.9219 -14.9218 -14.9217 -14.9161 -14.9159
   -14.9159 -14.9039 -14.9039 -14.9039 -14.8639 -14.8637 -14.8636 -14.8187
   -14.8185 -14.8184 -10.3391 -10.3360 -10.3336 -10.3058 -10.3032 -10.2928
   -10.2693 -10.2654 -10.2616  -6.4560  -6.3729  -6.2193  -5.9381  -5.8265
    -5.7548  -5.6425  -5.5990  -5.5506  -5.5387  -5.4355  -5.3316  -0.5938
    -0.4043  -0.3022   1.4228   1.5973   1.9257   2.0255   2.2508   2.3878
     2.4948   2.6186   2.8354   2.8630   2.9302   2.9990   3.1287   3.1609
     3.2808   3.3397   3.3688   3.4596   3.4924   3.5087   3.5656   3.6363
     3.6756   3.8777   3.9976   4.0478   4.0949   4.1257   4.1708   4.3068
     4.4192   4.5701   4.5869   5.1515   5.1794   5.2232   5.2340   5.2685
     5.2849   5.3177   5.3571   5.3975   5.4127   5.5314   5.5681   5.6157
     5.6558   5.6863   5.7209   5.8088   5.8990   5.9562   6.0122   6.0674
     6.2226   6.2643   6.3521   6.4415   6.4641   6.6345   6.6595   6.6939
     6.8050   8.3558   8.4001   8.5704   9.6985   9.8309  10.0508  10.0751
    10.1892  10.3652  10.3872  10.5013  10.7529  10.8364  10.9537  11.1084
    11.1303  11.2852  11.4491  11.5216  11.6000  11.6685  11.7309  11.7605
    11.8107  11.9296  11.9340  12.1748  12.3450  12.3983  12.4497  12.6141
    12.7403  12.8026  12.8873  13.0349

     occupation numbers 
     1.0000   1.0000   1.0000   1.0000   1.0000   1.0000   1.0000   1.0000
     1.0000   1.0000   1.0000   1.0000   1.0000   1.0000   1.0000   1.0000
     1.0000   1.0000   1.0000   1.0000   1.0000   1.0000   1.0000   1.0000
     1.0000   1.0000   1.0000   1.0000   1.0000   1.0000   1.0000   1.0000
     1.0000   1.0000   1.0000   1.0000   1.0000   1.0000   1.0000   1.0000
     1.0000   1.0000   1.0000   1.0000   1.0000   1.0000   1.0000   1.0000
     1.0000   1.0000   1.0000   1.0000   1.0000   1.0000   1.0000   1.0000
     1.0000   1.0000   1.0000   1.0000   1.0000   1.0000   1.0000   1.0000
     1.0000   1.0000   1.0000   1.0000   1.0000   1.0000   1.0000   1.0000
     1.0000   1.0000   1.0000   1.0000   1.0000   1.0000   1.0000   1.0000
     1.0000   1.0000   1.0000   1.0000   1.0000   1.0000   1.0000   1.0000
     1.0000   1.0000   1.0000   1.0000   1.0000   1.0000   1.0000   1.0000
     1.0000   1.0000   1.0000   1.0000   1.0000   1.0000   1.0000   1.0000
     1.0000   0.0000   0.0000   0.0000   0.0000   0.0000   0.0000   0.0000
     0.0000   0.0000   0.0000   0.0000   0.0000   0.0000   0.0000   0.0000
     0.0000   0.0000   0.0000   0.0000   0.0000   0.0000   0.0000   0.0000
     0.0000   0.0000   0.0000   0.0000   0.0000   0.0000   0.0000   0.0000
     0.0000   0.0000   0.0000   0.0000

          k =-0.0833 0.2406-0.0679 ( 53136 PWs)   bands (ev):

   -28.2756 -28.2755 -28.2753 -14.9220 -14.9220 -14.9219 -14.9162 -14.9161
   -14.9160 -14.9041 -14.9040 -14.9039 -14.8638 -14.8637 -14.8636 -14.8187
   -14.8185 -14.8184 -10.3347 -10.3323 -10.3284 -10.3066 -10.2999 -10.2875
   -10.2646 -10.2620 -10.2577  -6.7252  -6.5319  -6.3882  -5.7687  -5.6948
    -5.6633  -5.6323  -5.5161  -5.4837  -5.4646  -5.4194  -5.2885  -0.4746
    -0.3668  -0.2988   1.4916   1.6374   1.7045   2.0619   2.1206   2.3119
     2.4108   2.4998   2.7084   2.7642   2.8495   2.9259   3.1026   3.1448
     3.2257   3.2822   3.3360   3.4538   3.5136   3.5578   3.6059   3.6376
     3.6977   3.8448   3.9383   3.9931   4.0869   4.1539   4.2518   4.3350
     4.4612   4.5151   4.7025   5.1541   5.1738   5.2116   5.2243   5.2628
     5.2885   5.3105   5.3383   5.3927   5.4351   5.4653   5.4981   5.5412
     5.5535   5.6575   5.6946   5.7406   5.8210   5.9152   6.0608   6.1550
     6.2672   6.3058   6.4364   6.4757   6.6337   6.7537   6.8357   6.8706
     7.0091   8.2678   8.4561   8.4940   9.4117   9.5155   9.9503  10.2549
    10.3492  10.5167  10.5729  10.7226  10.7978  10.8721  10.9682  11.0969
    11.2604  11.2857  11.3584  11.5305  11.5578  11.6229  11.7820  11.8578
    11.9906  12.0212  12.0776  12.2269  12.3576  12.4125  12.4786  12.5620
    12.6776  12.7566  12.8547  13.0055

     occupation numbers 
     1.0000   1.0000   1.0000   1.0000   1.0000   1.0000   1.0000   1.0000
     1.0000   1.0000   1.0000   1.0000   1.0000   1.0000   1.0000   1.0000
     1.0000   1.0000   1.0000   1.0000   1.0000   1.0000   1.0000   1.0000
     1.0000   1.0000   1.0000   1.0000   1.0000   1.0000   1.0000   1.0000
     1.0000   1.0000   1.0000   1.0000   1.0000   1.0000   1.0000   1.0000
     1.0000   1.0000   1.0000   1.0000   1.0000   1.0000   1.0000   1.0000
     1.0000   1.0000   1.0000   1.0000   1.0000   1.0000   1.0000   1.0000
     1.0000   1.0000   1.0000   1.0000   1.0000   1.0000   1.0000   1.0000
     1.0000   1.0000   1.0000   1.0000   1.0000   1.0000   1.0000   1.0000
     1.0000   1.0000   1.0000   1.0000   1.0000   1.0000   1.0000   1.0000
     1.0000   1.0000   1.0000   1.0000   1.0000   1.0000   1.0000   1.0000
     1.0000   1.0000   1.0000   1.0000   1.0000   1.0000   1.0000   1.0000
     1.0000   1.0000   1.0000   1.0000   1.0000   1.0000   1.0000   1.0000
     1.0000   0.0000   0.0000   0.0000   0.0000   0.0000   0.0000   0.0000
     0.0000   0.0000   0.0000   0.0000   0.0000   0.0000   0.0000   0.0000
     0.0000   0.0000   0.0000   0.0000   0.0000   0.0000   0.0000   0.0000
     0.0000   0.0000   0.0000   0.0000   0.0000   0.0000   0.0000   0.0000
     0.0000   0.0000   0.0000   0.0000

          k =-0.0833 0.2406-0.1357 ( 53165 PWs)   bands (ev):

   -28.2756 -28.2755 -28.2753 -14.9220 -14.9220 -14.9219 -14.9162 -14.9161
   -14.9160 -14.9041 -14.9040 -14.9039 -14.8638 -14.8637 -14.8636 -14.8187
   -14.8185 -14.8184 -10.3354 -10.3311 -10.3289 -10.3090 -10.2960 -10.2888
   -10.2642 -10.2619 -10.2584  -6.6989  -6.5989  -6.3331  -5.8057  -5.6848
    -5.6621  -5.6315  -5.5125  -5.4886  -5.4699  -5.3842  -5.3064  -0.4701
    -0.3844  -0.2864   1.4917   1.6197   1.7550   1.9954   2.1521   2.2991
     2.4361   2.5409   2.6740   2.7111   2.8628   2.9210   3.0971   3.1375
     3.2486   3.2771   3.3359   3.4741   3.5036   3.5830   3.6253   3.6481
     3.6863   3.8669   3.9366   3.9936   4.0553   4.1235   4.2388   4.3359
     4.4761   4.5244   4.6991   5.1583   5.1732   5.2003   5.2206   5.2517
     5.2894   5.3255   5.3499   5.3819   5.4485   5.4699   5.4923   5.5364
     5.5681   5.6376   5.6866   5.7622   5.8136   5.8805   6.1236   6.1583
     6.2996   6.3252   6.3826   6.4505   6.5524   6.7871   6.8482   6.9124
     6.9859   8.3105   8.4242   8.5139   9.3969   9.6309   9.8920  10.1831
    10.3183  10.5256  10.6292  10.6851  10.8278  10.8662  10.9336  11.0570
    11.2418  11.3131  11.3768  11.4918  11.5774  11.6060  11.7605  11.8474
    11.9203  12.0301  12.0520  12.2574  12.3268  12.4148  12.4840  12.5765
    12.6442  12.7921  13.0047  13.1529

     occupation numbers 
     1.0000   1.0000   1.0000   1.0000   1.0000   1.0000   1.0000   1.0000
     1.0000   1.0000   1.0000   1.0000   1.0000   1.0000   1.0000   1.0000
     1.0000   1.0000   1.0000   1.0000   1.0000   1.0000   1.0000   1.0000
     1.0000   1.0000   1.0000   1.0000   1.0000   1.0000   1.0000   1.0000
     1.0000   1.0000   1.0000   1.0000   1.0000   1.0000   1.0000   1.0000
     1.0000   1.0000   1.0000   1.0000   1.0000   1.0000   1.0000   1.0000
     1.0000   1.0000   1.0000   1.0000   1.0000   1.0000   1.0000   1.0000
     1.0000   1.0000   1.0000   1.0000   1.0000   1.0000   1.0000   1.0000
     1.0000   1.0000   1.0000   1.0000   1.0000   1.0000   1.0000   1.0000
     1.0000   1.0000   1.0000   1.0000   1.0000   1.0000   1.0000   1.0000
     1.0000   1.0000   1.0000   1.0000   1.0000   1.0000   1.0000   1.0000
     1.0000   1.0000   1.0000   1.0000   1.0000   1.0000   1.0000   1.0000
     1.0000   1.0000   1.0000   1.0000   1.0000   1.0000   1.0000   1.0000
     1.0000   0.0000   0.0000   0.0000   0.0000   0.0000   0.0000   0.0000
     0.0000   0.0000   0.0000   0.0000   0.0000   0.0000   0.0000   0.0000
     0.0000   0.0000   0.0000   0.0000   0.0000   0.0000   0.0000   0.0000
     0.0000   0.0000   0.0000   0.0000   0.0000   0.0000   0.0000   0.0000
     0.0000   0.0000   0.0000   0.0000

          k =-0.0833 0.3368-0.0679 ( 53168 PWs)   bands (ev):

   -28.2756 -28.2755 -28.2753 -14.9219 -14.9219 -14.9219 -14.9161 -14.9160
   -14.9159 -14.9040 -14.9040 -14.9039 -14.8639 -14.8637 -14.8636 -14.8187
   -14.8185 -14.8184 -10.3365 -10.3340 -10.3310 -10.3052 -10.3020 -10.2900
   -10.2674 -10.2641 -10.2594  -6.6265  -6.4525  -6.3253  -5.7739  -5.7608
    -5.7135  -5.6463  -5.5498  -5.5204  -5.4979  -5.4451  -5.3073  -0.5338
    -0.3818  -0.3089   1.4636   1.6426   1.7302   2.0644   2.2038   2.3728
     2.5048   2.5930   2.7710   2.8204   2.8843   3.0071   3.0405   3.1451
     3.2217   3.2728   3.3112   3.4595   3.4957   3.5292   3.5930   3.6526
     3.6898   3.8452   3.9716   4.0100   4.0954   4.1204   4.2463   4.3650
     4.4046   4.5212   4.6471   5.1445   5.1751   5.2103   5.2330   5.2769
     5.3032   5.3217   5.3447   5.3936   5.4558   5.4980   5.5307   5.5667
     5.5943   5.6769   5.7156   5.7423   5.8422   5.9322   6.0294   6.1149
     6.2486   6.2925   6.3828   6.4457   6.5900   6.6770   6.7796   6.7920
     6.9200   8.3674   8.4423   8.4979   9.6073   9.6570   9.9029  10.1239
    10.2693  10.3477  10.4774  10.6766  10.7525  10.8501  10.9350  11.0561
    11.2403  11.3180  11.4192  11.5582  11.6064  11.7353  11.7675  11.8781
    11.9749  12.0371  12.0843  12.1976  12.3118  12.3618  12.4595  12.6300
    12.7026  12.7453  12.8540  12.9318

     occupation numbers 
     1.0000   1.0000   1.0000   1.0000   1.0000   1.0000   1.0000   1.0000
     1.0000   1.0000   1.0000   1.0000   1.0000   1.0000   1.0000   1.0000
     1.0000   1.0000   1.0000   1.0000   1.0000   1.0000   1.0000   1.0000
     1.0000   1.0000   1.0000   1.0000   1.0000   1.0000   1.0000   1.0000
     1.0000   1.0000   1.0000   1.0000   1.0000   1.0000   1.0000   1.0000
     1.0000   1.0000   1.0000   1.0000   1.0000   1.0000   1.0000   1.0000
     1.0000   1.0000   1.0000   1.0000   1.0000   1.0000   1.0000   1.0000
     1.0000   1.0000   1.0000   1.0000   1.0000   1.0000   1.0000   1.0000
     1.0000   1.0000   1.0000   1.0000   1.0000   1.0000   1.0000   1.0000
     1.0000   1.0000   1.0000   1.0000   1.0000   1.0000   1.0000   1.0000
     1.0000   1.0000   1.0000   1.0000   1.0000   1.0000   1.0000   1.0000
     1.0000   1.0000   1.0000   1.0000   1.0000   1.0000   1.0000   1.0000
     1.0000   1.0000   1.0000   1.0000   1.0000   1.0000   1.0000   1.0000
     1.0000   0.0000   0.0000   0.0000   0.0000   0.0000   0.0000   0.0000
     0.0000   0.0000   0.0000   0.0000   0.0000   0.0000   0.0000   0.0000
     0.0000   0.0000   0.0000   0.0000   0.0000   0.0000   0.0000   0.0000
     0.0000   0.0000   0.0000   0.0000   0.0000   0.0000   0.0000   0.0000
     0.0000   0.0000   0.0000   0.0000

          k =-0.0833 0.3368-0.1357 ( 53172 PWs)   bands (ev):

   -28.2756 -28.2755 -28.2753 -14.9219 -14.9219 -14.9219 -14.9161 -14.9160
   -14.9159 -14.9040 -14.9040 -14.9039 -14.8639 -14.8637 -14.8636 -14.8187
   -14.8185 -14.8184 -10.3372 -10.3332 -10.3311 -10.3070 -10.2993 -10.2910
   -10.2670 -10.2640 -10.2599  -6.6031  -6.5111  -6.2802  -5.7900  -5.7597
    -5.7149  -5.6441  -5.5562  -5.5200  -5.5102  -5.4102  -5.3195  -0.5294
    -0.3991  -0.2965   1.4592   1.6647   1.7260   2.0722   2.1646   2.3759
     2.5179   2.6208   2.7324   2.8029   2.9139   2.9884   3.0522   3.1243
     3.2455   3.2588   3.3179   3.4719   3.4870   3.5390   3.6203   3.6513
     3.6820   3.8626   3.9587   4.0144   4.0764   4.1048   4.2318   4.3757
     4.4179   4.5104   4.6519   5.1524   5.1756   5.1996   5.2277   5.2623
     5.3133   5.3379   5.3479   5.3998   5.4484   5.4816   5.5462   5.5789
     5.6078   5.6698   5.7048   5.7379   5.8496   5.9024   6.0484   6.0954
     6.2615   6.3036   6.3701   6.4668   6.5570   6.6963   6.7531   6.8263
     6.9020   8.3756   8.4416   8.5117   9.5872   9.7339   9.9210  10.0886
    10.2190  10.3455  10.5100  10.6436  10.7701  10.8263  10.9381  11.0589
    11.2148  11.3750  11.4250  11.5133  11.5936  11.6668  11.7592  11.8485
    11.9273  12.0428  12.0888  12.1514  12.2748  12.4242  12.4620  12.6232
    12.7274  12.7808  12.9295  13.0161

     occupation numbers 
     1.0000   1.0000   1.0000   1.0000   1.0000   1.0000   1.0000   1.0000
     1.0000   1.0000   1.0000   1.0000   1.0000   1.0000   1.0000   1.0000
     1.0000   1.0000   1.0000   1.0000   1.0000   1.0000   1.0000   1.0000
     1.0000   1.0000   1.0000   1.0000   1.0000   1.0000   1.0000   1.0000
     1.0000   1.0000   1.0000   1.0000   1.0000   1.0000   1.0000   1.0000
     1.0000   1.0000   1.0000   1.0000   1.0000   1.0000   1.0000   1.0000
     1.0000   1.0000   1.0000   1.0000   1.0000   1.0000   1.0000   1.0000
     1.0000   1.0000   1.0000   1.0000   1.0000   1.0000   1.0000   1.0000
     1.0000   1.0000   1.0000   1.0000   1.0000   1.0000   1.0000   1.0000
     1.0000   1.0000   1.0000   1.0000   1.0000   1.0000   1.0000   1.0000
     1.0000   1.0000   1.0000   1.0000   1.0000   1.0000   1.0000   1.0000
     1.0000   1.0000   1.0000   1.0000   1.0000   1.0000   1.0000   1.0000
     1.0000   1.0000   1.0000   1.0000   1.0000   1.0000   1.0000   1.0000
     1.0000   0.0000   0.0000   0.0000   0.0000   0.0000   0.0000   0.0000
     0.0000   0.0000   0.0000   0.0000   0.0000   0.0000   0.0000   0.0000
     0.0000   0.0000   0.0000   0.0000   0.0000   0.0000   0.0000   0.0000
     0.0000   0.0000   0.0000   0.0000   0.0000   0.0000   0.0000   0.0000
     0.0000   0.0000   0.0000   0.0000

          k =-0.0833 0.4330-0.0679 ( 53182 PWs)   bands (ev):

   -28.2756 -28.2755 -28.2753 -14.9219 -14.9218 -14.9218 -14.9161 -14.9160
   -14.9159 -14.9040 -14.9039 -14.9039 -14.8639 -14.8637 -14.8636 -14.8187
   -14.8185 -14.8184 -10.3379 -10.3354 -10.3334 -10.3055 -10.3032 -10.2921
   -10.2691 -10.2654 -10.2611  -6.5138  -6.3685  -6.2593  -5.8778  -5.8103
    -5.7434  -5.6400  -5.5992  -5.5464  -5.5247  -5.4468  -5.3268  -0.5768
    -0.3907  -0.3169   1.4411   1.6364   1.8454   2.0066   2.2675   2.3931
     2.5438   2.6090   2.8189   2.8443   2.9108   2.9824   3.0948   3.1477
     3.2674   3.3109   3.3448   3.4735   3.4809   3.5040   3.5800   3.6573
     3.6879   3.8379   3.9844   4.0587   4.0827   4.1120   4.2378   4.3339
     4.4050   4.5459   4.6020   5.1398   5.1770   5.2218   5.2409   5.2662
     5.3022   5.3175   5.3551   5.3917   5.4508   5.5221   5.5449   5.6095
     5.6171   5.6948   5.7302   5.7820   5.8972   5.9321   5.9996   6.1054
     6.2316   6.2797   6.3802   6.4163   6.5161   6.6056   6.6997   6.7311
     6.8527   8.3526   8.4049   8.5529   9.6909   9.7720   9.9649  10.0509
    10.1540  10.3060  10.4591  10.5969  10.7626  10.8108  10.9524  11.0393
    11.2457  11.3131  11.4662  11.5646  11.5929  11.7141  11.7533  11.8136
    11.9202  11.9742  12.0535  12.1648  12.3077  12.3680  12.4823  12.6054
    12.6562  12.7455  12.8365  12.9315

     occupation numbers 
     1.0000   1.0000   1.0000   1.0000   1.0000   1.0000   1.0000   1.0000
     1.0000   1.0000   1.0000   1.0000   1.0000   1.0000   1.0000   1.0000
     1.0000   1.0000   1.0000   1.0000   1.0000   1.0000   1.0000   1.0000
     1.0000   1.0000   1.0000   1.0000   1.0000   1.0000   1.0000   1.0000
     1.0000   1.0000   1.0000   1.0000   1.0000   1.0000   1.0000   1.0000
     1.0000   1.0000   1.0000   1.0000   1.0000   1.0000   1.0000   1.0000
     1.0000   1.0000   1.0000   1.0000   1.0000   1.0000   1.0000   1.0000
     1.0000   1.0000   1.0000   1.0000   1.0000   1.0000   1.0000   1.0000
     1.0000   1.0000   1.0000   1.0000   1.0000   1.0000   1.0000   1.0000
     1.0000   1.0000   1.0000   1.0000   1.0000   1.0000   1.0000   1.0000
     1.0000   1.0000   1.0000   1.0000   1.0000   1.0000   1.0000   1.0000
     1.0000   1.0000   1.0000   1.0000   1.0000   1.0000   1.0000   1.0000
     1.0000   1.0000   1.0000   1.0000   1.0000   1.0000   1.0000   1.0000
     1.0000   0.0000   0.0000   0.0000   0.0000   0.0000   0.0000   0.0000
     0.0000   0.0000   0.0000   0.0000   0.0000   0.0000   0.0000   0.0000
     0.0000   0.0000   0.0000   0.0000   0.0000   0.0000   0.0000   0.0000
     0.0000   0.0000   0.0000   0.0000   0.0000   0.0000   0.0000   0.0000
     0.0000   0.0000   0.0000   0.0000

          k =-0.0833 0.4330-0.1357 ( 53171 PWs)   bands (ev):

   -28.2756 -28.2755 -28.2753 -14.9219 -14.9218 -14.9218 -14.9161 -14.9160
   -14.9159 -14.9040 -14.9039 -14.9039 -14.8639 -14.8637 -14.8636 -14.8187
   -14.8185 -14.8184 -10.3386 -10.3354 -10.3329 -10.3054 -10.3027 -10.2928
   -10.2687 -10.2655 -10.2612  -6.4953  -6.4118  -6.2310  -5.8780  -5.8063
    -5.7437  -5.6501  -5.5994  -5.5507  -5.5299  -5.4298  -5.3308  -0.5719
    -0.4076  -0.3053   1.4446   1.6380   1.8271   2.0632   2.2113   2.3962
     2.5473   2.6155   2.7947   2.8429   2.9016   3.0089   3.1050   3.1460
     3.2637   3.3061   3.3490   3.4664   3.4883   3.5167   3.5897   3.6544
     3.6780   3.8632   3.9750   4.0551   4.0706   4.1094   4.2204   4.3347
     4.4109   4.5485   4.6052   5.1486   5.1772   5.2137   5.2312   5.2642
     5.3092   5.3277   5.3584   5.3963   5.4331   5.5152   5.5586   5.6056
     5.6456   5.6891   5.7281   5.7774   5.8998   5.9216   6.0044   6.0746
     6.2292   6.2776   6.3605   6.4543   6.5157   6.6396   6.6918   6.7255
     6.8324   8.3607   8.4016   8.5599   9.6864   9.7739   9.9925  10.0530
    10.2153  10.3010  10.4122  10.5662  10.7452  10.8351  10.9736  11.0601
    11.2001  11.3329  11.4748  11.5347  11.5883  11.6809  11.7097  11.7941
    11.8626  11.9097  12.0325  12.2156  12.2913  12.3961  12.4730  12.5867
    12.7099  12.8069  12.8950  13.0189

     occupation numbers 
     1.0000   1.0000   1.0000   1.0000   1.0000   1.0000   1.0000   1.0000
     1.0000   1.0000   1.0000   1.0000   1.0000   1.0000   1.0000   1.0000
     1.0000   1.0000   1.0000   1.0000   1.0000   1.0000   1.0000   1.0000
     1.0000   1.0000   1.0000   1.0000   1.0000   1.0000   1.0000   1.0000
     1.0000   1.0000   1.0000   1.0000   1.0000   1.0000   1.0000   1.0000
     1.0000   1.0000   1.0000   1.0000   1.0000   1.0000   1.0000   1.0000
     1.0000   1.0000   1.0000   1.0000   1.0000   1.0000   1.0000   1.0000
     1.0000   1.0000   1.0000   1.0000   1.0000   1.0000   1.0000   1.0000
     1.0000   1.0000   1.0000   1.0000   1.0000   1.0000   1.0000   1.0000
     1.0000   1.0000   1.0000   1.0000   1.0000   1.0000   1.0000   1.0000
     1.0000   1.0000   1.0000   1.0000   1.0000   1.0000   1.0000   1.0000
     1.0000   1.0000   1.0000   1.0000   1.0000   1.0000   1.0000   1.0000
     1.0000   1.0000   1.0000   1.0000   1.0000   1.0000   1.0000   1.0000
     1.0000   0.0000   0.0000   0.0000   0.0000   0.0000   0.0000   0.0000
     0.0000   0.0000   0.0000   0.0000   0.0000   0.0000   0.0000   0.0000
     0.0000   0.0000   0.0000   0.0000   0.0000   0.0000   0.0000   0.0000
     0.0000   0.0000   0.0000   0.0000   0.0000   0.0000   0.0000   0.0000
     0.0000   0.0000   0.0000   0.0000

          k =-0.0833 0.5292-0.0679 ( 53183 PWs)   bands (ev):

   -28.2756 -28.2755 -28.2753 -14.9218 -14.9218 -14.9217 -14.9161 -14.9159
   -14.9159 -14.9039 -14.9039 -14.9039 -14.8639 -14.8637 -14.8636 -14.8187
   -14.8185 -14.8184 -10.3387 -10.3365 -10.3347 -10.3076 -10.3022 -10.2933
   -10.2698 -10.2658 -10.2623  -6.4194  -6.3098  -6.2163  -5.9703  -5.8401
    -5.7796  -5.6377  -5.6262  -5.5648  -5.5360  -5.4356  -5.3425  -0.5978
    -0.3976  -0.3192   1.4218   1.6721   1.9104   2.0055   2.2401   2.4221
     2.4848   2.6003   2.8178   2.8808   2.9296   3.0006   3.0857   3.2087
     3.2692   3.3714   3.3992   3.4443   3.4758   3.5005   3.5899   3.6481
     3.6936   3.8281   3.9932   4.0507   4.1195   4.1404   4.2248   4.2751
     4.4254   4.5413   4.6020   5.1457   5.1783   5.2277   5.2449   5.2586
     5.3005   5.3119   5.3504   5.3869   5.4381   5.5097   5.5837   5.6097
     5.6480   5.6797   5.7617   5.8204   5.8916   5.9675   6.0111   6.1289
     6.2316   6.2883   6.3310   6.3840   6.4294   6.5780   6.6586   6.7200
     6.7956   8.2961   8.4039   8.5971   9.6703   9.7617  10.0366  10.0998
    10.1754  10.2673  10.4590  10.5654  10.7883  10.8091  10.9421  11.0841
    11.2444  11.3261  11.4203  11.4948  11.5758  11.6671  11.6973  11.7671
    11.8921  11.9144  12.0089  12.0887  12.2683  12.3249  12.4970  12.6386
    12.6722  12.8046  12.9157  12.9683

     occupation numbers 
     1.0000   1.0000   1.0000   1.0000   1.0000   1.0000   1.0000   1.0000
     1.0000   1.0000   1.0000   1.0000   1.0000   1.0000   1.0000   1.0000
     1.0000   1.0000   1.0000   1.0000   1.0000   1.0000   1.0000   1.0000
     1.0000   1.0000   1.0000   1.0000   1.0000   1.0000   1.0000   1.0000
     1.0000   1.0000   1.0000   1.0000   1.0000   1.0000   1.0000   1.0000
     1.0000   1.0000   1.0000   1.0000   1.0000   1.0000   1.0000   1.0000
     1.0000   1.0000   1.0000   1.0000   1.0000   1.0000   1.0000   1.0000
     1.0000   1.0000   1.0000   1.0000   1.0000   1.0000   1.0000   1.0000
     1.0000   1.0000   1.0000   1.0000   1.0000   1.0000   1.0000   1.0000
     1.0000   1.0000   1.0000   1.0000   1.0000   1.0000   1.0000   1.0000
     1.0000   1.0000   1.0000   1.0000   1.0000   1.0000   1.0000   1.0000
     1.0000   1.0000   1.0000   1.0000   1.0000   1.0000   1.0000   1.0000
     1.0000   1.0000   1.0000   1.0000   1.0000   1.0000   1.0000   1.0000
     1.0000   0.0000   0.0000   0.0000   0.0000   0.0000   0.0000   0.0000
     0.0000   0.0000   0.0000   0.0000   0.0000   0.0000   0.0000   0.0000
     0.0000   0.0000   0.0000   0.0000   0.0000   0.0000   0.0000   0.0000
     0.0000   0.0000   0.0000   0.0000   0.0000   0.0000   0.0000   0.0000
     0.0000   0.0000   0.0000   0.0000

          k =-0.0833 0.5292-0.1357 ( 53176 PWs)   bands (ev):

   -28.2756 -28.2755 -28.2753 -14.9218 -14.9218 -14.9217 -14.9161 -14.9159
   -14.9159 -14.9039 -14.9039 -14.9039 -14.8639 -14.8637 -14.8636 -14.8187
   -14.8185 -14.8184 -10.3392 -10.3369 -10.3338 -10.3064 -10.3027 -10.2941
   -10.2695 -10.2663 -10.2621  -6.4108  -6.3233  -6.2154  -5.9711  -5.8313
    -5.7691  -5.6560  -5.6212  -5.5713  -5.5328  -5.4375  -5.3386  -0.5923
    -0.4138  -0.3091   1.4350   1.6367   1.9699   1.9879   2.2487   2.4175
     2.4576   2.5821   2.8150   2.8699   2.9072   3.0405   3.1196   3.1963
     3.2805   3.3714   3.3926   3.4422   3.4659   3.5188   3.5685   3.6548
     3.6930   3.8646   3.9768   4.0609   4.1086   4.1241   4.2125   4.2672
     4.4292   4.5686   4.5899   5.1506   5.1768   5.2306   5.2432   5.2536
     5.2892   5.3309   5.3550   5.3765   5.4301   5.5199   5.5809   5.6119
     5.6570   5.6895   5.7496   5.8162   5.8838   5.9906   6.0245   6.0927
     6.2000   6.2656   6.3442   6.4099   6.4284   6.6271   6.6694   6.6936
     6.7742   8.3196   8.3891   8.5945   9.6691   9.7450  10.0682  10.1250
    10.1882  10.2918  10.4498  10.5284  10.7873  10.8608  10.9318  11.1004
    11.1978  11.3045  11.4316  11.5241  11.5465  11.6311  11.6726  11.6980
    11.8258  11.9105  11.9414  12.1489  12.2735  12.3709  12.4772  12.6000
    12.7615  12.8761  12.9932  13.0195

     occupation numbers 
     1.0000   1.0000   1.0000   1.0000   1.0000   1.0000   1.0000   1.0000
     1.0000   1.0000   1.0000   1.0000   1.0000   1.0000   1.0000   1.0000
     1.0000   1.0000   1.0000   1.0000   1.0000   1.0000   1.0000   1.0000
     1.0000   1.0000   1.0000   1.0000   1.0000   1.0000   1.0000   1.0000
     1.0000   1.0000   1.0000   1.0000   1.0000   1.0000   1.0000   1.0000
     1.0000   1.0000   1.0000   1.0000   1.0000   1.0000   1.0000   1.0000
     1.0000   1.0000   1.0000   1.0000   1.0000   1.0000   1.0000   1.0000
     1.0000   1.0000   1.0000   1.0000   1.0000   1.0000   1.0000   1.0000
     1.0000   1.0000   1.0000   1.0000   1.0000   1.0000   1.0000   1.0000
     1.0000   1.0000   1.0000   1.0000   1.0000   1.0000   1.0000   1.0000
     1.0000   1.0000   1.0000   1.0000   1.0000   1.0000   1.0000   1.0000
     1.0000   1.0000   1.0000   1.0000   1.0000   1.0000   1.0000   1.0000
     1.0000   1.0000   1.0000   1.0000   1.0000   1.0000   1.0000   1.0000
     1.0000   0.0000   0.0000   0.0000   0.0000   0.0000   0.0000   0.0000
     0.0000   0.0000   0.0000   0.0000   0.0000   0.0000   0.0000   0.0000
     0.0000   0.0000   0.0000   0.0000   0.0000   0.0000   0.0000   0.0000
     0.0000   0.0000   0.0000   0.0000   0.0000   0.0000   0.0000   0.0000
     0.0000   0.0000   0.0000   0.0000

          k =-0.1667 0.3849-0.0679 ( 53161 PWs)   bands (ev):

   -28.2756 -28.2755 -28.2753 -14.9219 -14.9218 -14.9218 -14.9161 -14.9160
   -14.9159 -14.9040 -14.9039 -14.9039 -14.8639 -14.8637 -14.8636 -14.8187
   -14.8185 -14.8184 -10.3375 -10.3354 -10.3325 -10.3054 -10.3021 -10.2929
   -10.2682 -10.2663 -10.2608  -6.5380  -6.3828  -6.2755  -5.8244  -5.7752
    -5.7374  -5.6816  -5.5945  -5.5598  -5.5122  -5.4451  -5.3263  -0.5468
    -0.4101  -0.3179   1.4956   1.6853   1.7375   2.0739   2.1814   2.4038
     2.5592   2.6423   2.7406   2.8473   2.8959   2.9640   3.1064   3.1260
     3.2421   3.2838   3.3601   3.4608   3.4975   3.5153   3.5837   3.6693
     3.7101   3.8017   3.9619   4.0549   4.0796   4.1304   4.2903   4.3386
     4.3893   4.5245   4.6196   5.1394   5.1759   5.2087   5.2383   5.2725
     5.3045   5.3338   5.3496   5.4181   5.4511   5.5097   5.5511   5.5854
     5.6089   5.6979   5.7402   5.7784   5.8641   5.9260   6.0200   6.0942
     6.2186   6.2875   6.3788   6.4380   6.5432   6.6120   6.7259   6.7952
     6.8571   8.3414   8.4009   8.5505   9.6132   9.7423   9.9151  10.0506
    10.1929  10.3205  10.4086  10.6352  10.7655  10.8329  10.9730  11.0406
    11.3064  11.3668  11.4278  11.5556  11.6280  11.6717  11.7795  11.8425
    11.9105  12.0219  12.0988  12.1719  12.3185  12.3541  12.4935  12.5520
    12.6919  12.7640  12.8213  12.9263

     occupation numbers 
     1.0000   1.0000   1.0000   1.0000   1.0000   1.0000   1.0000   1.0000
     1.0000   1.0000   1.0000   1.0000   1.0000   1.0000   1.0000   1.0000
     1.0000   1.0000   1.0000   1.0000   1.0000   1.0000   1.0000   1.0000
     1.0000   1.0000   1.0000   1.0000   1.0000   1.0000   1.0000   1.0000
     1.0000   1.0000   1.0000   1.0000   1.0000   1.0000   1.0000   1.0000
     1.0000   1.0000   1.0000   1.0000   1.0000   1.0000   1.0000   1.0000
     1.0000   1.0000   1.0000   1.0000   1.0000   1.0000   1.0000   1.0000
     1.0000   1.0000   1.0000   1.0000   1.0000   1.0000   1.0000   1.0000
     1.0000   1.0000   1.0000   1.0000   1.0000   1.0000   1.0000   1.0000
     1.0000   1.0000   1.0000   1.0000   1.0000   1.0000   1.0000   1.0000
     1.0000   1.0000   1.0000   1.0000   1.0000   1.0000   1.0000   1.0000
     1.0000   1.0000   1.0000   1.0000   1.0000   1.0000   1.0000   1.0000
     1.0000   1.0000   1.0000   1.0000   1.0000   1.0000   1.0000   1.0000
     1.0000   0.0000   0.0000   0.0000   0.0000   0.0000   0.0000   0.0000
     0.0000   0.0000   0.0000   0.0000   0.0000   0.0000   0.0000   0.0000
     0.0000   0.0000   0.0000   0.0000   0.0000   0.0000   0.0000   0.0000
     0.0000   0.0000   0.0000   0.0000   0.0000   0.0000   0.0000   0.0000
     0.0000   0.0000   0.0000   0.0000

          k =-0.1667 0.3849-0.1357 ( 53155 PWs)   bands (ev):

   -28.2756 -28.2755 -28.2753 -14.9219 -14.9218 -14.9218 -14.9161 -14.9160
   -14.9159 -14.9040 -14.9039 -14.9039 -14.8639 -14.8637 -14.8636 -14.8187
   -14.8185 -14.8184 -10.3381 -10.3352 -10.3321 -10.3060 -10.3006 -10.2939
   -10.2680 -10.2662 -10.2610  -6.5179  -6.4324  -6.2405  -5.8221  -5.7799
    -5.7390  -5.6820  -5.6021  -5.5576  -5.5248  -5.4200  -5.3343  -0.5403
    -0.4275  -0.3073   1.4913   1.7059   1.7353   2.0494   2.1851   2.4316
     2.5526   2.6261   2.7127   2.8411   2.9120   2.9834   3.1044   3.1200
     3.2487   3.2836   3.3517   3.4662   3.4923   3.5254   3.6055   3.6675
     3.6913   3.8353   3.9454   4.0531   4.0831   4.1058   4.2780   4.3413
     4.4024   4.5112   4.6323   5.1497   5.1766   5.2061   5.2266   5.2651
     5.3149   5.3418   5.3585   5.4193   5.4377   5.4889   5.5691   5.5870
     5.6367   5.6913   5.7390   5.7610   5.8808   5.9071   6.0050   6.0890
     6.2231   6.2848   6.3677   6.4659   6.5498   6.6144   6.6999   6.8037
     6.8628   8.3427   8.4000   8.5593   9.6089   9.7570   9.9338  10.0524
    10.1737  10.3033  10.4498  10.6684  10.7140  10.8569  10.9607  11.0450
    11.2618  11.3605  11.4717  11.5389  11.6322  11.6817  11.7337  11.7860
    11.8520  11.9889  12.0977  12.1469  12.2829  12.3467  12.4491  12.5716
    12.7629  12.8305  12.9042  12.9847

     occupation numbers 
     1.0000   1.0000   1.0000   1.0000   1.0000   1.0000   1.0000   1.0000
     1.0000   1.0000   1.0000   1.0000   1.0000   1.0000   1.0000   1.0000
     1.0000   1.0000   1.0000   1.0000   1.0000   1.0000   1.0000   1.0000
     1.0000   1.0000   1.0000   1.0000   1.0000   1.0000   1.0000   1.0000
     1.0000   1.0000   1.0000   1.0000   1.0000   1.0000   1.0000   1.0000
     1.0000   1.0000   1.0000   1.0000   1.0000   1.0000   1.0000   1.0000
     1.0000   1.0000   1.0000   1.0000   1.0000   1.0000   1.0000   1.0000
     1.0000   1.0000   1.0000   1.0000   1.0000   1.0000   1.0000   1.0000
     1.0000   1.0000   1.0000   1.0000   1.0000   1.0000   1.0000   1.0000
     1.0000   1.0000   1.0000   1.0000   1.0000   1.0000   1.0000   1.0000
     1.0000   1.0000   1.0000   1.0000   1.0000   1.0000   1.0000   1.0000
     1.0000   1.0000   1.0000   1.0000   1.0000   1.0000   1.0000   1.0000
     1.0000   1.0000   1.0000   1.0000   1.0000   1.0000   1.0000   1.0000
     1.0000   0.0000   0.0000   0.0000   0.0000   0.0000   0.0000   0.0000
     0.0000   0.0000   0.0000   0.0000   0.0000   0.0000   0.0000   0.0000
     0.0000   0.0000   0.0000   0.0000   0.0000   0.0000   0.0000   0.0000
     0.0000   0.0000   0.0000   0.0000   0.0000   0.0000   0.0000   0.0000
     0.0000   0.0000   0.0000   0.0000

          k =-0.1667 0.4811-0.0679 ( 53181 PWs)   bands (ev):

   -28.2756 -28.2755 -28.2753 -14.9218 -14.9218 -14.9217 -14.9161 -14.9160
   -14.9159 -14.9039 -14.9039 -14.9039 -14.8639 -14.8637 -14.8636 -14.8187
   -14.8185 -14.8184 -10.3384 -10.3364 -10.3340 -10.3062 -10.3027 -10.2947
   -10.2690 -10.2672 -10.2623  -6.4320  -6.3122  -6.2242  -5.9146  -5.8216
    -5.7661  -5.6797  -5.6428  -5.5805  -5.5233  -5.4394  -5.3453  -0.5691
    -0.4102  -0.3331   1.4932   1.7081   1.8679   1.9913   2.2130   2.4032
     2.5414   2.5926   2.7958   2.8339   2.8962   2.9811   3.0821   3.2011
     3.2751   3.3360   3.3841   3.4449   3.4933   3.5191   3.5921   3.6840
     3.7072   3.7936   3.9659   4.0489   4.1102   4.1474   4.2693   4.3114
     4.4224   4.5435   4.5853   5.1420   5.1645   5.2208   5.2453   5.2673
     5.3110   5.3346   5.3562   5.3998   5.4543   5.5071   5.5547   5.6023
     5.6401   5.6997   5.7653   5.8161   5.8728   5.9646   6.0182   6.1242
     6.2223   6.2804   6.3570   6.4107   6.4764   6.5624   6.7004   6.7226
     6.8100   8.2766   8.4008   8.5953   9.6069   9.6985   9.9898  10.0642
    10.1881  10.2810  10.4277  10.5482  10.8185  10.8458  10.9604  11.0707
    11.2859  11.3535  11.4034  11.5459  11.5749  11.6230  11.7093  11.7766
    11.9027  11.9532  12.0380  12.1446  12.2930  12.4368  12.5034  12.5914
    12.6913  12.7596  12.8680  12.9467

     occupation numbers 
     1.0000   1.0000   1.0000   1.0000   1.0000   1.0000   1.0000   1.0000
     1.0000   1.0000   1.0000   1.0000   1.0000   1.0000   1.0000   1.0000
     1.0000   1.0000   1.0000   1.0000   1.0000   1.0000   1.0000   1.0000
     1.0000   1.0000   1.0000   1.0000   1.0000   1.0000   1.0000   1.0000
     1.0000   1.0000   1.0000   1.0000   1.0000   1.0000   1.0000   1.0000
     1.0000   1.0000   1.0000   1.0000   1.0000   1.0000   1.0000   1.0000
     1.0000   1.0000   1.0000   1.0000   1.0000   1.0000   1.0000   1.0000
     1.0000   1.0000   1.0000   1.0000   1.0000   1.0000   1.0000   1.0000
     1.0000   1.0000   1.0000   1.0000   1.0000   1.0000   1.0000   1.0000
     1.0000   1.0000   1.0000   1.0000   1.0000   1.0000   1.0000   1.0000
     1.0000   1.0000   1.0000   1.0000   1.0000   1.0000   1.0000   1.0000
     1.0000   1.0000   1.0000   1.0000   1.0000   1.0000   1.0000   1.0000
     1.0000   1.0000   1.0000   1.0000   1.0000   1.0000   1.0000   1.0000
     1.0000   0.0000   0.0000   0.0000   0.0000   0.0000   0.0000   0.0000
     0.0000   0.0000   0.0000   0.0000   0.0000   0.0000   0.0000   0.0000
     0.0000   0.0000   0.0000   0.0000   0.0000   0.0000   0.0000   0.0000
     0.0000   0.0000   0.0000   0.0000   0.0000   0.0000   0.0000   0.0000
     0.0000   0.0000   0.0000   0.0000

          k =-0.1667 0.4811-0.1357 ( 53175 PWs)   bands (ev):

   -28.2756 -28.2755 -28.2753 -14.9218 -14.9218 -14.9217 -14.9161 -14.9160
   -14.9159 -14.9039 -14.9039 -14.9039 -14.8639 -14.8637 -14.8636 -14.8187
   -14.8185 -14.8184 -10.3389 -10.3368 -10.3332 -10.3051 -10.3030 -10.2955
   -10.2689 -10.2674 -10.2621  -6.4188  -6.3401  -6.2104  -5.9134  -5.8176
    -5.7644  -5.6821  -5.6415  -5.5855  -5.5270  -5.4370  -5.3437  -0.5621
    -0.4287  -0.3219   1.4948   1.7122   1.8458   2.0219   2.2094   2.4272
     2.5295   2.5590   2.7644   2.8244   2.8957   3.0184   3.1184   3.1810
     3.2854   3.3310   3.3789   3.4474   3.4801   3.5345   3.5867   3.6834
     3.7042   3.8365   3.9457   4.0605   4.1006   4.1224   4.2690   4.2912
     4.4347   4.5447   4.5962   5.1475   5.1682   5.2181   5.2408   5.2643
     5.3099   5.3464   5.3626   5.3884   5.4512   5.4968   5.5684   5.6019
     5.6498   5.7085   5.7599   5.8051   5.8672   5.9689   6.0252   6.1013
     6.2031   6.2626   6.3691   6.4195   6.4816   6.6069   6.6670   6.7375
     6.8044   8.2970   8.3783   8.6003   9.5870   9.6915  10.0125  10.0677
    10.2133  10.3015  10.4395  10.5514  10.7660  10.8922  10.9895  11.0748
    11.2620  11.3457  11.3940  11.5141  11.5683  11.6030  11.6806  11.7525
    11.8508  11.9161  12.0376  12.1260  12.2731  12.4330  12.5074  12.5701
    12.7530  12.8580  12.9317  12.9850

     occupation numbers 
     1.0000   1.0000   1.0000   1.0000   1.0000   1.0000   1.0000   1.0000
     1.0000   1.0000   1.0000   1.0000   1.0000   1.0000   1.0000   1.0000
     1.0000   1.0000   1.0000   1.0000   1.0000   1.0000   1.0000   1.0000
     1.0000   1.0000   1.0000   1.0000   1.0000   1.0000   1.0000   1.0000
     1.0000   1.0000   1.0000   1.0000   1.0000   1.0000   1.0000   1.0000
     1.0000   1.0000   1.0000   1.0000   1.0000   1.0000   1.0000   1.0000
     1.0000   1.0000   1.0000   1.0000   1.0000   1.0000   1.0000   1.0000
     1.0000   1.0000   1.0000   1.0000   1.0000   1.0000   1.0000   1.0000
     1.0000   1.0000   1.0000   1.0000   1.0000   1.0000   1.0000   1.0000
     1.0000   1.0000   1.0000   1.0000   1.0000   1.0000   1.0000   1.0000
     1.0000   1.0000   1.0000   1.0000   1.0000   1.0000   1.0000   1.0000
     1.0000   1.0000   1.0000   1.0000   1.0000   1.0000   1.0000   1.0000
     1.0000   1.0000   1.0000   1.0000   1.0000   1.0000   1.0000   1.0000
     1.0000   0.0000   0.0000   0.0000   0.0000   0.0000   0.0000   0.0000
     0.0000   0.0000   0.0000   0.0000   0.0000   0.0000   0.0000   0.0000
     0.0000   0.0000   0.0000   0.0000   0.0000   0.0000   0.0000   0.0000
     0.0000   0.0000   0.0000   0.0000   0.0000   0.0000   0.0000   0.0000
     0.0000   0.0000   0.0000   0.0000

          k =-0.2500 0.5292-0.0679 ( 53222 PWs)   bands (ev):

   -28.2756 -28.2755 -28.2753 -14.9218 -14.9217 -14.9217 -14.9161 -14.9160
   -14.9159 -14.9040 -14.9039 -14.9038 -14.8639 -14.8637 -14.8636 -14.8187
   -14.8185 -14.8184 -10.3387 -10.3369 -10.3343 -10.3065 -10.3019 -10.2978
   -10.2692 -10.2678 -10.2637  -6.3524  -6.2712  -6.2075  -5.9074  -5.8390
    -5.8004  -5.7141  -5.6780  -5.6212  -5.5151  -5.4307  -5.3641  -0.5493
    -0.4237  -0.3571   1.5966   1.7586   1.8965   1.9577   2.1847   2.3064
     2.5534   2.6065   2.7614   2.8290   2.9001   2.9372   3.0786   3.2210
     3.3026   3.3588   3.3774   3.4366   3.4998   3.5345   3.5898   3.7044
     3.7363   3.7688   3.9590   4.0261   4.1274   4.2071   4.2732   4.3186
     4.4630   4.5224   4.5637   5.1448   5.1568   5.2005   5.2610   5.2813
     5.3198   5.3463   5.3662   5.4047   5.4609   5.4905   5.5285   5.6251
     5.6452   5.7063   5.7907   5.8214   5.8567   6.0093   6.0502   6.1538
     6.2299   6.2736   6.3662   6.3948   6.4546   6.5058   6.6955   6.7303
     6.7845   8.2062   8.4269   8.6002   9.5288   9.6215   9.8544  10.1187
    10.2661  10.3317  10.4297  10.5431  10.8081  10.9076  10.9580  11.0399
    11.1451  11.3398  11.4203  11.5284  11.5519  11.6159  11.6758  11.7282
    11.8897  11.9861  12.1034  12.1306  12.3867  12.4667  12.5756  12.6169
    12.7071  12.7360  12.8364  13.0099

     occupation numbers 
     1.0000   1.0000   1.0000   1.0000   1.0000   1.0000   1.0000   1.0000
     1.0000   1.0000   1.0000   1.0000   1.0000   1.0000   1.0000   1.0000
     1.0000   1.0000   1.0000   1.0000   1.0000   1.0000   1.0000   1.0000
     1.0000   1.0000   1.0000   1.0000   1.0000   1.0000   1.0000   1.0000
     1.0000   1.0000   1.0000   1.0000   1.0000   1.0000   1.0000   1.0000
     1.0000   1.0000   1.0000   1.0000   1.0000   1.0000   1.0000   1.0000
     1.0000   1.0000   1.0000   1.0000   1.0000   1.0000   1.0000   1.0000
     1.0000   1.0000   1.0000   1.0000   1.0000   1.0000   1.0000   1.0000
     1.0000   1.0000   1.0000   1.0000   1.0000   1.0000   1.0000   1.0000
     1.0000   1.0000   1.0000   1.0000   1.0000   1.0000   1.0000   1.0000
     1.0000   1.0000   1.0000   1.0000   1.0000   1.0000   1.0000   1.0000
     1.0000   1.0000   1.0000   1.0000   1.0000   1.0000   1.0000   1.0000
     1.0000   1.0000   1.0000   1.0000   1.0000   1.0000   1.0000   1.0000
     1.0000   0.0000   0.0000   0.0000   0.0000   0.0000   0.0000   0.0000
     0.0000   0.0000   0.0000   0.0000   0.0000   0.0000   0.0000   0.0000
     0.0000   0.0000   0.0000   0.0000   0.0000   0.0000   0.0000   0.0000
     0.0000   0.0000   0.0000   0.0000   0.0000   0.0000   0.0000   0.0000
     0.0000   0.0000   0.0000   0.0000

          k =-0.2500 0.5292-0.1357 ( 53213 PWs)   bands (ev):

   -28.2756 -28.2755 -28.2753 -14.9218 -14.9217 -14.9217 -14.9160 -14.9160
   -14.9159 -14.9040 -14.9039 -14.9038 -14.8639 -14.8637 -14.8636 -14.8187
   -14.8185 -14.8184 -10.3389 -10.3377 -10.3334 -10.3050 -10.3025 -10.2986
   -10.2692 -10.2686 -10.2629  -6.3470  -6.2748  -6.2119  -5.9070  -5.8398
    -5.8015  -5.7120  -5.6656  -5.6239  -5.5143  -5.4489  -5.3542  -0.5371
    -0.4492  -0.3438   1.5914   1.7665   1.8898   1.9561   2.2125   2.3248
     2.5342   2.5761   2.7045   2.8275   2.9194   2.9658   3.1205   3.1903
     3.3204   3.3594   3.3870   3.4274   3.4789   3.5487   3.5782   3.7081
     3.7339   3.8232   3.9331   4.0495   4.1069   4.1600   4.2747   4.3088
     4.4729   4.5297   4.5797   5.1489   5.1588   5.2137   5.2483   5.2703
     5.3106   5.3549   5.3848   5.3985   5.4494   5.4850   5.5542   5.6195
     5.6429   5.7256   5.7810   5.8083   5.8407   6.0175   6.0683   6.1297
     6.1892   6.2657   6.3474   6.4193   6.4773   6.5505   6.6482   6.7546
     6.7941   8.2437   8.3684   8.6186   9.4808   9.6015   9.9412  10.0827
    10.2818  10.3304  10.4926  10.5455  10.7794  10.9144  10.9981  11.0681
    11.1485  11.3524  11.4063  11.4727  11.4986  11.5987  11.6877  11.7572
    11.8253  11.9747  12.0294  12.0747  12.3165  12.5111  12.5766  12.6261
    12.7605  12.8427  12.8977  12.9659

     occupation numbers 
     1.0000   1.0000   1.0000   1.0000   1.0000   1.0000   1.0000   1.0000
     1.0000   1.0000   1.0000   1.0000   1.0000   1.0000   1.0000   1.0000
     1.0000   1.0000   1.0000   1.0000   1.0000   1.0000   1.0000   1.0000
     1.0000   1.0000   1.0000   1.0000   1.0000   1.0000   1.0000   1.0000
     1.0000   1.0000   1.0000   1.0000   1.0000   1.0000   1.0000   1.0000
     1.0000   1.0000   1.0000   1.0000   1.0000   1.0000   1.0000   1.0000
     1.0000   1.0000   1.0000   1.0000   1.0000   1.0000   1.0000   1.0000
     1.0000   1.0000   1.0000   1.0000   1.0000   1.0000   1.0000   1.0000
     1.0000   1.0000   1.0000   1.0000   1.0000   1.0000   1.0000   1.0000
     1.0000   1.0000   1.0000   1.0000   1.0000   1.0000   1.0000   1.0000
     1.0000   1.0000   1.0000   1.0000   1.0000   1.0000   1.0000   1.0000
     1.0000   1.0000   1.0000   1.0000   1.0000   1.0000   1.0000   1.0000
     1.0000   1.0000   1.0000   1.0000   1.0000   1.0000   1.0000   1.0000
     1.0000   0.0000   0.0000   0.0000   0.0000   0.0000   0.0000   0.0000
     0.0000   0.0000   0.0000   0.0000   0.0000   0.0000   0.0000   0.0000
     0.0000   0.0000   0.0000   0.0000   0.0000   0.0000   0.0000   0.0000
     0.0000   0.0000   0.0000   0.0000   0.0000   0.0000   0.0000   0.0000
     0.0000   0.0000   0.0000   0.0000

     highest occupied, lowest unoccupied level (ev):     7.1887    7.5332

     Writing all to output data dir ./tmp/final/SrCu2SnS4.save/ :
     XML data file
     init_run     :      1.93s CPU      2.02s WALL (       1 calls)
     electrons    :   4537.91s CPU   5338.22s WALL (       1 calls)

     Called by init_run:
     wfcinit      :      0.00s CPU      0.00s WALL (       1 calls)
     wfcinit:atom :      0.18s CPU      0.30s WALL (      25 calls)
     wfcinit:wfcr :     81.82s CPU     82.90s WALL (      25 calls)
     potinit      :      0.65s CPU      0.68s WALL (       1 calls)
     hinit0       :      0.38s CPU      0.39s WALL (       1 calls)

     Called by electrons:
     c_bands      :   4537.90s CPU   5338.21s WALL (       1 calls)
     v_of_rho     :      0.35s CPU      0.36s WALL (       1 calls)
     v_h          :      0.02s CPU      0.02s WALL (       1 calls)
     v_xc         :      0.33s CPU      0.34s WALL (       1 calls)
     newd         :      0.61s CPU      0.67s WALL (       1 calls)
     PAW_pot      :      0.24s CPU      0.24s WALL (       1 calls)

     Called by c_bands:
     init_us_2    :      0.45s CPU      0.75s WALL (      25 calls)
     cegterg      :   4338.51s CPU   5085.02s WALL (     131 calls)

     Called by sum_band:

     Called by *egterg:
     cdiaghg      :     45.27s CPU     45.56s WALL (    2386 calls)
     cegterg:over :    489.81s CPU    754.49s WALL (    2361 calls)
     cegterg:upda :    271.06s CPU    290.85s WALL (    2361 calls)
     cegterg:last :    738.18s CPU    837.24s WALL (    1162 calls)
     h_psi        :   2359.62s CPU   2719.66s WALL (    2517 calls)
     s_psi        :    462.55s CPU    465.59s WALL (    2517 calls)
     g_psi        :      3.90s CPU      3.92s WALL (    2361 calls)

     Called by h_psi:
     h_psi:calbec :    449.70s CPU    795.21s WALL (    2517 calls)
     vloc_psi     :   1443.81s CPU   1454.93s WALL (    2517 calls)
                                        0.00s GPU  (    2517 calls)
     add_vuspsi   :    463.67s CPU    466.86s WALL (    2517 calls)

     General routines
     calbec       :    449.69s CPU    795.20s WALL (    2517 calls)
     fft          :      0.25s CPU      0.26s WALL (      13 calls)
     ffts         :      0.01s CPU      0.01s WALL (       1 calls)
     fftw         :   1356.72s CPU   1366.89s WALL (  338186 calls)
     interpolate  :      0.03s CPU      0.03s WALL (       1 calls)

     Parallel routines

     PAW routines
     PAW_pot      :      0.24s CPU      0.24s WALL (       1 calls)

     PWSCF        :      1h15m CPU      1h29m WALL


   This run was terminated on:   7:16:53  30Jun2026            

=------------------------------------------------------------------------------=
   JOB DONE.
=------------------------------------------------------------------------------=
