
     Program PWSCF v.7.5 starts on 30Jun2026 at  5:11:37 
        Git branch: develop
        Last git commit: ea9b1b3d7915154c244e4a71786faaa0fdafa55c
        Last git commit date: Mon Mar 16 14:03:30 2026 +0000
        Last git commit subject: Merge branch 'dev_td_porting' into 'develop'

     This program is part of the open-source Quantum ESPRESSO suite
     for quantum simulation of materials; please cite
         "P. Giannozzi et al., J. Phys.:Condens. Matter 21 395502 (2009);
         "P. Giannozzi et al., J. Phys.:Condens. Matter 29 465901 (2017);
         "P. Giannozzi et al., J. Chem. Phys. 152 154105 (2020);
          URL http://www.quantum-espresso.org", 
     in publications or presentations arising from this work. More details at
     http://www.quantum-espresso.org/quote

     Parallel version (MPI), running on     8 processors

     MPI processes distributed on     1 nodes
     0 MiB available memory on the printing compute node when the environment starts

     Reading input from /Users/kaede/research/Waterloo Holger thermoelectric materials/thermo_candidates/SrCu2SnS4/qe/00_relax/SrCu2SnS4.relax.in

     Current dimensions of program PWSCF are:
     Max number of different atomic species (ntypx) = 10
     Max number of k-points (npk) =  40000
     Max angular momentum in pseudopotentials (lmaxx) =  4
     file Cu.paw.z_11.ld1.psl.v1.0.0-low.upf: wavefunction(s)  4S 3D renormalized

     Exact exchange band parallelism type set to band_pairs

     Message from routine setup:
     using ibrav=0 with symmetry is DISCOURAGED, use correct ibrav instead

     K-points division:     npool     =       2
     R & G space division:  proc/nbgrp/npool/nimage =       4
     Subspace diagonalization in iterative solution of the eigenvalue problem:
     a serial algorithm will be used


     Parallelization info
     --------------------
     sticks:   dense  smooth     PW     G-vecs:    dense   smooth      PW
     Min        1786     892    238               299342   105806   14652
     Max        1787     893    239               299355   105815   14661
     Sum        7147    3571    955              1197401   423243   58633

     Using Slab Decomposition



     bravais-lattice index     =            0
     lattice parameter (alat)  =      11.9933  a.u.
     unit-cell volume          =    3670.3121 (a.u.)^3
     number of atoms/cell      =           24
     number of atomic types    =            4
     number of electrons       =       210.00
     number of Kohn-Sham states=          105
     kinetic-energy cutoff     =      90.0000  Ry
     charge density cutoff     =     720.0000  Ry
     scf convergence threshold =      1.0E-08
     mixing beta               =       0.3000
     number of iterations used =            8  plain     mixing
     energy convergence thresh.=      1.0E-05
     force convergence thresh. =      1.0E-03
     press convergence thresh. =      5.0E-01
     Exchange-correlation= SLA  PW   PBE  PBE
                           (   1   4   3   4   0   0   0)
     nstep                     =          100


     celldm(1)=  11.993304  celldm(2)=   0.000000  celldm(3)=   0.000000
     celldm(4)=   0.000000  celldm(5)=   0.000000  celldm(6)=   0.000000

     crystal axes: (cart. coord. in units of alat)
               a(1) = (   1.000000   0.000000   0.000000 )  
               a(2) = (  -0.500000   0.866025   0.000000 )  
               a(3) = (   0.000000   0.000000   2.456722 )  

     reciprocal axes: (cart. coord. in units 2 pi/alat)
               b(1) = (  1.000000  0.577350 -0.000000 )  
               b(2) = (  0.000000  1.154701  0.000000 )  
               b(3) = (  0.000000 -0.000000  0.407047 )  


     PseudoPot. # 1 for Cu read from file:
     /Users/kaede/scientific-tools/pseudopotentials/SSSP/1.3.0/PBE/precision/Cu.paw.z_11.ld1.psl.v1.0.0-low.upf
     MD5 check sum: 619f40885d92a09a85a8b37550532d0c
     Pseudo is Projector augmented-wave + core cor, Zval = 11.0
     Generated using &quot;atomic&quot; code by A. Dal Corso  v.6.3MaX
     Shape of augmentation charge: PSQ
     Using radial grid of 1199 points,  6 beta functions with: 
                l(1) =   0
                l(2) =   0
                l(3) =   1
                l(4) =   1
                l(5) =   2
                l(6) =   2
     Q(r) pseudized with 0 coefficients 


     PseudoPot. # 2 for S  read from file:
     /Users/kaede/scientific-tools/pseudopotentials/SSSP/1.3.0/PBE/precision/s_pbe_v1.4.uspp.F.UPF
     MD5 check sum: 88d86576ff6df21479756cfb9bdac1df
     Pseudo is Ultrasoft + core correction, Zval =  6.0
     Generated by new atomic code, or converted to UPF format
     Using radial grid of  907 points,  6 beta functions with: 
                l(1) =   0
                l(2) =   0
                l(3) =   1
                l(4) =   1
                l(5) =   2
                l(6) =   2
     Q(r) pseudized with  8 coefficients,  rinner =    1.300   1.300   1.300
                                                       1.300   1.300

     PseudoPot. # 3 for Sn read from file:
     /Users/kaede/scientific-tools/pseudopotentials/SSSP/1.3.0/PBE/precision/Sn_pbe_v1.uspp.F.UPF
     MD5 check sum: 4cf58ce39ec5d5d420df3dd08604eb00
     Pseudo is Ultrasoft + core correction, Zval = 14.0
     Generated by new atomic code, or converted to UPF format
     Using radial grid of  891 points,  6 beta functions with: 
                l(1) =   0
                l(2) =   0
                l(3) =   1
                l(4) =   1
                l(5) =   2
                l(6) =   2
     Q(r) pseudized with  6 coefficients,  rinner =    1.200   1.200   1.200
                                                       1.200   1.200

     PseudoPot. # 4 for Sr read from file:
     /Users/kaede/scientific-tools/pseudopotentials/SSSP/1.3.0/PBE/precision/Sr_pbe_v1.uspp.F.UPF
     MD5 check sum: 6b418c05fbe9db5448babca5e47b7a5b
     Pseudo is Ultrasoft + core correction, Zval = 10.0
     Generated by new atomic code, or converted to UPF format
     Using radial grid of  883 points,  6 beta functions with: 
                l(1) =   0
                l(2) =   0
                l(3) =   1
                l(4) =   1
                l(5) =   2
                l(6) =   2
     Q(r) pseudized with  6 coefficients,  rinner =    1.400   1.400   1.400
                                                       1.400   1.400

     atomic species   valence    mass     pseudopotential
     Cu               11.00    63.54600     Cu( 1.00)
     S                 6.00    32.06500     S ( 1.00)
     Sn               14.00   118.71000     Sn( 1.00)
     Sr               10.00    87.62000     Sr( 1.00)

      6 Sym. Ops. (no inversion) found ( 4 have fractional translation)


                                    s                        frac. trans.

      isym =  1     identity                                     

 cryst.   s( 1) = (     1          0          0      )
                  (     0          1          0      )
                  (     0          0          1      )

 cart.    s( 1) = (  1.0000000  0.0000000  0.0000000 )
                  (  0.0000000  1.0000000  0.0000000 )
                  (  0.0000000  0.0000000  1.0000000 )


      isym =  2     180 deg rotation - cart. axis [1,0,0]        

 cryst.   s( 2) = (     1          0          0      )    f =( -0.0000000 )
                  (    -1         -1          0      )       (  0.0000000 )
                  (     0          0         -1      )       (  0.3333330 )

 cart.    s( 2) = (  1.0000000  0.0000002  0.0000000 )    f =( -0.0000000 )
                  (  0.0000000 -1.0000000  0.0000000 )       (  0.0000000 )
                  (  0.0000000  0.0000000 -1.0000000 )       (  0.8189064 )


      isym =  3     120 deg rotation - cryst. axis [0,0,1]       

 cryst.   s( 3) = (     0          1          0      )    f =(  0.0000000 )
                  (    -1         -1          0      )       (  0.0000000 )
                  (     0          0          1      )       ( -0.3333330 )

 cart.    s( 3) = ( -0.5000001 -0.8660256  0.0000000 )    f =(  0.0000000 )
                  (  0.8660252 -0.4999999  0.0000000 )       (  0.0000000 )
                  (  0.0000000  0.0000000  1.0000000 )       ( -0.8189064 )


      isym =  4     120 deg rotation - cryst. axis [0,0,-1]      

 cryst.   s( 4) = (    -1         -1          0      )    f =(  0.0000000 )
                  (     1          0          0      )       (  0.0000000 )
                  (     0          0          1      )       (  0.3333330 )

 cart.    s( 4) = ( -0.4999999  0.8660256  0.0000000 )    f =(  0.0000000 )
                  ( -0.8660252 -0.5000001  0.0000000 )       (  0.0000000 )
                  (  0.0000000  0.0000000  1.0000000 )       (  0.8189064 )


      isym =  5     180 deg rotation - cryst. axis [0,1,0]       

 cryst.   s( 5) = (    -1         -1          0      )    f =(  0.0000000 )
                  (     0          1          0      )       (  0.0000000 )
                  (     0          0         -1      )       ( -0.3333340 )

 cart.    s( 5) = ( -0.4999999 -0.8660257  0.0000000 )    f =(  0.0000000 )
                  ( -0.8660252  0.4999999  0.0000000 )       (  0.0000000 )
                  (  0.0000000  0.0000000 -1.0000000 )       ( -0.8189089 )


      isym =  6     180 deg rotation - cryst. axis [1,1,0]       

 cryst.   s( 6) = (     0          1          0      )
                  (     1          0          0      )
                  (     0          0         -1      )

 cart.    s( 6) = ( -0.5000001  0.8660255  0.0000000 )
                  (  0.8660252  0.5000001  0.0000000 )
                  (  0.0000000  0.0000000 -1.0000000 )


   Cartesian axes

     site n.     atom                  positions (alat units)
         1        Sr     tau(   1) = (  -0.2810720   0.4868309   0.4094544  )
         2        Sr     tau(   2) = (   0.2189280   0.3791943   1.2283608  )
         3        Sr     tau(   3) = (   0.5621440   0.0000000   2.0472697  )
         4        Cu     tau(   4) = (  -0.2454151   0.5509306   1.0124690  )
         5        Cu     tau(   5) = (   0.1455875   0.3780243   1.8313755  )
         6        Cu     tau(   6) = (   0.0998274   0.8030955   0.1935626  )
         7        Cu     tau(   7) = (   0.5998275   0.0629297   1.4442526  )
         8        Cu     tau(   8) = (   0.2545850   0.3150946   0.6253462  )
         9        Cu     tau(   9) = (   0.6455875   0.4880009   2.2631590  )
        10        Sn     tau(  10) = (  -0.3524466   0.6104551   1.6378153  )
        11        Sn     tau(  11) = (   0.1475535   0.2555701   0.0000000  )
        12        Sn     tau(  12) = (   0.7048930   0.0000000   0.8189064  )
        13        S      tau(  13) = (  -0.1978795   0.4210502   1.9339682  )
        14        S      tau(  14) = (   0.2342995   0.4841315   0.2961529  )
        15        S      tau(  15) = (  -0.0364201   0.8268688   1.1150617  )
        16        S      tau(  16) = (   0.4635800   0.0391565   0.5227535  )
        17        S      tau(  17) = (   0.3021205   0.4449750   2.1605688  )
        18        S      tau(  18) = (   0.7342995   0.3818937   1.3416599  )
        19        S      tau(  19) = (  -0.0595230   0.3059840   0.8074605  )
        20        S      tau(  20) = (   0.2647714   0.6614848   1.6263669  )
        21        S      tau(  21) = (  -0.2052486   0.7645816   2.4452758  )
        22        S      tau(  22) = (   0.2947515   0.1014436   1.6492611  )
        23        S      tau(  23) = (   0.4404769   0.5600412   0.8303547  )
        24        S      tau(  24) = (   0.7647715   0.2045404   0.0114459  )

   Crystallographic axes

     site n.     atom                  positions (cryst. coord.)
         1        Sr     tau(   1) = (  0.0000000  0.5621440  0.1666670  )
         2        Sr     tau(   2) = (  0.4378560  0.4378560  0.5000000  )
         3        Sr     tau(   3) = (  0.5621440  0.0000000  0.8333340  )
         4        Cu     tau(   4) = (  0.0726650  0.6361600  0.4121220  )
         5        Cu     tau(   5) = (  0.3638400  0.4365050  0.7454550  )
         6        Cu     tau(   6) = (  0.5634950  0.9273350  0.0787890  )
         7        Cu     tau(   7) = (  0.6361600  0.0726650  0.5878780  )
         8        Cu     tau(   8) = (  0.4365050  0.3638400  0.2545450  )
         9        Cu     tau(   9) = (  0.9273350  0.5634950  0.9212110  )
        10        Sn     tau(  10) = (  0.0000000  0.7048930  0.6666670  )
        11        Sn     tau(  11) = (  0.2951070  0.2951070  0.0000000  )
        12        Sn     tau(  12) = (  0.7048930  0.0000000  0.3333330  )
        13        S      tau(  13) = (  0.0452140  0.4861870  0.7872150  )
        14        S      tau(  14) = (  0.5138130  0.5590270  0.1205480  )
        15        S      tau(  15) = (  0.4409730  0.9547860  0.4538820  )
        16        S      tau(  16) = (  0.4861870  0.0452140  0.2127850  )
        17        S      tau(  17) = (  0.5590270  0.5138130  0.8794520  )
        18        S      tau(  18) = (  0.9547860  0.4409730  0.5461180  )
        19        S      tau(  19) = (  0.1171370  0.3533200  0.3286740  )
        20        S      tau(  20) = (  0.6466800  0.7638170  0.6620070  )
        21        S      tau(  21) = (  0.2361830  0.8828630  0.9953410  )
        22        S      tau(  22) = (  0.3533200  0.1171370  0.6713260  )
        23        S      tau(  23) = (  0.7638170  0.6466800  0.3379930  )
        24        S      tau(  24) = (  0.8828630  0.2361830  0.0046590  )

     number of k points=     8
                       cart. coord. in units 2pi/alat
        k(    1) = (   0.0000000   0.0000000   0.0000000), wk =   0.0625000
        k(    2) = (   0.0000000   0.0000000  -0.2035233), wk =   0.0625000
        k(    3) = (   0.0000000   0.2886752   0.0000000), wk =   0.3750000
        k(    4) = (   0.0000000   0.2886752  -0.2035233), wk =   0.3750000
        k(    5) = (   0.0000000  -0.5773504   0.0000000), wk =   0.1875000
        k(    6) = (   0.0000000  -0.5773504  -0.2035233), wk =   0.1875000
        k(    7) = (   0.2500000   0.4330128   0.0000000), wk =   0.3750000
        k(    8) = (   0.2500000   0.4330128  -0.2035233), wk =   0.3750000

                       cryst. coord.
        k(    1) = (   0.0000000   0.0000000   0.0000000), wk =   0.0625000
        k(    2) = (   0.0000000   0.0000000  -0.5000000), wk =   0.0625000
        k(    3) = (   0.0000000   0.2500000   0.0000000), wk =   0.3750000
        k(    4) = (   0.0000000   0.2500000  -0.5000000), wk =   0.3750000
        k(    5) = (   0.0000000  -0.5000000   0.0000000), wk =   0.1875000
        k(    6) = (   0.0000000  -0.5000000  -0.5000000), wk =   0.1875000
        k(    7) = (   0.2500000   0.2500000   0.0000000), wk =   0.3750000
        k(    8) = (   0.2500000   0.2500000  -0.5000000), wk =   0.3750000

     Dense  grid:  1197401 G-vectors     FFT dimensions: ( 108, 108, 270)

     Smooth grid:   423243 G-vectors     FFT dimensions: (  75,  75, 180)

     Dynamical RAM for                 wfc:      21.20 MB

     Dynamical RAM for     wfc (w. buffer):      21.20 MB

     Dynamical RAM for           str. fact:      18.27 MB

     Dynamical RAM for           local pot:       0.00 MB

     Dynamical RAM for          nlocal pot:      87.21 MB

     Dynamical RAM for                qrad:      17.22 MB

     Dynamical RAM for          rho,v,vnew:      31.86 MB

     Dynamical RAM for               rhoin:      10.62 MB

     Dynamical RAM for            rho*nmix:      73.08 MB

     Dynamical RAM for           G-vectors:      17.94 MB

     Dynamical RAM for          h,s,v(r/c):       2.02 MB

     Dynamical RAM for          <psi|beta>:       0.69 MB

     Dynamical RAM for                 psi:      42.39 MB

     Dynamical RAM for                hpsi:      42.39 MB

     Dynamical RAM for                spsi:      42.39 MB

     Dynamical RAM for      wfcinit/wfcrot:      42.65 MB

     Dynamical RAM for           addusdens:     454.49 MB

     Dynamical RAM for          addusforce:     504.78 MB

     Dynamical RAM for         addusstress:     460.20 MB

     Estimated static dynamical RAM per process >     257.40 MB

     Estimated max dynamical RAM per process >     835.27 MB

     Estimated total dynamical RAM >       6.24 GB

     Initial potential from superposition of free atoms

     starting charge     206.8971, renormalised to     210.0000

     negative rho (up, down):  1.944E-01 0.000E+00
     Starting wfcs are  168 randomized atomic wfcs
     Checking if some PAW data can be deallocated... 
       PAW data deallocated on    6 nodes for type:  1

     total cpu time spent up to now is        7.3 secs

     Self-consistent Calculation

     iteration #  1     ecut=    90.00 Ry     beta= 0.30
     Davidson diagonalization with overlap

---- Real-time Memory Report at c_bands before calling an iterative solver
             0 MiB given to the printing process from OS
             0 MiB allocation reported by mallinfo(arena+hblkhd)
             0 MiB available memory on the node where the printing process lives
------------------
     ethr =  1.00E-02,  avg # of iterations =  2.0

     negative rho (up, down):  1.938E-01 0.000E+00

     total cpu time spent up to now is       19.4 secs

     total energy              =   -2267.66587549 Ry
     estimated scf accuracy    <       5.27687095 Ry

     iteration #  2     ecut=    90.00 Ry     beta= 0.30
     Davidson diagonalization with overlap

---- Real-time Memory Report at c_bands before calling an iterative solver
             0 MiB given to the printing process from OS
             0 MiB allocation reported by mallinfo(arena+hblkhd)
             0 MiB available memory on the node where the printing process lives
------------------
     ethr =  2.51E-03,  avg # of iterations =  4.6

     negative rho (up, down):  1.939E-01 0.000E+00

     total cpu time spent up to now is       34.5 secs

     total energy              =   -2269.16188088 Ry
     estimated scf accuracy    <       1.88819597 Ry

     iteration #  3     ecut=    90.00 Ry     beta= 0.30
     Davidson diagonalization with overlap

---- Real-time Memory Report at c_bands before calling an iterative solver
             0 MiB given to the printing process from OS
             0 MiB allocation reported by mallinfo(arena+hblkhd)
             0 MiB available memory on the node where the printing process lives
------------------
     ethr =  8.99E-04,  avg # of iterations =  2.0

     negative rho (up, down):  1.953E-01 0.000E+00

     total cpu time spent up to now is       47.4 secs

     total energy              =   -2269.14022624 Ry
     estimated scf accuracy    <       0.37025387 Ry

     iteration #  4     ecut=    90.00 Ry     beta= 0.30
     Davidson diagonalization with overlap

---- Real-time Memory Report at c_bands before calling an iterative solver
             0 MiB given to the printing process from OS
             0 MiB allocation reported by mallinfo(arena+hblkhd)
             0 MiB available memory on the node where the printing process lives
------------------
     ethr =  1.76E-04,  avg # of iterations =  5.5

     negative rho (up, down):  1.960E-01 0.000E+00

     total cpu time spent up to now is       65.6 secs

     total energy              =   -2269.18382236 Ry
     estimated scf accuracy    <       0.48613729 Ry

     iteration #  5     ecut=    90.00 Ry     beta= 0.30
     Davidson diagonalization with overlap

---- Real-time Memory Report at c_bands before calling an iterative solver
             0 MiB given to the printing process from OS
             0 MiB allocation reported by mallinfo(arena+hblkhd)
             0 MiB available memory on the node where the printing process lives
------------------
     ethr =  1.76E-04,  avg # of iterations =  4.8

     negative rho (up, down):  1.975E-01 0.000E+00

     total cpu time spent up to now is       80.9 secs

     total energy              =   -2269.28564636 Ry
     estimated scf accuracy    <       0.04865351 Ry

     iteration #  6     ecut=    90.00 Ry     beta= 0.30
     Davidson diagonalization with overlap

---- Real-time Memory Report at c_bands before calling an iterative solver
             0 MiB given to the printing process from OS
             0 MiB allocation reported by mallinfo(arena+hblkhd)
             0 MiB available memory on the node where the printing process lives
------------------
     ethr =  2.32E-05,  avg # of iterations =  4.6

     negative rho (up, down):  1.980E-01 0.000E+00

     total cpu time spent up to now is       96.7 secs

     total energy              =   -2269.29771146 Ry
     estimated scf accuracy    <       0.00634008 Ry

     iteration #  7     ecut=    90.00 Ry     beta= 0.30
     Davidson diagonalization with overlap

---- Real-time Memory Report at c_bands before calling an iterative solver
             0 MiB given to the printing process from OS
             0 MiB allocation reported by mallinfo(arena+hblkhd)
             0 MiB available memory on the node where the printing process lives
------------------
     ethr =  3.02E-06,  avg # of iterations =  4.9

     negative rho (up, down):  1.981E-01 0.000E+00

     total cpu time spent up to now is      114.4 secs

     total energy              =   -2269.29921063 Ry
     estimated scf accuracy    <       0.00566459 Ry

     iteration #  8     ecut=    90.00 Ry     beta= 0.30
     Davidson diagonalization with overlap

---- Real-time Memory Report at c_bands before calling an iterative solver
             0 MiB given to the printing process from OS
             0 MiB allocation reported by mallinfo(arena+hblkhd)
             0 MiB available memory on the node where the printing process lives
------------------
     ethr =  2.70E-06,  avg # of iterations =  3.9

     negative rho (up, down):  1.982E-01 0.000E+00

     total cpu time spent up to now is      129.3 secs

     total energy              =   -2269.30014855 Ry
     estimated scf accuracy    <       0.00053906 Ry

     iteration #  9     ecut=    90.00 Ry     beta= 0.30
     Davidson diagonalization with overlap

---- Real-time Memory Report at c_bands before calling an iterative solver
             0 MiB given to the printing process from OS
             0 MiB allocation reported by mallinfo(arena+hblkhd)
             0 MiB available memory on the node where the printing process lives
------------------
     ethr =  2.57E-07,  avg # of iterations =  5.2

     negative rho (up, down):  1.981E-01 0.000E+00

     total cpu time spent up to now is      147.3 secs

     total energy              =   -2269.30038675 Ry
     estimated scf accuracy    <       0.00006456 Ry

     iteration # 10     ecut=    90.00 Ry     beta= 0.30
     Davidson diagonalization with overlap

---- Real-time Memory Report at c_bands before calling an iterative solver
             0 MiB given to the printing process from OS
             0 MiB allocation reported by mallinfo(arena+hblkhd)
             0 MiB available memory on the node where the printing process lives
------------------
     ethr =  3.07E-08,  avg # of iterations =  7.1

     negative rho (up, down):  1.979E-01 0.000E+00

     total cpu time spent up to now is      166.0 secs

     total energy              =   -2269.30039667 Ry
     estimated scf accuracy    <       0.00005553 Ry

     iteration # 11     ecut=    90.00 Ry     beta= 0.30
     Davidson diagonalization with overlap

---- Real-time Memory Report at c_bands before calling an iterative solver
             0 MiB given to the printing process from OS
             0 MiB allocation reported by mallinfo(arena+hblkhd)
             0 MiB available memory on the node where the printing process lives
------------------
     ethr =  2.64E-08,  avg # of iterations =  5.2

     negative rho (up, down):  1.979E-01 0.000E+00

     total cpu time spent up to now is      183.6 secs

     total energy              =   -2269.30041955 Ry
     estimated scf accuracy    <       0.00003944 Ry

     iteration # 12     ecut=    90.00 Ry     beta= 0.30
     Davidson diagonalization with overlap

---- Real-time Memory Report at c_bands before calling an iterative solver
             0 MiB given to the printing process from OS
             0 MiB allocation reported by mallinfo(arena+hblkhd)
             0 MiB available memory on the node where the printing process lives
------------------
     ethr =  1.88E-08,  avg # of iterations =  2.6

     negative rho (up, down):  1.979E-01 0.000E+00

     total cpu time spent up to now is      197.9 secs

     total energy              =   -2269.30042565 Ry
     estimated scf accuracy    <       0.00000419 Ry

     iteration # 13     ecut=    90.00 Ry     beta= 0.30
     Davidson diagonalization with overlap

---- Real-time Memory Report at c_bands before calling an iterative solver
             0 MiB given to the printing process from OS
             0 MiB allocation reported by mallinfo(arena+hblkhd)
             0 MiB available memory on the node where the printing process lives
------------------
     ethr =  1.99E-09,  avg # of iterations =  7.8

     negative rho (up, down):  1.979E-01 0.000E+00

     total cpu time spent up to now is      218.7 secs

     total energy              =   -2269.30042989 Ry
     estimated scf accuracy    <       0.00000237 Ry

     iteration # 14     ecut=    90.00 Ry     beta= 0.30
     Davidson diagonalization with overlap

---- Real-time Memory Report at c_bands before calling an iterative solver
             0 MiB given to the printing process from OS
             0 MiB allocation reported by mallinfo(arena+hblkhd)
             0 MiB available memory on the node where the printing process lives
------------------
     ethr =  1.13E-09,  avg # of iterations =  1.2

     negative rho (up, down):  1.979E-01 0.000E+00

     total cpu time spent up to now is      230.1 secs

     total energy              =   -2269.30043049 Ry
     estimated scf accuracy    <       0.00000124 Ry

     iteration # 15     ecut=    90.00 Ry     beta= 0.30
     Davidson diagonalization with overlap

---- Real-time Memory Report at c_bands before calling an iterative solver
             0 MiB given to the printing process from OS
             0 MiB allocation reported by mallinfo(arena+hblkhd)
             0 MiB available memory on the node where the printing process lives
------------------
     ethr =  5.92E-10,  avg # of iterations =  3.0

     negative rho (up, down):  1.979E-01 0.000E+00

     total cpu time spent up to now is      244.0 secs

     total energy              =   -2269.30043095 Ry
     estimated scf accuracy    <       0.00000023 Ry

     iteration # 16     ecut=    90.00 Ry     beta= 0.30
     Davidson diagonalization with overlap

---- Real-time Memory Report at c_bands before calling an iterative solver
             0 MiB given to the printing process from OS
             0 MiB allocation reported by mallinfo(arena+hblkhd)
             0 MiB available memory on the node where the printing process lives
------------------
     ethr =  1.10E-10,  avg # of iterations =  6.8

     negative rho (up, down):  1.978E-01 0.000E+00

     total cpu time spent up to now is      265.0 secs

     total energy              =   -2269.30043128 Ry
     estimated scf accuracy    <       0.00000037 Ry

     iteration # 17     ecut=    90.00 Ry     beta= 0.30
     Davidson diagonalization with overlap

---- Real-time Memory Report at c_bands before calling an iterative solver
             0 MiB given to the printing process from OS
             0 MiB allocation reported by mallinfo(arena+hblkhd)
             0 MiB available memory on the node where the printing process lives
------------------
     ethr =  1.10E-10,  avg # of iterations =  2.1

     negative rho (up, down):  1.978E-01 0.000E+00

     total cpu time spent up to now is      277.9 secs

     total energy              =   -2269.30043138 Ry
     estimated scf accuracy    <       0.00000009 Ry

     iteration # 18     ecut=    90.00 Ry     beta= 0.30
     Davidson diagonalization with overlap

---- Real-time Memory Report at c_bands before calling an iterative solver
             0 MiB given to the printing process from OS
             0 MiB allocation reported by mallinfo(arena+hblkhd)
             0 MiB available memory on the node where the printing process lives
------------------
     ethr =  4.07E-11,  avg # of iterations =  6.0

     negative rho (up, down):  1.978E-01 0.000E+00

     total cpu time spent up to now is      294.4 secs

     End of self-consistent calculation

          k = 0.0000 0.0000 0.0000 ( 52817 PWs)   bands (ev):

   -28.2091 -28.2090 -28.2089 -14.8729 -14.8728 -14.8727 -14.8683 -14.8682
   -14.8680 -14.8548 -14.8548 -14.8546 -14.8120 -14.8119 -14.8118 -14.7667
   -14.7666 -14.7665 -10.2663 -10.2661 -10.2594 -10.2407 -10.2406 -10.2178
   -10.1941 -10.1940 -10.1901  -6.8413  -6.5309  -6.5307  -5.6968  -5.6968
    -5.5607  -5.4804  -5.4803  -5.3896  -5.3277  -5.3275  -5.2088  -0.3170
    -0.2625  -0.2623   1.6266   1.6267   1.6996   2.0524   2.0758   2.0758
     2.3393   2.3411   2.5859   2.5860   2.9110   2.9111   3.2072   3.2711
     3.2712   3.4393   3.4394   3.5362   3.5553   3.5553   3.7355   3.7357
     3.7550   3.8384   3.8385   4.0104   4.1655   4.2498   4.3233   4.3234
     4.5819   4.5820   4.9007   5.1762   5.2292   5.2293   5.2745   5.2815
     5.2816   5.3651   5.3652   5.3772   5.4907   5.4907   5.5274   5.5511
     5.5511   5.6797   5.7786   5.7786   5.7975   6.0525   6.0526   6.2055
     6.3460   6.3461   6.6126   6.8218   6.8219   6.8591   7.0204   7.2378
     7.2379

     occupation numbers 
     1.0000   1.0000   1.0000   1.0000   1.0000   1.0000   1.0000   1.0000
     1.0000   1.0000   1.0000   1.0000   1.0000   1.0000   1.0000   1.0000
     1.0000   1.0000   1.0000   1.0000   1.0000   1.0000   1.0000   1.0000
     1.0000   1.0000   1.0000   1.0000   1.0000   1.0000   1.0000   1.0000
     1.0000   1.0000   1.0000   1.0000   1.0000   1.0000   1.0000   1.0000
     1.0000   1.0000   1.0000   1.0000   1.0000   1.0000   1.0000   1.0000
     1.0000   1.0000   1.0000   1.0000   1.0000   1.0000   1.0000   1.0000
     1.0000   1.0000   1.0000   1.0000   1.0000   1.0000   1.0000   1.0000
     1.0000   1.0000   1.0000   1.0000   1.0000   1.0000   1.0000   1.0000
     1.0000   1.0000   1.0000   1.0000   1.0000   1.0000   1.0000   1.0000
     1.0000   1.0000   1.0000   1.0000   1.0000   1.0000   1.0000   1.0000
     1.0000   1.0000   1.0000   1.0000   1.0000   1.0000   1.0000   1.0000
     1.0000   1.0000   1.0000   1.0000   1.0000   1.0000   1.0000   1.0000
     1.0000

          k = 0.0000 0.0000-0.2035 ( 52864 PWs)   bands (ev):

   -28.2091 -28.2090 -28.2089 -14.8729 -14.8728 -14.8727 -14.8683 -14.8682
   -14.8680 -14.8548 -14.8548 -14.8546 -14.8120 -14.8119 -14.8118 -14.7667
   -14.7666 -14.7665 -10.2680 -10.2619 -10.2618 -10.2501 -10.2241 -10.2239
   -10.1938 -10.1929 -10.1928  -6.7540  -6.7539  -6.3564  -5.8386  -5.5882
    -5.5881  -5.5239  -5.3977  -5.3975  -5.3297  -5.2717  -5.2715  -0.3073
    -0.3072  -0.2298   1.6250   1.6251   1.7040   2.0332   2.0984   2.0985
     2.3668   2.3669   2.6165   2.6166   2.7173   2.8211   3.2295   3.2296
     3.3627   3.3749   3.5441   3.5442   3.5900   3.6377   3.6378   3.6976
     3.8134   3.9243   3.9244   4.0439   4.0440   4.1737   4.2821   4.2821
     4.5261   4.7935   4.7936   5.1922   5.2003   5.2004   5.2667   5.3465
     5.3465   5.3830   5.3830   5.3995   5.4000   5.4000   5.4399   5.6105
     5.6105   5.6696   5.6857   5.8599   5.8600   5.9071   6.3283   6.3283
     6.4104   6.4105   6.4305   6.5506   6.5506   7.0800   7.0800   7.1203
     7.2006

     occupation numbers 
     1.0000   1.0000   1.0000   1.0000   1.0000   1.0000   1.0000   1.0000
     1.0000   1.0000   1.0000   1.0000   1.0000   1.0000   1.0000   1.0000
     1.0000   1.0000   1.0000   1.0000   1.0000   1.0000   1.0000   1.0000
     1.0000   1.0000   1.0000   1.0000   1.0000   1.0000   1.0000   1.0000
     1.0000   1.0000   1.0000   1.0000   1.0000   1.0000   1.0000   1.0000
     1.0000   1.0000   1.0000   1.0000   1.0000   1.0000   1.0000   1.0000
     1.0000   1.0000   1.0000   1.0000   1.0000   1.0000   1.0000   1.0000
     1.0000   1.0000   1.0000   1.0000   1.0000   1.0000   1.0000   1.0000
     1.0000   1.0000   1.0000   1.0000   1.0000   1.0000   1.0000   1.0000
     1.0000   1.0000   1.0000   1.0000   1.0000   1.0000   1.0000   1.0000
     1.0000   1.0000   1.0000   1.0000   1.0000   1.0000   1.0000   1.0000
     1.0000   1.0000   1.0000   1.0000   1.0000   1.0000   1.0000   1.0000
     1.0000   1.0000   1.0000   1.0000   1.0000   1.0000   1.0000   1.0000
     1.0000

          k = 0.0000 0.2887 0.0000 ( 52871 PWs)   bands (ev):

   -28.2091 -28.2090 -28.2088 -14.8727 -14.8726 -14.8725 -14.8682 -14.8681
   -14.8680 -14.8547 -14.8547 -14.8546 -14.8120 -14.8119 -14.8118 -14.7667
   -14.7666 -14.7664 -10.2698 -10.2696 -10.2645 -10.2413 -10.2384 -10.2240
   -10.2024 -10.1981 -10.1939  -6.6768  -6.4126  -6.4073  -5.7042  -5.6824
    -5.6469  -5.6099  -5.4774  -5.4655  -5.4173  -5.4085  -5.2489  -0.4673
    -0.3202  -0.2691   1.4869   1.6754   1.7811   2.0372   2.2811   2.3639
     2.4406   2.5452   2.8121   2.8652   2.8864   2.9925   3.1240   3.1845
     3.2328   3.3239   3.3858   3.4809   3.5490   3.5731   3.6250   3.6881
     3.7445   3.9098   3.9908   4.0415   4.1483   4.1954   4.3169   4.3817
     4.4761   4.5609   4.7212   5.2060   5.2217   5.2727   5.2931   5.3061
     5.3294   5.3763   5.3978   5.4216   5.5140   5.5221   5.5647   5.5903
     5.6389   5.7275   5.7554   5.7867   5.8905   5.9822   6.0823   6.2316
     6.2895   6.3450   6.4658   6.5393   6.7281   6.7805   6.7943   6.9004
     7.0437

     occupation numbers 
     1.0000   1.0000   1.0000   1.0000   1.0000   1.0000   1.0000   1.0000
     1.0000   1.0000   1.0000   1.0000   1.0000   1.0000   1.0000   1.0000
     1.0000   1.0000   1.0000   1.0000   1.0000   1.0000   1.0000   1.0000
     1.0000   1.0000   1.0000   1.0000   1.0000   1.0000   1.0000   1.0000
     1.0000   1.0000   1.0000   1.0000   1.0000   1.0000   1.0000   1.0000
     1.0000   1.0000   1.0000   1.0000   1.0000   1.0000   1.0000   1.0000
     1.0000   1.0000   1.0000   1.0000   1.0000   1.0000   1.0000   1.0000
     1.0000   1.0000   1.0000   1.0000   1.0000   1.0000   1.0000   1.0000
     1.0000   1.0000   1.0000   1.0000   1.0000   1.0000   1.0000   1.0000
     1.0000   1.0000   1.0000   1.0000   1.0000   1.0000   1.0000   1.0000
     1.0000   1.0000   1.0000   1.0000   1.0000   1.0000   1.0000   1.0000
     1.0000   1.0000   1.0000   1.0000   1.0000   1.0000   1.0000   1.0000
     1.0000   1.0000   1.0000   1.0000   1.0000   1.0000   1.0000   1.0000
     1.0000

          k = 0.0000 0.2887-0.2035 ( 52942 PWs)   bands (ev):

   -28.2091 -28.2090 -28.2088 -14.8727 -14.8726 -14.8725 -14.8682 -14.8681
   -14.8680 -14.8547 -14.8547 -14.8546 -14.8120 -14.8119 -14.8118 -14.7667
   -14.7666 -14.7664 -10.2719 -10.2669 -10.2653 -10.2457 -10.2307 -10.2270
   -10.2016 -10.1974 -10.1958  -6.6083  -6.5926  -6.2708  -5.7694  -5.6728
    -5.6457  -5.5973  -5.4862  -5.4619  -5.4397  -5.3250  -5.2880  -0.4590
    -0.3567  -0.2422   1.4781   1.7086   1.8050   2.0022   2.2277   2.3393
     2.5144   2.6465   2.7087   2.7618   2.9247   3.0219   3.1182   3.1522
     3.2521   3.3275   3.3950   3.5130   3.5270   3.6163   3.6622   3.7001
     3.7385   3.9352   3.9902   4.0477   4.0800   4.1579   4.2775   4.3920
     4.5238   4.5561   4.7165   5.2149   5.2235   5.2405   5.2760   5.3151
     5.3248   5.4037   5.4148   5.4360   5.4839   5.5295   5.5698   5.6217
     5.6458   5.6992   5.7415   5.8095   5.8806   5.9118   6.1754   6.2262
     6.3142   6.3593   6.4324   6.5423   6.5710   6.8183   6.8638   6.9416
     6.9924

     occupation numbers 
     1.0000   1.0000   1.0000   1.0000   1.0000   1.0000   1.0000   1.0000
     1.0000   1.0000   1.0000   1.0000   1.0000   1.0000   1.0000   1.0000
     1.0000   1.0000   1.0000   1.0000   1.0000   1.0000   1.0000   1.0000
     1.0000   1.0000   1.0000   1.0000   1.0000   1.0000   1.0000   1.0000
     1.0000   1.0000   1.0000   1.0000   1.0000   1.0000   1.0000   1.0000
     1.0000   1.0000   1.0000   1.0000   1.0000   1.0000   1.0000   1.0000
     1.0000   1.0000   1.0000   1.0000   1.0000   1.0000   1.0000   1.0000
     1.0000   1.0000   1.0000   1.0000   1.0000   1.0000   1.0000   1.0000
     1.0000   1.0000   1.0000   1.0000   1.0000   1.0000   1.0000   1.0000
     1.0000   1.0000   1.0000   1.0000   1.0000   1.0000   1.0000   1.0000
     1.0000   1.0000   1.0000   1.0000   1.0000   1.0000   1.0000   1.0000
     1.0000   1.0000   1.0000   1.0000   1.0000   1.0000   1.0000   1.0000
     1.0000   1.0000   1.0000   1.0000   1.0000   1.0000   1.0000   1.0000
     1.0000

          k = 0.0000-0.5774 0.0000 ( 52946 PWs)   bands (ev):

   -28.2091 -28.2090 -28.2088 -14.8725 -14.8724 -14.8723 -14.8682 -14.8679
   -14.8679 -14.8547 -14.8545 -14.8545 -14.8120 -14.8119 -14.8118 -14.7667
   -14.7665 -14.7664 -10.2740 -10.2720 -10.2712 -10.2455 -10.2374 -10.2284
   -10.2065 -10.2009 -10.1985  -6.3930  -6.2757  -6.1973  -5.9496  -5.8083
    -5.7588  -5.5792  -5.5701  -5.5184  -5.5028  -5.3868  -5.3055  -0.5725
    -0.3460  -0.2746   1.4167   1.7471   1.8445   2.1241   2.2793   2.4389
     2.4959   2.7035   2.8200   2.9640   2.9912   3.0680   3.0821   3.2507
     3.2997   3.4223   3.4732   3.4820   3.5191   3.5385   3.6287   3.6695
     3.7346   3.8715   4.0673   4.0846   4.1728   4.2190   4.2555   4.2929
     4.4713   4.5624   4.6660   5.2065   5.2257   5.2810   5.3050   5.3179
     5.3303   5.3631   5.3897   5.4273   5.5238   5.5301   5.6555   5.6714
     5.7026   5.7122   5.8384   5.8745   5.9565   5.9814   6.0806   6.2055
     6.3168   6.3172   6.3916   6.4195   6.4435   6.6257   6.6937   6.8033
     6.8345

     occupation numbers 
     1.0000   1.0000   1.0000   1.0000   1.0000   1.0000   1.0000   1.0000
     1.0000   1.0000   1.0000   1.0000   1.0000   1.0000   1.0000   1.0000
     1.0000   1.0000   1.0000   1.0000   1.0000   1.0000   1.0000   1.0000
     1.0000   1.0000   1.0000   1.0000   1.0000   1.0000   1.0000   1.0000
     1.0000   1.0000   1.0000   1.0000   1.0000   1.0000   1.0000   1.0000
     1.0000   1.0000   1.0000   1.0000   1.0000   1.0000   1.0000   1.0000
     1.0000   1.0000   1.0000   1.0000   1.0000   1.0000   1.0000   1.0000
     1.0000   1.0000   1.0000   1.0000   1.0000   1.0000   1.0000   1.0000
     1.0000   1.0000   1.0000   1.0000   1.0000   1.0000   1.0000   1.0000
     1.0000   1.0000   1.0000   1.0000   1.0000   1.0000   1.0000   1.0000
     1.0000   1.0000   1.0000   1.0000   1.0000   1.0000   1.0000   1.0000
     1.0000   1.0000   1.0000   1.0000   1.0000   1.0000   1.0000   1.0000
     1.0000   1.0000   1.0000   1.0000   1.0000   1.0000   1.0000   1.0000
     1.0000

          k = 0.0000-0.5774-0.2035 ( 52908 PWs)   bands (ev):

   -28.2091 -28.2090 -28.2088 -14.8725 -14.8724 -14.8723 -14.8682 -14.8679
   -14.8679 -14.8547 -14.8545 -14.8545 -14.8120 -14.8119 -14.8118 -14.7667
   -14.7665 -14.7664 -10.2754 -10.2728 -10.2691 -10.2433 -10.2383 -10.2301
   -10.2056 -10.2019 -10.1978  -6.3821  -6.2821  -6.2125  -5.9528  -5.7893
    -5.7243  -5.6316  -5.5687  -5.5095  -5.5030  -5.3946  -5.2950  -0.5619
    -0.3770  -0.2556   1.4523   1.6266   2.0355   2.0510   2.3227   2.4028
     2.4465   2.6513   2.8278   2.9115   3.0134   3.1240   3.1258   3.2432
     3.3225   3.4311   3.4611   3.4845   3.4893   3.5743   3.5776   3.7022
     3.7127   3.9423   4.0306   4.1167   4.1582   4.1892   4.1975   4.3040
     4.4680   4.6233   4.6393   5.2150   5.2242   5.2820   5.3009   5.3065
     5.3226   5.3845   5.4052   5.4091   5.4810   5.5868   5.6397   5.6729
     5.7103   5.7455   5.8020   5.8688   5.9315   6.0701   6.1172   6.1220
     6.2089   6.3212   6.3990   6.4203   6.4994   6.7019   6.7228   6.7508
     6.7858

     occupation numbers 
     1.0000   1.0000   1.0000   1.0000   1.0000   1.0000   1.0000   1.0000
     1.0000   1.0000   1.0000   1.0000   1.0000   1.0000   1.0000   1.0000
     1.0000   1.0000   1.0000   1.0000   1.0000   1.0000   1.0000   1.0000
     1.0000   1.0000   1.0000   1.0000   1.0000   1.0000   1.0000   1.0000
     1.0000   1.0000   1.0000   1.0000   1.0000   1.0000   1.0000   1.0000
     1.0000   1.0000   1.0000   1.0000   1.0000   1.0000   1.0000   1.0000
     1.0000   1.0000   1.0000   1.0000   1.0000   1.0000   1.0000   1.0000
     1.0000   1.0000   1.0000   1.0000   1.0000   1.0000   1.0000   1.0000
     1.0000   1.0000   1.0000   1.0000   1.0000   1.0000   1.0000   1.0000
     1.0000   1.0000   1.0000   1.0000   1.0000   1.0000   1.0000   1.0000
     1.0000   1.0000   1.0000   1.0000   1.0000   1.0000   1.0000   1.0000
     1.0000   1.0000   1.0000   1.0000   1.0000   1.0000   1.0000   1.0000
     1.0000   1.0000   1.0000   1.0000   1.0000   1.0000   1.0000   1.0000
     1.0000

          k = 0.2500 0.4330 0.0000 ( 52956 PWs)   bands (ev):

   -28.2090 -28.2090 -28.2088 -14.8725 -14.8724 -14.8722 -14.8682 -14.8680
   -14.8679 -14.8547 -14.8546 -14.8544 -14.8120 -14.8119 -14.8118 -14.7666
   -14.7665 -14.7665 -10.2735 -10.2720 -10.2696 -10.2429 -10.2381 -10.2316
   -10.2043 -10.2042 -10.1984  -6.4201  -6.2558  -6.2357  -5.8336  -5.7721
    -5.7013  -5.6997  -5.5921  -5.5647  -5.4695  -5.4000  -5.3072  -0.5127
    -0.3736  -0.3019   1.5946   1.7200   1.8682   2.0507   2.2551   2.3590
     2.6052   2.6941   2.7871   2.8584   2.9481   2.9780   3.1043   3.2463
     3.3339   3.3374   3.4327   3.4870   3.5542   3.5663   3.6335   3.7468
     3.7711   3.7893   4.0084   4.0849   4.1648   4.2259   4.3247   4.3940
     4.4572   4.5687   4.6307   5.1929   5.2090   5.2617   5.3045   5.3356
     5.3536   5.3878   5.4090   5.4942   5.5016   5.5616   5.5899   5.6521
     5.6815   5.7602   5.8350   5.8549   5.9382   6.0035   6.0800   6.1803
     6.2774   6.3455   6.4401   6.4553   6.5430   6.5910   6.7689   6.8383
     6.8394

     occupation numbers 
     1.0000   1.0000   1.0000   1.0000   1.0000   1.0000   1.0000   1.0000
     1.0000   1.0000   1.0000   1.0000   1.0000   1.0000   1.0000   1.0000
     1.0000   1.0000   1.0000   1.0000   1.0000   1.0000   1.0000   1.0000
     1.0000   1.0000   1.0000   1.0000   1.0000   1.0000   1.0000   1.0000
     1.0000   1.0000   1.0000   1.0000   1.0000   1.0000   1.0000   1.0000
     1.0000   1.0000   1.0000   1.0000   1.0000   1.0000   1.0000   1.0000
     1.0000   1.0000   1.0000   1.0000   1.0000   1.0000   1.0000   1.0000
     1.0000   1.0000   1.0000   1.0000   1.0000   1.0000   1.0000   1.0000
     1.0000   1.0000   1.0000   1.0000   1.0000   1.0000   1.0000   1.0000
     1.0000   1.0000   1.0000   1.0000   1.0000   1.0000   1.0000   1.0000
     1.0000   1.0000   1.0000   1.0000   1.0000   1.0000   1.0000   1.0000
     1.0000   1.0000   1.0000   1.0000   1.0000   1.0000   1.0000   1.0000
     1.0000   1.0000   1.0000   1.0000   1.0000   1.0000   1.0000   1.0000
     1.0000

          k = 0.2500 0.4330-0.2035 ( 52926 PWs)   bands (ev):

   -28.2090 -28.2090 -28.2088 -14.8725 -14.8724 -14.8722 -14.8682 -14.8680
   -14.8679 -14.8547 -14.8546 -14.8544 -14.8120 -14.8119 -14.8118 -14.7666
   -14.7665 -14.7665 -10.2746 -10.2726 -10.2680 -10.2417 -10.2368 -10.2340
   -10.2051 -10.2038 -10.1979  -6.3891  -6.3377  -6.1844  -5.8202  -5.7830
    -5.7158  -5.6799  -5.5981  -5.5622  -5.4846  -5.3896  -5.3071  -0.4926
    -0.4163  -0.2796   1.5780   1.7523   1.8821   2.0077   2.2505   2.4751
     2.5709   2.6256   2.6915   2.8454   2.9960   3.0138   3.1780   3.2045
     3.3339   3.3434   3.4184   3.5057   3.5135   3.5904   3.6581   3.7221
     3.7516   3.9024   3.9578   4.1055   4.1512   4.1624   4.3361   4.3462
     4.4936   4.5545   4.6634   5.2026   5.2235   5.2630   5.2799   5.3214
     5.3629   5.4139   5.4206   5.4769   5.4915   5.5264   5.6285   5.6711
     5.6803   5.7960   5.8150   5.8272   5.9151   6.0102   6.0834   6.1473
     6.2613   6.3155   6.4125   6.5041   6.5988   6.6265   6.6868   6.8364
     6.8906

     occupation numbers 
     1.0000   1.0000   1.0000   1.0000   1.0000   1.0000   1.0000   1.0000
     1.0000   1.0000   1.0000   1.0000   1.0000   1.0000   1.0000   1.0000
     1.0000   1.0000   1.0000   1.0000   1.0000   1.0000   1.0000   1.0000
     1.0000   1.0000   1.0000   1.0000   1.0000   1.0000   1.0000   1.0000
     1.0000   1.0000   1.0000   1.0000   1.0000   1.0000   1.0000   1.0000
     1.0000   1.0000   1.0000   1.0000   1.0000   1.0000   1.0000   1.0000
     1.0000   1.0000   1.0000   1.0000   1.0000   1.0000   1.0000   1.0000
     1.0000   1.0000   1.0000   1.0000   1.0000   1.0000   1.0000   1.0000
     1.0000   1.0000   1.0000   1.0000   1.0000   1.0000   1.0000   1.0000
     1.0000   1.0000   1.0000   1.0000   1.0000   1.0000   1.0000   1.0000
     1.0000   1.0000   1.0000   1.0000   1.0000   1.0000   1.0000   1.0000
     1.0000   1.0000   1.0000   1.0000   1.0000   1.0000   1.0000   1.0000
     1.0000   1.0000   1.0000   1.0000   1.0000   1.0000   1.0000   1.0000
     1.0000

     highest occupied level (ev):     7.2379

!    total energy              =   -2269.30043150 Ry
     estimated scf accuracy    <          5.0E-09 Ry

     The total energy is the sum of the following terms:
     one-electron contribution =    -691.85829074 Ry
     hartree contribution      =     504.28331030 Ry
     xc contribution           =    -567.41274877 Ry
     ewald contribution        =    -975.36458091 Ry
     one-center paw contrib.   =    -538.94812137 Ry
      -> PAW hartree energy AE =       0.00000000 Ry
      -> PAW hartree energy PS =       0.00000000 Ry
      -> PAW xc energy AE      =       0.00000000 Ry
      -> PAW xc energy PS      =       0.00000000 Ry
      -> total E_H with PAW    =     504.28331030 Ry
      -> total E_XC with PAW   =    -567.41274877 Ry

     convergence has been achieved in  18 iterations

     negative rho (up, down):  1.978E-01 0.000E+00

     Forces acting on atoms (cartesian axes, Ry/au):

     atom    1 type  4   force =    -0.00023884    0.00041369    0.00000000
     atom    2 type  4   force =    -0.00023884   -0.00041369   -0.00000000
     atom    3 type  4   force =     0.00047768    0.00000000    0.00000000
     atom    4 type  1   force =    -0.00003600   -0.00063549    0.00032270
     atom    5 type  1   force =     0.00056835    0.00028656    0.00032270
     atom    6 type  1   force =    -0.00053235    0.00034893    0.00032270
     atom    7 type  1   force =    -0.00053235   -0.00034893   -0.00032270
     atom    8 type  1   force =    -0.00003600    0.00063549   -0.00032270
     atom    9 type  1   force =     0.00056835   -0.00028656   -0.00032270
     atom   10 type  3   force =    -0.00057766    0.00100053    0.00000000
     atom   11 type  3   force =    -0.00057766   -0.00100053    0.00000000
     atom   12 type  3   force =     0.00115531    0.00000000    0.00000000
     atom   13 type  2   force =     0.00066589   -0.00159902    0.00296506
     atom   14 type  2   force =     0.00105184    0.00137619    0.00296506
     atom   15 type  2   force =    -0.00171774    0.00022283    0.00296506
     atom   16 type  2   force =    -0.00171774   -0.00022283   -0.00296506
     atom   17 type  2   force =     0.00066589    0.00159902   -0.00296506
     atom   18 type  2   force =     0.00105184   -0.00137619   -0.00296506
     atom   19 type  2   force =     0.00084532    0.00125590    0.00001102
     atom   20 type  2   force =    -0.00151030    0.00010412    0.00001102
     atom   21 type  2   force =     0.00066498   -0.00136002    0.00001102
     atom   22 type  2   force =     0.00066498    0.00136002   -0.00001102
     atom   23 type  2   force =     0.00084532   -0.00125590   -0.00001102
     atom   24 type  2   force =    -0.00151030   -0.00010412   -0.00001102
     The non-local contrib.  to forces
     atom    1 type  4   force =    -0.00185384    0.00321094   -0.00000000
     atom    2 type  4   force =    -0.00185384   -0.00321094    0.00000000
     atom    3 type  4   force =     0.00370767    0.00000000    0.00000000
     atom    4 type  1   force =    -0.05157279   -0.01119602   -0.02164493
     atom    5 type  1   force =     0.03548242   -0.03906535   -0.02164493
     atom    6 type  1   force =     0.01609037    0.05026136   -0.02164493
     atom    7 type  1   force =     0.01609037   -0.05026136    0.02164493
     atom    8 type  1   force =    -0.05157279    0.01119601    0.02164493
     atom    9 type  1   force =     0.03548242    0.03906535    0.02164493
     atom   10 type  3   force =    -0.00456850    0.00791287    0.00000000
     atom   11 type  3   force =    -0.00456850   -0.00791287   -0.00000000
     atom   12 type  3   force =     0.00913699    0.00000000    0.00000000
     atom   13 type  2   force =    -0.01719516    0.10094856   -0.07881281
     atom   14 type  2   force =    -0.07882642   -0.06536573   -0.07881281
     atom   15 type  2   force =     0.09602158   -0.03558283   -0.07881281
     atom   16 type  2   force =     0.09602158    0.03558285    0.07881281
     atom   17 type  2   force =    -0.01719516   -0.10094856    0.07881281
     atom   18 type  2   force =    -0.07882642    0.06536572    0.07881281
     atom   19 type  2   force =    -0.06756404   -0.07211835    0.00403870
     atom   20 type  2   force =     0.09623832   -0.02245301    0.00403870
     atom   21 type  2   force =    -0.02867428    0.09457136    0.00403870
     atom   22 type  2   force =    -0.02867428   -0.09457136   -0.00403870
     atom   23 type  2   force =    -0.06756404    0.07211834   -0.00403870
     atom   24 type  2   force =     0.09623832    0.02245303   -0.00403870
     The ionic contribution  to forces
     atom    1 type  4   force =    -0.98841757    1.71197165   -0.00006652
     atom    2 type  4   force =    -0.98841328   -1.71198190    0.00001891
     atom    3 type  4   force =     1.97681922   -0.00003511   -0.00009576
     atom    4 type  1   force =    -2.24671878    2.76224711    0.10767715
     atom    5 type  1   force =    -1.26877126   -3.32681289    0.10772817
     atom    6 type  1   force =     3.51553986    0.56466756    0.10763803
     atom    7 type  1   force =     3.51553145   -0.56459558   -0.10761802
     atom    8 type  1   force =    -2.24672906   -2.76220119   -0.10773931
     atom    9 type  1   force =    -1.26875421    3.32689090   -0.10763697
     atom   10 type  3   force =    -1.66057026    2.87617092   -0.00001827
     atom   11 type  3   force =    -1.66059786   -2.87621684    0.00000142
     atom   12 type  3   force =     3.32112127   -0.00001824    0.00004910
     atom   13 type  2   force =    -0.38562649   -2.64534023    0.82519899
     atom   14 type  2   force =     2.48377207    0.98862303    0.82525641
     atom   15 type  2   force =    -2.09805145    1.65664661    0.82516603
     atom   16 type  2   force =    -2.09811653   -1.65663155   -0.82521913
     atom   17 type  2   force =    -0.38570953    2.64531909   -0.82527816
     atom   18 type  2   force =     2.48372443   -0.98864336   -0.82514292
     atom   19 type  2   force =     1.36986560   -1.01205690   -0.22703497
     atom   20 type  2   force =     0.19153378    1.69237150   -0.22703475
     atom   21 type  2   force =    -1.56142718   -0.68035596   -0.22703613
     atom   22 type  2   force =    -1.56137922    0.68030162    0.22705990
     atom   23 type  2   force =     1.36985539    1.01206197    0.22706166
     atom   24 type  2   force =     0.19151960   -1.69238219    0.22706516
     The local contribution  to forces
     atom    1 type  4   force =     0.98992577   -1.71464449   -0.00011402
     atom    2 type  4   force =     0.98992555    1.71464479    0.00011389
     atom    3 type  4   force =    -1.97990529    0.00001334   -0.00033338
     atom    4 type  1   force =     2.29110174   -2.74831317   -0.08842410
     atom    5 type  1   force =     1.23452604    3.35830177   -0.08736594
     atom    6 type  1   force =    -3.52566075   -0.61005014   -0.08945039
     atom    7 type  1   force =    -3.52566119    0.61005085    0.08944965
     atom    8 type  1   force =     2.29110075    2.74831438    0.08842480
     atom    9 type  1   force =     1.23449301   -3.35831928    0.09049655
     atom   10 type  3   force =     1.66406025   -2.88229998   -0.00043058
     atom   11 type  3   force =     1.66405950    2.88230107    0.00043033
     atom   12 type  3   force =    -3.32822443    0.00001242    0.00124184
     atom   13 type  2   force =     0.40266106    2.54820483   -0.74757290
     atom   14 type  2   force =    -2.40810374   -0.92535988   -0.74751730
     atom   15 type  2   force =     2.00544573   -1.62274491   -0.74755812
     atom   16 type  2   force =     2.00544604    1.62274409    0.74755794
     atom   17 type  2   force =     0.40266167   -2.54820514    0.74757325
     atom   18 type  2   force =    -2.40806508    0.92537775    0.74758809
     atom   19 type  2   force =    -1.30498524    1.08161663    0.22325391
     atom   20 type  2   force =    -0.28419882   -1.67092529    0.22336841
     atom   21 type  2   force =     1.58920553    0.58935090    0.22327525
     atom   22 type  2   force =     1.58920550   -0.58935219   -0.22327567
     atom   23 type  2   force =    -1.30498482   -1.08161809   -0.22325432
     atom   24 type  2   force =    -0.28419381    1.67099891   -0.22320324
     The core correction contribution to forces
     atom    1 type  4   force =     0.00008210   -0.00014230    0.00001036
     atom    2 type  4   force =     0.00008210    0.00014230   -0.00001036
     atom    3 type  4   force =    -0.00016429    0.00000001    0.00003110
     atom    4 type  1   force =     0.00715108   -0.00336002    0.00330296
     atom    5 type  1   force =    -0.00066649    0.00787258    0.00345209
     atom    6 type  1   force =    -0.00648517   -0.00451361    0.00315593
     atom    7 type  1   force =    -0.00648517    0.00451361   -0.00315593
     atom    8 type  1   force =     0.00715108    0.00336002   -0.00330296
     atom    9 type  1   force =    -0.00066560   -0.00787290   -0.00300733
     atom   10 type  3   force =     0.00045955   -0.00079624   -0.00004111
     atom   11 type  3   force =     0.00045954    0.00079624    0.00004111
     atom   12 type  3   force =    -0.00091955    0.00000009    0.00012144
     atom   13 type  2   force =     0.00089002   -0.00538766    0.00411789
     atom   14 type  2   force =     0.00422271    0.00346516    0.00411664
     atom   15 type  2   force =    -0.00511146    0.00192462    0.00412639
     atom   16 type  2   force =    -0.00511146   -0.00192462   -0.00412639
     atom   17 type  2   force =     0.00089002    0.00538766   -0.00411789
     atom   18 type  2   force =     0.00422240   -0.00346443   -0.00412950
     atom   19 type  2   force =     0.00352503    0.00380768   -0.00025632
     atom   20 type  2   force =    -0.00506034    0.00114842   -0.00025804
     atom   21 type  2   force =     0.00153503   -0.00495672   -0.00025022
     atom   22 type  2   force =     0.00153503    0.00495672    0.00025022
     atom   23 type  2   force =     0.00352503   -0.00380768    0.00025632
     atom   24 type  2   force =    -0.00506044   -0.00114884    0.00024400
     The Hubbard contrib.    to forces
     atom    1 type  4   force =     0.00000000    0.00000000    0.00000000
     atom    2 type  4   force =     0.00000000    0.00000000    0.00000000
     atom    3 type  4   force =     0.00000000    0.00000000    0.00000000
     atom    4 type  1   force =     0.00000000    0.00000000    0.00000000
     atom    5 type  1   force =     0.00000000    0.00000000    0.00000000
     atom    6 type  1   force =     0.00000000    0.00000000    0.00000000
     atom    7 type  1   force =     0.00000000    0.00000000    0.00000000
     atom    8 type  1   force =     0.00000000    0.00000000    0.00000000
     atom    9 type  1   force =     0.00000000    0.00000000    0.00000000
     atom   10 type  3   force =     0.00000000    0.00000000    0.00000000
     atom   11 type  3   force =     0.00000000    0.00000000    0.00000000
     atom   12 type  3   force =     0.00000000    0.00000000    0.00000000
     atom   13 type  2   force =     0.00000000    0.00000000    0.00000000
     atom   14 type  2   force =     0.00000000    0.00000000    0.00000000
     atom   15 type  2   force =     0.00000000    0.00000000    0.00000000
     atom   16 type  2   force =     0.00000000    0.00000000    0.00000000
     atom   17 type  2   force =     0.00000000    0.00000000    0.00000000
     atom   18 type  2   force =     0.00000000    0.00000000    0.00000000
     atom   19 type  2   force =     0.00000000    0.00000000    0.00000000
     atom   20 type  2   force =     0.00000000    0.00000000    0.00000000
     atom   21 type  2   force =     0.00000000    0.00000000    0.00000000
     atom   22 type  2   force =     0.00000000    0.00000000    0.00000000
     atom   23 type  2   force =     0.00000000    0.00000000    0.00000000
     atom   24 type  2   force =     0.00000000    0.00000000    0.00000000
     The SCF correction term to forces
     atom    1 type  4   force =    -0.00000335    0.00000579    0.00000000
     atom    2 type  4   force =    -0.00000335   -0.00000579   -0.00000000
     atom    3 type  4   force =     0.00000669    0.00000000    0.00000000
     atom    4 type  1   force =     0.00000410   -0.00000841    0.00000039
     atom    5 type  1   force =     0.00000524    0.00000775    0.00000038
     atom    6 type  1   force =    -0.00000933    0.00000066    0.00000040
     atom    7 type  1   force =    -0.00000933   -0.00000066   -0.00000040
     atom    8 type  1   force =     0.00000410    0.00000841   -0.00000039
     atom    9 type  1   force =     0.00000524   -0.00000775   -0.00000041
     atom   10 type  3   force =     0.00000514   -0.00000890    0.00000000
     atom   11 type  3   force =     0.00000514    0.00000890   -0.00000000
     atom   12 type  3   force =    -0.00001028   -0.00000000   -0.00000001
     atom   13 type  2   force =    -0.00000021   -0.00000631    0.00000642
     atom   14 type  2   force =     0.00000557    0.00000298    0.00000642
     atom   15 type  2   force =    -0.00000536    0.00000334    0.00000642
     atom   16 type  2   force =    -0.00000536   -0.00000334   -0.00000642
     atom   17 type  2   force =    -0.00000021    0.00000631   -0.00000642
     atom   18 type  2   force =     0.00000557   -0.00000298   -0.00000642
     atom   19 type  2   force =     0.00000318    0.00000941    0.00000180
     atom   20 type  2   force =    -0.00000975   -0.00000195    0.00000180
     atom   21 type  2   force =     0.00000656   -0.00000746    0.00000180
     atom   22 type  2   force =     0.00000656    0.00000747   -0.00000180
     atom   23 type  2   force =     0.00000318   -0.00000941   -0.00000180
     atom   24 type  2   force =    -0.00000975    0.00000195   -0.00000181

     Total force =     0.009605     Total SCF correction =     0.000046


     Computing stress (Cartesian axis) and pressure


     negative rho (up, down):  1.978E-01 0.000E+00
          total   stress  (Ry/bohr**3)                   (kbar)     P=        3.35
   0.00002321   0.00000000   0.00000000            3.42        0.00        0.00
   0.00000000   0.00002321  -0.00000000            0.00        3.42       -0.00
   0.00000000   0.00000000   0.00002179            0.00        0.00        3.21

     kinetic stress (kbar)   9018.83      0.00      0.00
                                0.00   9018.83      0.00
                                0.00     -0.00   9041.45

     local   stress (kbar)  -2571.02      0.01     -0.01
                                0.01  -2571.01      0.01
                               -0.01      0.01  -3019.74

     nonloc. stress (kbar)   4103.37      0.00     -0.00
                                0.00   4103.37      0.00
                               -0.00      0.00   4102.48

     hartree stress (kbar)   6676.02     -0.00     -0.00
                               -0.00   6676.02      0.00
                               -0.00      0.00   6859.49

     exc-cor stress (kbar)   8558.22     -0.00      0.00
                               -0.00   8558.22     -0.00
                                0.00     -0.00   8558.65

     corecor stress (kbar) -12669.90      0.00     -0.00
                                0.00 -12669.90     -0.00
                               -0.00     -0.00 -12671.02

     ewald   stress (kbar) -13112.12     -0.01      0.01
                               -0.01 -13112.12     -0.01
                                0.01     -0.01 -12868.10

     hubbard stress (kbar)      0.00      0.00      0.00
                                0.00      0.00      0.00
                                0.00      0.00      0.00

     DFT-D   stress (kbar)      0.00      0.00      0.00
                                0.00      0.00      0.00
                                0.00      0.00      0.00

     XDM     stress (kbar)      0.00      0.00      0.00
                                0.00      0.00      0.00
                                0.00      0.00      0.00

     dft-nl  stress (kbar)      0.00      0.00      0.00
                                0.00      0.00      0.00
                                0.00      0.00      0.00

     TS-vdW  stress (kbar)      0.00      0.00      0.00
                                0.00      0.00      0.00
                                0.00      0.00      0.00

     MDB     stress (kbar)      0.00      0.00      0.00
                                0.00      0.00      0.00
                                0.00      0.00      0.00

     3D-RISM stress (kbar)      0.00      0.00      0.00
                                0.00      0.00      0.00
                                0.00      0.00      0.00


     BFGS Geometry Optimization
     Energy error            =      2.3E-04 Ry
     Gradient error          =      3.0E-03 Ry/Bohr
     Cell gradient error     =      3.4E+00 kbar

     number of scf cycles    =   1
     number of bfgs steps    =   0

     enthalpy           new  =   -2269.3004314978 Ry

     new trust radius        =       0.0070321093 bohr
     new conv_thr            =       0.0000000100 Ry

     new unit-cell volume =   3676.57573 a.u.^3 (   544.81231 Ang^3 )
     density =      4.22150 g/cm^3

CELL_PARAMETERS (angstrom)
   6.350266358   0.000000000   0.000000000
  -3.175133679   5.499490882   0.000000000
   0.000000000  -0.000000000  15.600283359

ATOMIC_POSITIONS (crystal)
Sr               0.0000000000        0.5621838292        0.1666670000
Sr               0.4378161708        0.4378161708        0.5000000000
Sr               0.5621838292        0.0000000000        0.8333340000
Cu               0.0726314059        0.6360988160        0.4121329523
Cu               0.3639011840        0.4365325899        0.7454659523
Cu               0.5634674101        0.9273685941        0.0787999523
Cu               0.6360988160        0.0726314059        0.5878670477
Cu               0.4365325900        0.3639011840        0.2545340477
Cu               0.9273685941        0.5634674101        0.9212000477
Sn               0.0000000000        0.7049893297        0.6666670000
Sn               0.2950106703        0.2950106703        0.0000000000
Sn               0.7049893296        0.0000000000        0.3333330000
S                0.0451925463        0.4860330483        0.7873156326
S                0.5139669517        0.5591594981        0.1206486326
S                0.4408405020        0.9548074536        0.4539826326
S                0.4860330483        0.0451925463        0.2126843674
S                0.5591594980        0.5139669517        0.8793513674
S                0.9548074536        0.4408405020        0.5460173674
S                0.1172679409        0.3534409164        0.3286743741
S                0.6465590836        0.7638270245        0.6620073741
S                0.2361729755        0.8827320591        0.9953413741
S                0.3534409164        0.1172679409        0.6713256259
S                0.7638270245        0.6465590836        0.3379926259
S                0.8827320591        0.2361729755        0.0046586259



     Writing config-only to output data dir ./tmp/relax/SrCu2SnS4_relax.save/ :
     XML data file
     NEW-OLD atomic charge density approx. for the potential
     New effective cutoffs (rho, wfc):  719.18   89.90

     negative rho (up, down):  1.979E-01 0.000E+00

     total cpu time spent up to now is      313.8 secs

     Self-consistent Calculation

     iteration #  1     ecut=    90.00 Ry     beta= 0.30
     Davidson diagonalization with overlap

---- Real-time Memory Report at c_bands before calling an iterative solver
             0 MiB given to the printing process from OS
             0 MiB allocation reported by mallinfo(arena+hblkhd)
             0 MiB available memory on the node where the printing process lives
------------------
     ethr =  1.00E-06,  avg # of iterations =  3.0

     Threshold (ethr) on eigenvalues was too large:
     Diagonalizing with lowered threshold

     Davidson diagonalization with overlap

---- Real-time Memory Report at c_bands before calling an iterative solver
             0 MiB given to the printing process from OS
             0 MiB allocation reported by mallinfo(arena+hblkhd)
             0 MiB available memory on the node where the printing process lives
------------------
     ethr =  5.81E-09,  avg # of iterations =  7.8

     negative rho (up, down):  1.979E-01 0.000E+00

     total cpu time spent up to now is      358.7 secs

     total energy              =   -2269.30056114 Ry
     estimated scf accuracy    <       0.00000396 Ry

     iteration #  2     ecut=    90.00 Ry     beta= 0.30
     Davidson diagonalization with overlap

---- Real-time Memory Report at c_bands before calling an iterative solver
             0 MiB given to the printing process from OS
             0 MiB allocation reported by mallinfo(arena+hblkhd)
             0 MiB available memory on the node where the printing process lives
------------------
     ethr =  1.88E-09,  avg # of iterations =  6.2

     negative rho (up, down):  1.979E-01 0.000E+00

     total cpu time spent up to now is      374.4 secs

     total energy              =   -2269.30059112 Ry
     estimated scf accuracy    <       0.00000126 Ry

     iteration #  3     ecut=    90.00 Ry     beta= 0.30
     Davidson diagonalization with overlap

---- Real-time Memory Report at c_bands before calling an iterative solver
             0 MiB given to the printing process from OS
             0 MiB allocation reported by mallinfo(arena+hblkhd)
             0 MiB available memory on the node where the printing process lives
------------------
     ethr =  6.02E-10,  avg # of iterations =  2.8

     negative rho (up, down):  1.979E-01 0.000E+00

     total cpu time spent up to now is      389.3 secs

     total energy              =   -2269.30060572 Ry
     estimated scf accuracy    <       0.00000031 Ry

     iteration #  4     ecut=    90.00 Ry     beta= 0.30
     Davidson diagonalization with overlap

---- Real-time Memory Report at c_bands before calling an iterative solver
             0 MiB given to the printing process from OS
             0 MiB allocation reported by mallinfo(arena+hblkhd)
             0 MiB available memory on the node where the printing process lives
------------------
     ethr =  1.49E-10,  avg # of iterations =  4.9

     negative rho (up, down):  1.979E-01 0.000E+00

     total cpu time spent up to now is      406.8 secs

     total energy              =   -2269.30061317 Ry
     estimated scf accuracy    <       0.00000008 Ry

     iteration #  5     ecut=    90.00 Ry     beta= 0.30
     Davidson diagonalization with overlap

---- Real-time Memory Report at c_bands before calling an iterative solver
             0 MiB given to the printing process from OS
             0 MiB allocation reported by mallinfo(arena+hblkhd)
             0 MiB available memory on the node where the printing process lives
------------------
     ethr =  3.85E-11,  avg # of iterations =  6.2

     negative rho (up, down):  1.979E-01 0.000E+00

     total cpu time spent up to now is      426.7 secs

     total energy              =   -2269.30061681 Ry
     estimated scf accuracy    <       0.00000008 Ry

     iteration #  6     ecut=    90.00 Ry     beta= 0.30
     Davidson diagonalization with overlap

---- Real-time Memory Report at c_bands before calling an iterative solver
             0 MiB given to the printing process from OS
             0 MiB allocation reported by mallinfo(arena+hblkhd)
             0 MiB available memory on the node where the printing process lives
------------------
     ethr =  3.84E-11,  avg # of iterations =  4.0

     negative rho (up, down):  1.979E-01 0.000E+00

     total cpu time spent up to now is      441.9 secs

     total energy              =   -2269.30061860 Ry
     estimated scf accuracy    <       0.00000001 Ry

     iteration #  7     ecut=    90.00 Ry     beta= 0.30
     Davidson diagonalization with overlap

---- Real-time Memory Report at c_bands before calling an iterative solver
             0 MiB given to the printing process from OS
             0 MiB allocation reported by mallinfo(arena+hblkhd)
             0 MiB available memory on the node where the printing process lives
------------------
     ethr =  6.64E-12,  avg # of iterations =  4.1

     negative rho (up, down):  1.979E-01 0.000E+00

     total cpu time spent up to now is      458.3 secs

     End of self-consistent calculation

          k = 0.0000 0.0000 0.0000 ( 52817 PWs)   bands (ev):

   -28.2330 -28.2329 -28.2328 -14.8909 -14.8908 -14.8907 -14.8858 -14.8857
   -14.8855 -14.8728 -14.8728 -14.8726 -14.8308 -14.8307 -14.8306 -14.7855
   -14.7854 -14.7853 -10.2895 -10.2894 -10.2827 -10.2636 -10.2634 -10.2409
   -10.2172 -10.2171 -10.2132  -6.8492  -6.5399  -6.5397  -5.7107  -5.7106
    -5.5748  -5.4928  -5.4927  -5.4050  -5.3441  -5.3439  -5.2233  -0.3295
    -0.2765  -0.2764   1.6147   1.6148   1.6848   2.0412   2.0638   2.0638
     2.3290   2.3298   2.5731   2.5732   2.8974   2.8975   3.1925   3.2563
     3.2564   3.4240   3.4240   3.5219   3.5422   3.5423   3.7202   3.7204
     3.7387   3.8239   3.8240   3.9945   4.1518   4.2333   4.3087   4.3088
     4.5662   4.5663   4.8854   5.1593   5.2124   5.2125   5.2573   5.2643
     5.2644   5.3479   5.3479   5.3596   5.4734   5.4735   5.5098   5.5335
     5.5335   5.6618   5.7604   5.7605   5.7792   6.0336   6.0336   6.1864
     6.3269   6.3270   6.5919   6.8021   6.8021   6.8415   7.0007   7.2178
     7.2178

     occupation numbers 
     1.0000   1.0000   1.0000   1.0000   1.0000   1.0000   1.0000   1.0000
     1.0000   1.0000   1.0000   1.0000   1.0000   1.0000   1.0000   1.0000
     1.0000   1.0000   1.0000   1.0000   1.0000   1.0000   1.0000   1.0000
     1.0000   1.0000   1.0000   1.0000   1.0000   1.0000   1.0000   1.0000
     1.0000   1.0000   1.0000   1.0000   1.0000   1.0000   1.0000   1.0000
     1.0000   1.0000   1.0000   1.0000   1.0000   1.0000   1.0000   1.0000
     1.0000   1.0000   1.0000   1.0000   1.0000   1.0000   1.0000   1.0000
     1.0000   1.0000   1.0000   1.0000   1.0000   1.0000   1.0000   1.0000
     1.0000   1.0000   1.0000   1.0000   1.0000   1.0000   1.0000   1.0000
     1.0000   1.0000   1.0000   1.0000   1.0000   1.0000   1.0000   1.0000
     1.0000   1.0000   1.0000   1.0000   1.0000   1.0000   1.0000   1.0000
     1.0000   1.0000   1.0000   1.0000   1.0000   1.0000   1.0000   1.0000
     1.0000   1.0000   1.0000   1.0000   1.0000   1.0000   1.0000   1.0000
     1.0000

          k =-0.0000 0.0000-0.2034 ( 52864 PWs)   bands (ev):

   -28.2330 -28.2330 -28.2328 -14.8909 -14.8908 -14.8907 -14.8858 -14.8857
   -14.8855 -14.8728 -14.8728 -14.8726 -14.8308 -14.8307 -14.8306 -14.7855
   -14.7854 -14.7853 -10.2912 -10.2852 -10.2851 -10.2728 -10.2471 -10.2470
   -10.2168 -10.2160 -10.2158  -6.7623  -6.7621  -6.3660  -5.8515  -5.6024
    -5.6022  -5.5365  -5.4124  -5.4122  -5.3463  -5.2864  -5.2863  -0.3203
    -0.3202  -0.2443   1.6118   1.6119   1.6926   2.0209   2.0865   2.0867
     2.3556   2.3556   2.6048   2.6049   2.7031   2.8064   3.2148   3.2149
     3.3490   3.3598   3.5297   3.5298   3.5748   3.6217   3.6218   3.6864
     3.7989   3.9090   3.9091   4.0285   4.0285   4.1580   4.2672   4.2673
     4.5108   4.7780   4.7781   5.1753   5.1834   5.1834   5.2497   5.3295
     5.3295   5.3653   5.3653   5.3822   5.3826   5.3826   5.4226   5.5929
     5.5930   5.6515   5.6684   5.8415   5.8416   5.8879   6.3096   6.3096
     6.3907   6.3908   6.4113   6.5302   6.5303   7.0606   7.0606   7.1002
     7.1807

     occupation numbers 
     1.0000   1.0000   1.0000   1.0000   1.0000   1.0000   1.0000   1.0000
     1.0000   1.0000   1.0000   1.0000   1.0000   1.0000   1.0000   1.0000
     1.0000   1.0000   1.0000   1.0000   1.0000   1.0000   1.0000   1.0000
     1.0000   1.0000   1.0000   1.0000   1.0000   1.0000   1.0000   1.0000
     1.0000   1.0000   1.0000   1.0000   1.0000   1.0000   1.0000   1.0000
     1.0000   1.0000   1.0000   1.0000   1.0000   1.0000   1.0000   1.0000
     1.0000   1.0000   1.0000   1.0000   1.0000   1.0000   1.0000   1.0000
     1.0000   1.0000   1.0000   1.0000   1.0000   1.0000   1.0000   1.0000
     1.0000   1.0000   1.0000   1.0000   1.0000   1.0000   1.0000   1.0000
     1.0000   1.0000   1.0000   1.0000   1.0000   1.0000   1.0000   1.0000
     1.0000   1.0000   1.0000   1.0000   1.0000   1.0000   1.0000   1.0000
     1.0000   1.0000   1.0000   1.0000   1.0000   1.0000   1.0000   1.0000
     1.0000   1.0000   1.0000   1.0000   1.0000   1.0000   1.0000   1.0000
     1.0000

          k =-0.0000 0.2885 0.0000 ( 52871 PWs)   bands (ev):

   -28.2330 -28.2329 -28.2328 -14.8907 -14.8906 -14.8905 -14.8857 -14.8856
   -14.8855 -14.8727 -14.8727 -14.8726 -14.8308 -14.8307 -14.8306 -14.7855
   -14.7854 -14.7853 -10.2930 -10.2928 -10.2878 -10.2641 -10.2613 -10.2470
   -10.2254 -10.2211 -10.2170  -6.6852  -6.4217  -6.4164  -5.7180  -5.6960
    -5.6603  -5.6230  -5.4916  -5.4813  -5.4327  -5.4229  -5.2631  -0.4806
    -0.3347  -0.2833   1.4756   1.6628   1.7685   2.0252   2.2692   2.3525
     2.4291   2.5334   2.7992   2.8521   2.8732   2.9783   3.1095   3.1703
     3.2180   3.3091   3.3713   3.4667   3.5346   3.5596   3.6100   3.6729
     3.7288   3.8940   3.9752   4.0260   4.1331   4.1791   4.3016   4.3663
     4.4604   4.5460   4.7058   5.1890   5.2047   5.2553   5.2761   5.2890
     5.3121   5.3589   5.3805   5.4044   5.4967   5.5045   5.5471   5.5726
     5.6210   5.7096   5.7373   5.7684   5.8721   5.9630   6.0633   6.2123
     6.2705   6.3267   6.4456   6.5197   6.7094   6.7617   6.7756   6.8811
     7.0244

     occupation numbers 
     1.0000   1.0000   1.0000   1.0000   1.0000   1.0000   1.0000   1.0000
     1.0000   1.0000   1.0000   1.0000   1.0000   1.0000   1.0000   1.0000
     1.0000   1.0000   1.0000   1.0000   1.0000   1.0000   1.0000   1.0000
     1.0000   1.0000   1.0000   1.0000   1.0000   1.0000   1.0000   1.0000
     1.0000   1.0000   1.0000   1.0000   1.0000   1.0000   1.0000   1.0000
     1.0000   1.0000   1.0000   1.0000   1.0000   1.0000   1.0000   1.0000
     1.0000   1.0000   1.0000   1.0000   1.0000   1.0000   1.0000   1.0000
     1.0000   1.0000   1.0000   1.0000   1.0000   1.0000   1.0000   1.0000
     1.0000   1.0000   1.0000   1.0000   1.0000   1.0000   1.0000   1.0000
     1.0000   1.0000   1.0000   1.0000   1.0000   1.0000   1.0000   1.0000
     1.0000   1.0000   1.0000   1.0000   1.0000   1.0000   1.0000   1.0000
     1.0000   1.0000   1.0000   1.0000   1.0000   1.0000   1.0000   1.0000
     1.0000   1.0000   1.0000   1.0000   1.0000   1.0000   1.0000   1.0000
     1.0000

          k =-0.0000 0.2885-0.2034 ( 52942 PWs)   bands (ev):

   -28.2330 -28.2329 -28.2328 -14.8907 -14.8906 -14.8905 -14.8857 -14.8856
   -14.8855 -14.8727 -14.8727 -14.8726 -14.8308 -14.8307 -14.8306 -14.7855
   -14.7854 -14.7853 -10.2950 -10.2901 -10.2885 -10.2686 -10.2536 -10.2500
   -10.2246 -10.2204 -10.2188  -6.6169  -6.6012  -6.2801  -5.7826  -5.6863
    -5.6592  -5.6108  -5.5013  -5.4769  -5.4555  -5.3394  -5.3019  -0.4723
    -0.3707  -0.2569   1.4664   1.6961   1.7927   1.9897   2.2162   2.3282
     2.5024   2.6344   2.6963   2.7489   2.9110   3.0076   3.1035   3.1380
     3.2378   3.3129   3.3806   3.4985   3.5120   3.6018   3.6468   3.6848
     3.7248   3.9196   3.9746   4.0322   4.0643   4.1417   4.2621   4.3769
     4.5081   4.5412   4.7009   5.1977   5.2066   5.2236   5.2589   5.2978
     5.3074   5.3862   5.3975   5.4189   5.4663   5.5119   5.5524   5.6041
     5.6278   5.6814   5.7234   5.7910   5.8622   5.8930   6.1559   6.2065
     6.2949   6.3407   6.4130   6.5233   6.5523   6.7995   6.8448   6.9221
     6.9733

     occupation numbers 
     1.0000   1.0000   1.0000   1.0000   1.0000   1.0000   1.0000   1.0000
     1.0000   1.0000   1.0000   1.0000   1.0000   1.0000   1.0000   1.0000
     1.0000   1.0000   1.0000   1.0000   1.0000   1.0000   1.0000   1.0000
     1.0000   1.0000   1.0000   1.0000   1.0000   1.0000   1.0000   1.0000
     1.0000   1.0000   1.0000   1.0000   1.0000   1.0000   1.0000   1.0000
     1.0000   1.0000   1.0000   1.0000   1.0000   1.0000   1.0000   1.0000
     1.0000   1.0000   1.0000   1.0000   1.0000   1.0000   1.0000   1.0000
     1.0000   1.0000   1.0000   1.0000   1.0000   1.0000   1.0000   1.0000
     1.0000   1.0000   1.0000   1.0000   1.0000   1.0000   1.0000   1.0000
     1.0000   1.0000   1.0000   1.0000   1.0000   1.0000   1.0000   1.0000
     1.0000   1.0000   1.0000   1.0000   1.0000   1.0000   1.0000   1.0000
     1.0000   1.0000   1.0000   1.0000   1.0000   1.0000   1.0000   1.0000
     1.0000   1.0000   1.0000   1.0000   1.0000   1.0000   1.0000   1.0000
     1.0000

          k = 0.0000-0.5770-0.0000 ( 52946 PWs)   bands (ev):

   -28.2330 -28.2329 -28.2327 -14.8905 -14.8904 -14.8903 -14.8857 -14.8854
   -14.8854 -14.8727 -14.8725 -14.8725 -14.8308 -14.8307 -14.8306 -14.7855
   -14.7854 -14.7852 -10.2971 -10.2952 -10.2944 -10.2683 -10.2604 -10.2514
   -10.2294 -10.2239 -10.2215  -6.4016  -6.2847  -6.2052  -5.9639  -5.8229
    -5.7719  -5.5926  -5.5856  -5.5328  -5.5179  -5.4012  -5.3190  -0.5863
    -0.3612  -0.2893   1.4058   1.7365   1.8315   2.1106   2.2686   2.4270
     2.4838   2.6896   2.8075   2.9505   2.9782   3.0541   3.0692   3.2380
     3.2855   3.4073   3.4578   3.4665   3.5050   3.5238   3.6136   3.6545
     3.7192   3.8560   4.0516   4.0684   4.1567   4.2034   4.2397   4.2767
     4.4552   4.5472   4.6502   5.1897   5.2087   5.2634   5.2875   5.3009
     5.3132   5.3461   5.3723   5.4101   5.5061   5.5124   5.6374   5.6537
     5.6840   5.6944   5.8196   5.8563   5.9385   5.9632   6.0622   6.1869
     6.2983   6.2987   6.3722   6.4006   6.4250   6.6069   6.6744   6.7840
     6.8162

     occupation numbers 
     1.0000   1.0000   1.0000   1.0000   1.0000   1.0000   1.0000   1.0000
     1.0000   1.0000   1.0000   1.0000   1.0000   1.0000   1.0000   1.0000
     1.0000   1.0000   1.0000   1.0000   1.0000   1.0000   1.0000   1.0000
     1.0000   1.0000   1.0000   1.0000   1.0000   1.0000   1.0000   1.0000
     1.0000   1.0000   1.0000   1.0000   1.0000   1.0000   1.0000   1.0000
     1.0000   1.0000   1.0000   1.0000   1.0000   1.0000   1.0000   1.0000
     1.0000   1.0000   1.0000   1.0000   1.0000   1.0000   1.0000   1.0000
     1.0000   1.0000   1.0000   1.0000   1.0000   1.0000   1.0000   1.0000
     1.0000   1.0000   1.0000   1.0000   1.0000   1.0000   1.0000   1.0000
     1.0000   1.0000   1.0000   1.0000   1.0000   1.0000   1.0000   1.0000
     1.0000   1.0000   1.0000   1.0000   1.0000   1.0000   1.0000   1.0000
     1.0000   1.0000   1.0000   1.0000   1.0000   1.0000   1.0000   1.0000
     1.0000   1.0000   1.0000   1.0000   1.0000   1.0000   1.0000   1.0000
     1.0000

          k = 0.0000-0.5770-0.2034 ( 52908 PWs)   bands (ev):

   -28.2330 -28.2329 -28.2327 -14.8905 -14.8904 -14.8903 -14.8857 -14.8854
   -14.8854 -14.8727 -14.8725 -14.8725 -14.8308 -14.8307 -14.8306 -14.7855
   -14.7854 -14.7852 -10.2985 -10.2960 -10.2923 -10.2661 -10.2612 -10.2531
   -10.2286 -10.2248 -10.2209  -6.3907  -6.2911  -6.2206  -5.9671  -5.8039
    -5.7374  -5.6448  -5.5841  -5.5243  -5.5179  -5.4089  -5.3086  -0.5757
    -0.3920  -0.2704   1.4410   1.6157   2.0216   2.0387   2.3120   2.3915
     2.4344   2.6376   2.8151   2.8985   2.9990   3.1104   3.1133   3.2303
     3.3086   3.4157   3.4466   3.4690   3.4745   3.5598   3.5627   3.6874
     3.6970   3.9268   4.0148   4.1001   4.1421   4.1737   4.1819   4.2880
     4.4519   4.6081   4.6233   5.1980   5.2071   5.2649   5.2841   5.2887
     5.3056   5.3672   5.3880   5.3920   5.4641   5.5684   5.6215   5.6549
     5.6920   5.7277   5.7834   5.8506   5.9138   6.0510   6.0988   6.1037
     6.1909   6.3024   6.3802   6.4006   6.4811   6.6826   6.7038   6.7331
     6.7665

     occupation numbers 
     1.0000   1.0000   1.0000   1.0000   1.0000   1.0000   1.0000   1.0000
     1.0000   1.0000   1.0000   1.0000   1.0000   1.0000   1.0000   1.0000
     1.0000   1.0000   1.0000   1.0000   1.0000   1.0000   1.0000   1.0000
     1.0000   1.0000   1.0000   1.0000   1.0000   1.0000   1.0000   1.0000
     1.0000   1.0000   1.0000   1.0000   1.0000   1.0000   1.0000   1.0000
     1.0000   1.0000   1.0000   1.0000   1.0000   1.0000   1.0000   1.0000
     1.0000   1.0000   1.0000   1.0000   1.0000   1.0000   1.0000   1.0000
     1.0000   1.0000   1.0000   1.0000   1.0000   1.0000   1.0000   1.0000
     1.0000   1.0000   1.0000   1.0000   1.0000   1.0000   1.0000   1.0000
     1.0000   1.0000   1.0000   1.0000   1.0000   1.0000   1.0000   1.0000
     1.0000   1.0000   1.0000   1.0000   1.0000   1.0000   1.0000   1.0000
     1.0000   1.0000   1.0000   1.0000   1.0000   1.0000   1.0000   1.0000
     1.0000   1.0000   1.0000   1.0000   1.0000   1.0000   1.0000   1.0000
     1.0000

          k = 0.2499 0.4328 0.0000 ( 52956 PWs)   bands (ev):

   -28.2330 -28.2329 -28.2328 -14.8905 -14.8904 -14.8902 -14.8857 -14.8855
   -14.8853 -14.8727 -14.8726 -14.8724 -14.8308 -14.8307 -14.8306 -14.7855
   -14.7854 -14.7853 -10.2967 -10.2952 -10.2928 -10.2657 -10.2610 -10.2545
   -10.2273 -10.2271 -10.2214  -6.4288  -6.2643  -6.2446  -5.8478  -5.7861
    -5.7146  -5.7144  -5.6067  -5.5788  -5.4841  -5.4139  -5.3213  -0.5269
    -0.3884  -0.3167   1.5835   1.7080   1.8560   2.0383   2.2431   2.3477
     2.5927   2.6807   2.7757   2.8458   2.9353   2.9654   3.0905   3.2315
     3.3192   3.3227   3.4182   3.4716   3.5396   3.5519   3.6182   3.7315
     3.7557   3.7740   3.9924   4.0688   4.1486   4.2096   4.3093   4.3780
     4.4412   4.5529   4.6149   5.1761   5.1920   5.2445   5.2873   5.3178
     5.3365   5.3705   5.3918   5.4768   5.4839   5.5440   5.5720   5.6344
     5.6638   5.7421   5.8168   5.8367   5.9194   5.9851   6.0613   6.1617
     6.2590   6.3271   6.4214   6.4358   6.5244   6.5723   6.7496   6.8191
     6.8202

     occupation numbers 
     1.0000   1.0000   1.0000   1.0000   1.0000   1.0000   1.0000   1.0000
     1.0000   1.0000   1.0000   1.0000   1.0000   1.0000   1.0000   1.0000
     1.0000   1.0000   1.0000   1.0000   1.0000   1.0000   1.0000   1.0000
     1.0000   1.0000   1.0000   1.0000   1.0000   1.0000   1.0000   1.0000
     1.0000   1.0000   1.0000   1.0000   1.0000   1.0000   1.0000   1.0000
     1.0000   1.0000   1.0000   1.0000   1.0000   1.0000   1.0000   1.0000
     1.0000   1.0000   1.0000   1.0000   1.0000   1.0000   1.0000   1.0000
     1.0000   1.0000   1.0000   1.0000   1.0000   1.0000   1.0000   1.0000
     1.0000   1.0000   1.0000   1.0000   1.0000   1.0000   1.0000   1.0000
     1.0000   1.0000   1.0000   1.0000   1.0000   1.0000   1.0000   1.0000
     1.0000   1.0000   1.0000   1.0000   1.0000   1.0000   1.0000   1.0000
     1.0000   1.0000   1.0000   1.0000   1.0000   1.0000   1.0000   1.0000
     1.0000   1.0000   1.0000   1.0000   1.0000   1.0000   1.0000   1.0000
     1.0000

          k = 0.2499 0.4328-0.2034 ( 52926 PWs)   bands (ev):

   -28.2330 -28.2329 -28.2328 -14.8905 -14.8904 -14.8902 -14.8857 -14.8855
   -14.8853 -14.8727 -14.8726 -14.8724 -14.8308 -14.8307 -14.8306 -14.7855
   -14.7854 -14.7853 -10.2977 -10.2958 -10.2912 -10.2645 -10.2597 -10.2569
   -10.2280 -10.2268 -10.2209  -6.3977  -6.3466  -6.1929  -5.8344  -5.7970
    -5.7302  -5.6935  -5.6125  -5.5764  -5.4992  -5.4037  -5.3211  -0.5067
    -0.4310  -0.2945   1.5669   1.7401   1.8704   1.9951   2.2385   2.4636
     2.5590   2.6134   2.6785   2.8327   2.9835   3.0010   3.1643   3.1899
     3.3189   3.3291   3.4036   3.4910   3.4985   3.5760   3.6422   3.7068
     3.7369   3.8866   3.9421   4.0895   4.1347   4.1466   4.3204   4.3299
     4.4782   4.5385   4.6473   5.1860   5.2065   5.2457   5.2629   5.3040
     5.3460   5.3964   5.4032   5.4591   5.4738   5.5091   5.6104   5.6529
     5.6624   5.7782   5.7971   5.8091   5.8967   5.9912   6.0652   6.1284
     6.2427   6.2973   6.3932   6.4857   6.5798   6.6073   6.6679   6.8175
     6.8711

     occupation numbers 
     1.0000   1.0000   1.0000   1.0000   1.0000   1.0000   1.0000   1.0000
     1.0000   1.0000   1.0000   1.0000   1.0000   1.0000   1.0000   1.0000
     1.0000   1.0000   1.0000   1.0000   1.0000   1.0000   1.0000   1.0000
     1.0000   1.0000   1.0000   1.0000   1.0000   1.0000   1.0000   1.0000
     1.0000   1.0000   1.0000   1.0000   1.0000   1.0000   1.0000   1.0000
     1.0000   1.0000   1.0000   1.0000   1.0000   1.0000   1.0000   1.0000
     1.0000   1.0000   1.0000   1.0000   1.0000   1.0000   1.0000   1.0000
     1.0000   1.0000   1.0000   1.0000   1.0000   1.0000   1.0000   1.0000
     1.0000   1.0000   1.0000   1.0000   1.0000   1.0000   1.0000   1.0000
     1.0000   1.0000   1.0000   1.0000   1.0000   1.0000   1.0000   1.0000
     1.0000   1.0000   1.0000   1.0000   1.0000   1.0000   1.0000   1.0000
     1.0000   1.0000   1.0000   1.0000   1.0000   1.0000   1.0000   1.0000
     1.0000   1.0000   1.0000   1.0000   1.0000   1.0000   1.0000   1.0000
     1.0000

     highest occupied level (ev):     7.2178

!    total energy              =   -2269.30062030 Ry
     estimated scf accuracy    <          3.2E-09 Ry

     The total energy is the sum of the following terms:
     one-electron contribution =    -692.63688255 Ry
     hartree contribution      =     504.52579648 Ry
     xc contribution           =    -567.38966788 Ry
     ewald contribution        =    -974.85226077 Ry
     one-center paw contrib.   =    -538.94760559 Ry
      -> PAW hartree energy AE =       0.00000000 Ry
      -> PAW hartree energy PS =       0.00000000 Ry
      -> PAW xc energy AE      =       0.00000000 Ry
      -> PAW xc energy PS      =       0.00000000 Ry
      -> total E_H with PAW    =     504.52579648 Ry
      -> total E_XC with PAW   =    -567.38966788 Ry

     convergence has been achieved in   7 iterations

     negative rho (up, down):  1.979E-01 0.000E+00

     Forces acting on atoms (cartesian axes, Ry/au):

     atom    1 type  4   force =    -0.00011913    0.00020634   -0.00000000
     atom    2 type  4   force =    -0.00011913   -0.00020634    0.00000000
     atom    3 type  4   force =     0.00023826    0.00000000   -0.00000000
     atom    4 type  1   force =     0.00006645   -0.00058209    0.00032119
     atom    5 type  1   force =     0.00047088    0.00034859    0.00032119
     atom    6 type  1   force =    -0.00053733    0.00023350    0.00032119
     atom    7 type  1   force =    -0.00053733   -0.00023350   -0.00032119
     atom    8 type  1   force =     0.00006645    0.00058209   -0.00032119
     atom    9 type  1   force =     0.00047088   -0.00034859   -0.00032119
     atom   10 type  3   force =    -0.00031430    0.00054439    0.00000000
     atom   11 type  3   force =    -0.00031430   -0.00054439   -0.00000000
     atom   12 type  3   force =     0.00062861    0.00000000    0.00000000
     atom   13 type  2   force =     0.00051287   -0.00102912    0.00195527
     atom   14 type  2   force =     0.00063481    0.00095872    0.00195527
     atom   15 type  2   force =    -0.00114768    0.00007041    0.00195527
     atom   16 type  2   force =    -0.00114768   -0.00007041   -0.00195527
     atom   17 type  2   force =     0.00051287    0.00102912   -0.00195527
     atom   18 type  2   force =     0.00063481   -0.00095872   -0.00195527
     atom   19 type  2   force =     0.00057177    0.00098477   -0.00006582
     atom   20 type  2   force =    -0.00113872    0.00000279   -0.00006582
     atom   21 type  2   force =     0.00056695   -0.00098755   -0.00006582
     atom   22 type  2   force =     0.00056695    0.00098755    0.00006582
     atom   23 type  2   force =     0.00057177   -0.00098477    0.00006582
     atom   24 type  2   force =    -0.00113872   -0.00000279    0.00006582
     The non-local contrib.  to forces
     atom    1 type  4   force =    -0.00180559    0.00312738   -0.00000000
     atom    2 type  4   force =    -0.00180559   -0.00312738    0.00000000
     atom    3 type  4   force =     0.00361119    0.00000000    0.00000000
     atom    4 type  1   force =    -0.05144119   -0.01076560   -0.02236676
     atom    5 type  1   force =     0.03504387   -0.03916659   -0.02236676
     atom    6 type  1   force =     0.01639732    0.04993219   -0.02236676
     atom    7 type  1   force =     0.01639732   -0.04993218    0.02236676
     atom    8 type  1   force =    -0.05144119    0.01076559    0.02236676
     atom    9 type  1   force =     0.03504387    0.03916659    0.02236676
     atom   10 type  3   force =    -0.00424056    0.00734487    0.00000000
     atom   11 type  3   force =    -0.00424056   -0.00734487   -0.00000000
     atom   12 type  3   force =     0.00848112    0.00000000    0.00000000
     atom   13 type  2   force =    -0.01729122    0.10119361   -0.07932552
     atom   14 type  2   force =    -0.07899061   -0.06557146   -0.07932552
     atom   15 type  2   force =     0.09628183   -0.03562216   -0.07932552
     atom   16 type  2   force =     0.09628183    0.03562217    0.07932552
     atom   17 type  2   force =    -0.01729122   -0.10119361    0.07932552
     atom   18 type  2   force =    -0.07899061    0.06557144    0.07932552
     atom   19 type  2   force =    -0.06767600   -0.07219963    0.00395474
     atom   20 type  2   force =     0.09636470   -0.02250932    0.00395474
     atom   21 type  2   force =    -0.02868870    0.09470895    0.00395474
     atom   22 type  2   force =    -0.02868870   -0.09470896   -0.00395474
     atom   23 type  2   force =    -0.06767600    0.07219962   -0.00395474
     atom   24 type  2   force =     0.09636470    0.02250934   -0.00395474
     The ionic contribution  to forces
     atom    1 type  4   force =    -0.98532346    1.70661248   -0.00006640
     atom    2 type  4   force =    -0.98531916   -1.70662272    0.00001888
     atom    3 type  4   force =     1.97063099   -0.00003509   -0.00009563
     atom    4 type  1   force =    -2.24075533    2.76815239    0.09996890
     atom    5 type  1   force =    -1.27686706   -3.32460098    0.10001991
     atom    6 type  1   force =     3.51767222    0.55655042    0.09992973
     atom    7 type  1   force =     3.51766386   -0.55647844   -0.09990983
     atom    8 type  1   force =    -2.24076557   -2.76810640   -0.10003104
     atom    9 type  1   force =    -1.27685004    3.32467900   -0.09992868
     atom   10 type  3   force =    -1.65141210    2.86030870   -0.00001818
     atom   11 type  3   force =    -1.65143963   -2.86035436    0.00000142
     atom   12 type  3   force =     3.30280510   -0.00001815    0.00004896
     atom   13 type  2   force =    -0.38417968   -2.63959506    0.80325019
     atom   14 type  2   force =     2.47807321    0.98700333    0.80330766
     atom   15 type  2   force =    -2.09379967    1.65252098    0.80321745
     atom   16 type  2   force =    -2.09386447   -1.65250598   -0.80327034
     atom   17 type  2   force =    -0.38426280    2.63957387   -0.80332942
     atom   18 type  2   force =     2.47802564   -0.98702402   -0.80319436
     atom   19 type  2   force =     1.36477258   -1.01370783   -0.22835287
     atom   20 type  2   force =     0.19551004    1.68878627   -0.22835260
     atom   21 type  2   force =    -1.56031041   -0.67511978   -0.22835406
     atom   22 type  2   force =    -1.56026248    0.67506547    0.22837776
     atom   23 type  2   force =     1.36476237    1.01371289    0.22837950
     atom   24 type  2   force =     0.19549587   -1.68879697    0.22838307
     The local contribution  to forces
     atom    1 type  4   force =     0.98681786   -1.70926145   -0.00011415
     atom    2 type  4   force =     0.98681764    1.70926174    0.00011402
     atom    3 type  4   force =    -1.97368948    0.00001332   -0.00033372
     atom    4 type  1   force =     2.28514345   -2.75457100   -0.08008678
     atom    5 type  1   force =     1.24292469    3.35627063   -0.07902806
     atom    6 type  1   force =    -3.52810107   -0.60176110   -0.08111371
     atom    7 type  1   force =    -3.52810150    0.60176182    0.08111297
     atom    8 type  1   force =     2.28514245    2.75457221    0.08008748
     atom    9 type  1   force =     1.24289171   -3.35628820    0.08216049
     atom   10 type  3   force =     1.65501757   -2.86663760   -0.00043083
     atom   11 type  3   force =     1.65501683    2.86663870    0.00043058
     atom   12 type  3   force =    -3.31013900    0.00001231    0.00124270
     atom   13 type  2   force =     0.40114809    2.54279770   -0.72616414
     atom   14 type  2   force =    -2.40266447   -0.92396642   -0.72610840
     atom   15 type  2   force =     2.00151953   -1.61873114   -0.72614926
     atom   16 type  2   force =     2.00151984    1.61873032    0.72614908
     atom   17 type  2   force =     0.40114870   -2.54279802    0.72616449
     atom   18 type  2   force =    -2.40262588    0.92398464    0.72617948
     atom   19 type  2   force =    -1.30006111    1.08308145    0.22457466
     atom   20 type  2   force =    -0.28792944   -1.66739331    0.22468913
     atom   21 type  2   force =     1.58801207    0.58435411    0.22459601
     atom   22 type  2   force =     1.58801204   -0.58435540   -0.22459642
     atom   23 type  2   force =    -1.30006070   -1.08308291   -0.22457506
     atom   24 type  2   force =    -0.28792442    1.66746692   -0.22452395
     The core correction contribution to forces
     atom    1 type  4   force =     0.00007944   -0.00013770    0.00001036
     atom    2 type  4   force =     0.00007944    0.00013770   -0.00001036
     atom    3 type  4   force =    -0.00015898    0.00000001    0.00003111
     atom    4 type  1   force =     0.00712558   -0.00338467    0.00336889
     atom    5 type  1   force =    -0.00063239    0.00786282    0.00351809
     atom    6 type  1   force =    -0.00649377   -0.00447920    0.00322177
     atom    7 type  1   force =    -0.00649377    0.00447920   -0.00322177
     atom    8 type  1   force =     0.00712558    0.00338467   -0.00336889
     atom    9 type  1   force =    -0.00063150   -0.00786314   -0.00307309
     atom   10 type  3   force =     0.00040415   -0.00070030   -0.00004113
     atom   11 type  3   force =     0.00040416    0.00070030    0.00004113
     atom   12 type  3   force =    -0.00080877    0.00000008    0.00012150
     atom   13 type  2   force =     0.00089697   -0.00540531    0.00415362
     atom   14 type  2   force =     0.00423452    0.00348001    0.00415235
     atom   15 type  2   force =    -0.00513022    0.00192742    0.00416211
     atom   16 type  2   force =    -0.00513022   -0.00192742   -0.00416211
     atom   17 type  2   force =     0.00089697    0.00540531   -0.00415362
     atom   18 type  2   force =     0.00423421   -0.00347927   -0.00416522
     atom   19 type  2   force =     0.00353380    0.00381466   -0.00025152
     atom   20 type  2   force =    -0.00507076    0.00115253   -0.00025325
     atom   21 type  2   force =     0.00153669   -0.00496780   -0.00024542
     atom   22 type  2   force =     0.00153669    0.00496780    0.00024542
     atom   23 type  2   force =     0.00353381   -0.00381466    0.00025152
     atom   24 type  2   force =    -0.00507086   -0.00115294    0.00023920
     The Hubbard contrib.    to forces
     atom    1 type  4   force =     0.00000000    0.00000000    0.00000000
     atom    2 type  4   force =     0.00000000    0.00000000    0.00000000
     atom    3 type  4   force =     0.00000000    0.00000000    0.00000000
     atom    4 type  1   force =     0.00000000    0.00000000    0.00000000
     atom    5 type  1   force =     0.00000000    0.00000000    0.00000000
     atom    6 type  1   force =     0.00000000    0.00000000    0.00000000
     atom    7 type  1   force =     0.00000000    0.00000000    0.00000000
     atom    8 type  1   force =     0.00000000    0.00000000    0.00000000
     atom    9 type  1   force =     0.00000000    0.00000000    0.00000000
     atom   10 type  3   force =     0.00000000    0.00000000    0.00000000
     atom   11 type  3   force =     0.00000000    0.00000000    0.00000000
     atom   12 type  3   force =     0.00000000    0.00000000    0.00000000
     atom   13 type  2   force =     0.00000000    0.00000000    0.00000000
     atom   14 type  2   force =     0.00000000    0.00000000    0.00000000
     atom   15 type  2   force =     0.00000000    0.00000000    0.00000000
     atom   16 type  2   force =     0.00000000    0.00000000    0.00000000
     atom   17 type  2   force =     0.00000000    0.00000000    0.00000000
     atom   18 type  2   force =     0.00000000    0.00000000    0.00000000
     atom   19 type  2   force =     0.00000000    0.00000000    0.00000000
     atom   20 type  2   force =     0.00000000    0.00000000    0.00000000
     atom   21 type  2   force =     0.00000000    0.00000000    0.00000000
     atom   22 type  2   force =     0.00000000    0.00000000    0.00000000
     atom   23 type  2   force =     0.00000000    0.00000000    0.00000000
     atom   24 type  2   force =     0.00000000    0.00000000    0.00000000
     The SCF correction term to forces
     atom    1 type  4   force =     0.00008457   -0.00014648   -0.00000001
     atom    2 type  4   force =     0.00008457    0.00014648    0.00000001
     atom    3 type  4   force =    -0.00016910    0.00000000    0.00000000
     atom    4 type  1   force =    -0.00000469   -0.00000815    0.00002610
     atom    5 type  1   force =     0.00000940    0.00000002    0.00002610
     atom    6 type  1   force =    -0.00000471    0.00000813    0.00002611
     atom    7 type  1   force =    -0.00000471   -0.00000813   -0.00002611
     atom    8 type  1   force =    -0.00000469    0.00000815   -0.00002610
     atom    9 type  1   force =     0.00000940   -0.00000002   -0.00002611
     atom   10 type  3   force =    -0.00011949    0.00020696   -0.00000004
     atom   11 type  3   force =    -0.00011949   -0.00020696    0.00000004
     atom   12 type  3   force =     0.00023901   -0.00000000   -0.00000000
     atom   13 type  2   force =     0.00000199   -0.00000182    0.00001353
     atom   14 type  2   force =     0.00000058    0.00000263    0.00001353
     atom   15 type  2   force =    -0.00000257   -0.00000082    0.00001353
     atom   16 type  2   force =    -0.00000257    0.00000082   -0.00001353
     atom   17 type  2   force =     0.00000199    0.00000182   -0.00001353
     atom   18 type  2   force =     0.00000058   -0.00000263   -0.00001353
     atom   19 type  2   force =     0.00000175   -0.00000130    0.00000127
     atom   20 type  2   force =     0.00000025    0.00000217    0.00000127
     atom   21 type  2   force =    -0.00000200   -0.00000087    0.00000127
     atom   22 type  2   force =    -0.00000200    0.00000087   -0.00000127
     atom   23 type  2   force =     0.00000175    0.00000130   -0.00000127
     atom   24 type  2   force =     0.00000025   -0.00000217   -0.00000127

     Total force =     0.006535     Total SCF correction =     0.000513


     Computing stress (Cartesian axis) and pressure


     negative rho (up, down):  1.979E-01 0.000E+00
          total   stress  (Ry/bohr**3)                   (kbar)     P=        1.94
   0.00001383   0.00000000   0.00000000            2.03        0.00        0.00
   0.00000000   0.00001383   0.00000000            0.00        2.03        0.00
   0.00000000   0.00000000   0.00001195            0.00        0.00        1.76

     kinetic stress (kbar)   9002.34      0.00      0.00
                                0.00   9002.34     -0.00
                                0.00      0.00   9024.76

     local   stress (kbar)  -2574.42      0.01     -0.01
                                0.01  -2574.41      0.01
                               -0.01      0.01  -3028.52

     nonloc. stress (kbar)   4095.67      0.00      0.00
                                0.00   4095.67     -0.00
                                0.00      0.00   4094.69

     hartree stress (kbar)   6667.01     -0.00     -0.00
                               -0.00   6667.01      0.00
                               -0.00      0.00   6852.79

     exc-cor stress (kbar)   8543.88     -0.00      0.00
                               -0.00   8543.88     -0.00
                                0.00     -0.00   8544.31

     corecor stress (kbar) -12648.27      0.00     -0.00
                                0.00 -12648.27     -0.00
                               -0.00     -0.00 -12649.38

     ewald   stress (kbar) -13084.17     -0.01      0.01
                               -0.01 -13084.18     -0.01
                                0.01     -0.01 -12836.89

     hubbard stress (kbar)      0.00      0.00      0.00
                                0.00      0.00      0.00
                                0.00      0.00      0.00

     DFT-D   stress (kbar)      0.00      0.00      0.00
                                0.00      0.00      0.00
                                0.00      0.00      0.00

     XDM     stress (kbar)      0.00      0.00      0.00
                                0.00      0.00      0.00
                                0.00      0.00      0.00

     dft-nl  stress (kbar)      0.00      0.00      0.00
                                0.00      0.00      0.00
                                0.00      0.00      0.00

     TS-vdW  stress (kbar)      0.00      0.00      0.00
                                0.00      0.00      0.00
                                0.00      0.00      0.00

     MDB     stress (kbar)      0.00      0.00      0.00
                                0.00      0.00      0.00
                                0.00      0.00      0.00

     3D-RISM stress (kbar)      0.00      0.00      0.00
                                0.00      0.00      0.00
                                0.00      0.00      0.00

     Energy error            =      1.9E-04 Ry
     Gradient error          =      2.0E-03 Ry/Bohr
     Cell gradient error     =      2.0E+00 kbar

     number of scf cycles    =   2
     number of bfgs steps    =   1

     enthalpy           old  =   -2269.3004314978 Ry
     enthalpy           new  =   -2269.3006203046 Ry

     CASE: enthalpy          _new < enthalpy          _old

     new trust radius        =       0.0077374273 bohr
     new conv_thr            =       0.0000000002 Ry

     new unit-cell volume =   3683.30226 a.u.^3 (   545.80908 Ang^3 )
     density =      4.21379 g/cm^3

CELL_PARAMETERS (angstrom)
   6.354318051   0.000000001   0.000000000
  -3.177159526   5.502999752   0.000000000
   0.000000000  -0.000000000  15.608900672

ATOMIC_POSITIONS (crystal)
Sr               0.0000000000        0.5622206279        0.1666670000
Sr               0.4377793721        0.4377793721        0.5000000000
Sr               0.5622206279        0.0000000000        0.8333340000
Cu               0.0725900213        0.6359961528        0.4121528998
Cu               0.3640038471        0.4365938684        0.7454858998
Cu               0.5634061316        0.9274099787        0.0788198998
Cu               0.6359961529        0.0725900213        0.5878471002
Cu               0.4365938684        0.3640038472        0.2545141002
Cu               0.9274099787        0.5634061316        0.9211801002
Sn               0.0000000000        0.7050862199        0.6666670000
Sn               0.2949137801        0.2949137801        0.0000000000
Sn               0.7050862198        0.0000000000        0.3333330000
S                0.0451798135        0.4858505158        0.7874378243
S                0.5141494841        0.5593292978        0.1207708243
S                0.4406707023        0.9548201864        0.4541048243
S                0.4858505159        0.0451798136        0.2125621757
S                0.5593292978        0.5141494842        0.8792291757
S                0.9548201863        0.4406707022        0.5458951757
S                0.1174427240        0.3536149901        0.3286703450
S                0.6463850100        0.7638277339        0.6620033450
S                0.2361722660        0.8825572759        0.9953373450
S                0.3536149901        0.1174427241        0.6713296550
S                0.7638277339        0.6463850099        0.3379966550
S                0.8825572760        0.2361722660        0.0046626550



     Writing config-only to output data dir ./tmp/relax/SrCu2SnS4_relax.save/ :
     XML data file
     NEW-OLD atomic charge density approx. for the potential
     New effective cutoffs (rho, wfc):  718.37   89.79

     negative rho (up, down):  1.979E-01 0.000E+00

     total cpu time spent up to now is      478.3 secs

     Self-consistent Calculation

     iteration #  1     ecut=    90.00 Ry     beta= 0.30
     Davidson diagonalization with overlap

---- Real-time Memory Report at c_bands before calling an iterative solver
             0 MiB given to the printing process from OS
             0 MiB allocation reported by mallinfo(arena+hblkhd)
             0 MiB available memory on the node where the printing process lives
------------------
     ethr =  1.00E-06,  avg # of iterations =  3.0

     Threshold (ethr) on eigenvalues was too large:
     Diagonalizing with lowered threshold

     Davidson diagonalization with overlap

---- Real-time Memory Report at c_bands before calling an iterative solver
             0 MiB given to the printing process from OS
             0 MiB allocation reported by mallinfo(arena+hblkhd)
             0 MiB available memory on the node where the printing process lives
------------------
     ethr =  8.32E-09,  avg # of iterations =  7.6

     negative rho (up, down):  1.979E-01 0.000E+00

     total cpu time spent up to now is      523.4 secs

     total energy              =   -2269.30067010 Ry
     estimated scf accuracy    <       0.00000581 Ry

     iteration #  2     ecut=    90.00 Ry     beta= 0.30
     Davidson diagonalization with overlap

---- Real-time Memory Report at c_bands before calling an iterative solver
             0 MiB given to the printing process from OS
             0 MiB allocation reported by mallinfo(arena+hblkhd)
             0 MiB available memory on the node where the printing process lives
------------------
     ethr =  2.77E-09,  avg # of iterations =  6.0

     negative rho (up, down):  1.979E-01 0.000E+00

     total cpu time spent up to now is      539.5 secs

     total energy              =   -2269.30070513 Ry
     estimated scf accuracy    <       0.00000186 Ry

     iteration #  3     ecut=    90.00 Ry     beta= 0.30
     Davidson diagonalization with overlap

---- Real-time Memory Report at c_bands before calling an iterative solver
             0 MiB given to the printing process from OS
             0 MiB allocation reported by mallinfo(arena+hblkhd)
             0 MiB available memory on the node where the printing process lives
------------------
     ethr =  8.86E-10,  avg # of iterations =  2.4

     negative rho (up, down):  1.979E-01 0.000E+00

     total cpu time spent up to now is      554.1 secs

     total energy              =   -2269.30072194 Ry
     estimated scf accuracy    <       0.00000046 Ry

     iteration #  4     ecut=    90.00 Ry     beta= 0.30
     Davidson diagonalization with overlap

---- Real-time Memory Report at c_bands before calling an iterative solver
             0 MiB given to the printing process from OS
             0 MiB allocation reported by mallinfo(arena+hblkhd)
             0 MiB available memory on the node where the printing process lives
------------------
     ethr =  2.19E-10,  avg # of iterations =  4.5

     negative rho (up, down):  1.979E-01 0.000E+00

     total cpu time spent up to now is      571.0 secs

     total energy              =   -2269.30073054 Ry
     estimated scf accuracy    <       0.00000013 Ry

     iteration #  5     ecut=    90.00 Ry     beta= 0.30
     Davidson diagonalization with overlap

---- Real-time Memory Report at c_bands before calling an iterative solver
             0 MiB given to the printing process from OS
             0 MiB allocation reported by mallinfo(arena+hblkhd)
             0 MiB available memory on the node where the printing process lives
------------------
     ethr =  6.07E-11,  avg # of iterations =  6.0

     negative rho (up, down):  1.979E-01 0.000E+00

     total cpu time spent up to now is      589.5 secs

     total energy              =   -2269.30073475 Ry
     estimated scf accuracy    <       0.00000013 Ry

     iteration #  6     ecut=    90.00 Ry     beta= 0.30
     Davidson diagonalization with overlap

---- Real-time Memory Report at c_bands before calling an iterative solver
             0 MiB given to the printing process from OS
             0 MiB allocation reported by mallinfo(arena+hblkhd)
             0 MiB available memory on the node where the printing process lives
------------------
     ethr =  6.05E-11,  avg # of iterations =  3.4

     negative rho (up, down):  1.979E-01 0.000E+00

     total cpu time spent up to now is      604.6 secs

     total energy              =   -2269.30073682 Ry
     estimated scf accuracy    <       0.00000001 Ry

     iteration #  7     ecut=    90.00 Ry     beta= 0.30
     Davidson diagonalization with overlap

---- Real-time Memory Report at c_bands before calling an iterative solver
             0 MiB given to the printing process from OS
             0 MiB allocation reported by mallinfo(arena+hblkhd)
             0 MiB available memory on the node where the printing process lives
------------------
     ethr =  5.82E-12,  avg # of iterations =  5.2

     negative rho (up, down):  1.979E-01 0.000E+00

     total cpu time spent up to now is      622.2 secs

     total energy              =   -2269.30073783 Ry
     estimated scf accuracy    <          1.7E-09 Ry

     iteration #  8     ecut=    90.00 Ry     beta= 0.30
     Davidson diagonalization with overlap

---- Real-time Memory Report at c_bands before calling an iterative solver
             0 MiB given to the printing process from OS
             0 MiB allocation reported by mallinfo(arena+hblkhd)
             0 MiB available memory on the node where the printing process lives
------------------
     ethr =  7.95E-13,  avg # of iterations =  4.8

     negative rho (up, down):  1.979E-01 0.000E+00

     total cpu time spent up to now is      639.1 secs

     total energy              =   -2269.30073832 Ry
     estimated scf accuracy    <          5.6E-10 Ry

     iteration #  9     ecut=    90.00 Ry     beta= 0.30
     Davidson diagonalization with overlap

---- Real-time Memory Report at c_bands before calling an iterative solver
             0 MiB given to the printing process from OS
             0 MiB allocation reported by mallinfo(arena+hblkhd)
             0 MiB available memory on the node where the printing process lives
------------------
     ethr =  2.69E-13,  avg # of iterations =  4.5

     negative rho (up, down):  1.979E-01 0.000E+00

     total cpu time spent up to now is      655.2 secs

     total energy              =   -2269.30073856 Ry
     estimated scf accuracy    <          4.7E-10 Ry

     iteration # 10     ecut=    90.00 Ry     beta= 0.30
     Davidson diagonalization with overlap

---- Real-time Memory Report at c_bands before calling an iterative solver
             0 MiB given to the printing process from OS
             0 MiB allocation reported by mallinfo(arena+hblkhd)
             0 MiB available memory on the node where the printing process lives
------------------
     ethr =  2.24E-13,  avg # of iterations =  4.4

     negative rho (up, down):  1.979E-01 0.000E+00

     total cpu time spent up to now is      672.0 secs

     End of self-consistent calculation

          k = 0.0000 0.0000 0.0000 ( 52817 PWs)   bands (ev):

   -28.2583 -28.2582 -28.2581 -14.9101 -14.9100 -14.9099 -14.9045 -14.9044
   -14.9042 -14.8921 -14.8920 -14.8919 -14.8510 -14.8509 -14.8508 -14.8057
   -14.8057 -14.8055 -10.3141 -10.3140 -10.3074 -10.2877 -10.2876 -10.2654
   -10.2416 -10.2414 -10.2376  -6.8574  -6.5491  -6.5489  -5.7256  -5.7255
    -5.5898  -5.5062  -5.5060  -5.4214  -5.3615  -5.3613  -5.2388  -0.3426
    -0.2913  -0.2912   1.6017   1.6018   1.6686   2.0291   2.0508   2.0508
     2.3177   2.3183   2.5594   2.5595   2.8826   2.8827   3.1764   3.2400
     3.2401   3.4069   3.4070   3.5062   3.5281   3.5281   3.7034   3.7036
     3.7204   3.8079   3.8080   3.9769   4.1370   4.2151   4.2930   4.2931
     4.5491   4.5492   4.8689   5.1403   5.1936   5.1936   5.2380   5.2451
     5.2451   5.3285   5.3285   5.3400   5.4542   5.4542   5.4902   5.5140
     5.5140   5.6420   5.7404   5.7405   5.7592   6.0126   6.0127   6.1656
     6.3060   6.3061   6.5693   6.7808   6.7808   6.8226   6.9796   7.1964
     7.1964

     occupation numbers 
     1.0000   1.0000   1.0000   1.0000   1.0000   1.0000   1.0000   1.0000
     1.0000   1.0000   1.0000   1.0000   1.0000   1.0000   1.0000   1.0000
     1.0000   1.0000   1.0000   1.0000   1.0000   1.0000   1.0000   1.0000
     1.0000   1.0000   1.0000   1.0000   1.0000   1.0000   1.0000   1.0000
     1.0000   1.0000   1.0000   1.0000   1.0000   1.0000   1.0000   1.0000
     1.0000   1.0000   1.0000   1.0000   1.0000   1.0000   1.0000   1.0000
     1.0000   1.0000   1.0000   1.0000   1.0000   1.0000   1.0000   1.0000
     1.0000   1.0000   1.0000   1.0000   1.0000   1.0000   1.0000   1.0000
     1.0000   1.0000   1.0000   1.0000   1.0000   1.0000   1.0000   1.0000
     1.0000   1.0000   1.0000   1.0000   1.0000   1.0000   1.0000   1.0000
     1.0000   1.0000   1.0000   1.0000   1.0000   1.0000   1.0000   1.0000
     1.0000   1.0000   1.0000   1.0000   1.0000   1.0000   1.0000   1.0000
     1.0000   1.0000   1.0000   1.0000   1.0000   1.0000   1.0000   1.0000
     1.0000

          k =-0.0000 0.0000-0.2033 ( 52864 PWs)   bands (ev):

   -28.2583 -28.2582 -28.2581 -14.9101 -14.9100 -14.9099 -14.9045 -14.9044
   -14.9042 -14.8921 -14.8920 -14.8919 -14.8510 -14.8509 -14.8508 -14.8057
   -14.8057 -14.8055 -10.3158 -10.3098 -10.3097 -10.2968 -10.2715 -10.2714
   -10.2412 -10.2403 -10.2402  -6.7708  -6.7706  -6.3755  -5.8655  -5.6175
    -5.6174  -5.5500  -5.4280  -5.4278  -5.3638  -5.3022  -5.3020  -0.3339
    -0.3338  -0.2597   1.5973   1.5974   1.6804   2.0077   2.0737   2.0738
     2.3436   2.3436   2.5924   2.5924   2.6877   2.7904   3.1987   3.1989
     3.3338   3.3432   3.5136   3.5137   3.5580   3.6039   3.6040   3.6748
     3.7831   3.8921   3.8922   4.0116   4.0117   4.1410   4.2510   4.2511
     4.4940   4.7612   4.7613   5.1563   5.1644   5.1645   5.2306   5.3105
     5.3105   5.3455   5.3455   5.3629   5.3631   5.3631   5.4032   5.5735
     5.5736   5.6315   5.6494   5.8213   5.8214   5.8667   6.2891   6.2891
     6.3692   6.3693   6.3904   6.5083   6.5084   7.0397   7.0397   7.0786
     7.1592

     occupation numbers 
     1.0000   1.0000   1.0000   1.0000   1.0000   1.0000   1.0000   1.0000
     1.0000   1.0000   1.0000   1.0000   1.0000   1.0000   1.0000   1.0000
     1.0000   1.0000   1.0000   1.0000   1.0000   1.0000   1.0000   1.0000
     1.0000   1.0000   1.0000   1.0000   1.0000   1.0000   1.0000   1.0000
     1.0000   1.0000   1.0000   1.0000   1.0000   1.0000   1.0000   1.0000
     1.0000   1.0000   1.0000   1.0000   1.0000   1.0000   1.0000   1.0000
     1.0000   1.0000   1.0000   1.0000   1.0000   1.0000   1.0000   1.0000
     1.0000   1.0000   1.0000   1.0000   1.0000   1.0000   1.0000   1.0000
     1.0000   1.0000   1.0000   1.0000   1.0000   1.0000   1.0000   1.0000
     1.0000   1.0000   1.0000   1.0000   1.0000   1.0000   1.0000   1.0000
     1.0000   1.0000   1.0000   1.0000   1.0000   1.0000   1.0000   1.0000
     1.0000   1.0000   1.0000   1.0000   1.0000   1.0000   1.0000   1.0000
     1.0000   1.0000   1.0000   1.0000   1.0000   1.0000   1.0000   1.0000
     1.0000

          k =-0.0000 0.2883 0.0000 ( 52871 PWs)   bands (ev):

   -28.2583 -28.2582 -28.2581 -14.9099 -14.9098 -14.9098 -14.9044 -14.9043
   -14.9042 -14.8920 -14.8919 -14.8918 -14.8510 -14.8509 -14.8508 -14.8057
   -14.8056 -14.8055 -10.3176 -10.3174 -10.3124 -10.2883 -10.2855 -10.2714
   -10.2497 -10.2454 -10.2414  -6.6939  -6.4309  -6.4257  -5.7329  -5.7106
    -5.6746  -5.6371  -5.5066  -5.4981  -5.4491  -5.4382  -5.2783  -0.4946
    -0.3501  -0.2983   1.4633   1.6489   1.7547   2.0124   2.2563   2.3404
     2.4170   2.5207   2.7853   2.8380   2.8591   2.9627   3.0936   3.1546
     3.2019   3.2927   3.3552   3.4511   3.5187   3.5446   3.5937   3.6562
     3.7113   3.8766   3.9580   4.0091   4.1166   4.1610   4.2851   4.3495
     4.4433   4.5297   4.6891   5.1700   5.1856   5.2359   5.2571   5.2699
     5.2928   5.3394   5.3612   5.3853   5.4775   5.4851   5.5276   5.5529
     5.6013   5.6898   5.7174   5.7482   5.8520   5.9418   6.0424   6.1912
     6.2496   6.3069   6.4234   6.4985   6.6893   6.7415   6.7554   6.8605
     7.0036

     occupation numbers 
     1.0000   1.0000   1.0000   1.0000   1.0000   1.0000   1.0000   1.0000
     1.0000   1.0000   1.0000   1.0000   1.0000   1.0000   1.0000   1.0000
     1.0000   1.0000   1.0000   1.0000   1.0000   1.0000   1.0000   1.0000
     1.0000   1.0000   1.0000   1.0000   1.0000   1.0000   1.0000   1.0000
     1.0000   1.0000   1.0000   1.0000   1.0000   1.0000   1.0000   1.0000
     1.0000   1.0000   1.0000   1.0000   1.0000   1.0000   1.0000   1.0000
     1.0000   1.0000   1.0000   1.0000   1.0000   1.0000   1.0000   1.0000
     1.0000   1.0000   1.0000   1.0000   1.0000   1.0000   1.0000   1.0000
     1.0000   1.0000   1.0000   1.0000   1.0000   1.0000   1.0000   1.0000
     1.0000   1.0000   1.0000   1.0000   1.0000   1.0000   1.0000   1.0000
     1.0000   1.0000   1.0000   1.0000   1.0000   1.0000   1.0000   1.0000
     1.0000   1.0000   1.0000   1.0000   1.0000   1.0000   1.0000   1.0000
     1.0000   1.0000   1.0000   1.0000   1.0000   1.0000   1.0000   1.0000
     1.0000

          k =-0.0000 0.2883-0.2033 ( 52942 PWs)   bands (ev):

   -28.2583 -28.2582 -28.2581 -14.9099 -14.9098 -14.9098 -14.9044 -14.9042
   -14.9042 -14.8920 -14.8919 -14.8918 -14.8510 -14.8509 -14.8508 -14.8057
   -14.8056 -14.8055 -10.3196 -10.3146 -10.3131 -10.2927 -10.2779 -10.2743
   -10.2489 -10.2447 -10.2431  -6.6257  -6.6101  -6.2894  -5.7969  -5.7008
    -5.6735  -5.6253  -5.5173  -5.4928  -5.4721  -5.3548  -5.3168  -0.4864
    -0.3855  -0.2725   1.4538   1.6824   1.7793   1.9761   2.2040   2.3163
     2.4898   2.6214   2.6831   2.7351   2.8963   2.9921   3.0875   3.1223
     3.2221   3.2968   3.3646   3.4825   3.4955   3.5858   3.6298   3.6678
     3.7100   3.9024   3.9575   4.0151   4.0471   4.1242   4.2453   4.3605
     4.4908   4.5251   4.6840   5.1785   5.1876   5.2047   5.2397   5.2784
     5.2878   5.3668   5.3783   5.3998   5.4468   5.4923   5.5331   5.5848
     5.6079   5.6618   5.7035   5.7706   5.8421   5.8722   6.1346   6.1851
     6.2739   6.3203   6.3919   6.5028   6.5320   6.7794   6.8242   6.9012
     6.9528

     occupation numbers 
     1.0000   1.0000   1.0000   1.0000   1.0000   1.0000   1.0000   1.0000
     1.0000   1.0000   1.0000   1.0000   1.0000   1.0000   1.0000   1.0000
     1.0000   1.0000   1.0000   1.0000   1.0000   1.0000   1.0000   1.0000
     1.0000   1.0000   1.0000   1.0000   1.0000   1.0000   1.0000   1.0000
     1.0000   1.0000   1.0000   1.0000   1.0000   1.0000   1.0000   1.0000
     1.0000   1.0000   1.0000   1.0000   1.0000   1.0000   1.0000   1.0000
     1.0000   1.0000   1.0000   1.0000   1.0000   1.0000   1.0000   1.0000
     1.0000   1.0000   1.0000   1.0000   1.0000   1.0000   1.0000   1.0000
     1.0000   1.0000   1.0000   1.0000   1.0000   1.0000   1.0000   1.0000
     1.0000   1.0000   1.0000   1.0000   1.0000   1.0000   1.0000   1.0000
     1.0000   1.0000   1.0000   1.0000   1.0000   1.0000   1.0000   1.0000
     1.0000   1.0000   1.0000   1.0000   1.0000   1.0000   1.0000   1.0000
     1.0000   1.0000   1.0000   1.0000   1.0000   1.0000   1.0000   1.0000
     1.0000

          k = 0.0000-0.5766-0.0000 ( 52946 PWs)   bands (ev):

   -28.2583 -28.2582 -28.2580 -14.9098 -14.9097 -14.9095 -14.9043 -14.9041
   -14.9041 -14.8919 -14.8918 -14.8918 -14.8510 -14.8509 -14.8508 -14.8058
   -14.8056 -14.8055 -10.3216 -10.3197 -10.3188 -10.2924 -10.2847 -10.2757
   -10.2537 -10.2482 -10.2459  -6.4104  -6.2936  -6.2130  -5.9793  -5.8385
    -5.7858  -5.6069  -5.6021  -5.5481  -5.5339  -5.4167  -5.3335  -0.6011
    -0.3774  -0.3049   1.3939   1.7252   1.8172   2.0960   2.2571   2.4142
     2.4708   2.6746   2.7941   2.9359   2.9642   3.0389   3.0555   3.2246
     3.2698   3.3908   3.4407   3.4494   3.4892   3.5077   3.5972   3.6383
     3.7024   3.8389   4.0342   4.0503   4.1389   4.1864   4.2224   4.2587
     4.4377   4.5309   4.6332   5.1709   5.1897   5.2437   5.2679   5.2820
     5.2940   5.3269   5.3529   5.3909   5.4866   5.4928   5.6173   5.6342
     5.6634   5.6747   5.7990   5.8364   5.9188   5.9431   6.0421   6.1666
     6.2782   6.2784   6.3510   6.3798   6.4049   6.5866   6.6535   6.7631
     6.7965

     occupation numbers 
     1.0000   1.0000   1.0000   1.0000   1.0000   1.0000   1.0000   1.0000
     1.0000   1.0000   1.0000   1.0000   1.0000   1.0000   1.0000   1.0000
     1.0000   1.0000   1.0000   1.0000   1.0000   1.0000   1.0000   1.0000
     1.0000   1.0000   1.0000   1.0000   1.0000   1.0000   1.0000   1.0000
     1.0000   1.0000   1.0000   1.0000   1.0000   1.0000   1.0000   1.0000
     1.0000   1.0000   1.0000   1.0000   1.0000   1.0000   1.0000   1.0000
     1.0000   1.0000   1.0000   1.0000   1.0000   1.0000   1.0000   1.0000
     1.0000   1.0000   1.0000   1.0000   1.0000   1.0000   1.0000   1.0000
     1.0000   1.0000   1.0000   1.0000   1.0000   1.0000   1.0000   1.0000
     1.0000   1.0000   1.0000   1.0000   1.0000   1.0000   1.0000   1.0000
     1.0000   1.0000   1.0000   1.0000   1.0000   1.0000   1.0000   1.0000
     1.0000   1.0000   1.0000   1.0000   1.0000   1.0000   1.0000   1.0000
     1.0000   1.0000   1.0000   1.0000   1.0000   1.0000   1.0000   1.0000
     1.0000

          k = 0.0000-0.5766-0.2033 ( 52908 PWs)   bands (ev):

   -28.2583 -28.2582 -28.2580 -14.9098 -14.9097 -14.9095 -14.9043 -14.9041
   -14.9041 -14.8919 -14.8918 -14.8918 -14.8510 -14.8509 -14.8508 -14.8058
   -14.8056 -14.8055 -10.3229 -10.3205 -10.3169 -10.2902 -10.2855 -10.2774
   -10.2529 -10.2491 -10.2452  -6.3994  -6.3002  -6.2286  -5.9823  -5.8194
    -5.7513  -5.6592  -5.6005  -5.5399  -5.5336  -5.4243  -5.3232  -0.5904
    -0.4080  -0.2863   1.4289   1.6040   2.0065   2.0254   2.3004   2.3793
     2.4214   2.6228   2.8014   2.8845   2.9831   3.0957   3.0999   3.2165
     3.2935   3.3986   3.4306   3.4518   3.4581   3.5437   3.5463   3.6714
     3.6802   3.9096   3.9975   4.0817   4.1243   4.1567   4.1649   4.2705
     4.4345   4.5918   4.6059   5.1789   5.1880   5.2456   5.2653   5.2687
     5.2864   5.3479   5.3689   5.3729   5.4452   5.5481   5.6012   5.6350
     5.6718   5.7081   5.7628   5.8305   5.8944   6.0301   6.0786   6.0836
     6.1711   6.2820   6.3596   6.3790   6.4612   6.6616   6.6833   6.7139
     6.7458

     occupation numbers 
     1.0000   1.0000   1.0000   1.0000   1.0000   1.0000   1.0000   1.0000
     1.0000   1.0000   1.0000   1.0000   1.0000   1.0000   1.0000   1.0000
     1.0000   1.0000   1.0000   1.0000   1.0000   1.0000   1.0000   1.0000
     1.0000   1.0000   1.0000   1.0000   1.0000   1.0000   1.0000   1.0000
     1.0000   1.0000   1.0000   1.0000   1.0000   1.0000   1.0000   1.0000
     1.0000   1.0000   1.0000   1.0000   1.0000   1.0000   1.0000   1.0000
     1.0000   1.0000   1.0000   1.0000   1.0000   1.0000   1.0000   1.0000
     1.0000   1.0000   1.0000   1.0000   1.0000   1.0000   1.0000   1.0000
     1.0000   1.0000   1.0000   1.0000   1.0000   1.0000   1.0000   1.0000
     1.0000   1.0000   1.0000   1.0000   1.0000   1.0000   1.0000   1.0000
     1.0000   1.0000   1.0000   1.0000   1.0000   1.0000   1.0000   1.0000
     1.0000   1.0000   1.0000   1.0000   1.0000   1.0000   1.0000   1.0000
     1.0000   1.0000   1.0000   1.0000   1.0000   1.0000   1.0000   1.0000
     1.0000

          k = 0.2497 0.4325 0.0000 ( 52956 PWs)   bands (ev):

   -28.2583 -28.2582 -28.2580 -14.9098 -14.9097 -14.9095 -14.9044 -14.9042
   -14.9040 -14.8919 -14.8919 -14.8917 -14.8510 -14.8509 -14.8508 -14.8057
   -14.8056 -14.8055 -10.3212 -10.3197 -10.3173 -10.2899 -10.2852 -10.2788
   -10.2515 -10.2514 -10.2458  -6.4377  -6.2729  -6.2534  -5.8630  -5.8010
    -5.7301  -5.7288  -5.6223  -5.5936  -5.4998  -5.4288  -5.3364  -0.5421
    -0.4043  -0.3325   1.5716   1.6949   1.8429   2.0250   2.2304   2.3357
     2.5793   2.6663   2.7637   2.8322   2.9216   2.9519   3.0755   3.2152
     3.3029   3.3064   3.4022   3.4547   3.5235   3.5360   3.6016   3.7149
     3.7387   3.7573   3.9749   4.0511   4.1309   4.1916   4.2925   4.3605
     4.4237   4.5357   4.5978   5.1572   5.1730   5.2251   5.2681   5.2979
     5.3174   5.3512   5.3726   5.4574   5.4642   5.5245   5.5521   5.6149
     5.6442   5.7221   5.7968   5.8168   5.8987   5.9650   6.0408   6.1414
     6.2389   6.3070   6.4012   6.4143   6.5044   6.5521   6.7286   6.7982
     6.7995

     occupation numbers 
     1.0000   1.0000   1.0000   1.0000   1.0000   1.0000   1.0000   1.0000
     1.0000   1.0000   1.0000   1.0000   1.0000   1.0000   1.0000   1.0000
     1.0000   1.0000   1.0000   1.0000   1.0000   1.0000   1.0000   1.0000
     1.0000   1.0000   1.0000   1.0000   1.0000   1.0000   1.0000   1.0000
     1.0000   1.0000   1.0000   1.0000   1.0000   1.0000   1.0000   1.0000
     1.0000   1.0000   1.0000   1.0000   1.0000   1.0000   1.0000   1.0000
     1.0000   1.0000   1.0000   1.0000   1.0000   1.0000   1.0000   1.0000
     1.0000   1.0000   1.0000   1.0000   1.0000   1.0000   1.0000   1.0000
     1.0000   1.0000   1.0000   1.0000   1.0000   1.0000   1.0000   1.0000
     1.0000   1.0000   1.0000   1.0000   1.0000   1.0000   1.0000   1.0000
     1.0000   1.0000   1.0000   1.0000   1.0000   1.0000   1.0000   1.0000
     1.0000   1.0000   1.0000   1.0000   1.0000   1.0000   1.0000   1.0000
     1.0000   1.0000   1.0000   1.0000   1.0000   1.0000   1.0000   1.0000
     1.0000

          k = 0.2497 0.4325-0.2033 ( 52926 PWs)   bands (ev):

   -28.2583 -28.2582 -28.2580 -14.9098 -14.9097 -14.9095 -14.9044 -14.9042
   -14.9040 -14.8919 -14.8919 -14.8917 -14.8510 -14.8509 -14.8508 -14.8057
   -14.8056 -14.8055 -10.3222 -10.3203 -10.3158 -10.2887 -10.2840 -10.2811
   -10.2522 -10.2511 -10.2453  -6.4065  -6.3557  -6.2014  -5.8497  -5.8118
    -5.7457  -5.7079  -5.6279  -5.5916  -5.5148  -5.4188  -5.3361  -0.5219
    -0.4469  -0.3104   1.5550   1.7267   1.8578   1.9814   2.2257   2.4513
     2.5463   2.6005   2.6645   2.8190   2.9698   2.9873   3.1494   3.1740
     3.3024   3.3134   3.3874   3.4745   3.4822   3.5600   3.6247   3.6901
     3.7211   3.8693   3.9250   4.0720   4.1166   4.1291   4.3033   4.3120
     4.4617   4.5210   4.6299   5.1673   5.1873   5.2262   5.2439   5.2845
     5.3271   5.3768   5.3839   5.4394   5.4542   5.4900   5.5904   5.6328
     5.6425   5.7586   5.7774   5.7893   5.8765   5.9704   6.0452   6.1078
     6.2223   6.2773   6.3722   6.4657   6.5593   6.5866   6.6475   6.7971
     6.8500

     occupation numbers 
     1.0000   1.0000   1.0000   1.0000   1.0000   1.0000   1.0000   1.0000
     1.0000   1.0000   1.0000   1.0000   1.0000   1.0000   1.0000   1.0000
     1.0000   1.0000   1.0000   1.0000   1.0000   1.0000   1.0000   1.0000
     1.0000   1.0000   1.0000   1.0000   1.0000   1.0000   1.0000   1.0000
     1.0000   1.0000   1.0000   1.0000   1.0000   1.0000   1.0000   1.0000
     1.0000   1.0000   1.0000   1.0000   1.0000   1.0000   1.0000   1.0000
     1.0000   1.0000   1.0000   1.0000   1.0000   1.0000   1.0000   1.0000
     1.0000   1.0000   1.0000   1.0000   1.0000   1.0000   1.0000   1.0000
     1.0000   1.0000   1.0000   1.0000   1.0000   1.0000   1.0000   1.0000
     1.0000   1.0000   1.0000   1.0000   1.0000   1.0000   1.0000   1.0000
     1.0000   1.0000   1.0000   1.0000   1.0000   1.0000   1.0000   1.0000
     1.0000   1.0000   1.0000   1.0000   1.0000   1.0000   1.0000   1.0000
     1.0000   1.0000   1.0000   1.0000   1.0000   1.0000   1.0000   1.0000
     1.0000

     highest occupied level (ev):     7.1964

!    total energy              =   -2269.30073879 Ry
     estimated scf accuracy    <          9.8E-11 Ry

     The total energy is the sum of the following terms:
     one-electron contribution =    -693.48794012 Ry
     hartree contribution      =     504.79533868 Ry
     xc contribution           =    -567.36508932 Ry
     ewald contribution        =    -974.29583954 Ry
     one-center paw contrib.   =    -538.94720849 Ry
      -> PAW hartree energy AE =       0.00000000 Ry
      -> PAW hartree energy PS =       0.00000000 Ry
      -> PAW xc energy AE      =       0.00000000 Ry
      -> PAW xc energy PS      =       0.00000000 Ry
      -> total E_H with PAW    =     504.79533868 Ry
      -> total E_XC with PAW   =    -567.36508932 Ry

     convergence has been achieved in  10 iterations

     negative rho (up, down):  1.979E-01 0.000E+00

     Forces acting on atoms (cartesian axes, Ry/au):

     atom    1 type  4   force =    -0.00014430    0.00024994   -0.00000000
     atom    2 type  4   force =    -0.00014430   -0.00024994   -0.00000000
     atom    3 type  4   force =     0.00028861    0.00000000    0.00000000
     atom    4 type  1   force =     0.00017492   -0.00049015    0.00026832
     atom    5 type  1   force =     0.00033702    0.00039656    0.00026832
     atom    6 type  1   force =    -0.00051194    0.00009359    0.00026832
     atom    7 type  1   force =    -0.00051194   -0.00009359   -0.00026832
     atom    8 type  1   force =     0.00017492    0.00049015   -0.00026832
     atom    9 type  1   force =     0.00033702   -0.00039656   -0.00026832
     atom   10 type  3   force =     0.00015276   -0.00026458   -0.00000000
     atom   11 type  3   force =     0.00015276    0.00026458   -0.00000000
     atom   12 type  3   force =    -0.00030551   -0.00000000   -0.00000000
     atom   13 type  2   force =     0.00033952   -0.00040038    0.00077720
     atom   14 type  2   force =     0.00017698    0.00049422    0.00077720
     atom   15 type  2   force =    -0.00051650   -0.00009385    0.00077720
     atom   16 type  2   force =    -0.00051650    0.00009384   -0.00077720
     atom   17 type  2   force =     0.00033952    0.00040038   -0.00077720
     atom   18 type  2   force =     0.00017698   -0.00049422   -0.00077720
     atom   19 type  2   force =     0.00023688    0.00058488   -0.00016265
     atom   20 type  2   force =    -0.00062496   -0.00008730   -0.00016265
     atom   21 type  2   force =     0.00038808   -0.00049758   -0.00016265
     atom   22 type  2   force =     0.00038808    0.00049758    0.00016265
     atom   23 type  2   force =     0.00023688   -0.00058488    0.00016265
     atom   24 type  2   force =    -0.00062496    0.00008730    0.00016265
     The non-local contrib.  to forces
     atom    1 type  4   force =    -0.00175906    0.00304678    0.00000000
     atom    2 type  4   force =    -0.00175906   -0.00304678   -0.00000000
     atom    3 type  4   force =     0.00351812    0.00000000    0.00000000
     atom    4 type  1   force =    -0.05128025   -0.01014960   -0.02324016
     atom    5 type  1   force =     0.03442993   -0.03933520   -0.02324016
     atom    6 type  1   force =     0.01685031    0.04948481   -0.02324016
     atom    7 type  1   force =     0.01685031   -0.04948480    0.02324016
     atom    8 type  1   force =    -0.05128025    0.01014960    0.02324016
     atom    9 type  1   force =     0.03442993    0.03933521    0.02324016
     atom   10 type  3   force =    -0.00390173    0.00675800   -0.00000000
     atom   11 type  3   force =    -0.00390173   -0.00675800    0.00000000
     atom   12 type  3   force =     0.00780346    0.00000000    0.00000000
     atom   13 type  2   force =    -0.01741084    0.10146664   -0.07987382
     atom   14 type  2   force =    -0.07916725   -0.06581156   -0.07987382
     atom   15 type  2   force =     0.09657809   -0.03565507   -0.07987382
     atom   16 type  2   force =     0.09657809    0.03565509    0.07987382
     atom   17 type  2   force =    -0.01741084   -0.10146664    0.07987382
     atom   18 type  2   force =    -0.07916725    0.06581155    0.07987382
     atom   19 type  2   force =    -0.06780471   -0.07230867    0.00390710
     atom   20 type  2   force =     0.09652348   -0.02256627    0.00390710
     atom   21 type  2   force =    -0.02871877    0.09487494    0.00390710
     atom   22 type  2   force =    -0.02871877   -0.09487495   -0.00390710
     atom   23 type  2   force =    -0.06780471    0.07230866   -0.00390710
     atom   24 type  2   force =     0.09652348    0.02256629   -0.00390710
     The ionic contribution  to forces
     atom    1 type  4   force =    -0.98216796    1.70114697   -0.00006628
     atom    2 type  4   force =    -0.98216365   -1.70115721    0.00001886
     atom    3 type  4   force =     1.96431996   -0.00003507   -0.00009549
     atom    4 type  1   force =    -2.23476289    2.77673427    0.08957214
     atom    5 type  1   force =    -1.28729534   -3.32370224    0.08962317
     atom    6 type  1   force =     3.52210807    0.54706986    0.08953291
     atom    7 type  1   force =     3.52209978   -0.54699788   -0.08951315
     atom    8 type  1   force =    -2.23477309   -2.77668818   -0.08963430
     atom    9 type  1   force =    -1.28727837    3.32378028   -0.08953188
     atom   10 type  3   force =    -1.64244029    2.84476925   -0.00001810
     atom   11 type  3   force =    -1.64246773   -2.84481461    0.00000141
     atom   12 type  3   force =     3.28486164   -0.00001805    0.00004884
     atom   13 type  2   force =    -0.38175687   -2.63394059    0.77596893
     atom   14 type  2   force =     2.47196492    0.98627418    0.77602648
     atom   15 type  2   force =    -2.09011450    1.64759545    0.77593645
     atom   16 type  2   force =    -2.09017897   -1.64758052   -0.77598910
     atom   17 type  2   force =    -0.38184011    2.63391935   -0.77604825
     atom   18 type  2   force =     2.47191742   -0.98629533   -0.77591338
     atom   19 type  2   force =     1.35894848   -1.01812371   -0.23090036
     atom   20 type  2   force =     0.20224636    1.68595039   -0.23090002
     atom   21 type  2   force =    -1.56122262   -0.66786799   -0.23090159
     atom   22 type  2   force =    -1.56117472    0.66781370    0.23092522
     atom   23 type  2   force =     1.35893826    1.01812877    0.23092690
     atom   24 type  2   force =     0.20223220   -1.68596109    0.23093057
     The local contribution  to forces
     atom    1 type  4   force =     0.98364793   -1.70377098   -0.00011429
     atom    2 type  4   force =     0.98364771    1.70377128    0.00011416
     atom    3 type  4   force =    -1.96734963    0.00001330   -0.00033408
     atom    4 type  1   force =     2.27911882   -2.76364440   -0.06892201
     atom    5 type  1   force =     1.25379488    3.35558983   -0.06786273
     atom    6 type  1   force =    -3.53294659   -0.59200679   -0.06994958
     atom    7 type  1   force =    -3.53294700    0.59200753    0.06994885
     atom    8 type  1   force =     2.27911781    2.76364561    0.06892271
     atom    9 type  1   force =     1.25376198   -3.35560745    0.07099697
     atom   10 type  3   force =     1.64615068   -2.85127970   -0.00043107
     atom   11 type  3   force =     1.64614996    2.85128081    0.00043082
     atom   12 type  3   force =    -3.29240514    0.00001219    0.00124358
     atom   13 type  2   force =     0.39866386    2.53751760   -0.69953885
     atom   14 type  2   force =    -2.39684956   -0.92347755   -0.69948298
     atom   15 type  2   force =     1.99818895   -1.61393974   -0.69952384
     atom   16 type  2   force =     1.99818926    1.61393893    0.69952366
     atom   17 type  2   force =     0.39866446   -2.53751791    0.69953920
     atom   18 type  2   force =    -2.39681104    0.92349621    0.69955433
     atom   19 type  2   force =    -1.29445286    1.08719340    0.22707112
     atom   20 type  2   force =    -0.29429460   -1.66459242    0.22718553
     atom   21 type  2   force =     1.58876904    0.57744131    0.22709249
     atom   22 type  2   force =     1.58876901   -0.57744260   -0.22709291
     atom   23 type  2   force =    -1.29445245   -1.08719486   -0.22707152
     atom   24 type  2   force =    -0.29428956    1.66466605   -0.22702039
     The core correction contribution to forces
     atom    1 type  4   force =     0.00007695   -0.00013338    0.00001037
     atom    2 type  4   force =     0.00007695    0.00013338   -0.00001037
     atom    3 type  4   force =    -0.00015399    0.00000001    0.00003113
     atom    4 type  1   force =     0.00710045   -0.00342526    0.00345126
     atom    5 type  1   force =    -0.00058467    0.00786135    0.00360053
     atom    6 type  1   force =    -0.00651637   -0.00443713    0.00330405
     atom    7 type  1   force =    -0.00651636    0.00443714   -0.00330405
     atom    8 type  1   force =     0.00710044    0.00342526   -0.00345125
     atom    9 type  1   force =    -0.00058377   -0.00786167   -0.00315528
     atom   10 type  3   force =     0.00034826   -0.00060349   -0.00004114
     atom   11 type  3   force =     0.00034826    0.00060349    0.00004114
     atom   12 type  3   force =    -0.00069697    0.00000008    0.00012156
     atom   13 type  2   force =     0.00090526   -0.00542495    0.00419248
     atom   14 type  2   force =     0.00424738    0.00349702    0.00419119
     atom   15 type  2   force =    -0.00515138    0.00193004    0.00420094
     atom   16 type  2   force =    -0.00515138   -0.00193005   -0.00420094
     atom   17 type  2   force =     0.00090526    0.00542495   -0.00419248
     atom   18 type  2   force =     0.00424706   -0.00349628   -0.00420406
     atom   19 type  2   force =     0.00354391    0.00382380   -0.00024872
     atom   20 type  2   force =    -0.00508374    0.00115671   -0.00025045
     atom   21 type  2   force =     0.00153955   -0.00498113   -0.00024261
     atom   22 type  2   force =     0.00153955    0.00498113    0.00024261
     atom   23 type  2   force =     0.00354391   -0.00382380    0.00024872
     atom   24 type  2   force =    -0.00508384   -0.00115713    0.00023640
     The Hubbard contrib.    to forces
     atom    1 type  4   force =     0.00000000    0.00000000    0.00000000
     atom    2 type  4   force =     0.00000000    0.00000000    0.00000000
     atom    3 type  4   force =     0.00000000    0.00000000    0.00000000
     atom    4 type  1   force =     0.00000000    0.00000000    0.00000000
     atom    5 type  1   force =     0.00000000    0.00000000    0.00000000
     atom    6 type  1   force =     0.00000000    0.00000000    0.00000000
     atom    7 type  1   force =     0.00000000    0.00000000    0.00000000
     atom    8 type  1   force =     0.00000000    0.00000000    0.00000000
     atom    9 type  1   force =     0.00000000    0.00000000    0.00000000
     atom   10 type  3   force =     0.00000000    0.00000000    0.00000000
     atom   11 type  3   force =     0.00000000    0.00000000    0.00000000
     atom   12 type  3   force =     0.00000000    0.00000000    0.00000000
     atom   13 type  2   force =     0.00000000    0.00000000    0.00000000
     atom   14 type  2   force =     0.00000000    0.00000000    0.00000000
     atom   15 type  2   force =     0.00000000    0.00000000    0.00000000
     atom   16 type  2   force =     0.00000000    0.00000000    0.00000000
     atom   17 type  2   force =     0.00000000    0.00000000    0.00000000
     atom   18 type  2   force =     0.00000000    0.00000000    0.00000000
     atom   19 type  2   force =     0.00000000    0.00000000    0.00000000
     atom   20 type  2   force =     0.00000000    0.00000000    0.00000000
     atom   21 type  2   force =     0.00000000    0.00000000    0.00000000
     atom   22 type  2   force =     0.00000000    0.00000000    0.00000000
     atom   23 type  2   force =     0.00000000    0.00000000    0.00000000
     atom   24 type  2   force =     0.00000000    0.00000000    0.00000000
     The SCF correction term to forces
     atom    1 type  4   force =     0.00002977   -0.00005156   -0.00000000
     atom    2 type  4   force =     0.00002977    0.00005156    0.00000000
     atom    3 type  4   force =    -0.00005952    0.00000000   -0.00000000
     atom    4 type  1   force =     0.00000019    0.00000002   -0.00000337
     atom    5 type  1   force =    -0.00000011    0.00000016   -0.00000337
     atom    6 type  1   force =    -0.00000008   -0.00000018   -0.00000337
     atom    7 type  1   force =    -0.00000008    0.00000018    0.00000337
     atom    8 type  1   force =     0.00000019   -0.00000002    0.00000337
     atom    9 type  1   force =    -0.00000011   -0.00000016    0.00000337
     atom   10 type  3   force =    -0.00004025    0.00006971   -0.00000002
     atom   11 type  3   force =    -0.00004025   -0.00006971    0.00000002
     atom   12 type  3   force =     0.00008051   -0.00000000    0.00000000
     atom   13 type  2   force =     0.00000134   -0.00000075    0.00000072
     atom   14 type  2   force =    -0.00000002    0.00000154    0.00000072
     atom   15 type  2   force =    -0.00000132   -0.00000078    0.00000072
     atom   16 type  2   force =    -0.00000132    0.00000078   -0.00000072
     atom   17 type  2   force =     0.00000134    0.00000075   -0.00000072
     atom   18 type  2   force =    -0.00000002   -0.00000154   -0.00000072
     atom   19 type  2   force =     0.00000136    0.00000265    0.00000029
     atom   20 type  2   force =    -0.00000298   -0.00000015    0.00000029
     atom   21 type  2   force =     0.00000162   -0.00000250    0.00000029
     atom   22 type  2   force =     0.00000162    0.00000250   -0.00000029
     atom   23 type  2   force =     0.00000136   -0.00000265   -0.00000029
     atom   24 type  2   force =    -0.00000298    0.00000015   -0.00000029

     Total force =     0.003227     Total SCF correction =     0.000174


     Computing stress (Cartesian axis) and pressure


     negative rho (up, down):  1.979E-01 0.000E+00
          total   stress  (Ry/bohr**3)                   (kbar)     P=        0.69
   0.00000531   0.00000000  -0.00000000            0.78        0.00       -0.00
   0.00000000   0.00000531   0.00000000            0.00        0.78        0.00
   0.00000000  -0.00000000   0.00000339            0.00       -0.00        0.50

     kinetic stress (kbar)   8984.68      0.00      0.00
                                0.00   8984.68      0.00
                                0.00      0.00   9006.85

     local   stress (kbar)  -2576.09      0.01     -0.01
                                0.01  -2576.07      0.01
                               -0.01      0.01  -3042.36

     nonloc. stress (kbar)   4087.65      0.00      0.00
                                0.00   4087.65      0.00
                                0.00      0.00   4086.60

     hartree stress (kbar)   6656.65     -0.00     -0.00
                               -0.00   6656.65      0.00
                               -0.00      0.00   6847.40

     exc-cor stress (kbar)   8528.53     -0.00      0.00
                               -0.00   8528.53     -0.00
                                0.00     -0.00   8528.96

     corecor stress (kbar) -12625.12      0.00     -0.00
                                0.00 -12625.12     -0.00
                               -0.00     -0.00 -12626.22

     ewald   stress (kbar) -13055.52     -0.01      0.01
                               -0.01 -13055.53     -0.01
                                0.01     -0.01 -12800.73

     hubbard stress (kbar)      0.00      0.00      0.00
                                0.00      0.00      0.00
                                0.00      0.00      0.00

     DFT-D   stress (kbar)      0.00      0.00      0.00
                                0.00      0.00      0.00
                                0.00      0.00      0.00

     XDM     stress (kbar)      0.00      0.00      0.00
                                0.00      0.00      0.00
                                0.00      0.00      0.00

     dft-nl  stress (kbar)      0.00      0.00      0.00
                                0.00      0.00      0.00
                                0.00      0.00      0.00

     TS-vdW  stress (kbar)      0.00      0.00      0.00
                                0.00      0.00      0.00
                                0.00      0.00      0.00

     MDB     stress (kbar)      0.00      0.00      0.00
                                0.00      0.00      0.00
                                0.00      0.00      0.00

     3D-RISM stress (kbar)      0.00      0.00      0.00
                                0.00      0.00      0.00
                                0.00      0.00      0.00

     Energy error            =      1.2E-04 Ry
     Gradient error          =      7.8E-04 Ry/Bohr
     Cell gradient error     =      7.8E-01 kbar

     number of scf cycles    =   3
     number of bfgs steps    =   2

     enthalpy           old  =   -2269.3006203046 Ry
     enthalpy           new  =   -2269.3007387928 Ry

     CASE: enthalpy          _new < enthalpy          _old

     new trust radius        =       0.0053036482 bohr
     new conv_thr            =            1.0E-10 Ry

     new unit-cell volume =   3687.73598 a.u.^3 (   546.46609 Ang^3 )
     density =      4.20872 g/cm^3

CELL_PARAMETERS (angstrom)
   6.357094533   0.000000001   0.000000000
  -3.178547767   5.505404256  -0.000000000
  -0.000000000   0.000000000  15.614041734

ATOMIC_POSITIONS (crystal)
Sr               0.0000000000        0.5622732696        0.1666670000
Sr               0.4377267304        0.4377267303        0.5000000000
Sr               0.5622732696        0.0000000000        0.8333340000
Cu               0.0725611280        0.6358839038        0.4121745759
Cu               0.3641160962        0.4366772243        0.7455075759
Cu               0.5633227758        0.9274388719        0.0788415759
Cu               0.6358839038        0.0725611280        0.5878254241
Cu               0.4366772243        0.3641160962        0.2544924241
Cu               0.9274388719        0.5633227757        0.9211584241
Sn               0.0000000000        0.7050770796        0.6666670000
Sn               0.2949229204        0.2949229204       -0.0000000000
Sn               0.7050770795        0.0000000000        0.3333330000
S                0.0451901935        0.4857248863        0.7875227967
S                0.5142751137        0.5594653073        0.1208557967
S                0.4405346928        0.9548098063        0.4541897967
S                0.4857248865        0.0451901936        0.2124772033
S                0.5594653073        0.5142751137        0.8791442033
S                0.9548098063        0.4405346927        0.5458102033
S                0.1175807801        0.3537664775        0.3286599340
S                0.6462335227        0.7638143027        0.6619929340
S                0.2361856971        0.8824192198        0.9953269340
S                0.3537664774        0.1175807802        0.6713400660
S                0.7638143026        0.6462335226        0.3380070660
S                0.8824192200        0.2361856972        0.0046730660



     Writing config-only to output data dir ./tmp/relax/SrCu2SnS4_relax.save/ :
     XML data file
     NEW-OLD atomic charge density approx. for the potential
     New effective cutoffs (rho, wfc):  717.88   89.73

     negative rho (up, down):  1.979E-01 0.000E+00

     total cpu time spent up to now is      693.8 secs

     Self-consistent Calculation

     iteration #  1     ecut=    90.00 Ry     beta= 0.30
     Davidson diagonalization with overlap

---- Real-time Memory Report at c_bands before calling an iterative solver
             0 MiB given to the printing process from OS
             0 MiB allocation reported by mallinfo(arena+hblkhd)
             0 MiB available memory on the node where the printing process lives
------------------
     ethr =  1.00E-06,  avg # of iterations =  2.0

     Threshold (ethr) on eigenvalues was too large:
     Diagonalizing with lowered threshold

     Davidson diagonalization with overlap

---- Real-time Memory Report at c_bands before calling an iterative solver
             0 MiB given to the printing process from OS
             0 MiB allocation reported by mallinfo(arena+hblkhd)
             0 MiB available memory on the node where the printing process lives
------------------
     ethr =  4.86E-09,  avg # of iterations =  8.2

     negative rho (up, down):  1.979E-01 0.000E+00

     total cpu time spent up to now is      744.2 secs

     total energy              =   -2269.30073349 Ry
     estimated scf accuracy    <       0.00000233 Ry

     iteration #  2     ecut=    90.00 Ry     beta= 0.30
     Davidson diagonalization with overlap

---- Real-time Memory Report at c_bands before calling an iterative solver
             0 MiB given to the printing process from OS
             0 MiB allocation reported by mallinfo(arena+hblkhd)
             0 MiB available memory on the node where the printing process lives
------------------
     ethr =  1.11E-09,  avg # of iterations =  3.9

     negative rho (up, down):  1.979E-01 0.000E+00

     total cpu time spent up to now is      760.3 secs

     total energy              =   -2269.30074984 Ry
     estimated scf accuracy    <       0.00000065 Ry

     iteration #  3     ecut=    90.00 Ry     beta= 0.30
     Davidson diagonalization with overlap

---- Real-time Memory Report at c_bands before calling an iterative solver
             0 MiB given to the printing process from OS
             0 MiB allocation reported by mallinfo(arena+hblkhd)
             0 MiB available memory on the node where the printing process lives
------------------
     ethr =  3.08E-10,  avg # of iterations =  4.6

     negative rho (up, down):  1.979E-01 0.000E+00

     total cpu time spent up to now is      777.8 secs

     total energy              =   -2269.30075836 Ry
     estimated scf accuracy    <       0.00000012 Ry

     iteration #  4     ecut=    90.00 Ry     beta= 0.30
     Davidson diagonalization with overlap

---- Real-time Memory Report at c_bands before calling an iterative solver
             0 MiB given to the printing process from OS
             0 MiB allocation reported by mallinfo(arena+hblkhd)
             0 MiB available memory on the node where the printing process lives
------------------
     ethr =  5.59E-11,  avg # of iterations =  5.2

     negative rho (up, down):  1.979E-01 0.000E+00

     total cpu time spent up to now is      795.8 secs

     total energy              =   -2269.30076243 Ry
     estimated scf accuracy    <       0.00000006 Ry

     iteration #  5     ecut=    90.00 Ry     beta= 0.30
     Davidson diagonalization with overlap

---- Real-time Memory Report at c_bands before calling an iterative solver
             0 MiB given to the printing process from OS
             0 MiB allocation reported by mallinfo(arena+hblkhd)
             0 MiB available memory on the node where the printing process lives
------------------
     ethr =  2.65E-11,  avg # of iterations =  4.0

     negative rho (up, down):  1.979E-01 0.000E+00

     total cpu time spent up to now is      813.7 secs

     total energy              =   -2269.30076446 Ry
     estimated scf accuracy    <       0.00000003 Ry

     iteration #  6     ecut=    90.00 Ry     beta= 0.30
     Davidson diagonalization with overlap

---- Real-time Memory Report at c_bands before calling an iterative solver
             0 MiB given to the printing process from OS
             0 MiB allocation reported by mallinfo(arena+hblkhd)
             0 MiB available memory on the node where the printing process lives
------------------
     ethr =  1.30E-11,  avg # of iterations =  6.1

     negative rho (up, down):  1.979E-01 0.000E+00

     total cpu time spent up to now is      832.8 secs

     total energy              =   -2269.30076545 Ry
     estimated scf accuracy    <       0.00000003 Ry

     iteration #  7     ecut=    90.00 Ry     beta= 0.30
     Davidson diagonalization with overlap

---- Real-time Memory Report at c_bands before calling an iterative solver
             0 MiB given to the printing process from OS
             0 MiB allocation reported by mallinfo(arena+hblkhd)
             0 MiB available memory on the node where the printing process lives
------------------
     ethr =  1.30E-11,  avg # of iterations =  2.0

     negative rho (up, down):  1.979E-01 0.000E+00

     total cpu time spent up to now is      846.9 secs

     total energy              =   -2269.30076593 Ry
     estimated scf accuracy    <       0.00000001 Ry

     iteration #  8     ecut=    90.00 Ry     beta= 0.30
     Davidson diagonalization with overlap

---- Real-time Memory Report at c_bands before calling an iterative solver
             0 MiB given to the printing process from OS
             0 MiB allocation reported by mallinfo(arena+hblkhd)
             0 MiB available memory on the node where the printing process lives
------------------
     ethr =  5.58E-12,  avg # of iterations =  5.2

     negative rho (up, down):  1.979E-01 0.000E+00

     total cpu time spent up to now is      864.6 secs

     total energy              =   -2269.30076617 Ry
     estimated scf accuracy    <          2.9E-09 Ry

     iteration #  9     ecut=    90.00 Ry     beta= 0.30
     Davidson diagonalization with overlap

---- Real-time Memory Report at c_bands before calling an iterative solver
             0 MiB given to the printing process from OS
             0 MiB allocation reported by mallinfo(arena+hblkhd)
             0 MiB available memory on the node where the printing process lives
------------------
     ethr =  1.37E-12,  avg # of iterations =  2.0

     negative rho (up, down):  1.979E-01 0.000E+00

     total cpu time spent up to now is      877.5 secs

     total energy              =   -2269.30076629 Ry
     estimated scf accuracy    <          1.8E-09 Ry

     iteration # 10     ecut=    90.00 Ry     beta= 0.30
     Davidson diagonalization with overlap

---- Real-time Memory Report at c_bands before calling an iterative solver
             0 MiB given to the printing process from OS
             0 MiB allocation reported by mallinfo(arena+hblkhd)
             0 MiB available memory on the node where the printing process lives
------------------
     ethr =  8.54E-13,  avg # of iterations =  4.9

     negative rho (up, down):  1.979E-01 0.000E+00

     total cpu time spent up to now is      893.6 secs

     End of self-consistent calculation

          k = 0.0000 0.0000 0.0000 ( 52817 PWs)   bands (ev):

   -28.2747 -28.2746 -28.2745 -14.9227 -14.9226 -14.9225 -14.9167 -14.9166
   -14.9164 -14.9046 -14.9046 -14.9044 -14.8642 -14.8641 -14.8640 -14.8190
   -14.8189 -14.8188 -10.3300 -10.3299 -10.3234 -10.3034 -10.3032 -10.2813
   -10.2574 -10.2573 -10.2535  -6.8626  -6.5547  -6.5545  -5.7356  -5.7355
    -5.5996  -5.5155  -5.5154  -5.4317  -5.3722  -5.3720  -5.2495  -0.3508
    -0.3008  -0.3007   1.5933   1.5933   1.6577   2.0209   2.0421   2.0421
     2.3095   2.3113   2.5504   2.5505   2.8728   2.8729   3.1660   3.2291
     3.2292   3.3951   3.3951   3.4953   3.5185   3.5185   3.6922   3.6923
     3.7079   3.7970   3.7971   3.9648   4.1266   4.2029   4.2825   4.2826
     4.5375   4.5376   4.8579   5.1273   5.1807   5.1808   5.2248   5.2319
     5.2320   5.3152   5.3152   5.3267   5.4412   5.4412   5.4769   5.5009
     5.5010   5.6287   5.7271   5.7272   5.7460   5.9985   5.9986   6.1516
     6.2921   6.2922   6.5545   6.7669   6.7669   6.8101   6.9659   7.1824
     7.1824

     occupation numbers 
     1.0000   1.0000   1.0000   1.0000   1.0000   1.0000   1.0000   1.0000
     1.0000   1.0000   1.0000   1.0000   1.0000   1.0000   1.0000   1.0000
     1.0000   1.0000   1.0000   1.0000   1.0000   1.0000   1.0000   1.0000
     1.0000   1.0000   1.0000   1.0000   1.0000   1.0000   1.0000   1.0000
     1.0000   1.0000   1.0000   1.0000   1.0000   1.0000   1.0000   1.0000
     1.0000   1.0000   1.0000   1.0000   1.0000   1.0000   1.0000   1.0000
     1.0000   1.0000   1.0000   1.0000   1.0000   1.0000   1.0000   1.0000
     1.0000   1.0000   1.0000   1.0000   1.0000   1.0000   1.0000   1.0000
     1.0000   1.0000   1.0000   1.0000   1.0000   1.0000   1.0000   1.0000
     1.0000   1.0000   1.0000   1.0000   1.0000   1.0000   1.0000   1.0000
     1.0000   1.0000   1.0000   1.0000   1.0000   1.0000   1.0000   1.0000
     1.0000   1.0000   1.0000   1.0000   1.0000   1.0000   1.0000   1.0000
     1.0000   1.0000   1.0000   1.0000   1.0000   1.0000   1.0000   1.0000
     1.0000

          k = 0.0000-0.0000-0.2032 ( 52864 PWs)   bands (ev):

   -28.2747 -28.2746 -28.2745 -14.9227 -14.9226 -14.9225 -14.9167 -14.9166
   -14.9164 -14.9046 -14.9046 -14.9044 -14.8642 -14.8641 -14.8640 -14.8190
   -14.8189 -14.8188 -10.3318 -10.3258 -10.3257 -10.3124 -10.2873 -10.2872
   -10.2571 -10.2562 -10.2561  -6.7761  -6.7760  -6.3810  -5.8756  -5.6275
    -5.6273  -5.5594  -5.4381  -5.4379  -5.3746  -5.3127  -5.3126  -0.3426
    -0.3424  -0.2697   1.5878   1.5879   1.6726   1.9985   2.0651   2.0653
     2.3356   2.3357   2.5840   2.5840   2.6776   2.7798   3.1882   3.1884
     3.3233   3.3320   3.5024   3.5025   3.5470   3.5918   3.5919   3.6666
     3.7724   3.8805   3.8806   4.0002   4.0003   4.1301   4.2398   4.2399
     4.4823   4.7500   4.7501   5.1433   5.1515   5.1516   5.2176   5.2975
     5.2975   5.3321   5.3322   5.3498   5.3499   5.3499   5.3901   5.5605
     5.5606   5.6183   5.6366   5.8079   5.8080   5.8523   6.2754   6.2754
     6.3550   6.3551   6.3764   6.4939   6.4939   7.0260   7.0260   7.0647
     7.1452

     occupation numbers 
     1.0000   1.0000   1.0000   1.0000   1.0000   1.0000   1.0000   1.0000
     1.0000   1.0000   1.0000   1.0000   1.0000   1.0000   1.0000   1.0000
     1.0000   1.0000   1.0000   1.0000   1.0000   1.0000   1.0000   1.0000
     1.0000   1.0000   1.0000   1.0000   1.0000   1.0000   1.0000   1.0000
     1.0000   1.0000   1.0000   1.0000   1.0000   1.0000   1.0000   1.0000
     1.0000   1.0000   1.0000   1.0000   1.0000   1.0000   1.0000   1.0000
     1.0000   1.0000   1.0000   1.0000   1.0000   1.0000   1.0000   1.0000
     1.0000   1.0000   1.0000   1.0000   1.0000   1.0000   1.0000   1.0000
     1.0000   1.0000   1.0000   1.0000   1.0000   1.0000   1.0000   1.0000
     1.0000   1.0000   1.0000   1.0000   1.0000   1.0000   1.0000   1.0000
     1.0000   1.0000   1.0000   1.0000   1.0000   1.0000   1.0000   1.0000
     1.0000   1.0000   1.0000   1.0000   1.0000   1.0000   1.0000   1.0000
     1.0000   1.0000   1.0000   1.0000   1.0000   1.0000   1.0000   1.0000
     1.0000

          k =-0.0000 0.2882-0.0000 ( 52871 PWs)   bands (ev):

   -28.2747 -28.2746 -28.2744 -14.9225 -14.9224 -14.9223 -14.9166 -14.9165
   -14.9164 -14.9045 -14.9045 -14.9044 -14.8642 -14.8641 -14.8640 -14.8190
   -14.8189 -14.8187 -10.3335 -10.3333 -10.3283 -10.3039 -10.3013 -10.2872
   -10.2654 -10.2612 -10.2572  -6.6994  -6.4365  -6.4314  -5.7428  -5.7203
    -5.6841  -5.6465  -5.5166  -5.5085  -5.4594  -5.4482  -5.2889  -0.5037
    -0.3602  -0.3080   1.4553   1.6396   1.7455   2.0039   2.2476   2.3324
     2.4089   2.5123   2.7764   2.8286   2.8498   2.9523   3.0831   3.1437
     3.1912   3.2815   3.3443   3.4406   3.5078   3.5343   3.5828   3.6450
     3.6995   3.8648   3.9463   3.9977   4.1055   4.1488   4.2741   4.3383
     4.4318   4.5187   4.6780   5.1569   5.1725   5.2226   5.2442   5.2569
     5.2796   5.3261   5.3481   5.3723   5.4645   5.4719   5.5144   5.5396
     5.5881   5.6766   5.7040   5.7347   5.8386   5.9277   6.0285   6.1770
     6.2356   6.2939   6.4085   6.4846   6.6760   6.7281   6.7421   6.8469
     6.9900

     occupation numbers 
     1.0000   1.0000   1.0000   1.0000   1.0000   1.0000   1.0000   1.0000
     1.0000   1.0000   1.0000   1.0000   1.0000   1.0000   1.0000   1.0000
     1.0000   1.0000   1.0000   1.0000   1.0000   1.0000   1.0000   1.0000
     1.0000   1.0000   1.0000   1.0000   1.0000   1.0000   1.0000   1.0000
     1.0000   1.0000   1.0000   1.0000   1.0000   1.0000   1.0000   1.0000
     1.0000   1.0000   1.0000   1.0000   1.0000   1.0000   1.0000   1.0000
     1.0000   1.0000   1.0000   1.0000   1.0000   1.0000   1.0000   1.0000
     1.0000   1.0000   1.0000   1.0000   1.0000   1.0000   1.0000   1.0000
     1.0000   1.0000   1.0000   1.0000   1.0000   1.0000   1.0000   1.0000
     1.0000   1.0000   1.0000   1.0000   1.0000   1.0000   1.0000   1.0000
     1.0000   1.0000   1.0000   1.0000   1.0000   1.0000   1.0000   1.0000
     1.0000   1.0000   1.0000   1.0000   1.0000   1.0000   1.0000   1.0000
     1.0000   1.0000   1.0000   1.0000   1.0000   1.0000   1.0000   1.0000
     1.0000

          k =-0.0000 0.2882-0.2032 ( 52942 PWs)   bands (ev):

   -28.2747 -28.2746 -28.2744 -14.9225 -14.9224 -14.9223 -14.9166 -14.9165
   -14.9164 -14.9045 -14.9045 -14.9044 -14.8642 -14.8641 -14.8640 -14.8190
   -14.8189 -14.8187 -10.3354 -10.3306 -10.3290 -10.3083 -10.2937 -10.2901
   -10.2647 -10.2605 -10.2590  -6.6313  -6.6158  -6.2948  -5.8071  -5.7105
    -5.6829  -5.6349  -5.5275  -5.5029  -5.4825  -5.3653  -5.3271  -0.4955
    -0.3951  -0.2826   1.4455   1.6734   1.7704   1.9670   2.1959   2.3083
     2.4817   2.6127   2.6744   2.7259   2.8867   2.9818   3.0769   3.1116
     3.2118   3.2857   3.3538   3.4714   3.4842   3.5749   3.6185   3.6562
     3.7001   3.8907   3.9458   4.0035   4.0356   4.1126   4.2337   4.3496
     4.4791   4.5140   4.6729   5.1654   5.1746   5.1917   5.2266   5.2651
     5.2744   5.3536   5.3652   5.3869   5.4336   5.4791   5.5201   5.5718
     5.5945   5.6487   5.6901   5.7570   5.8289   5.8584   6.1204   6.1708
     6.2599   6.3067   6.3778   6.4892   6.5185   6.7661   6.8107   6.8875
     6.9394

     occupation numbers 
     1.0000   1.0000   1.0000   1.0000   1.0000   1.0000   1.0000   1.0000
     1.0000   1.0000   1.0000   1.0000   1.0000   1.0000   1.0000   1.0000
     1.0000   1.0000   1.0000   1.0000   1.0000   1.0000   1.0000   1.0000
     1.0000   1.0000   1.0000   1.0000   1.0000   1.0000   1.0000   1.0000
     1.0000   1.0000   1.0000   1.0000   1.0000   1.0000   1.0000   1.0000
     1.0000   1.0000   1.0000   1.0000   1.0000   1.0000   1.0000   1.0000
     1.0000   1.0000   1.0000   1.0000   1.0000   1.0000   1.0000   1.0000
     1.0000   1.0000   1.0000   1.0000   1.0000   1.0000   1.0000   1.0000
     1.0000   1.0000   1.0000   1.0000   1.0000   1.0000   1.0000   1.0000
     1.0000   1.0000   1.0000   1.0000   1.0000   1.0000   1.0000   1.0000
     1.0000   1.0000   1.0000   1.0000   1.0000   1.0000   1.0000   1.0000
     1.0000   1.0000   1.0000   1.0000   1.0000   1.0000   1.0000   1.0000
     1.0000   1.0000   1.0000   1.0000   1.0000   1.0000   1.0000   1.0000
     1.0000

          k = 0.0000-0.5764 0.0000 ( 52946 PWs)   bands (ev):

   -28.2747 -28.2746 -28.2744 -14.9223 -14.9222 -14.9221 -14.9166 -14.9163
   -14.9163 -14.9045 -14.9043 -14.9043 -14.8642 -14.8641 -14.8640 -14.8190
   -14.8188 -14.8187 -10.3375 -10.3356 -10.3347 -10.3080 -10.3004 -10.2915
   -10.2694 -10.2640 -10.2617  -6.4162  -6.2990  -6.2179  -5.9890  -5.8485
    -5.7950  -5.6169  -5.6125  -5.5580  -5.5440  -5.4273  -5.3437  -0.6109
    -0.3881  -0.3150   1.3861   1.7178   1.8075   2.0863   2.2491   2.4057
     2.4621   2.6644   2.7852   2.9262   2.9547   3.0289   3.0469   3.2157
     3.2592   3.3796   3.4291   3.4378   3.4783   3.4967   3.5864   3.6280
     3.6914   3.8273   4.0225   4.0379   4.1270   4.1750   4.2110   4.2464
     4.4261   4.5199   4.6220   5.1580   5.1768   5.2302   5.2545   5.2692
     5.2809   5.3138   5.3398   5.3779   5.4736   5.4796   5.6037   5.6210
     5.6496   5.6617   5.7851   5.8232   5.9057   5.9297   6.0287   6.1532
     6.2648   6.2649   6.3369   6.3658   6.3915   6.5731   6.6397   6.7494
     6.7834

     occupation numbers 
     1.0000   1.0000   1.0000   1.0000   1.0000   1.0000   1.0000   1.0000
     1.0000   1.0000   1.0000   1.0000   1.0000   1.0000   1.0000   1.0000
     1.0000   1.0000   1.0000   1.0000   1.0000   1.0000   1.0000   1.0000
     1.0000   1.0000   1.0000   1.0000   1.0000   1.0000   1.0000   1.0000
     1.0000   1.0000   1.0000   1.0000   1.0000   1.0000   1.0000   1.0000
     1.0000   1.0000   1.0000   1.0000   1.0000   1.0000   1.0000   1.0000
     1.0000   1.0000   1.0000   1.0000   1.0000   1.0000   1.0000   1.0000
     1.0000   1.0000   1.0000   1.0000   1.0000   1.0000   1.0000   1.0000
     1.0000   1.0000   1.0000   1.0000   1.0000   1.0000   1.0000   1.0000
     1.0000   1.0000   1.0000   1.0000   1.0000   1.0000   1.0000   1.0000
     1.0000   1.0000   1.0000   1.0000   1.0000   1.0000   1.0000   1.0000
     1.0000   1.0000   1.0000   1.0000   1.0000   1.0000   1.0000   1.0000
     1.0000   1.0000   1.0000   1.0000   1.0000   1.0000   1.0000   1.0000
     1.0000

          k = 0.0000-0.5764-0.2032 ( 52908 PWs)   bands (ev):

   -28.2747 -28.2746 -28.2744 -14.9223 -14.9222 -14.9221 -14.9166 -14.9163
   -14.9163 -14.9045 -14.9043 -14.9043 -14.8642 -14.8641 -14.8640 -14.8190
   -14.8188 -14.8187 -10.3387 -10.3363 -10.3328 -10.3059 -10.3012 -10.2932
   -10.2687 -10.2649 -10.2610  -6.4051  -6.3057  -6.2337  -5.9918  -5.8290
    -5.7606  -5.6693  -5.6109  -5.5499  -5.5436  -5.4349  -5.3335  -0.6002
    -0.4185  -0.2966   1.4209   1.5964   1.9966   2.0164   2.2924   2.3711
     2.4127   2.6130   2.7922   2.8753   2.9727   3.0862   3.0909   3.2073
     3.2833   3.3870   3.4197   3.4403   3.4469   3.5325   3.5355   3.6610
     3.6694   3.8978   3.9859   4.0692   4.1125   4.1452   4.1532   4.2587
     4.4229   4.5813   4.5940   5.1659   5.1749   5.2325   5.2525   5.2552
     5.2733   5.3349   5.3560   5.3599   5.4324   5.5343   5.5876   5.6216
     5.6584   5.6949   5.7491   5.8172   5.8815   6.0163   6.0651   6.0702
     6.1576   6.2684   6.3461   6.3645   6.4480   6.6479   6.6697   6.7012
     6.7320

     occupation numbers 
     1.0000   1.0000   1.0000   1.0000   1.0000   1.0000   1.0000   1.0000
     1.0000   1.0000   1.0000   1.0000   1.0000   1.0000   1.0000   1.0000
     1.0000   1.0000   1.0000   1.0000   1.0000   1.0000   1.0000   1.0000
     1.0000   1.0000   1.0000   1.0000   1.0000   1.0000   1.0000   1.0000
     1.0000   1.0000   1.0000   1.0000   1.0000   1.0000   1.0000   1.0000
     1.0000   1.0000   1.0000   1.0000   1.0000   1.0000   1.0000   1.0000
     1.0000   1.0000   1.0000   1.0000   1.0000   1.0000   1.0000   1.0000
     1.0000   1.0000   1.0000   1.0000   1.0000   1.0000   1.0000   1.0000
     1.0000   1.0000   1.0000   1.0000   1.0000   1.0000   1.0000   1.0000
     1.0000   1.0000   1.0000   1.0000   1.0000   1.0000   1.0000   1.0000
     1.0000   1.0000   1.0000   1.0000   1.0000   1.0000   1.0000   1.0000
     1.0000   1.0000   1.0000   1.0000   1.0000   1.0000   1.0000   1.0000
     1.0000   1.0000   1.0000   1.0000   1.0000   1.0000   1.0000   1.0000
     1.0000

          k = 0.2496 0.4323-0.0000 ( 52956 PWs)   bands (ev):

   -28.2747 -28.2746 -28.2744 -14.9223 -14.9222 -14.9221 -14.9166 -14.9164
   -14.9162 -14.9045 -14.9044 -14.9042 -14.8642 -14.8641 -14.8640 -14.8190
   -14.8188 -14.8188 -10.3371 -10.3355 -10.3332 -10.3056 -10.3009 -10.2945
   -10.2673 -10.2671 -10.2616  -6.4436  -6.2783  -6.2588  -5.8729  -5.8104
    -5.7403  -5.7381  -5.6323  -5.6033  -5.5101  -5.4392  -5.3468  -0.5522
    -0.4147  -0.3428   1.5637   1.6861   1.8339   2.0160   2.2222   2.3275
     2.5703   2.6569   2.7557   2.8232   2.9123   2.9431   3.0655   3.2044
     3.2917   3.2955   3.3915   3.4431   3.5124   3.5251   3.5908   3.7039
     3.7270   3.7461   3.9632   4.0392   4.1191   4.1793   4.2813   4.3486
     4.4122   4.5241   4.5866   5.1442   5.1600   5.2118   5.2551   5.2842
     5.3044   5.3380   5.3597   5.4443   5.4510   5.5114   5.5387   5.6017
     5.6311   5.7087   5.7834   5.8035   5.8849   5.9516   6.0271   6.1280
     6.2255   6.2938   6.3878   6.3999   6.4911   6.5387   6.7148   6.7844
     6.7858

     occupation numbers 
     1.0000   1.0000   1.0000   1.0000   1.0000   1.0000   1.0000   1.0000
     1.0000   1.0000   1.0000   1.0000   1.0000   1.0000   1.0000   1.0000
     1.0000   1.0000   1.0000   1.0000   1.0000   1.0000   1.0000   1.0000
     1.0000   1.0000   1.0000   1.0000   1.0000   1.0000   1.0000   1.0000
     1.0000   1.0000   1.0000   1.0000   1.0000   1.0000   1.0000   1.0000
     1.0000   1.0000   1.0000   1.0000   1.0000   1.0000   1.0000   1.0000
     1.0000   1.0000   1.0000   1.0000   1.0000   1.0000   1.0000   1.0000
     1.0000   1.0000   1.0000   1.0000   1.0000   1.0000   1.0000   1.0000
     1.0000   1.0000   1.0000   1.0000   1.0000   1.0000   1.0000   1.0000
     1.0000   1.0000   1.0000   1.0000   1.0000   1.0000   1.0000   1.0000
     1.0000   1.0000   1.0000   1.0000   1.0000   1.0000   1.0000   1.0000
     1.0000   1.0000   1.0000   1.0000   1.0000   1.0000   1.0000   1.0000
     1.0000   1.0000   1.0000   1.0000   1.0000   1.0000   1.0000   1.0000
     1.0000

          k = 0.2496 0.4323-0.2032 ( 52926 PWs)   bands (ev):

   -28.2747 -28.2746 -28.2744 -14.9223 -14.9222 -14.9221 -14.9166 -14.9164
   -14.9162 -14.9045 -14.9044 -14.9042 -14.8642 -14.8641 -14.8640 -14.8190
   -14.8188 -14.8188 -10.3380 -10.3361 -10.3317 -10.3044 -10.2997 -10.2969
   -10.2680 -10.2668 -10.2611  -6.4122  -6.3615  -6.2064  -5.8596  -5.8213
    -5.7558  -5.7173  -5.6379  -5.6013  -5.5249  -5.4292  -5.3465  -0.5318
    -0.4573  -0.3208   1.5470   1.7178   1.8494   1.9723   2.2172   2.4429
     2.5379   2.5920   2.6555   2.8098   2.9605   2.9784   3.1394   3.1634
     3.2913   3.3024   3.3766   3.4630   3.4714   3.5491   3.6129   3.6788
     3.7105   3.8575   3.9137   4.0604   4.1045   4.1172   4.2917   4.2999
     4.4508   4.5092   4.6184   5.1546   5.1742   5.2129   5.2309   5.2712
     5.3142   5.3635   5.3708   5.4260   5.4408   5.4770   5.5770   5.6192
     5.6292   5.7456   5.7642   5.7762   5.8631   5.9566   6.0317   6.0940
     6.2087   6.2640   6.3583   6.4527   6.5457   6.5730   6.6340   6.7834
     6.8361

     occupation numbers 
     1.0000   1.0000   1.0000   1.0000   1.0000   1.0000   1.0000   1.0000
     1.0000   1.0000   1.0000   1.0000   1.0000   1.0000   1.0000   1.0000
     1.0000   1.0000   1.0000   1.0000   1.0000   1.0000   1.0000   1.0000
     1.0000   1.0000   1.0000   1.0000   1.0000   1.0000   1.0000   1.0000
     1.0000   1.0000   1.0000   1.0000   1.0000   1.0000   1.0000   1.0000
     1.0000   1.0000   1.0000   1.0000   1.0000   1.0000   1.0000   1.0000
     1.0000   1.0000   1.0000   1.0000   1.0000   1.0000   1.0000   1.0000
     1.0000   1.0000   1.0000   1.0000   1.0000   1.0000   1.0000   1.0000
     1.0000   1.0000   1.0000   1.0000   1.0000   1.0000   1.0000   1.0000
     1.0000   1.0000   1.0000   1.0000   1.0000   1.0000   1.0000   1.0000
     1.0000   1.0000   1.0000   1.0000   1.0000   1.0000   1.0000   1.0000
     1.0000   1.0000   1.0000   1.0000   1.0000   1.0000   1.0000   1.0000
     1.0000   1.0000   1.0000   1.0000   1.0000   1.0000   1.0000   1.0000
     1.0000

     highest occupied level (ev):     7.1824

!    total energy              =   -2269.30076640 Ry
     estimated scf accuracy    <          2.2E-11 Ry

     The total energy is the sum of the following terms:
     one-electron contribution =    -694.08398641 Ry
     hartree contribution      =     504.98989984 Ry
     xc contribution           =    -567.34875243 Ry
     ewald contribution        =    -973.91088852 Ry
     one-center paw contrib.   =    -538.94703889 Ry
      -> PAW hartree energy AE =       0.00000000 Ry
      -> PAW hartree energy PS =       0.00000000 Ry
      -> PAW xc energy AE      =       0.00000000 Ry
      -> PAW xc energy PS      =       0.00000000 Ry
      -> total E_H with PAW    =     504.98989984 Ry
      -> total E_XC with PAW   =    -567.34875243 Ry

     convergence has been achieved in  10 iterations

     negative rho (up, down):  1.979E-01 0.000E+00

     Forces acting on atoms (cartesian axes, Ry/au):

     atom    1 type  4   force =    -0.00012133    0.00021015   -0.00000000
     atom    2 type  4   force =    -0.00012133   -0.00021015   -0.00000000
     atom    3 type  4   force =     0.00024266    0.00000000   -0.00000000
     atom    4 type  1   force =     0.00022366   -0.00041940    0.00021961
     atom    5 type  1   force =     0.00025138    0.00040339    0.00021961
     atom    6 type  1   force =    -0.00047504    0.00001601    0.00021961
     atom    7 type  1   force =    -0.00047504   -0.00001601   -0.00021961
     atom    8 type  1   force =     0.00022366    0.00041940   -0.00021961
     atom    9 type  1   force =     0.00025138   -0.00040339   -0.00021961
     atom   10 type  3   force =     0.00026048   -0.00045116    0.00000000
     atom   11 type  3   force =     0.00026048    0.00045116   -0.00000000
     atom   12 type  3   force =    -0.00052096   -0.00000000    0.00000000
     atom   13 type  2   force =     0.00025194   -0.00003553    0.00003228
     atom   14 type  2   force =    -0.00009520    0.00023595    0.00003228
     atom   15 type  2   force =    -0.00015674   -0.00020042    0.00003228
     atom   16 type  2   force =    -0.00015674    0.00020042   -0.00003228
     atom   17 type  2   force =     0.00025194    0.00003553   -0.00003228
     atom   18 type  2   force =    -0.00009520   -0.00023595   -0.00003228
     atom   19 type  2   force =    -0.00005661    0.00018396   -0.00023234
     atom   20 type  2   force =    -0.00013101   -0.00014100   -0.00023234
     atom   21 type  2   force =     0.00018762   -0.00004296   -0.00023234
     atom   22 type  2   force =     0.00018762    0.00004296    0.00023234
     atom   23 type  2   force =    -0.00005661   -0.00018396    0.00023234
     atom   24 type  2   force =    -0.00013101    0.00014100    0.00023234
     The non-local contrib.  to forces
     atom    1 type  4   force =    -0.00173000    0.00299644    0.00000000
     atom    2 type  4   force =    -0.00173000   -0.00299644   -0.00000000
     atom    3 type  4   force =     0.00345999    0.00000000   -0.00000000
     atom    4 type  1   force =    -0.05118289   -0.00957913   -0.02375372
     atom    5 type  1   force =     0.03388721   -0.03953612   -0.02375372
     atom    6 type  1   force =     0.01729568    0.04911525   -0.02375372
     atom    7 type  1   force =     0.01729568   -0.04911525    0.02375372
     atom    8 type  1   force =    -0.05118289    0.00957912    0.02375372
     atom    9 type  1   force =     0.03388721    0.03953613    0.02375372
     atom   10 type  3   force =    -0.00377079    0.00653120   -0.00000000
     atom   11 type  3   force =    -0.00377079   -0.00653120   -0.00000000
     atom   12 type  3   force =     0.00754158    0.00000000   -0.00000000
     atom   13 type  2   force =    -0.01750940    0.10160171   -0.08019537
     atom   14 type  2   force =    -0.07923495   -0.06596446   -0.08019537
     atom   15 type  2   force =     0.09674435   -0.03563726   -0.08019537
     atom   16 type  2   force =     0.09674435    0.03563728    0.08019537
     atom   17 type  2   force =    -0.01750940   -0.10160172    0.08019537
     atom   18 type  2   force =    -0.07923495    0.06596444    0.08019537
     atom   19 type  2   force =    -0.06794695   -0.07238692    0.00393996
     atom   20 type  2   force =     0.09666237   -0.02265033    0.00393996
     atom   21 type  2   force =    -0.02871542    0.09503725    0.00393996
     atom   22 type  2   force =    -0.02871542   -0.09503725   -0.00393996
     atom   23 type  2   force =    -0.06794695    0.07238691   -0.00393996
     atom   24 type  2   force =     0.09666237    0.02265035   -0.00393996
     The ionic contribution  to forces
     atom    1 type  4   force =    -0.98015618    1.69766244   -0.00006619
     atom    2 type  4   force =    -0.98015186   -1.69767269    0.00001884
     atom    3 type  4   force =     1.96029639   -0.00003507   -0.00009539
     atom    4 type  1   force =    -2.23283027    2.78351049    0.08115717
     atom    5 type  1   force =    -1.29412997   -3.32541661    0.08120822
     atom    6 type  1   force =     3.52701009    0.54200802    0.08111790
     atom    7 type  1   force =     3.52700186   -0.54193606   -0.08109823
     atom    8 type  1   force =    -2.23284046   -2.78346432   -0.08121935
     atom    9 type  1   force =    -1.29411306    3.32549466   -0.08111687
     atom   10 type  3   force =    -1.63994905    2.84045443   -0.00001812
     atom   11 type  3   force =    -1.63997643   -2.84049961    0.00000141
     atom   12 type  3   force =     3.27987929   -0.00001798    0.00004883
     atom   13 type  2   force =    -0.37891416   -2.63106288    0.75741936
     atom   14 type  2   force =     2.46805141    0.98729709    0.75747699
     atom   15 type  2   force =    -2.08904388    1.64369470    0.75738703
     atom   16 type  2   force =    -2.08910815   -1.64367980   -0.75743954
     atom   17 type  2   force =    -0.37899750    2.63104161   -0.75749876
     atom   18 type  2   force =     2.46800395   -0.98731853   -0.75736397
     atom   19 type  2   force =     1.35461984   -1.02554705   -0.23450080
     atom   20 type  2   force =     0.21083949    1.68591335   -0.23450039
     atom   21 type  2   force =    -1.56548709   -0.66040757   -0.23450205
     atom   22 type  2   force =    -1.56543922    0.66035332    0.23452564
     atom   23 type  2   force =     1.35460962    1.02555211    0.23452726
     atom   24 type  2   force =     0.21082534   -1.68592404    0.23453102
     The local contribution  to forces
     atom    1 type  4   force =     0.98163009   -1.70027601   -0.00011436
     atom    2 type  4   force =     0.98162988    1.70027631    0.00011423
     atom    3 type  4   force =    -1.96331397    0.00001330   -0.00033430
     atom    4 type  1   force =     2.27714773   -2.77088168   -0.06010175
     atom    5 type  1   force =     1.26104815    3.35750143   -0.05904215
     atom    6 type  1   force =    -3.53822874   -0.58668102   -0.06112969
     atom    7 type  1   force =    -3.53822915    0.58668178    0.06112895
     atom    8 type  1   force =     2.27714670    2.77088288    0.06010245
     atom    9 type  1   force =     1.26101532   -3.35751905    0.06217743
     atom   10 type  3   force =     1.64366796   -2.84697948   -0.00043117
     atom   11 type  3   force =     1.64366723    2.84698059    0.00043093
     atom   12 type  3   force =    -3.28743962    0.00001212    0.00124404
     atom   13 type  2   force =     0.39582793    2.53487867   -0.68143472
     atom   14 type  2   force =    -2.39314615   -0.92461391   -0.68137878
     atom   15 type  2   force =     1.99732151   -1.61016433   -0.68141962
     atom   16 type  2   force =     1.99732182    1.61016353    0.68141944
     atom   17 type  2   force =     0.39582853   -2.53487898    0.68143506
     atom   18 type  2   force =    -2.39310766    0.92463285    0.68145028
     atom   19 type  2   force =    -1.29028364    1.09429006    0.23057045
     atom   20 type  2   force =    -0.30252510   -1.66453012    0.23068481
     atom   21 type  2   force =     1.59283036    0.57028237    0.23059185
     atom   22 type  2   force =     1.59283032   -0.57028365   -0.23059226
     atom   23 type  2   force =    -1.29028323   -1.09429152   -0.23057086
     atom   24 type  2   force =    -0.30252005    1.66460376   -0.23051976
     The core correction contribution to forces
     atom    1 type  4   force =     0.00007535   -0.00013061    0.00001037
     atom    2 type  4   force =     0.00007535    0.00013061   -0.00001037
     atom    3 type  4   force =    -0.00015080    0.00000001    0.00003114
     atom    4 type  1   force =     0.00709010   -0.00346205    0.00350727
     atom    5 type  1   force =    -0.00054763    0.00787078    0.00365659
     atom    6 type  1   force =    -0.00654306   -0.00440977    0.00336001
     atom    7 type  1   force =    -0.00654306    0.00440978   -0.00336001
     atom    8 type  1   force =     0.00709010    0.00346205   -0.00350727
     atom    9 type  1   force =    -0.00054673   -0.00787111   -0.00321118
     atom   10 type  3   force =     0.00033102   -0.00057363   -0.00004115
     atom   11 type  3   force =     0.00033102    0.00057363    0.00004115
     atom   12 type  3   force =    -0.00066249    0.00000008    0.00012160
     atom   13 type  2   force =     0.00091152   -0.00543511    0.00421555
     atom   14 type  2   force =     0.00425305    0.00350753    0.00421425
     atom   15 type  2   force =    -0.00516332    0.00192970    0.00422401
     atom   16 type  2   force =    -0.00516332   -0.00192970   -0.00422401
     atom   17 type  2   force =     0.00091152    0.00543511   -0.00421555
     atom   18 type  2   force =     0.00425274   -0.00350679   -0.00422712
     atom   19 type  2   force =     0.00355419    0.00383116   -0.00025030
     atom   20 type  2   force =    -0.00509525    0.00116193   -0.00025204
     atom   21 type  2   force =     0.00154079   -0.00499371   -0.00024420
     atom   22 type  2   force =     0.00154079    0.00499371    0.00024420
     atom   23 type  2   force =     0.00355419   -0.00383117    0.00025030
     atom   24 type  2   force =    -0.00509535   -0.00116234    0.00023798
     The Hubbard contrib.    to forces
     atom    1 type  4   force =     0.00000000    0.00000000    0.00000000
     atom    2 type  4   force =     0.00000000    0.00000000    0.00000000
     atom    3 type  4   force =     0.00000000    0.00000000    0.00000000
     atom    4 type  1   force =     0.00000000    0.00000000    0.00000000
     atom    5 type  1   force =     0.00000000    0.00000000    0.00000000
     atom    6 type  1   force =     0.00000000    0.00000000    0.00000000
     atom    7 type  1   force =     0.00000000    0.00000000    0.00000000
     atom    8 type  1   force =     0.00000000    0.00000000    0.00000000
     atom    9 type  1   force =     0.00000000    0.00000000    0.00000000
     atom   10 type  3   force =     0.00000000    0.00000000    0.00000000
     atom   11 type  3   force =     0.00000000    0.00000000    0.00000000
     atom   12 type  3   force =     0.00000000    0.00000000    0.00000000
     atom   13 type  2   force =     0.00000000    0.00000000    0.00000000
     atom   14 type  2   force =     0.00000000    0.00000000    0.00000000
     atom   15 type  2   force =     0.00000000    0.00000000    0.00000000
     atom   16 type  2   force =     0.00000000    0.00000000    0.00000000
     atom   17 type  2   force =     0.00000000    0.00000000    0.00000000
     atom   18 type  2   force =     0.00000000    0.00000000    0.00000000
     atom   19 type  2   force =     0.00000000    0.00000000    0.00000000
     atom   20 type  2   force =     0.00000000    0.00000000    0.00000000
     atom   21 type  2   force =     0.00000000    0.00000000    0.00000000
     atom   22 type  2   force =     0.00000000    0.00000000    0.00000000
     atom   23 type  2   force =     0.00000000    0.00000000    0.00000000
     atom   24 type  2   force =     0.00000000    0.00000000    0.00000000
     The SCF correction term to forces
     atom    1 type  4   force =     0.00003131   -0.00005424   -0.00000000
     atom    2 type  4   force =     0.00003131    0.00005424    0.00000000
     atom    3 type  4   force =    -0.00006262    0.00000000   -0.00000000
     atom    4 type  1   force =     0.00000041   -0.00000177    0.00000039
     atom    5 type  1   force =     0.00000133    0.00000124    0.00000039
     atom    6 type  1   force =    -0.00000174    0.00000053    0.00000039
     atom    7 type  1   force =    -0.00000174   -0.00000053   -0.00000039
     atom    8 type  1   force =     0.00000041    0.00000177   -0.00000039
     atom    9 type  1   force =     0.00000133   -0.00000124   -0.00000039
     atom   10 type  3   force =    -0.00005470    0.00009474   -0.00000001
     atom   11 type  3   force =    -0.00005470   -0.00009474    0.00000001
     atom   12 type  3   force =     0.00010940   -0.00000000    0.00000000
     atom   13 type  2   force =    -0.00000075    0.00000046   -0.00000039
     atom   14 type  2   force =    -0.00000002   -0.00000088   -0.00000039
     atom   15 type  2   force =     0.00000077    0.00000042   -0.00000039
     atom   16 type  2   force =     0.00000077   -0.00000042    0.00000039
     atom   17 type  2   force =    -0.00000075   -0.00000046    0.00000039
     atom   18 type  2   force =    -0.00000002    0.00000088    0.00000039
     atom   19 type  2   force =    -0.00000071   -0.00000070    0.00000040
     atom   20 type  2   force =     0.00000096   -0.00000026    0.00000040
     atom   21 type  2   force =    -0.00000025    0.00000097    0.00000040
     atom   22 type  2   force =    -0.00000025   -0.00000097   -0.00000040
     atom   23 type  2   force =    -0.00000071    0.00000070   -0.00000040
     atom   24 type  2   force =     0.00000096    0.00000026   -0.00000040

     Total force =     0.001891     Total SCF correction =     0.000218
     SCF correction compared to forces is large: reduce conv_thr to get better values


     Computing stress (Cartesian axis) and pressure


     negative rho (up, down):  1.979E-01 0.000E+00
          total   stress  (Ry/bohr**3)                   (kbar)     P=       -0.15
  -0.00000063  -0.00000000  -0.00000000           -0.09       -0.00       -0.00
  -0.00000000  -0.00000063   0.00000000           -0.00       -0.09        0.00
   0.00000000  -0.00000000  -0.00000177            0.00       -0.00       -0.26

     kinetic stress (kbar)   8973.08      0.00     -0.00
                                0.00   8973.09      0.00
                               -0.00      0.00   8995.03

     local   stress (kbar)  -2574.47      0.01     -0.01
                                0.01  -2574.45      0.01
                               -0.01      0.01  -3058.35

     nonloc. stress (kbar)   4082.36      0.00     -0.00
                                0.00   4082.37     -0.00
                               -0.00      0.00   4081.35

     hartree stress (kbar)   6648.87     -0.00     -0.00
                               -0.00   6648.87      0.00
                               -0.00      0.00   6846.49

     exc-cor stress (kbar)   8518.44     -0.00      0.00
                               -0.00   8518.44     -0.00
                                0.00     -0.00   8518.89

     corecor stress (kbar) -12609.91      0.00     -0.00
                                0.00 -12609.91     -0.00
                               -0.00     -0.00 -12611.00

     ewald   stress (kbar) -13038.49     -0.01      0.01
                               -0.01 -13038.49     -0.01
                                0.01     -0.01 -12772.66

     hubbard stress (kbar)      0.00      0.00      0.00
                                0.00      0.00      0.00
                                0.00      0.00      0.00

     DFT-D   stress (kbar)      0.00      0.00      0.00
                                0.00      0.00      0.00
                                0.00      0.00      0.00

     XDM     stress (kbar)      0.00      0.00      0.00
                                0.00      0.00      0.00
                                0.00      0.00      0.00

     dft-nl  stress (kbar)      0.00      0.00      0.00
                                0.00      0.00      0.00
                                0.00      0.00      0.00

     TS-vdW  stress (kbar)      0.00      0.00      0.00
                                0.00      0.00      0.00
                                0.00      0.00      0.00

     MDB     stress (kbar)      0.00      0.00      0.00
                                0.00      0.00      0.00
                                0.00      0.00      0.00

     3D-RISM stress (kbar)      0.00      0.00      0.00
                                0.00      0.00      0.00
                                0.00      0.00      0.00

     Energy error            =      2.8E-05 Ry
     Gradient error          =      5.2E-04 Ry/Bohr
     Cell gradient error     =      2.6E-01 kbar

     number of scf cycles    =   4
     number of bfgs steps    =   3

     enthalpy           old  =   -2269.3007387928 Ry
     enthalpy           new  =   -2269.3007664012 Ry

     CASE: enthalpy          _new < enthalpy          _old

     new trust radius        =       0.0007196685 bohr
     new conv_thr            =            1.0E-10 Ry

     new unit-cell volume =   3688.01150 a.u.^3 (   546.50692 Ang^3 )
     density =      4.20841 g/cm^3

CELL_PARAMETERS (angstrom)
   6.357342664   0.000000001   0.000000000
  -3.178671832   5.505619144  -0.000000000
  -0.000000000   0.000000000  15.613989379

ATOMIC_POSITIONS (crystal)
Sr               0.0000000000        0.5623012881        0.1666670000
Sr               0.4376987119        0.4376987119        0.5000000000
Sr               0.5623012880        0.0000000000        0.8333340000
Cu               0.0725557993        0.6358273845        0.4121850921
Cu               0.3641726154        0.4367284149        0.7455180921
Cu               0.5632715853        0.9274442006        0.0788520921
Cu               0.6358273846        0.0725557993        0.5878149079
Cu               0.4367284148        0.3641726155        0.2544819079
Cu               0.9274442006        0.5632715852        0.9211479079
Sn               0.0000000000        0.7050315662        0.6666670000
Sn               0.2949684338        0.2949684338       -0.0000000000
Sn               0.7050315661        0.0000000000        0.3333330000
S                0.0452117669        0.4857051442        0.7875347159
S                0.5142948558        0.5595066229        0.1208677159
S                0.4404933773        0.9547882329        0.4542017159
S                0.4857051443        0.0452117670        0.2124652841
S                0.5595066228        0.5142948559        0.8791322841
S                0.9547882329        0.4404933771        0.5457982841
S                0.1176017746        0.3538033700        0.3286503156
S                0.6461966302        0.7637984047        0.6619833156
S                0.2362015952        0.8823982253        0.9953173156
S                0.3538033699        0.1176017747        0.6713496844
S                0.7637984046        0.6461966301        0.3380166844
S                0.8823982255        0.2362015952        0.0046826844



     Writing config-only to output data dir ./tmp/relax/SrCu2SnS4_relax.save/ :
     XML data file
     NEW-OLD atomic charge density approx. for the potential
     New effective cutoffs (rho, wfc):  717.88   89.73

     negative rho (up, down):  1.979E-01 0.000E+00

     total cpu time spent up to now is      914.6 secs

     Self-consistent Calculation

     iteration #  1     ecut=    90.00 Ry     beta= 0.30
     Davidson diagonalization with overlap

---- Real-time Memory Report at c_bands before calling an iterative solver
             0 MiB given to the printing process from OS
             0 MiB allocation reported by mallinfo(arena+hblkhd)
             0 MiB available memory on the node where the printing process lives
------------------
     ethr =  1.00E-06,  avg # of iterations =  2.0

     Threshold (ethr) on eigenvalues was too large:
     Diagonalizing with lowered threshold

     Davidson diagonalization with overlap

---- Real-time Memory Report at c_bands before calling an iterative solver
             0 MiB given to the printing process from OS
             0 MiB allocation reported by mallinfo(arena+hblkhd)
             0 MiB available memory on the node where the printing process lives
------------------
     ethr =  2.94E-10,  avg # of iterations =  8.1

     negative rho (up, down):  1.979E-01 0.000E+00

     total cpu time spent up to now is      962.8 secs

     total energy              =   -2269.30077014 Ry
     estimated scf accuracy    <       0.00000022 Ry

     iteration #  2     ecut=    90.00 Ry     beta= 0.30
     Davidson diagonalization with overlap

---- Real-time Memory Report at c_bands before calling an iterative solver
             0 MiB given to the printing process from OS
             0 MiB allocation reported by mallinfo(arena+hblkhd)
             0 MiB available memory on the node where the printing process lives
------------------
     ethr =  1.06E-10,  avg # of iterations =  2.0

     negative rho (up, down):  1.979E-01 0.000E+00

     total cpu time spent up to now is      977.7 secs

     total energy              =   -2269.30077051 Ry
     estimated scf accuracy    <       0.00000006 Ry

     iteration #  3     ecut=    90.00 Ry     beta= 0.30
     Davidson diagonalization with overlap

---- Real-time Memory Report at c_bands before calling an iterative solver
             0 MiB given to the printing process from OS
             0 MiB allocation reported by mallinfo(arena+hblkhd)
             0 MiB available memory on the node where the printing process lives
------------------
     ethr =  2.85E-11,  avg # of iterations =  3.2

     negative rho (up, down):  1.979E-01 0.000E+00

     total cpu time spent up to now is      993.3 secs

     total energy              =   -2269.30077068 Ry
     estimated scf accuracy    <       0.00000002 Ry

     iteration #  4     ecut=    90.00 Ry     beta= 0.30
     Davidson diagonalization with overlap

---- Real-time Memory Report at c_bands before calling an iterative solver
             0 MiB given to the printing process from OS
             0 MiB allocation reported by mallinfo(arena+hblkhd)
             0 MiB available memory on the node where the printing process lives
------------------
     ethr =  7.95E-12,  avg # of iterations =  4.5

     negative rho (up, down):  1.979E-01 0.000E+00

     total cpu time spent up to now is     1009.5 secs

     total energy              =   -2269.30077076 Ry
     estimated scf accuracy    <          5.2E-09 Ry

     iteration #  5     ecut=    90.00 Ry     beta= 0.30
     Davidson diagonalization with overlap

---- Real-time Memory Report at c_bands before calling an iterative solver
             0 MiB given to the printing process from OS
             0 MiB allocation reported by mallinfo(arena+hblkhd)
             0 MiB available memory on the node where the printing process lives
------------------
     ethr =  2.46E-12,  avg # of iterations =  4.1

     negative rho (up, down):  1.979E-01 0.000E+00

     total cpu time spent up to now is     1027.9 secs

     total energy              =   -2269.30077080 Ry
     estimated scf accuracy    <          4.7E-09 Ry

     iteration #  6     ecut=    90.00 Ry     beta= 0.30
     Davidson diagonalization with overlap

---- Real-time Memory Report at c_bands before calling an iterative solver
             0 MiB given to the printing process from OS
             0 MiB allocation reported by mallinfo(arena+hblkhd)
             0 MiB available memory on the node where the printing process lives
------------------
     ethr =  2.22E-12,  avg # of iterations =  4.5

     negative rho (up, down):  1.979E-01 0.000E+00

     total cpu time spent up to now is     1043.7 secs

     total energy              =   -2269.30077082 Ry
     estimated scf accuracy    <          5.2E-10 Ry

     iteration #  7     ecut=    90.00 Ry     beta= 0.30
     Davidson diagonalization with overlap

---- Real-time Memory Report at c_bands before calling an iterative solver
             0 MiB given to the printing process from OS
             0 MiB allocation reported by mallinfo(arena+hblkhd)
             0 MiB available memory on the node where the printing process lives
------------------
     ethr =  2.50E-13,  avg # of iterations =  4.9

     negative rho (up, down):  1.979E-01 0.000E+00

     total cpu time spent up to now is     1062.1 secs

     total energy              =   -2269.30077083 Ry
     estimated scf accuracy    <          5.7E-10 Ry

     iteration #  8     ecut=    90.00 Ry     beta= 0.30
     Davidson diagonalization with overlap

---- Real-time Memory Report at c_bands before calling an iterative solver
             0 MiB given to the printing process from OS
             0 MiB allocation reported by mallinfo(arena+hblkhd)
             0 MiB available memory on the node where the printing process lives
------------------
     ethr =  2.50E-13,  avg # of iterations =  2.1

     negative rho (up, down):  1.979E-01 0.000E+00

     total cpu time spent up to now is     1076.7 secs

     End of self-consistent calculation

          k = 0.0000 0.0000 0.0000 ( 52817 PWs)   bands (ev):

   -28.2755 -28.2754 -28.2753 -14.9234 -14.9233 -14.9232 -14.9173 -14.9173
   -14.9171 -14.9053 -14.9052 -14.9051 -14.8650 -14.8649 -14.8648 -14.8197
   -14.8197 -14.8195 -10.3308 -10.3307 -10.3242 -10.3041 -10.3040 -10.2821
   -10.2582 -10.2581 -10.2543  -6.8628  -6.5547  -6.5545  -5.7364  -5.7364
    -5.6002  -5.5164  -5.5163  -5.4320  -5.3725  -5.3723  -5.2505  -0.3509
    -0.3012  -0.3011   1.5927   1.5928   1.6569   2.0202   2.0414   2.0414
     2.3088   2.3109   2.5499   2.5499   2.8721   2.8722   3.1654   3.2283
     3.2283   3.3938   3.3939   3.4941   3.5176   3.5177   3.6913   3.6914
     3.7067   3.7959   3.7960   3.9635   4.1255   4.2018   4.2817   4.2818
     4.5365   4.5366   4.8571   5.1261   5.1795   5.1796   5.2234   5.2307
     5.2307   5.3138   5.3138   5.3255   5.4400   5.4400   5.4757   5.4999
     5.4999   5.6276   5.7261   5.7262   5.7451   5.9973   5.9973   6.1505
     6.2911   6.2912   6.5535   6.7661   6.7661   6.8093   6.9652   7.1815
     7.1816

     occupation numbers 
     1.0000   1.0000   1.0000   1.0000   1.0000   1.0000   1.0000   1.0000
     1.0000   1.0000   1.0000   1.0000   1.0000   1.0000   1.0000   1.0000
     1.0000   1.0000   1.0000   1.0000   1.0000   1.0000   1.0000   1.0000
     1.0000   1.0000   1.0000   1.0000   1.0000   1.0000   1.0000   1.0000
     1.0000   1.0000   1.0000   1.0000   1.0000   1.0000   1.0000   1.0000
     1.0000   1.0000   1.0000   1.0000   1.0000   1.0000   1.0000   1.0000
     1.0000   1.0000   1.0000   1.0000   1.0000   1.0000   1.0000   1.0000
     1.0000   1.0000   1.0000   1.0000   1.0000   1.0000   1.0000   1.0000
     1.0000   1.0000   1.0000   1.0000   1.0000   1.0000   1.0000   1.0000
     1.0000   1.0000   1.0000   1.0000   1.0000   1.0000   1.0000   1.0000
     1.0000   1.0000   1.0000   1.0000   1.0000   1.0000   1.0000   1.0000
     1.0000   1.0000   1.0000   1.0000   1.0000   1.0000   1.0000   1.0000
     1.0000   1.0000   1.0000   1.0000   1.0000   1.0000   1.0000   1.0000
     1.0000

          k = 0.0000-0.0000-0.2032 ( 52864 PWs)   bands (ev):

   -28.2755 -28.2754 -28.2753 -14.9234 -14.9233 -14.9232 -14.9174 -14.9172
   -14.9171 -14.9053 -14.9052 -14.9051 -14.8650 -14.8649 -14.8648 -14.8197
   -14.8197 -14.8195 -10.3325 -10.3266 -10.3265 -10.3131 -10.2881 -10.2880
   -10.2579 -10.2570 -10.2569  -6.7763  -6.7761  -6.3807  -5.8767  -5.6281
    -5.6279  -5.5603  -5.4386  -5.4384  -5.3748  -5.3135  -5.3133  -0.3429
    -0.3427  -0.2701   1.5871   1.5872   1.6722   1.9976   2.0645   2.0646
     2.3351   2.3351   2.5833   2.5834   2.6770   2.7791   3.1876   3.1877
     3.3221   3.3310   3.5011   3.5012   3.5462   3.5906   3.5907   3.6659
     3.7715   3.8793   3.8794   3.9993   3.9994   4.1295   4.2387   4.2388
     4.4811   4.7492   4.7493   5.1420   5.1503   5.1503   5.2163   5.2962
     5.2962   5.3309   5.3309   5.3486   5.3486   5.3487   5.3888   5.5594
     5.5595   5.6172   5.6356   5.8070   5.8070   5.8509   6.2743   6.2744
     6.3540   6.3541   6.3754   6.4930   6.4930   7.0252   7.0252   7.0639
     7.1443

     occupation numbers 
     1.0000   1.0000   1.0000   1.0000   1.0000   1.0000   1.0000   1.0000
     1.0000   1.0000   1.0000   1.0000   1.0000   1.0000   1.0000   1.0000
     1.0000   1.0000   1.0000   1.0000   1.0000   1.0000   1.0000   1.0000
     1.0000   1.0000   1.0000   1.0000   1.0000   1.0000   1.0000   1.0000
     1.0000   1.0000   1.0000   1.0000   1.0000   1.0000   1.0000   1.0000
     1.0000   1.0000   1.0000   1.0000   1.0000   1.0000   1.0000   1.0000
     1.0000   1.0000   1.0000   1.0000   1.0000   1.0000   1.0000   1.0000
     1.0000   1.0000   1.0000   1.0000   1.0000   1.0000   1.0000   1.0000
     1.0000   1.0000   1.0000   1.0000   1.0000   1.0000   1.0000   1.0000
     1.0000   1.0000   1.0000   1.0000   1.0000   1.0000   1.0000   1.0000
     1.0000   1.0000   1.0000   1.0000   1.0000   1.0000   1.0000   1.0000
     1.0000   1.0000   1.0000   1.0000   1.0000   1.0000   1.0000   1.0000
     1.0000   1.0000   1.0000   1.0000   1.0000   1.0000   1.0000   1.0000
     1.0000

          k =-0.0000 0.2882-0.0000 ( 52871 PWs)   bands (ev):

   -28.2755 -28.2754 -28.2752 -14.9232 -14.9231 -14.9230 -14.9172 -14.9171
   -14.9170 -14.9052 -14.9052 -14.9051 -14.8650 -14.8649 -14.8648 -14.8198
   -14.8196 -14.8195 -10.3343 -10.3341 -10.3291 -10.3047 -10.3020 -10.2880
   -10.2662 -10.2621 -10.2580  -6.6996  -6.4365  -6.4314  -5.7435  -5.7210
    -5.6848  -5.6473  -5.5172  -5.5088  -5.4598  -5.4489  -5.2899  -0.5042
    -0.3607  -0.3084   1.4548   1.6389   1.7448   2.0034   2.2469   2.3319
     2.4084   2.5117   2.7759   2.8280   2.8492   2.9514   3.0823   3.1426
     3.1905   3.2805   3.3433   3.4397   3.5067   3.5332   3.5819   3.6440
     3.6984   3.8637   3.9453   3.9967   4.1045   4.1477   4.2733   4.3374
     4.4308   4.5177   4.6773   5.1557   5.1712   5.2213   5.2429   5.2556
     5.2783   5.3248   5.3468   5.3710   5.4634   5.4708   5.5133   5.5385
     5.5871   5.6756   5.7030   5.7337   5.8377   5.9266   6.0275   6.1759
     6.2344   6.2930   6.4072   6.4838   6.6751   6.7271   6.7413   6.8462
     6.9892

     occupation numbers 
     1.0000   1.0000   1.0000   1.0000   1.0000   1.0000   1.0000   1.0000
     1.0000   1.0000   1.0000   1.0000   1.0000   1.0000   1.0000   1.0000
     1.0000   1.0000   1.0000   1.0000   1.0000   1.0000   1.0000   1.0000
     1.0000   1.0000   1.0000   1.0000   1.0000   1.0000   1.0000   1.0000
     1.0000   1.0000   1.0000   1.0000   1.0000   1.0000   1.0000   1.0000
     1.0000   1.0000   1.0000   1.0000   1.0000   1.0000   1.0000   1.0000
     1.0000   1.0000   1.0000   1.0000   1.0000   1.0000   1.0000   1.0000
     1.0000   1.0000   1.0000   1.0000   1.0000   1.0000   1.0000   1.0000
     1.0000   1.0000   1.0000   1.0000   1.0000   1.0000   1.0000   1.0000
     1.0000   1.0000   1.0000   1.0000   1.0000   1.0000   1.0000   1.0000
     1.0000   1.0000   1.0000   1.0000   1.0000   1.0000   1.0000   1.0000
     1.0000   1.0000   1.0000   1.0000   1.0000   1.0000   1.0000   1.0000
     1.0000   1.0000   1.0000   1.0000   1.0000   1.0000   1.0000   1.0000
     1.0000

          k =-0.0000 0.2882-0.2032 ( 52942 PWs)   bands (ev):

   -28.2755 -28.2754 -28.2752 -14.9232 -14.9231 -14.9230 -14.9173 -14.9171
   -14.9170 -14.9052 -14.9052 -14.9051 -14.8650 -14.8649 -14.8648 -14.8198
   -14.8196 -14.8195 -10.3362 -10.3313 -10.3298 -10.3091 -10.2945 -10.2909
   -10.2655 -10.2613 -10.2598  -6.6314  -6.6159  -6.2946  -5.8082  -5.7111
    -5.6835  -5.6356  -5.5278  -5.5033  -5.4828  -5.3662  -5.3281  -0.4960
    -0.3956  -0.2831   1.4450   1.6728   1.7697   1.9663   2.1954   2.3077
     2.4813   2.6121   2.6738   2.7252   2.8861   2.9810   3.0761   3.1105
     3.2110   3.2846   3.3529   3.4702   3.4830   3.5740   3.6176   3.6550
     3.6993   3.8897   3.9448   4.0024   4.0347   4.1118   4.2326   4.3488
     4.4781   4.5130   4.6722   5.1641   5.1733   5.1905   5.2254   5.2638
     5.2731   5.3524   5.3640   5.3857   5.4324   5.4779   5.5190   5.5708
     5.5934   5.6476   5.6889   5.7559   5.8279   5.8572   6.1193   6.1698
     6.2588   6.3057   6.3768   6.4883   6.5175   6.7654   6.8098   6.8867
     6.9385

     occupation numbers 
     1.0000   1.0000   1.0000   1.0000   1.0000   1.0000   1.0000   1.0000
     1.0000   1.0000   1.0000   1.0000   1.0000   1.0000   1.0000   1.0000
     1.0000   1.0000   1.0000   1.0000   1.0000   1.0000   1.0000   1.0000
     1.0000   1.0000   1.0000   1.0000   1.0000   1.0000   1.0000   1.0000
     1.0000   1.0000   1.0000   1.0000   1.0000   1.0000   1.0000   1.0000
     1.0000   1.0000   1.0000   1.0000   1.0000   1.0000   1.0000   1.0000
     1.0000   1.0000   1.0000   1.0000   1.0000   1.0000   1.0000   1.0000
     1.0000   1.0000   1.0000   1.0000   1.0000   1.0000   1.0000   1.0000
     1.0000   1.0000   1.0000   1.0000   1.0000   1.0000   1.0000   1.0000
     1.0000   1.0000   1.0000   1.0000   1.0000   1.0000   1.0000   1.0000
     1.0000   1.0000   1.0000   1.0000   1.0000   1.0000   1.0000   1.0000
     1.0000   1.0000   1.0000   1.0000   1.0000   1.0000   1.0000   1.0000
     1.0000   1.0000   1.0000   1.0000   1.0000   1.0000   1.0000   1.0000
     1.0000

          k = 0.0000-0.5764 0.0000 ( 52946 PWs)   bands (ev):

   -28.2755 -28.2754 -28.2752 -14.9230 -14.9229 -14.9228 -14.9172 -14.9170
   -14.9169 -14.9051 -14.9050 -14.9050 -14.8650 -14.8649 -14.8648 -14.8198
   -14.8196 -14.8195 -10.3382 -10.3364 -10.3355 -10.3088 -10.3012 -10.2923
   -10.2702 -10.2648 -10.2624  -6.4164  -6.2990  -6.2179  -5.9894  -5.8489
    -5.7956  -5.6179  -5.6129  -5.5584  -5.5444  -5.4282  -5.3447  -0.6115
    -0.3888  -0.3155   1.3856   1.7175   1.8066   2.0856   2.2484   2.4050
     2.4615   2.6637   2.7846   2.9255   2.9541   3.0281   3.0465   3.2151
     3.2582   3.3786   3.4279   3.4368   3.4771   3.4957   3.5856   3.6275
     3.6906   3.8263   4.0215   4.0367   4.1259   4.1741   4.2102   4.2451
     4.4253   4.5191   4.6213   5.1567   5.1755   5.2288   5.2532   5.2680
     5.2797   5.3125   5.3386   5.3767   5.4725   5.4784   5.6026   5.6199
     5.6484   5.6607   5.7840   5.8222   5.9047   5.9287   6.0277   6.1522
     6.2639   6.2639   6.3359   6.3646   6.3904   6.5723   6.6388   6.7485
     6.7826

     occupation numbers 
     1.0000   1.0000   1.0000   1.0000   1.0000   1.0000   1.0000   1.0000
     1.0000   1.0000   1.0000   1.0000   1.0000   1.0000   1.0000   1.0000
     1.0000   1.0000   1.0000   1.0000   1.0000   1.0000   1.0000   1.0000
     1.0000   1.0000   1.0000   1.0000   1.0000   1.0000   1.0000   1.0000
     1.0000   1.0000   1.0000   1.0000   1.0000   1.0000   1.0000   1.0000
     1.0000   1.0000   1.0000   1.0000   1.0000   1.0000   1.0000   1.0000
     1.0000   1.0000   1.0000   1.0000   1.0000   1.0000   1.0000   1.0000
     1.0000   1.0000   1.0000   1.0000   1.0000   1.0000   1.0000   1.0000
     1.0000   1.0000   1.0000   1.0000   1.0000   1.0000   1.0000   1.0000
     1.0000   1.0000   1.0000   1.0000   1.0000   1.0000   1.0000   1.0000
     1.0000   1.0000   1.0000   1.0000   1.0000   1.0000   1.0000   1.0000
     1.0000   1.0000   1.0000   1.0000   1.0000   1.0000   1.0000   1.0000
     1.0000   1.0000   1.0000   1.0000   1.0000   1.0000   1.0000   1.0000
     1.0000

          k = 0.0000-0.5764-0.2032 ( 52908 PWs)   bands (ev):

   -28.2755 -28.2754 -28.2752 -14.9230 -14.9229 -14.9228 -14.9172 -14.9170
   -14.9169 -14.9051 -14.9050 -14.9050 -14.8650 -14.8649 -14.8648 -14.8198
   -14.8196 -14.8195 -10.3395 -10.3371 -10.3336 -10.3067 -10.3020 -10.2940
   -10.2694 -10.2658 -10.2618  -6.4053  -6.3057  -6.2338  -5.9921  -5.8292
    -5.7613  -5.6704  -5.6113  -5.5503  -5.5440  -5.4358  -5.3345  -0.6008
    -0.4192  -0.2971   1.4204   1.5959   1.9959   2.0156   2.2915   2.3705
     2.4121   2.6124   2.7916   2.8747   2.9719   3.0857   3.0903   3.2067
     3.2824   3.3859   3.4187   3.4393   3.4458   3.5313   3.5347   3.6603
     3.6688   3.8967   3.9850   4.0681   4.1116   4.1441   4.1521   4.2576
     4.4221   4.5808   4.5929   5.1646   5.1736   5.2312   5.2512   5.2539
     5.2720   5.3337   5.3549   5.3587   5.4312   5.5330   5.5864   5.6205
     5.6575   5.6939   5.7480   5.8162   5.8806   6.0154   6.0641   6.0691
     6.1564   6.2675   6.3451   6.3633   6.4471   6.6469   6.6688   6.7003
     6.7311

     occupation numbers 
     1.0000   1.0000   1.0000   1.0000   1.0000   1.0000   1.0000   1.0000
     1.0000   1.0000   1.0000   1.0000   1.0000   1.0000   1.0000   1.0000
     1.0000   1.0000   1.0000   1.0000   1.0000   1.0000   1.0000   1.0000
     1.0000   1.0000   1.0000   1.0000   1.0000   1.0000   1.0000   1.0000
     1.0000   1.0000   1.0000   1.0000   1.0000   1.0000   1.0000   1.0000
     1.0000   1.0000   1.0000   1.0000   1.0000   1.0000   1.0000   1.0000
     1.0000   1.0000   1.0000   1.0000   1.0000   1.0000   1.0000   1.0000
     1.0000   1.0000   1.0000   1.0000   1.0000   1.0000   1.0000   1.0000
     1.0000   1.0000   1.0000   1.0000   1.0000   1.0000   1.0000   1.0000
     1.0000   1.0000   1.0000   1.0000   1.0000   1.0000   1.0000   1.0000
     1.0000   1.0000   1.0000   1.0000   1.0000   1.0000   1.0000   1.0000
     1.0000   1.0000   1.0000   1.0000   1.0000   1.0000   1.0000   1.0000
     1.0000   1.0000   1.0000   1.0000   1.0000   1.0000   1.0000   1.0000
     1.0000

          k = 0.2496 0.4323-0.0000 ( 52956 PWs)   bands (ev):

   -28.2755 -28.2754 -28.2752 -14.9230 -14.9229 -14.9227 -14.9172 -14.9170
   -14.9169 -14.9051 -14.9051 -14.9049 -14.8650 -14.8649 -14.8648 -14.8197
   -14.8196 -14.8195 -10.3378 -10.3363 -10.3340 -10.3063 -10.3017 -10.2953
   -10.2681 -10.2679 -10.2624  -6.4438  -6.2783  -6.2587  -5.8735  -5.8107
    -5.7408  -5.7387  -5.6328  -5.6038  -5.5107  -5.4401  -5.3478  -0.5528
    -0.4153  -0.3434   1.5632   1.6854   1.8332   2.0153   2.2218   2.3269
     2.5697   2.6564   2.7551   2.8225   2.9116   2.9427   3.0647   3.2035
     3.2905   3.2946   3.3906   3.4420   3.5113   3.5240   3.5901   3.7031
     3.7259   3.7451   3.9622   4.0382   4.1182   4.1781   4.2805   4.3475
     4.4114   4.5230   4.5859   5.1429   5.1587   5.2105   5.2539   5.2829
     5.3032   5.3368   5.3584   5.4431   5.4498   5.5103   5.5375   5.6006
     5.6300   5.7076   5.7824   5.8025   5.8839   5.9507   6.0260   6.1271
     6.2244   6.2929   6.3869   6.3987   6.4902   6.5378   6.7138   6.7834
     6.7849

     occupation numbers 
     1.0000   1.0000   1.0000   1.0000   1.0000   1.0000   1.0000   1.0000
     1.0000   1.0000   1.0000   1.0000   1.0000   1.0000   1.0000   1.0000
     1.0000   1.0000   1.0000   1.0000   1.0000   1.0000   1.0000   1.0000
     1.0000   1.0000   1.0000   1.0000   1.0000   1.0000   1.0000   1.0000
     1.0000   1.0000   1.0000   1.0000   1.0000   1.0000   1.0000   1.0000
     1.0000   1.0000   1.0000   1.0000   1.0000   1.0000   1.0000   1.0000
     1.0000   1.0000   1.0000   1.0000   1.0000   1.0000   1.0000   1.0000
     1.0000   1.0000   1.0000   1.0000   1.0000   1.0000   1.0000   1.0000
     1.0000   1.0000   1.0000   1.0000   1.0000   1.0000   1.0000   1.0000
     1.0000   1.0000   1.0000   1.0000   1.0000   1.0000   1.0000   1.0000
     1.0000   1.0000   1.0000   1.0000   1.0000   1.0000   1.0000   1.0000
     1.0000   1.0000   1.0000   1.0000   1.0000   1.0000   1.0000   1.0000
     1.0000   1.0000   1.0000   1.0000   1.0000   1.0000   1.0000   1.0000
     1.0000

          k = 0.2496 0.4323-0.2032 ( 52926 PWs)   bands (ev):

   -28.2755 -28.2754 -28.2752 -14.9230 -14.9229 -14.9227 -14.9172 -14.9171
   -14.9169 -14.9051 -14.9051 -14.9049 -14.8650 -14.8649 -14.8648 -14.8197
   -14.8196 -14.8195 -10.3388 -10.3369 -10.3325 -10.3052 -10.3005 -10.2977
   -10.2688 -10.2676 -10.2619  -6.4124  -6.3617  -6.2062  -5.8601  -5.8216
    -5.7565  -5.7178  -5.6385  -5.6018  -5.5255  -5.4302  -5.3475  -0.5325
    -0.4580  -0.3214   1.5465   1.7171   1.8487   1.9717   2.2167   2.4422
     2.5374   2.5915   2.6550   2.8091   2.9597   2.9779   3.1386   3.1627
     3.2903   3.3012   3.3758   3.4616   3.4706   3.5479   3.6118   3.6778
     3.7097   3.8564   3.9129   4.0596   4.1035   4.1160   4.2907   4.2989
     4.4500   4.5082   4.6176   5.1533   5.1730   5.2116   5.2296   5.2699
     5.3130   5.3623   5.3696   5.4248   5.4396   5.4758   5.5759   5.6180
     5.6281   5.7446   5.7631   5.7752   5.8621   5.9556   6.0307   6.0929
     6.2077   6.2629   6.3573   6.4518   6.5447   6.5720   6.6331   6.7824
     6.8352

     occupation numbers 
     1.0000   1.0000   1.0000   1.0000   1.0000   1.0000   1.0000   1.0000
     1.0000   1.0000   1.0000   1.0000   1.0000   1.0000   1.0000   1.0000
     1.0000   1.0000   1.0000   1.0000   1.0000   1.0000   1.0000   1.0000
     1.0000   1.0000   1.0000   1.0000   1.0000   1.0000   1.0000   1.0000
     1.0000   1.0000   1.0000   1.0000   1.0000   1.0000   1.0000   1.0000
     1.0000   1.0000   1.0000   1.0000   1.0000   1.0000   1.0000   1.0000
     1.0000   1.0000   1.0000   1.0000   1.0000   1.0000   1.0000   1.0000
     1.0000   1.0000   1.0000   1.0000   1.0000   1.0000   1.0000   1.0000
     1.0000   1.0000   1.0000   1.0000   1.0000   1.0000   1.0000   1.0000
     1.0000   1.0000   1.0000   1.0000   1.0000   1.0000   1.0000   1.0000
     1.0000   1.0000   1.0000   1.0000   1.0000   1.0000   1.0000   1.0000
     1.0000   1.0000   1.0000   1.0000   1.0000   1.0000   1.0000   1.0000
     1.0000   1.0000   1.0000   1.0000   1.0000   1.0000   1.0000   1.0000
     1.0000

     highest occupied level (ev):     7.1816

!    total energy              =   -2269.30077084 Ry
     estimated scf accuracy    <          7.2E-11 Ry

     The total energy is the sum of the following terms:
     one-electron contribution =    -694.14957574 Ry
     hartree contribution      =     505.01535420 Ry
     xc contribution           =    -567.34748312 Ry
     ewald contribution        =    -973.87193994 Ry
     one-center paw contrib.   =    -538.94712624 Ry
      -> PAW hartree energy AE =       0.00000000 Ry
      -> PAW hartree energy PS =       0.00000000 Ry
      -> PAW xc energy AE      =       0.00000000 Ry
      -> PAW xc energy PS      =       0.00000000 Ry
      -> total E_H with PAW    =     505.01535420 Ry
      -> total E_XC with PAW   =    -567.34748312 Ry

     convergence has been achieved in   8 iterations

     negative rho (up, down):  1.979E-01 0.000E+00

     Forces acting on atoms (cartesian axes, Ry/au):

     atom    1 type  4   force =    -0.00012625    0.00021867   -0.00000000
     atom    2 type  4   force =    -0.00012625   -0.00021867   -0.00000000
     atom    3 type  4   force =     0.00025250    0.00000000   -0.00000000
     atom    4 type  1   force =     0.00020560   -0.00039896    0.00019153
     atom    5 type  1   force =     0.00024271    0.00037753    0.00019153
     atom    6 type  1   force =    -0.00044831    0.00002143    0.00019153
     atom    7 type  1   force =    -0.00044831   -0.00002143   -0.00019153
     atom    8 type  1   force =     0.00020560    0.00039896   -0.00019153
     atom    9 type  1   force =     0.00024271   -0.00037753   -0.00019153
     atom   10 type  3   force =     0.00021740   -0.00037655    0.00000000
     atom   11 type  3   force =     0.00021740    0.00037655   -0.00000000
     atom   12 type  3   force =    -0.00043480   -0.00000000    0.00000000
     atom   13 type  2   force =     0.00024720   -0.00002549   -0.00004245
     atom   14 type  2   force =    -0.00010152    0.00022683   -0.00004245
     atom   15 type  2   force =    -0.00014568   -0.00020134   -0.00004245
     atom   16 type  2   force =    -0.00014568    0.00020134    0.00004245
     atom   17 type  2   force =     0.00024720    0.00002549    0.00004245
     atom   18 type  2   force =    -0.00010152   -0.00022683    0.00004245
     atom   19 type  2   force =    -0.00011679    0.00006226   -0.00024534
     atom   20 type  2   force =     0.00000447   -0.00013227   -0.00024534
     atom   21 type  2   force =     0.00011231    0.00007001   -0.00024534
     atom   22 type  2   force =     0.00011231   -0.00007001    0.00024534
     atom   23 type  2   force =    -0.00011679   -0.00006226    0.00024534
     atom   24 type  2   force =     0.00000447    0.00013227    0.00024534
     The non-local contrib.  to forces
     atom    1 type  4   force =    -0.00173227    0.00300038    0.00000000
     atom    2 type  4   force =    -0.00173227   -0.00300038   -0.00000000
     atom    3 type  4   force =     0.00346454    0.00000000   -0.00000000
     atom    4 type  1   force =    -0.05121677   -0.00941433   -0.02379603
     atom    5 type  1   force =     0.03376143   -0.03964787   -0.02379603
     atom    6 type  1   force =     0.01745534    0.04906220   -0.02379603
     atom    7 type  1   force =     0.01745534   -0.04906220    0.02379603
     atom    8 type  1   force =    -0.05121677    0.00941433    0.02379603
     atom    9 type  1   force =     0.03376143    0.03964787    0.02379603
     atom   10 type  3   force =    -0.00379917    0.00658036   -0.00000000
     atom   11 type  3   force =    -0.00379917   -0.00658036    0.00000000
     atom   12 type  3   force =     0.00759834    0.00000000   -0.00000000
     atom   13 type  2   force =    -0.01754467    0.10159406   -0.08019636
     atom   14 type  2   force =    -0.07921068   -0.06599117   -0.08019636
     atom   15 type  2   force =     0.09675535   -0.03560289   -0.08019636
     atom   16 type  2   force =     0.09675535    0.03560291    0.08019636
     atom   17 type  2   force =    -0.01754467   -0.10159406    0.08019636
     atom   18 type  2   force =    -0.07921068    0.06599115    0.08019636
     atom   19 type  2   force =    -0.06799685   -0.07238515    0.00401104
     atom   20 type  2   force =     0.09668579   -0.02269443    0.00401104
     atom   21 type  2   force =    -0.02868894    0.09507958    0.00401104
     atom   22 type  2   force =    -0.02868894   -0.09507959   -0.00401104
     atom   23 type  2   force =    -0.06799685    0.07238514   -0.00401104
     atom   24 type  2   force =     0.09668579    0.02269445   -0.00401104
     The ionic contribution  to forces
     atom    1 type  4   force =    -0.98008792    1.69754419   -0.00006618
     atom    2 type  4   force =    -0.98008360   -1.69755446    0.00001884
     atom    3 type  4   force =     1.96015985   -0.00003509   -0.00009537
     atom    4 type  1   force =    -2.23424991    2.78499261    0.07879108
     atom    5 type  1   force =    -1.29470368   -3.32738711    0.07884215
     atom    6 type  1   force =     3.52900345    0.54249639    0.07875180
     atom    7 type  1   force =     3.52899524   -0.54242445   -0.07873215
     atom    8 type  1   force =    -2.23426011   -2.78494642   -0.07885329
     atom    9 type  1   force =    -1.29468680    3.32746515   -0.07875078
     atom   10 type  3   force =    -1.64165086    2.84340205   -0.00001816
     atom   11 type  3   force =    -1.64167822   -2.84344721    0.00000140
     atom   12 type  3   force =     3.28328290   -0.00001798    0.00004886
     atom   13 type  2   force =    -0.37793660   -2.63148910    0.75445444
     atom   14 type  2   force =     2.46793177    0.98835676    0.75451208
     atom   15 type  2   force =    -2.08990180    1.64306122    0.75442211
     atom   16 type  2   force =    -2.08996606   -1.64304631   -0.75447461
     atom   17 type  2   force =    -0.37801997    2.63146783   -0.75453385
     atom   18 type  2   force =     2.46788431   -0.98837824   -0.75439905
     atom   19 type  2   force =     1.35449693   -1.02924636   -0.23676730
     atom   20 type  2   force =     0.21410464    1.68765656   -0.23676686
     atom   21 type  2   force =    -1.56862932   -0.65845146   -0.23676855
     atom   22 type  2   force =    -1.56858145    0.65839722    0.23679213
     atom   23 type  2   force =     1.35448670    1.02925142    0.23679372
     atom   24 type  2   force =     0.21409049   -1.68766722    0.23679752
     The local contribution  to forces
     atom    1 type  4   force =     0.98156628   -1.70016551   -0.00011436
     atom    2 type  4   force =     0.98156607    1.70016581    0.00011423
     atom    3 type  4   force =    -1.96318637    0.00001330   -0.00033432
     atom    4 type  1   force =     2.27857523   -2.77249878   -0.05773340
     atom    5 type  1   force =     1.26173486    3.35954623   -0.05667382
     atom    6 type  1   force =    -3.54034296   -0.58710869   -0.05876132
     atom    7 type  1   force =    -3.54034337    0.58710946    0.05876058
     atom    8 type  1   force =     2.27857419    2.77249997    0.05773410
     atom    9 type  1   force =     1.26170206   -3.35956383    0.05980904
     atom   10 type  3   force =     1.64533317   -2.84986369   -0.00043114
     atom   11 type  3   force =     1.64533244    2.84986480    0.00043090
     atom   12 type  3   force =    -3.29077002    0.00001212    0.00124400
     atom   13 type  2   force =     0.39487720    2.53532337   -0.67854594
     atom   14 type  2   force =    -2.39305589   -0.92565958   -0.67849002
     atom   15 type  2   force =     1.99818197   -1.60956333   -0.67853084
     atom   16 type  2   force =     1.99818227    1.60956252    0.67853066
     atom   17 type  2   force =     0.39487781   -2.53532368    0.67854629
     atom   18 type  2   force =    -2.39301739    0.92567855    0.67856151
     atom   19 type  2   force =    -1.29017607    1.09786271    0.23275683
     atom   20 type  2   force =    -0.30567289   -1.66622329    0.23287116
     atom   21 type  2   force =     1.59587059    0.56840288    0.23277822
     atom   22 type  2   force =     1.59587055   -0.56840416   -0.23277864
     atom   23 type  2   force =    -1.29017566   -1.09786417   -0.23275723
     atom   24 type  2   force =    -0.30566785    1.66629694   -0.23270616
     The core correction contribution to forces
     atom    1 type  4   force =     0.00007554   -0.00013094    0.00001037
     atom    2 type  4   force =     0.00007554    0.00013094   -0.00001037
     atom    3 type  4   force =    -0.00015118    0.00000001    0.00003114
     atom    4 type  1   force =     0.00709720   -0.00347179    0.00351756
     atom    5 type  1   force =    -0.00054274    0.00788180    0.00366688
     atom    6 type  1   force =    -0.00655505   -0.00441105    0.00337030
     atom    7 type  1   force =    -0.00655505    0.00441106   -0.00337030
     atom    8 type  1   force =     0.00709719    0.00347179   -0.00351756
     atom    9 type  1   force =    -0.00054184   -0.00788213   -0.00322148
     atom   10 type  3   force =     0.00033905   -0.00058754   -0.00004115
     atom   11 type  3   force =     0.00033906    0.00058755    0.00004115
     atom   12 type  3   force =    -0.00067856    0.00000008    0.00012160
     atom   13 type  2   force =     0.00091340   -0.00543478    0.00421601
     atom   14 type  2   force =     0.00425182    0.00350900    0.00421470
     atom   15 type  2   force =    -0.00516397    0.00192790    0.00422446
     atom   16 type  2   force =    -0.00516397   -0.00192790   -0.00422446
     atom   17 type  2   force =     0.00091340    0.00543478   -0.00421601
     atom   18 type  2   force =     0.00425150   -0.00350825   -0.00422757
     atom   19 type  2   force =     0.00355728    0.00383184   -0.00025410
     atom   20 type  2   force =    -0.00509739    0.00116427   -0.00025584
     atom   21 type  2   force =     0.00153983   -0.00499673   -0.00024799
     atom   22 type  2   force =     0.00153983    0.00499672    0.00024799
     atom   23 type  2   force =     0.00355728   -0.00383184    0.00025409
     atom   24 type  2   force =    -0.00509749   -0.00116468    0.00024177
     The Hubbard contrib.    to forces
     atom    1 type  4   force =     0.00000000    0.00000000    0.00000000
     atom    2 type  4   force =     0.00000000    0.00000000    0.00000000
     atom    3 type  4   force =     0.00000000    0.00000000    0.00000000
     atom    4 type  1   force =     0.00000000    0.00000000    0.00000000
     atom    5 type  1   force =     0.00000000    0.00000000    0.00000000
     atom    6 type  1   force =     0.00000000    0.00000000    0.00000000
     atom    7 type  1   force =     0.00000000    0.00000000    0.00000000
     atom    8 type  1   force =     0.00000000    0.00000000    0.00000000
     atom    9 type  1   force =     0.00000000    0.00000000    0.00000000
     atom   10 type  3   force =     0.00000000    0.00000000    0.00000000
     atom   11 type  3   force =     0.00000000    0.00000000    0.00000000
     atom   12 type  3   force =     0.00000000    0.00000000    0.00000000
     atom   13 type  2   force =     0.00000000    0.00000000    0.00000000
     atom   14 type  2   force =     0.00000000    0.00000000    0.00000000
     atom   15 type  2   force =     0.00000000    0.00000000    0.00000000
     atom   16 type  2   force =     0.00000000    0.00000000    0.00000000
     atom   17 type  2   force =     0.00000000    0.00000000    0.00000000
     atom   18 type  2   force =     0.00000000    0.00000000    0.00000000
     atom   19 type  2   force =     0.00000000    0.00000000    0.00000000
     atom   20 type  2   force =     0.00000000    0.00000000    0.00000000
     atom   21 type  2   force =     0.00000000    0.00000000    0.00000000
     atom   22 type  2   force =     0.00000000    0.00000000    0.00000000
     atom   23 type  2   force =     0.00000000    0.00000000    0.00000000
     atom   24 type  2   force =     0.00000000    0.00000000    0.00000000
     The SCF correction term to forces
     atom    1 type  4   force =     0.00002401   -0.00004159   -0.00000000
     atom    2 type  4   force =     0.00002401    0.00004159    0.00000000
     atom    3 type  4   force =    -0.00004801   -0.00000000   -0.00000000
     atom    4 type  1   force =     0.00000129   -0.00000138    0.00000205
     atom    5 type  1   force =     0.00000055    0.00000181    0.00000205
     atom    6 type  1   force =    -0.00000184   -0.00000043    0.00000205
     atom    7 type  1   force =    -0.00000184    0.00000043   -0.00000205
     atom    8 type  1   force =     0.00000129    0.00000138   -0.00000205
     atom    9 type  1   force =     0.00000055   -0.00000181   -0.00000205
     atom   10 type  3   force =    -0.00004083    0.00007071   -0.00000001
     atom   11 type  3   force =    -0.00004083   -0.00007071    0.00000001
     atom   12 type  3   force =     0.00008166    0.00000000   -0.00000000
     atom   13 type  2   force =     0.00000105   -0.00000063    0.00000156
     atom   14 type  2   force =     0.00000002    0.00000122    0.00000156
     atom   15 type  2   force =    -0.00000107   -0.00000060    0.00000156
     atom   16 type  2   force =    -0.00000107    0.00000060   -0.00000156
     atom   17 type  2   force =     0.00000105    0.00000063   -0.00000156
     atom   18 type  2   force =     0.00000002   -0.00000122   -0.00000156
     atom   19 type  2   force =     0.00000127    0.00000180    0.00000022
     atom   20 type  2   force =    -0.00000219    0.00000020    0.00000022
     atom   21 type  2   force =     0.00000092   -0.00000200    0.00000022
     atom   22 type  2   force =     0.00000092    0.00000200   -0.00000022
     atom   23 type  2   force =     0.00000127   -0.00000180   -0.00000022
     atom   24 type  2   force =    -0.00000219   -0.00000020   -0.00000022

     Total force =     0.001742     Total SCF correction =     0.000164


     Computing stress (Cartesian axis) and pressure


     negative rho (up, down):  1.979E-01 0.000E+00
          total   stress  (Ry/bohr**3)                   (kbar)     P=       -0.22
  -0.00000126  -0.00000000   0.00000000           -0.19       -0.00        0.00
  -0.00000000  -0.00000126  -0.00000000           -0.00       -0.19       -0.00
  -0.00000000   0.00000000  -0.00000190           -0.00        0.00       -0.28

     kinetic stress (kbar)   8972.37      0.00     -0.00
                                0.00   8972.37     -0.00
                               -0.00     -0.00   8994.25

     local   stress (kbar)  -2572.35      0.01     -0.01
                                0.01  -2572.34      0.01
                               -0.01      0.01  -3064.54

     nonloc. stress (kbar)   4082.03      0.00     -0.00
                                0.00   4082.04      0.00
                               -0.00      0.00   4081.05

     hartree stress (kbar)   6647.63     -0.00     -0.00
                               -0.00   6647.63      0.00
                               -0.00      0.00   6848.47

     exc-cor stress (kbar)   8517.82     -0.00      0.00
                               -0.00   8517.82     -0.00
                                0.00     -0.00   8518.27

     corecor stress (kbar) -12608.96      0.00     -0.00
                                0.00 -12608.96     -0.00
                               -0.00     -0.00 -12610.05

     ewald   stress (kbar) -13038.73     -0.01      0.01
                               -0.01 -13038.74     -0.01
                                0.01     -0.01 -12767.72

     hubbard stress (kbar)      0.00      0.00      0.00
                                0.00      0.00      0.00
                                0.00      0.00      0.00

     DFT-D   stress (kbar)      0.00      0.00      0.00
                                0.00      0.00      0.00
                                0.00      0.00      0.00

     XDM     stress (kbar)      0.00      0.00      0.00
                                0.00      0.00      0.00
                                0.00      0.00      0.00

     dft-nl  stress (kbar)      0.00      0.00      0.00
                                0.00      0.00      0.00
                                0.00      0.00      0.00

     TS-vdW  stress (kbar)      0.00      0.00      0.00
                                0.00      0.00      0.00
                                0.00      0.00      0.00

     MDB     stress (kbar)      0.00      0.00      0.00
                                0.00      0.00      0.00
                                0.00      0.00      0.00

     3D-RISM stress (kbar)      0.00      0.00      0.00
                                0.00      0.00      0.00
                                0.00      0.00      0.00

     Energy error            =      4.4E-06 Ry
     Gradient error          =      4.5E-04 Ry/Bohr
     Cell gradient error     =      2.8E-01 kbar

     bfgs converged in   5 scf cycles and   4 bfgs steps
     (criteria: energy <  1.0E-05 Ry, force <  1.0E-03 Ry/Bohr, cell <  5.0E-01 kbar)

     End of BFGS Geometry Optimization

     Final enthalpy           =   -2269.3007708449 Ry

     File ./tmp/relax/SrCu2SnS4_relax.bfgs deleted, as requested
Begin final coordinates
     new unit-cell volume =   3688.01150 a.u.^3 (   546.50692 Ang^3 )
     density =      4.20841 g/cm^3

CELL_PARAMETERS (angstrom)
   6.357342664   0.000000001   0.000000000
  -3.178671832   5.505619144  -0.000000000
  -0.000000000   0.000000000  15.613989379

ATOMIC_POSITIONS (crystal)
Sr               0.0000000000        0.5623012881        0.1666670000
Sr               0.4376987119        0.4376987119        0.5000000000
Sr               0.5623012880        0.0000000000        0.8333340000
Cu               0.0725557993        0.6358273845        0.4121850921
Cu               0.3641726154        0.4367284149        0.7455180921
Cu               0.5632715853        0.9274442006        0.0788520921
Cu               0.6358273846        0.0725557993        0.5878149079
Cu               0.4367284148        0.3641726155        0.2544819079
Cu               0.9274442006        0.5632715852        0.9211479079
Sn               0.0000000000        0.7050315662        0.6666670000
Sn               0.2949684338        0.2949684338       -0.0000000000
Sn               0.7050315661        0.0000000000        0.3333330000
S                0.0452117669        0.4857051442        0.7875347159
S                0.5142948558        0.5595066229        0.1208677159
S                0.4404933773        0.9547882329        0.4542017159
S                0.4857051443        0.0452117670        0.2124652841
S                0.5595066228        0.5142948559        0.8791322841
S                0.9547882329        0.4404933771        0.5457982841
S                0.1176017746        0.3538033700        0.3286503156
S                0.6461966302        0.7637984047        0.6619833156
S                0.2362015952        0.8823982253        0.9953173156
S                0.3538033699        0.1176017747        0.6713496844
S                0.7637984046        0.6461966301        0.3380166844
S                0.8823982255        0.2362015952        0.0046826844
End final coordinates



     Writing config-only to output data dir ./tmp/relax/SrCu2SnS4_relax.save/ :
     XML data file

     Final scf calculation at the relaxed structure.
     The G-vectors are recalculated for the final unit cell
     Results may differ from those at the preceding step.

     Parallelization info
     --------------------
     sticks:   dense  smooth     PW     G-vecs:    dense   smooth      PW
     Min        1789     892    238               300815   106310   14692
     Max        1790     893    239               300826   106323   14705
     Sum        7159    3571    955              1203283   425273   58803

     Using Slab Decomposition



     bravais-lattice index     =            0
     lattice parameter (alat)  =      11.9933  a.u.
     unit-cell volume          =    3688.0115 (a.u.)^3
     number of atoms/cell      =           24
     number of atomic types    =            4
     number of electrons       =       210.00
     number of Kohn-Sham states=          105
     kinetic-energy cutoff     =      90.0000  Ry
     charge density cutoff     =     720.0000  Ry
     scf convergence threshold =      1.0E-10
     mixing beta               =       0.3000
     number of iterations used =            8  plain     mixing
     press convergence thresh. =      5.0E-01
     Exchange-correlation= SLA  PW   PBE  PBE
                           (   1   4   3   4   0   0   0)

     celldm(1)=  11.993304  celldm(2)=   0.000000  celldm(3)=   0.000000
     celldm(4)=   0.000000  celldm(5)=   0.000000  celldm(6)=   0.000000

     crystal axes: (cart. coord. in units of alat)
               a(1) = (   1.001695   0.000000   0.000000 )  
               a(2) = (  -0.500848   0.867493  -0.000000 )  
               a(3) = (  -0.000000   0.000000   2.460220 )  

     reciprocal axes: (cart. coord. in units 2 pi/alat)
               b(1) = (  0.998308  0.576373 -0.000000 )  
               b(2) = ( -0.000000  1.152746 -0.000000 )  
               b(3) = ( -0.000000  0.000000  0.406468 )  


     PseudoPot. # 1 for Cu read from file:
     /Users/kaede/scientific-tools/pseudopotentials/SSSP/1.3.0/PBE/precision/Cu.paw.z_11.ld1.psl.v1.0.0-low.upf
     MD5 check sum: 619f40885d92a09a85a8b37550532d0c
     Pseudo is Projector augmented-wave + core cor, Zval = 11.0
     Generated using &quot;atomic&quot; code by A. Dal Corso  v.6.3MaX
     Shape of augmentation charge: PSQ
     Using radial grid of 1199 points,  6 beta functions with: 
                l(1) =   0
                l(2) =   0
                l(3) =   1
                l(4) =   1
                l(5) =   2
                l(6) =   2
     Q(r) pseudized with 0 coefficients 


     PseudoPot. # 2 for S  read from file:
     /Users/kaede/scientific-tools/pseudopotentials/SSSP/1.3.0/PBE/precision/s_pbe_v1.4.uspp.F.UPF
     MD5 check sum: 88d86576ff6df21479756cfb9bdac1df
     Pseudo is Ultrasoft + core correction, Zval =  6.0
     Generated by new atomic code, or converted to UPF format
     Using radial grid of  907 points,  6 beta functions with: 
                l(1) =   0
                l(2) =   0
                l(3) =   1
                l(4) =   1
                l(5) =   2
                l(6) =   2
     Q(r) pseudized with  8 coefficients,  rinner =    1.300   1.300   1.300
                                                       1.300   1.300

     PseudoPot. # 3 for Sn read from file:
     /Users/kaede/scientific-tools/pseudopotentials/SSSP/1.3.0/PBE/precision/Sn_pbe_v1.uspp.F.UPF
     MD5 check sum: 4cf58ce39ec5d5d420df3dd08604eb00
     Pseudo is Ultrasoft + core correction, Zval = 14.0
     Generated by new atomic code, or converted to UPF format
     Using radial grid of  891 points,  6 beta functions with: 
                l(1) =   0
                l(2) =   0
                l(3) =   1
                l(4) =   1
                l(5) =   2
                l(6) =   2
     Q(r) pseudized with  6 coefficients,  rinner =    1.200   1.200   1.200
                                                       1.200   1.200

     PseudoPot. # 4 for Sr read from file:
     /Users/kaede/scientific-tools/pseudopotentials/SSSP/1.3.0/PBE/precision/Sr_pbe_v1.uspp.F.UPF
     MD5 check sum: 6b418c05fbe9db5448babca5e47b7a5b
     Pseudo is Ultrasoft + core correction, Zval = 10.0
     Generated by new atomic code, or converted to UPF format
     Using radial grid of  883 points,  6 beta functions with: 
                l(1) =   0
                l(2) =   0
                l(3) =   1
                l(4) =   1
                l(5) =   2
                l(6) =   2
     Q(r) pseudized with  6 coefficients,  rinner =    1.400   1.400   1.400
                                                       1.400   1.400

     atomic species   valence    mass     pseudopotential
     Cu               11.00    63.54600     Cu( 1.00)
     S                 6.00    32.06500     S ( 1.00)
     Sn               14.00   118.71000     Sn( 1.00)
     Sr               10.00    87.62000     Sr( 1.00)

      6 Sym. Ops. (no inversion) found ( 4 have fractional translation)


                                    s                        frac. trans.

      isym =  1     identity                                     

 cryst.   s( 1) = (     1          0          0      )
                  (     0          1          0      )
                  (     0          0          1      )

 cart.    s( 1) = (  1.0000000  0.0000000  0.0000000 )
                  (  0.0000000  1.0000000  0.0000000 )
                  (  0.0000000  0.0000000  1.0000000 )


      isym =  2     180 deg rotation - cart. axis [1,0,0]        

 cryst.   s( 2) = (     1          0          0      )    f =( -0.0000000 )
                  (    -1         -1          0      )       (  0.0000000 )
                  (     0          0         -1      )       (  0.3333330 )

 cart.    s( 2) = (  1.0000000  0.0000002  0.0000000 )    f =( -0.0000000 )
                  (  0.0000000 -1.0000000  0.0000000 )       (  0.0000000 )
                  (  0.0000000  0.0000000 -1.0000000 )       (  0.8200725 )


      isym =  3     120 deg rotation - cryst. axis [0,0,1]       

 cryst.   s( 3) = (     0          1          0      )    f =(  0.0000000 )
                  (    -1         -1          0      )       (  0.0000000 )
                  (     0          0          1      )       ( -0.3333330 )

 cart.    s( 3) = ( -0.5000001 -0.8660256  0.0000000 )    f =(  0.0000000 )
                  (  0.8660252 -0.4999999  0.0000000 )       ( -0.0000000 )
                  (  0.0000000  0.0000000  1.0000000 )       ( -0.8200725 )


      isym =  4     120 deg rotation - cryst. axis [0,0,-1]      

 cryst.   s( 4) = (    -1         -1          0      )    f =(  0.0000000 )
                  (     1          0          0      )       (  0.0000000 )
                  (     0          0          1      )       (  0.3333330 )

 cart.    s( 4) = ( -0.4999999  0.8660256  0.0000000 )    f =(  0.0000000 )
                  ( -0.8660252 -0.5000001  0.0000000 )       (  0.0000000 )
                  (  0.0000000  0.0000000  1.0000000 )       (  0.8200725 )


      isym =  5     180 deg rotation - cryst. axis [0,1,0]       

 cryst.   s( 5) = (    -1         -1          0      )    f =(  0.0000000 )
                  (     0          1          0      )       (  0.0000000 )
                  (     0          0         -1      )       ( -0.3333340 )

 cart.    s( 5) = ( -0.4999999 -0.8660257  0.0000000 )    f =(  0.0000000 )
                  ( -0.8660252  0.4999999  0.0000000 )       ( -0.0000000 )
                  (  0.0000000  0.0000000 -1.0000000 )       ( -0.8200749 )


      isym =  6     180 deg rotation - cryst. axis [1,1,0]       

 cryst.   s( 6) = (     0          1          0      )
                  (     1          0          0      )
                  (     0          0         -1      )

 cart.    s( 6) = ( -0.5000001  0.8660255  0.0000000 )
                  (  0.8660252  0.5000001  0.0000000 )
                  (  0.0000000  0.0000000 -1.0000000 )


   Cartesian axes

     site n.     atom                  positions (alat units)
         1        Sr     tau(   1) = (  -0.2816273   0.4877927   0.4100375  )
         2        Sr     tau(   2) = (   0.2192203   0.3797008   1.2301099  )
         3        Sr     tau(   3) = (   0.5632546   0.0000000   2.0501848  )
         4        Cu     tau(   4) = (  -0.2457739   0.5515761   1.0140659  )
         5        Cu     tau(   5) = (   0.1460556   0.3788590   1.8341384  )
         6        Cu     tau(   6) = (   0.0997182   0.8045518   0.1939935  )
         7        Cu     tau(   7) = (   0.6005659   0.0629417   1.4461539  )
         8        Cu     tau(   8) = (   0.2550738   0.3159174   0.6260814  )
         9        Cu     tau(   9) = (   0.6469032   0.4886344   2.2662264  )
        10        Sn     tau(  10) = (  -0.3531135   0.6116103   1.6401474  )
        11        Sn     tau(  11) = (   0.1477342   0.2558832  -0.0000000  )
        12        Sn     tau(  12) = (   0.7062268   0.0000000   0.8200725  )
        13        S      tau(  13) = (  -0.1979759   0.4213460   1.9375085  )
        14        S      tau(  14) = (   0.2349391   0.4853683   0.2973612  )
        15        S      tau(  15) = (  -0.0369634   0.8282725   1.1174361  )
        16        S      tau(  16) = (   0.4638844   0.0392209   0.5227113  )
        17        S      tau(  17) = (   0.3028718   0.4461474   2.1628587  )
        18        S      tau(  18) = (   0.7357868   0.3821251   1.3427838  )
        19        S      tau(  19) = (  -0.0594005   0.3069221   0.8085520  )
        20        S      tau(  20) = (   0.2647454   0.6625901   1.6286245  )
        21        S      tau(  21) = (  -0.2053451   0.7654747   2.4486994  )
        22        S      tau(  22) = (   0.2955026   0.1020188   1.6516678  )
        23        S      tau(  23) = (   0.4414472   0.5605713   0.8315954  )
        24        S      tau(  24) = (   0.7655932   0.2049033   0.0115204  )

   Crystallographic axes

     site n.     atom                  positions (cryst. coord.)
         1        Sr     tau(   1) = (  0.0000000  0.5623013  0.1666670  )
         2        Sr     tau(   2) = (  0.4376987  0.4376987  0.5000000  )
         3        Sr     tau(   3) = (  0.5623013  0.0000000  0.8333340  )
         4        Cu     tau(   4) = (  0.0725558  0.6358274  0.4121851  )
         5        Cu     tau(   5) = (  0.3641726  0.4367284  0.7455181  )
         6        Cu     tau(   6) = (  0.5632716  0.9274442  0.0788521  )
         7        Cu     tau(   7) = (  0.6358274  0.0725558  0.5878149  )
         8        Cu     tau(   8) = (  0.4367284  0.3641726  0.2544819  )
         9        Cu     tau(   9) = (  0.9274442  0.5632716  0.9211479  )
        10        Sn     tau(  10) = (  0.0000000  0.7050316  0.6666670  )
        11        Sn     tau(  11) = (  0.2949684  0.2949684 -0.0000000  )
        12        Sn     tau(  12) = (  0.7050316  0.0000000  0.3333330  )
        13        S      tau(  13) = (  0.0452118  0.4857051  0.7875347  )
        14        S      tau(  14) = (  0.5142949  0.5595066  0.1208677  )
        15        S      tau(  15) = (  0.4404934  0.9547882  0.4542017  )
        16        S      tau(  16) = (  0.4857051  0.0452118  0.2124653  )
        17        S      tau(  17) = (  0.5595066  0.5142949  0.8791323  )
        18        S      tau(  18) = (  0.9547882  0.4404934  0.5457983  )
        19        S      tau(  19) = (  0.1176018  0.3538034  0.3286503  )
        20        S      tau(  20) = (  0.6461966  0.7637984  0.6619833  )
        21        S      tau(  21) = (  0.2362016  0.8823982  0.9953173  )
        22        S      tau(  22) = (  0.3538034  0.1176018  0.6713497  )
        23        S      tau(  23) = (  0.7637984  0.6461966  0.3380167  )
        24        S      tau(  24) = (  0.8823982  0.2362016  0.0046827  )

     number of k points=     8
                       cart. coord. in units 2pi/alat
        k(    1) = (   0.0000000   0.0000000   0.0000000), wk =   0.0625000
        k(    2) = (   0.0000000  -0.0000000  -0.2032339), wk =   0.0625000
        k(    3) = (  -0.0000000   0.2881866  -0.0000000), wk =   0.3750000
        k(    4) = (  -0.0000000   0.2881866  -0.2032339), wk =   0.3750000
        k(    5) = (   0.0000000  -0.5763732   0.0000000), wk =   0.1875000
        k(    6) = (   0.0000000  -0.5763732  -0.2032339), wk =   0.1875000
        k(    7) = (   0.2495769   0.4322799  -0.0000000), wk =   0.3750000
        k(    8) = (   0.2495769   0.4322799  -0.2032339), wk =   0.3750000

                       cryst. coord.
        k(    1) = (   0.0000000   0.0000000   0.0000000), wk =   0.0625000
        k(    2) = (  -0.0000000   0.0000000  -0.5000000), wk =   0.0625000
        k(    3) = (  -0.0000000   0.2500000   0.0000000), wk =   0.3750000
        k(    4) = (  -0.0000000   0.2500000  -0.5000000), wk =   0.3750000
        k(    5) = (   0.0000000  -0.5000000  -0.0000000), wk =   0.1875000
        k(    6) = (   0.0000000  -0.5000000  -0.5000000), wk =   0.1875000
        k(    7) = (   0.2500000   0.2500000  -0.0000000), wk =   0.3750000
        k(    8) = (   0.2500000   0.2500000  -0.5000000), wk =   0.3750000

     Dense  grid:  1203283 G-vectors     FFT dimensions: ( 108, 108, 270)

     Smooth grid:   425273 G-vectors     FFT dimensions: (  75,  75, 180)

     Dynamical RAM for                 wfc:      21.30 MB

     Dynamical RAM for     wfc (w. buffer):      21.30 MB

     Dynamical RAM for           str. fact:      18.36 MB

     Dynamical RAM for           local pot:       9.14 MB

     Dynamical RAM for          nlocal pot:      87.62 MB

     Dynamical RAM for                qrad:      17.22 MB

     Dynamical RAM for          rho,v,vnew:      31.92 MB

     Dynamical RAM for               rhoin:      10.64 MB

     Dynamical RAM for            rho*nmix:      73.44 MB

     Dynamical RAM for           G-vectors:      18.02 MB

     Dynamical RAM for          h,s,v(r/c):       2.02 MB

     Dynamical RAM for          <psi|beta>:       0.69 MB

     Dynamical RAM for                 psi:      42.60 MB

     Dynamical RAM for                hpsi:      42.60 MB

     Dynamical RAM for                spsi:      42.60 MB

     Dynamical RAM for      wfcinit/wfcrot:      68.80 MB

     Dynamical RAM for           addusdens:     456.73 MB

     Dynamical RAM for          addusforce:     507.27 MB

     Dynamical RAM for         addusstress:     462.46 MB

     Estimated static dynamical RAM per process >     267.44 MB

     Estimated max dynamical RAM per process >     848.15 MB

     Estimated total dynamical RAM >       6.34 GB

     Initial potential from superposition of free atoms

     starting charge     206.8971, renormalised to     210.0000

     negative rho (up, down):  1.944E-01 0.000E+00
     Starting wfcs are  168 randomized atomic wfcs
     Checking if some PAW data can be deallocated... 
       PAW data deallocated on    6 nodes for type:  1

     total cpu time spent up to now is     1104.7 secs

     Self-consistent Calculation

     iteration #  1     ecut=    90.00 Ry     beta= 0.30
     Davidson diagonalization with overlap

---- Real-time Memory Report at c_bands before calling an iterative solver
             0 MiB given to the printing process from OS
             0 MiB allocation reported by mallinfo(arena+hblkhd)
             0 MiB available memory on the node where the printing process lives
------------------
     c_bands:  3 eigenvalues not converged
     c_bands:  5 eigenvalues not converged
     ethr =  1.00E-06,  avg # of iterations = 22.4

     negative rho (up, down):  1.935E-01 0.000E+00

     total cpu time spent up to now is     1177.6 secs

     total energy              =   -2266.01584330 Ry
     estimated scf accuracy    <       9.06259020 Ry

     iteration #  2     ecut=    90.00 Ry     beta= 0.30
     Davidson diagonalization with overlap

---- Real-time Memory Report at c_bands before calling an iterative solver
             0 MiB given to the printing process from OS
             0 MiB allocation reported by mallinfo(arena+hblkhd)
             0 MiB available memory on the node where the printing process lives
------------------
     ethr =  4.32E-03,  avg # of iterations =  4.0

     negative rho (up, down):  1.937E-01 0.000E+00

     total cpu time spent up to now is     1194.9 secs

     total energy              =   -2269.15208911 Ry
     estimated scf accuracy    <       5.36042241 Ry

     iteration #  3     ecut=    90.00 Ry     beta= 0.30
     Davidson diagonalization with overlap

---- Real-time Memory Report at c_bands before calling an iterative solver
             0 MiB given to the printing process from OS
             0 MiB allocation reported by mallinfo(arena+hblkhd)
             0 MiB available memory on the node where the printing process lives
------------------
     ethr =  2.55E-03,  avg # of iterations =  2.0

     negative rho (up, down):  1.953E-01 0.000E+00

     total cpu time spent up to now is     1208.3 secs

     total energy              =   -2268.83122664 Ry
     estimated scf accuracy    <       1.26915568 Ry

     iteration #  4     ecut=    90.00 Ry     beta= 0.30
     Davidson diagonalization with overlap

---- Real-time Memory Report at c_bands before calling an iterative solver
             0 MiB given to the printing process from OS
             0 MiB allocation reported by mallinfo(arena+hblkhd)
             0 MiB available memory on the node where the printing process lives
------------------
     ethr =  6.04E-04,  avg # of iterations =  5.6

     negative rho (up, down):  1.961E-01 0.000E+00

     total cpu time spent up to now is     1227.1 secs

     total energy              =   -2269.16951527 Ry
     estimated scf accuracy    <       0.76094222 Ry

     iteration #  5     ecut=    90.00 Ry     beta= 0.30
     Davidson diagonalization with overlap

---- Real-time Memory Report at c_bands before calling an iterative solver
             0 MiB given to the printing process from OS
             0 MiB allocation reported by mallinfo(arena+hblkhd)
             0 MiB available memory on the node where the printing process lives
------------------
     ethr =  3.62E-04,  avg # of iterations =  2.2

     negative rho (up, down):  1.974E-01 0.000E+00

     total cpu time spent up to now is     1241.9 secs

     total energy              =   -2269.29203022 Ry
     estimated scf accuracy    <       0.01768429 Ry

     iteration #  6     ecut=    90.00 Ry     beta= 0.30
     Davidson diagonalization with overlap

---- Real-time Memory Report at c_bands before calling an iterative solver
             0 MiB given to the printing process from OS
             0 MiB allocation reported by mallinfo(arena+hblkhd)
             0 MiB available memory on the node where the printing process lives
------------------
     ethr =  8.42E-06,  avg # of iterations =  7.1

     negative rho (up, down):  1.979E-01 0.000E+00

     total cpu time spent up to now is     1262.3 secs

     total energy              =   -2269.29347253 Ry
     estimated scf accuracy    <       0.03233217 Ry

     iteration #  7     ecut=    90.00 Ry     beta= 0.30
     Davidson diagonalization with overlap

---- Real-time Memory Report at c_bands before calling an iterative solver
             0 MiB given to the printing process from OS
             0 MiB allocation reported by mallinfo(arena+hblkhd)
             0 MiB available memory on the node where the printing process lives
------------------
     ethr =  8.42E-06,  avg # of iterations =  5.1

     negative rho (up, down):  1.982E-01 0.000E+00

     total cpu time spent up to now is     1280.6 secs

     total energy              =   -2269.29964858 Ry
     estimated scf accuracy    <       0.00533721 Ry

     iteration #  8     ecut=    90.00 Ry     beta= 0.30
     Davidson diagonalization with overlap

---- Real-time Memory Report at c_bands before calling an iterative solver
             0 MiB given to the printing process from OS
             0 MiB allocation reported by mallinfo(arena+hblkhd)
             0 MiB available memory on the node where the printing process lives
------------------
     ethr =  2.54E-06,  avg # of iterations =  3.6

     negative rho (up, down):  1.981E-01 0.000E+00

     total cpu time spent up to now is     1296.7 secs

     total energy              =   -2269.30062992 Ry
     estimated scf accuracy    <       0.00044013 Ry

     iteration #  9     ecut=    90.00 Ry     beta= 0.30
     Davidson diagonalization with overlap

---- Real-time Memory Report at c_bands before calling an iterative solver
             0 MiB given to the printing process from OS
             0 MiB allocation reported by mallinfo(arena+hblkhd)
             0 MiB available memory on the node where the printing process lives
------------------
     ethr =  2.10E-07,  avg # of iterations =  5.5

     negative rho (up, down):  1.980E-01 0.000E+00

     total cpu time spent up to now is     1313.8 secs

     total energy              =   -2269.30073095 Ry
     estimated scf accuracy    <       0.00012435 Ry

     iteration # 10     ecut=    90.00 Ry     beta= 0.30
     Davidson diagonalization with overlap

---- Real-time Memory Report at c_bands before calling an iterative solver
             0 MiB given to the printing process from OS
             0 MiB allocation reported by mallinfo(arena+hblkhd)
             0 MiB available memory on the node where the printing process lives
------------------
     ethr =  5.92E-08,  avg # of iterations =  4.9

     negative rho (up, down):  1.979E-01 0.000E+00

     total cpu time spent up to now is     1330.9 secs

     total energy              =   -2269.30071450 Ry
     estimated scf accuracy    <       0.00018431 Ry

     iteration # 11     ecut=    90.00 Ry     beta= 0.30
     Davidson diagonalization with overlap

---- Real-time Memory Report at c_bands before calling an iterative solver
             0 MiB given to the printing process from OS
             0 MiB allocation reported by mallinfo(arena+hblkhd)
             0 MiB available memory on the node where the printing process lives
------------------
     ethr =  5.92E-08,  avg # of iterations =  5.1

     negative rho (up, down):  1.979E-01 0.000E+00

     total cpu time spent up to now is     1349.3 secs

     total energy              =   -2269.30076473 Ry
     estimated scf accuracy    <       0.00002646 Ry

     iteration # 12     ecut=    90.00 Ry     beta= 0.30
     Davidson diagonalization with overlap

---- Real-time Memory Report at c_bands before calling an iterative solver
             0 MiB given to the printing process from OS
             0 MiB allocation reported by mallinfo(arena+hblkhd)
             0 MiB available memory on the node where the printing process lives
------------------
     ethr =  1.26E-08,  avg # of iterations =  2.0

     negative rho (up, down):  1.979E-01 0.000E+00

     total cpu time spent up to now is     1364.0 secs

     total energy              =   -2269.30076962 Ry
     estimated scf accuracy    <       0.00000617 Ry

     iteration # 13     ecut=    90.00 Ry     beta= 0.30
     Davidson diagonalization with overlap

---- Real-time Memory Report at c_bands before calling an iterative solver
             0 MiB given to the printing process from OS
             0 MiB allocation reported by mallinfo(arena+hblkhd)
             0 MiB available memory on the node where the printing process lives
------------------
     ethr =  2.94E-09,  avg # of iterations =  5.4

     negative rho (up, down):  1.979E-01 0.000E+00

     total cpu time spent up to now is     1380.9 secs

     total energy              =   -2269.30077240 Ry
     estimated scf accuracy    <       0.00000082 Ry

     iteration # 14     ecut=    90.00 Ry     beta= 0.30
     Davidson diagonalization with overlap

---- Real-time Memory Report at c_bands before calling an iterative solver
             0 MiB given to the printing process from OS
             0 MiB allocation reported by mallinfo(arena+hblkhd)
             0 MiB available memory on the node where the printing process lives
------------------
     ethr =  3.88E-10,  avg # of iterations =  4.2

     negative rho (up, down):  1.979E-01 0.000E+00

     total cpu time spent up to now is     1397.4 secs

     total energy              =   -2269.30077344 Ry
     estimated scf accuracy    <       0.00000006 Ry

     iteration # 15     ecut=    90.00 Ry     beta= 0.30
     Davidson diagonalization with overlap

---- Real-time Memory Report at c_bands before calling an iterative solver
             0 MiB given to the printing process from OS
             0 MiB allocation reported by mallinfo(arena+hblkhd)
             0 MiB available memory on the node where the printing process lives
------------------
     ethr =  3.02E-11,  avg # of iterations =  5.9

     negative rho (up, down):  1.979E-01 0.000E+00

     total cpu time spent up to now is     1420.3 secs

     total energy              =   -2269.30077391 Ry
     estimated scf accuracy    <       0.00000004 Ry

     iteration # 16     ecut=    90.00 Ry     beta= 0.30
     Davidson diagonalization with overlap

---- Real-time Memory Report at c_bands before calling an iterative solver
             0 MiB given to the printing process from OS
             0 MiB allocation reported by mallinfo(arena+hblkhd)
             0 MiB available memory on the node where the printing process lives
------------------
     ethr =  1.86E-11,  avg # of iterations =  2.6

     negative rho (up, down):  1.979E-01 0.000E+00

     total cpu time spent up to now is     1435.9 secs

     total energy              =   -2269.30077413 Ry
     estimated scf accuracy    <          1.6E-09 Ry

     iteration # 17     ecut=    90.00 Ry     beta= 0.30
     Davidson diagonalization with overlap

---- Real-time Memory Report at c_bands before calling an iterative solver
             0 MiB given to the printing process from OS
             0 MiB allocation reported by mallinfo(arena+hblkhd)
             0 MiB available memory on the node where the printing process lives
------------------
     ethr =  7.54E-13,  avg # of iterations =  9.0

     negative rho (up, down):  1.979E-01 0.000E+00

     total cpu time spent up to now is     1466.4 secs

     total energy              =   -2269.30077423 Ry
     estimated scf accuracy    <          8.4E-09 Ry

     iteration # 18     ecut=    90.00 Ry     beta= 0.30
     Davidson diagonalization with overlap

---- Real-time Memory Report at c_bands before calling an iterative solver
             0 MiB given to the printing process from OS
             0 MiB allocation reported by mallinfo(arena+hblkhd)
             0 MiB available memory on the node where the printing process lives
------------------
     ethr =  7.54E-13,  avg # of iterations =  6.6

     negative rho (up, down):  1.979E-01 0.000E+00

     total cpu time spent up to now is     1487.4 secs

     total energy              =   -2269.30077428 Ry
     estimated scf accuracy    <          3.6E-10 Ry

     iteration # 19     ecut=    90.00 Ry     beta= 0.30
     Davidson diagonalization with overlap

---- Real-time Memory Report at c_bands before calling an iterative solver
             0 MiB given to the printing process from OS
             0 MiB allocation reported by mallinfo(arena+hblkhd)
             0 MiB available memory on the node where the printing process lives
------------------
     ethr =  1.73E-13,  avg # of iterations =  3.1

     negative rho (up, down):  1.979E-01 0.000E+00

     total cpu time spent up to now is     1503.4 secs

     End of self-consistent calculation

          k = 0.0000 0.0000 0.0000 ( 53105 PWs)   bands (ev):

   -28.2755 -28.2754 -28.2753 -14.9234 -14.9233 -14.9232 -14.9173 -14.9173
   -14.9171 -14.9053 -14.9052 -14.9051 -14.8650 -14.8649 -14.8648 -14.8197
   -14.8197 -14.8195 -10.3308 -10.3307 -10.3242 -10.3041 -10.3040 -10.2821
   -10.2582 -10.2581 -10.2543  -6.8628  -6.5547  -6.5545  -5.7364  -5.7364
    -5.6002  -5.5164  -5.5163  -5.4320  -5.3725  -5.3723  -5.2505  -0.3509
    -0.3012  -0.3011   1.5927   1.5928   1.6569   2.0202   2.0414   2.0414
     2.3088   2.3109   2.5499   2.5499   2.8721   2.8722   3.1654   3.2283
     3.2283   3.3938   3.3939   3.4941   3.5176   3.5176   3.6913   3.6914
     3.7067   3.7959   3.7960   3.9635   4.1255   4.2018   4.2817   4.2818
     4.5365   4.5366   4.8571   5.1261   5.1795   5.1796   5.2234   5.2306
     5.2307   5.3138   5.3138   5.3255   5.4400   5.4400   5.4757   5.4999
     5.4999   5.6276   5.7261   5.7262   5.7451   5.9972   5.9973   6.1505
     6.2910   6.2911   6.5535   6.7660   6.7661   6.8093   6.9652   7.1815
     7.1816

     occupation numbers 
     1.0000   1.0000   1.0000   1.0000   1.0000   1.0000   1.0000   1.0000
     1.0000   1.0000   1.0000   1.0000   1.0000   1.0000   1.0000   1.0000
     1.0000   1.0000   1.0000   1.0000   1.0000   1.0000   1.0000   1.0000
     1.0000   1.0000   1.0000   1.0000   1.0000   1.0000   1.0000   1.0000
     1.0000   1.0000   1.0000   1.0000   1.0000   1.0000   1.0000   1.0000
     1.0000   1.0000   1.0000   1.0000   1.0000   1.0000   1.0000   1.0000
     1.0000   1.0000   1.0000   1.0000   1.0000   1.0000   1.0000   1.0000
     1.0000   1.0000   1.0000   1.0000   1.0000   1.0000   1.0000   1.0000
     1.0000   1.0000   1.0000   1.0000   1.0000   1.0000   1.0000   1.0000
     1.0000   1.0000   1.0000   1.0000   1.0000   1.0000   1.0000   1.0000
     1.0000   1.0000   1.0000   1.0000   1.0000   1.0000   1.0000   1.0000
     1.0000   1.0000   1.0000   1.0000   1.0000   1.0000   1.0000   1.0000
     1.0000   1.0000   1.0000   1.0000   1.0000   1.0000   1.0000   1.0000
     1.0000

          k = 0.0000-0.0000-0.2032 ( 53058 PWs)   bands (ev):

   -28.2755 -28.2754 -28.2753 -14.9234 -14.9233 -14.9232 -14.9174 -14.9172
   -14.9171 -14.9053 -14.9052 -14.9051 -14.8650 -14.8649 -14.8648 -14.8197
   -14.8197 -14.8195 -10.3325 -10.3266 -10.3265 -10.3131 -10.2881 -10.2880
   -10.2579 -10.2570 -10.2569  -6.7763  -6.7761  -6.3807  -5.8767  -5.6281
    -5.6279  -5.5603  -5.4386  -5.4384  -5.3748  -5.3135  -5.3133  -0.3429
    -0.3427  -0.2702   1.5871   1.5872   1.6722   1.9976   2.0644   2.0646
     2.3351   2.3351   2.5833   2.5834   2.6770   2.7791   3.1876   3.1877
     3.3221   3.3310   3.5011   3.5012   3.5462   3.5906   3.5907   3.6659
     3.7715   3.8793   3.8794   3.9993   3.9994   4.1295   4.2387   4.2388
     4.4811   4.7492   4.7493   5.1420   5.1502   5.1503   5.2163   5.2962
     5.2962   5.3309   5.3309   5.3485   5.3486   5.3487   5.3888   5.5594
     5.5595   5.6172   5.6356   5.8069   5.8070   5.8509   6.2743   6.2743
     6.3540   6.3540   6.3754   6.4930   6.4930   7.0252   7.0252   7.0639
     7.1443

     occupation numbers 
     1.0000   1.0000   1.0000   1.0000   1.0000   1.0000   1.0000   1.0000
     1.0000   1.0000   1.0000   1.0000   1.0000   1.0000   1.0000   1.0000
     1.0000   1.0000   1.0000   1.0000   1.0000   1.0000   1.0000   1.0000
     1.0000   1.0000   1.0000   1.0000   1.0000   1.0000   1.0000   1.0000
     1.0000   1.0000   1.0000   1.0000   1.0000   1.0000   1.0000   1.0000
     1.0000   1.0000   1.0000   1.0000   1.0000   1.0000   1.0000   1.0000
     1.0000   1.0000   1.0000   1.0000   1.0000   1.0000   1.0000   1.0000
     1.0000   1.0000   1.0000   1.0000   1.0000   1.0000   1.0000   1.0000
     1.0000   1.0000   1.0000   1.0000   1.0000   1.0000   1.0000   1.0000
     1.0000   1.0000   1.0000   1.0000   1.0000   1.0000   1.0000   1.0000
     1.0000   1.0000   1.0000   1.0000   1.0000   1.0000   1.0000   1.0000
     1.0000   1.0000   1.0000   1.0000   1.0000   1.0000   1.0000   1.0000
     1.0000   1.0000   1.0000   1.0000   1.0000   1.0000   1.0000   1.0000
     1.0000

          k =-0.0000 0.2882-0.0000 ( 53145 PWs)   bands (ev):

   -28.2755 -28.2754 -28.2752 -14.9232 -14.9231 -14.9230 -14.9172 -14.9171
   -14.9170 -14.9052 -14.9052 -14.9051 -14.8650 -14.8649 -14.8648 -14.8198
   -14.8196 -14.8195 -10.3343 -10.3341 -10.3291 -10.3047 -10.3020 -10.2880
   -10.2662 -10.2621 -10.2580  -6.6996  -6.4365  -6.4314  -5.7435  -5.7210
    -5.6848  -5.6473  -5.5172  -5.5088  -5.4598  -5.4489  -5.2899  -0.5042
    -0.3607  -0.3084   1.4548   1.6389   1.7448   2.0034   2.2469   2.3319
     2.4084   2.5117   2.7759   2.8280   2.8492   2.9514   3.0823   3.1426
     3.1905   3.2805   3.3433   3.4397   3.5067   3.5332   3.5819   3.6440
     3.6984   3.8637   3.9453   3.9967   4.1045   4.1477   4.2733   4.3374
     4.4308   4.5177   4.6773   5.1557   5.1712   5.2213   5.2429   5.2555
     5.2783   5.3248   5.3468   5.3710   5.4634   5.4707   5.5132   5.5384
     5.5871   5.6756   5.7030   5.7337   5.8377   5.9266   6.0274   6.1759
     6.2344   6.2930   6.4072   6.4838   6.6751   6.7271   6.7413   6.8462
     6.9892

     occupation numbers 
     1.0000   1.0000   1.0000   1.0000   1.0000   1.0000   1.0000   1.0000
     1.0000   1.0000   1.0000   1.0000   1.0000   1.0000   1.0000   1.0000
     1.0000   1.0000   1.0000   1.0000   1.0000   1.0000   1.0000   1.0000
     1.0000   1.0000   1.0000   1.0000   1.0000   1.0000   1.0000   1.0000
     1.0000   1.0000   1.0000   1.0000   1.0000   1.0000   1.0000   1.0000
     1.0000   1.0000   1.0000   1.0000   1.0000   1.0000   1.0000   1.0000
     1.0000   1.0000   1.0000   1.0000   1.0000   1.0000   1.0000   1.0000
     1.0000   1.0000   1.0000   1.0000   1.0000   1.0000   1.0000   1.0000
     1.0000   1.0000   1.0000   1.0000   1.0000   1.0000   1.0000   1.0000
     1.0000   1.0000   1.0000   1.0000   1.0000   1.0000   1.0000   1.0000
     1.0000   1.0000   1.0000   1.0000   1.0000   1.0000   1.0000   1.0000
     1.0000   1.0000   1.0000   1.0000   1.0000   1.0000   1.0000   1.0000
     1.0000   1.0000   1.0000   1.0000   1.0000   1.0000   1.0000   1.0000
     1.0000

          k =-0.0000 0.2882-0.2032 ( 53180 PWs)   bands (ev):

   -28.2755 -28.2754 -28.2752 -14.9232 -14.9231 -14.9230 -14.9173 -14.9171
   -14.9170 -14.9052 -14.9052 -14.9051 -14.8650 -14.8649 -14.8648 -14.8198
   -14.8196 -14.8195 -10.3362 -10.3313 -10.3298 -10.3091 -10.2945 -10.2909
   -10.2655 -10.2613 -10.2598  -6.6314  -6.6159  -6.2946  -5.8082  -5.7111
    -5.6835  -5.6356  -5.5278  -5.5033  -5.4828  -5.3662  -5.3281  -0.4960
    -0.3956  -0.2831   1.4450   1.6728   1.7697   1.9663   2.1953   2.3077
     2.4813   2.6121   2.6738   2.7252   2.8861   2.9810   3.0761   3.1105
     3.2110   3.2846   3.3529   3.4702   3.4830   3.5740   3.6176   3.6550
     3.6993   3.8897   3.9448   4.0024   4.0347   4.1118   4.2326   4.3488
     4.4781   4.5130   4.6722   5.1641   5.1733   5.1904   5.2253   5.2638
     5.2731   5.3524   5.3640   5.3856   5.4324   5.4779   5.5189   5.5708
     5.5934   5.6476   5.6889   5.7559   5.8279   5.8572   6.1193   6.1698
     6.2588   6.3056   6.3768   6.4883   6.5175   6.7654   6.8098   6.8867
     6.9385

     occupation numbers 
     1.0000   1.0000   1.0000   1.0000   1.0000   1.0000   1.0000   1.0000
     1.0000   1.0000   1.0000   1.0000   1.0000   1.0000   1.0000   1.0000
     1.0000   1.0000   1.0000   1.0000   1.0000   1.0000   1.0000   1.0000
     1.0000   1.0000   1.0000   1.0000   1.0000   1.0000   1.0000   1.0000
     1.0000   1.0000   1.0000   1.0000   1.0000   1.0000   1.0000   1.0000
     1.0000   1.0000   1.0000   1.0000   1.0000   1.0000   1.0000   1.0000
     1.0000   1.0000   1.0000   1.0000   1.0000   1.0000   1.0000   1.0000
     1.0000   1.0000   1.0000   1.0000   1.0000   1.0000   1.0000   1.0000
     1.0000   1.0000   1.0000   1.0000   1.0000   1.0000   1.0000   1.0000
     1.0000   1.0000   1.0000   1.0000   1.0000   1.0000   1.0000   1.0000
     1.0000   1.0000   1.0000   1.0000   1.0000   1.0000   1.0000   1.0000
     1.0000   1.0000   1.0000   1.0000   1.0000   1.0000   1.0000   1.0000
     1.0000   1.0000   1.0000   1.0000   1.0000   1.0000   1.0000   1.0000
     1.0000

          k = 0.0000-0.5764 0.0000 ( 53178 PWs)   bands (ev):

   -28.2755 -28.2754 -28.2752 -14.9230 -14.9229 -14.9228 -14.9172 -14.9170
   -14.9169 -14.9051 -14.9050 -14.9050 -14.8650 -14.8649 -14.8648 -14.8198
   -14.8196 -14.8195 -10.3382 -10.3364 -10.3355 -10.3088 -10.3012 -10.2923
   -10.2702 -10.2648 -10.2624  -6.4164  -6.2990  -6.2179  -5.9894  -5.8489
    -5.7956  -5.6179  -5.6129  -5.5584  -5.5444  -5.4282  -5.3447  -0.6115
    -0.3888  -0.3155   1.3856   1.7175   1.8066   2.0856   2.2484   2.4050
     2.4615   2.6637   2.7846   2.9255   2.9541   3.0281   3.0465   3.2151
     3.2582   3.3786   3.4279   3.4368   3.4771   3.4957   3.5856   3.6274
     3.6906   3.8263   4.0215   4.0367   4.1259   4.1741   4.2101   4.2451
     4.4253   4.5191   4.6213   5.1567   5.1755   5.2288   5.2532   5.2680
     5.2797   5.3125   5.3386   5.3767   5.4725   5.4784   5.6026   5.6199
     5.6484   5.6607   5.7840   5.8222   5.9047   5.9287   6.0277   6.1522
     6.2638   6.2639   6.3359   6.3646   6.3904   6.5722   6.6388   6.7485
     6.7826

     occupation numbers 
     1.0000   1.0000   1.0000   1.0000   1.0000   1.0000   1.0000   1.0000
     1.0000   1.0000   1.0000   1.0000   1.0000   1.0000   1.0000   1.0000
     1.0000   1.0000   1.0000   1.0000   1.0000   1.0000   1.0000   1.0000
     1.0000   1.0000   1.0000   1.0000   1.0000   1.0000   1.0000   1.0000
     1.0000   1.0000   1.0000   1.0000   1.0000   1.0000   1.0000   1.0000
     1.0000   1.0000   1.0000   1.0000   1.0000   1.0000   1.0000   1.0000
     1.0000   1.0000   1.0000   1.0000   1.0000   1.0000   1.0000   1.0000
     1.0000   1.0000   1.0000   1.0000   1.0000   1.0000   1.0000   1.0000
     1.0000   1.0000   1.0000   1.0000   1.0000   1.0000   1.0000   1.0000
     1.0000   1.0000   1.0000   1.0000   1.0000   1.0000   1.0000   1.0000
     1.0000   1.0000   1.0000   1.0000   1.0000   1.0000   1.0000   1.0000
     1.0000   1.0000   1.0000   1.0000   1.0000   1.0000   1.0000   1.0000
     1.0000   1.0000   1.0000   1.0000   1.0000   1.0000   1.0000   1.0000
     1.0000

          k = 0.0000-0.5764-0.2032 ( 53192 PWs)   bands (ev):

   -28.2755 -28.2754 -28.2752 -14.9230 -14.9229 -14.9228 -14.9172 -14.9170
   -14.9169 -14.9051 -14.9050 -14.9050 -14.8650 -14.8649 -14.8648 -14.8198
   -14.8196 -14.8195 -10.3395 -10.3371 -10.3335 -10.3067 -10.3020 -10.2940
   -10.2694 -10.2658 -10.2618  -6.4053  -6.3057  -6.2338  -5.9921  -5.8292
    -5.7613  -5.6704  -5.6113  -5.5503  -5.5440  -5.4358  -5.3345  -0.6008
    -0.4192  -0.2971   1.4204   1.5959   1.9958   2.0156   2.2915   2.3705
     2.4121   2.6123   2.7916   2.8747   2.9719   3.0857   3.0903   3.2067
     3.2824   3.3859   3.4187   3.4393   3.4458   3.5313   3.5347   3.6603
     3.6688   3.8967   3.9850   4.0681   4.1116   4.1441   4.1521   4.2576
     4.4221   4.5808   4.5929   5.1646   5.1736   5.2312   5.2512   5.2539
     5.2720   5.3337   5.3549   5.3587   5.4312   5.5330   5.5864   5.6205
     5.6575   5.6939   5.7480   5.8162   5.8806   6.0154   6.0641   6.0691
     6.1564   6.2675   6.3451   6.3633   6.4471   6.6469   6.6688   6.7003
     6.7311

     occupation numbers 
     1.0000   1.0000   1.0000   1.0000   1.0000   1.0000   1.0000   1.0000
     1.0000   1.0000   1.0000   1.0000   1.0000   1.0000   1.0000   1.0000
     1.0000   1.0000   1.0000   1.0000   1.0000   1.0000   1.0000   1.0000
     1.0000   1.0000   1.0000   1.0000   1.0000   1.0000   1.0000   1.0000
     1.0000   1.0000   1.0000   1.0000   1.0000   1.0000   1.0000   1.0000
     1.0000   1.0000   1.0000   1.0000   1.0000   1.0000   1.0000   1.0000
     1.0000   1.0000   1.0000   1.0000   1.0000   1.0000   1.0000   1.0000
     1.0000   1.0000   1.0000   1.0000   1.0000   1.0000   1.0000   1.0000
     1.0000   1.0000   1.0000   1.0000   1.0000   1.0000   1.0000   1.0000
     1.0000   1.0000   1.0000   1.0000   1.0000   1.0000   1.0000   1.0000
     1.0000   1.0000   1.0000   1.0000   1.0000   1.0000   1.0000   1.0000
     1.0000   1.0000   1.0000   1.0000   1.0000   1.0000   1.0000   1.0000
     1.0000   1.0000   1.0000   1.0000   1.0000   1.0000   1.0000   1.0000
     1.0000

          k = 0.2496 0.4323-0.0000 ( 53218 PWs)   bands (ev):

   -28.2754 -28.2754 -28.2752 -14.9230 -14.9229 -14.9227 -14.9172 -14.9170
   -14.9169 -14.9051 -14.9051 -14.9049 -14.8650 -14.8649 -14.8648 -14.8197
   -14.8196 -14.8195 -10.3378 -10.3363 -10.3340 -10.3063 -10.3017 -10.2953
   -10.2681 -10.2679 -10.2624  -6.4438  -6.2783  -6.2587  -5.8735  -5.8107
    -5.7408  -5.7387  -5.6328  -5.6038  -5.5107  -5.4401  -5.3478  -0.5528
    -0.4153  -0.3434   1.5632   1.6854   1.8332   2.0153   2.2218   2.3269
     2.5697   2.6564   2.7551   2.8225   2.9116   2.9427   3.0647   3.2035
     3.2905   3.2945   3.3906   3.4420   3.5113   3.5240   3.5901   3.7031
     3.7259   3.7451   3.9622   4.0382   4.1182   4.1781   4.2805   4.3475
     4.4114   4.5230   4.5859   5.1429   5.1587   5.2105   5.2539   5.2829
     5.3032   5.3367   5.3584   5.4431   5.4498   5.5103   5.5375   5.6006
     5.6300   5.7076   5.7824   5.8025   5.8839   5.9506   6.0260   6.1271
     6.2244   6.2929   6.3869   6.3987   6.4902   6.5378   6.7138   6.7834
     6.7849

     occupation numbers 
     1.0000   1.0000   1.0000   1.0000   1.0000   1.0000   1.0000   1.0000
     1.0000   1.0000   1.0000   1.0000   1.0000   1.0000   1.0000   1.0000
     1.0000   1.0000   1.0000   1.0000   1.0000   1.0000   1.0000   1.0000
     1.0000   1.0000   1.0000   1.0000   1.0000   1.0000   1.0000   1.0000
     1.0000   1.0000   1.0000   1.0000   1.0000   1.0000   1.0000   1.0000
     1.0000   1.0000   1.0000   1.0000   1.0000   1.0000   1.0000   1.0000
     1.0000   1.0000   1.0000   1.0000   1.0000   1.0000   1.0000   1.0000
     1.0000   1.0000   1.0000   1.0000   1.0000   1.0000   1.0000   1.0000
     1.0000   1.0000   1.0000   1.0000   1.0000   1.0000   1.0000   1.0000
     1.0000   1.0000   1.0000   1.0000   1.0000   1.0000   1.0000   1.0000
     1.0000   1.0000   1.0000   1.0000   1.0000   1.0000   1.0000   1.0000
     1.0000   1.0000   1.0000   1.0000   1.0000   1.0000   1.0000   1.0000
     1.0000   1.0000   1.0000   1.0000   1.0000   1.0000   1.0000   1.0000
     1.0000

          k = 0.2496 0.4323-0.2032 ( 53166 PWs)   bands (ev):

   -28.2754 -28.2754 -28.2752 -14.9230 -14.9229 -14.9227 -14.9172 -14.9171
   -14.9169 -14.9051 -14.9051 -14.9049 -14.8650 -14.8649 -14.8648 -14.8197
   -14.8196 -14.8195 -10.3388 -10.3369 -10.3325 -10.3052 -10.3005 -10.2976
   -10.2688 -10.2676 -10.2619  -6.4124  -6.3617  -6.2062  -5.8601  -5.8216
    -5.7565  -5.7178  -5.6385  -5.6018  -5.5255  -5.4302  -5.3475  -0.5325
    -0.4580  -0.3214   1.5465   1.7171   1.8487   1.9717   2.2167   2.4422
     2.5374   2.5915   2.6550   2.8091   2.9597   2.9778   3.1386   3.1627
     3.2903   3.3012   3.3758   3.4616   3.4706   3.5479   3.6118   3.6778
     3.7097   3.8564   3.9129   4.0596   4.1035   4.1160   4.2907   4.2989
     4.4500   4.5082   4.6176   5.1533   5.1729   5.2115   5.2296   5.2699
     5.3130   5.3623   5.3696   5.4247   5.4396   5.4758   5.5759   5.6180
     5.6280   5.7446   5.7631   5.7752   5.8621   5.9556   6.0307   6.0929
     6.2077   6.2629   6.3573   6.4518   6.5447   6.5720   6.6331   6.7824
     6.8352

     occupation numbers 
     1.0000   1.0000   1.0000   1.0000   1.0000   1.0000   1.0000   1.0000
     1.0000   1.0000   1.0000   1.0000   1.0000   1.0000   1.0000   1.0000
     1.0000   1.0000   1.0000   1.0000   1.0000   1.0000   1.0000   1.0000
     1.0000   1.0000   1.0000   1.0000   1.0000   1.0000   1.0000   1.0000
     1.0000   1.0000   1.0000   1.0000   1.0000   1.0000   1.0000   1.0000
     1.0000   1.0000   1.0000   1.0000   1.0000   1.0000   1.0000   1.0000
     1.0000   1.0000   1.0000   1.0000   1.0000   1.0000   1.0000   1.0000
     1.0000   1.0000   1.0000   1.0000   1.0000   1.0000   1.0000   1.0000
     1.0000   1.0000   1.0000   1.0000   1.0000   1.0000   1.0000   1.0000
     1.0000   1.0000   1.0000   1.0000   1.0000   1.0000   1.0000   1.0000
     1.0000   1.0000   1.0000   1.0000   1.0000   1.0000   1.0000   1.0000
     1.0000   1.0000   1.0000   1.0000   1.0000   1.0000   1.0000   1.0000
     1.0000   1.0000   1.0000   1.0000   1.0000   1.0000   1.0000   1.0000
     1.0000

     highest occupied level (ev):     7.1816

!    total energy              =   -2269.30077433 Ry
     estimated scf accuracy    <          3.6E-11 Ry

     The total energy is the sum of the following terms:
     one-electron contribution =    -694.14982127 Ry
     hartree contribution      =     505.01565477 Ry
     xc contribution           =    -567.34754138 Ry
     ewald contribution        =    -973.87193994 Ry
     one-center paw contrib.   =    -538.94712652 Ry
      -> PAW hartree energy AE =       0.00000000 Ry
      -> PAW hartree energy PS =       0.00000000 Ry
      -> PAW xc energy AE      =       0.00000000 Ry
      -> PAW xc energy PS      =       0.00000000 Ry
      -> total E_H with PAW    =     505.01565477 Ry
      -> total E_XC with PAW   =    -567.34754138 Ry

     convergence has been achieved in  19 iterations

     negative rho (up, down):  1.979E-01 0.000E+00

     Forces acting on atoms (cartesian axes, Ry/au):

     atom    1 type  4   force =    -0.00015123    0.00026193    0.00000000
     atom    2 type  4   force =    -0.00015123   -0.00026193   -0.00000000
     atom    3 type  4   force =     0.00030245    0.00000000   -0.00000000
     atom    4 type  1   force =     0.00020527   -0.00039901    0.00019024
     atom    5 type  1   force =     0.00024292    0.00037727    0.00019024
     atom    6 type  1   force =    -0.00044818    0.00002174    0.00019024
     atom    7 type  1   force =    -0.00044818   -0.00002174   -0.00019024
     atom    8 type  1   force =     0.00020527    0.00039901   -0.00019024
     atom    9 type  1   force =     0.00024292   -0.00037727   -0.00019024
     atom   10 type  3   force =     0.00025913   -0.00044883    0.00000000
     atom   11 type  3   force =     0.00025913    0.00044883   -0.00000000
     atom   12 type  3   force =    -0.00051826   -0.00000000    0.00000000
     atom   13 type  2   force =     0.00024775   -0.00002630   -0.00004128
     atom   14 type  2   force =    -0.00010109    0.00022771   -0.00004128
     atom   15 type  2   force =    -0.00014665   -0.00020140   -0.00004128
     atom   16 type  2   force =    -0.00014665    0.00020140    0.00004128
     atom   17 type  2   force =     0.00024775    0.00002630    0.00004128
     atom   18 type  2   force =    -0.00010109   -0.00022771    0.00004128
     atom   19 type  2   force =    -0.00011636    0.00006387   -0.00024518
     atom   20 type  2   force =     0.00000286   -0.00013270   -0.00024518
     atom   21 type  2   force =     0.00011349    0.00006883   -0.00024518
     atom   22 type  2   force =     0.00011349   -0.00006883    0.00024518
     atom   23 type  2   force =    -0.00011636   -0.00006387    0.00024518
     atom   24 type  2   force =     0.00000286    0.00013270    0.00024518
     The non-local contrib.  to forces
     atom    1 type  4   force =    -0.00173220    0.00300025   -0.00000000
     atom    2 type  4   force =    -0.00173220   -0.00300026    0.00000000
     atom    3 type  4   force =     0.00346440    0.00000000   -0.00000000
     atom    4 type  1   force =    -0.05121747   -0.00941442   -0.02379675
     atom    5 type  1   force =     0.03376186   -0.03964842   -0.02379675
     atom    6 type  1   force =     0.01745561    0.04906285   -0.02379675
     atom    7 type  1   force =     0.01745561   -0.04906284    0.02379675
     atom    8 type  1   force =    -0.05121747    0.00941441    0.02379675
     atom    9 type  1   force =     0.03376186    0.03964843    0.02379675
     atom   10 type  3   force =    -0.00379933    0.00658063   -0.00000000
     atom   11 type  3   force =    -0.00379933   -0.00658063   -0.00000000
     atom   12 type  3   force =     0.00759866    0.00000000   -0.00000000
     atom   13 type  2   force =    -0.01754548    0.10159488   -0.08019760
     atom   14 type  2   force =    -0.07921099   -0.06599228   -0.08019760
     atom   15 type  2   force =     0.09675647   -0.03560259   -0.08019760
     atom   16 type  2   force =     0.09675647    0.03560261    0.08019760
     atom   17 type  2   force =    -0.01754548   -0.10159488    0.08019760
     atom   18 type  2   force =    -0.07921099    0.06599227    0.08019760
     atom   19 type  2   force =    -0.06799794   -0.07238711    0.00401075
     atom   20 type  2   force =     0.09668803   -0.02269440    0.00401075
     atom   21 type  2   force =    -0.02869009    0.09508151    0.00401075
     atom   22 type  2   force =    -0.02869009   -0.09508151   -0.00401075
     atom   23 type  2   force =    -0.06799794    0.07238710   -0.00401075
     atom   24 type  2   force =     0.09668803    0.02269442   -0.00401075
     The ionic contribution  to forces
     atom    1 type  4   force =    -0.98008792    1.69754419   -0.00006618
     atom    2 type  4   force =    -0.98008360   -1.69755446    0.00001884
     atom    3 type  4   force =     1.96015985   -0.00003509   -0.00009537
     atom    4 type  1   force =    -2.23424991    2.78499261    0.07879108
     atom    5 type  1   force =    -1.29470368   -3.32738711    0.07884215
     atom    6 type  1   force =     3.52900345    0.54249639    0.07875180
     atom    7 type  1   force =     3.52899524   -0.54242445   -0.07873215
     atom    8 type  1   force =    -2.23426011   -2.78494642   -0.07885329
     atom    9 type  1   force =    -1.29468680    3.32746515   -0.07875078
     atom   10 type  3   force =    -1.64165086    2.84340205   -0.00001816
     atom   11 type  3   force =    -1.64167822   -2.84344721    0.00000140
     atom   12 type  3   force =     3.28328290   -0.00001798    0.00004886
     atom   13 type  2   force =    -0.37793660   -2.63148910    0.75445444
     atom   14 type  2   force =     2.46793177    0.98835676    0.75451208
     atom   15 type  2   force =    -2.08990180    1.64306122    0.75442211
     atom   16 type  2   force =    -2.08996606   -1.64304631   -0.75447461
     atom   17 type  2   force =    -0.37801997    2.63146783   -0.75453385
     atom   18 type  2   force =     2.46788431   -0.98837824   -0.75439905
     atom   19 type  2   force =     1.35449693   -1.02924636   -0.23676730
     atom   20 type  2   force =     0.21410464    1.68765656   -0.23676686
     atom   21 type  2   force =    -1.56862932   -0.65845146   -0.23676855
     atom   22 type  2   force =    -1.56858145    0.65839722    0.23679213
     atom   23 type  2   force =     1.35448670    1.02925142    0.23679372
     atom   24 type  2   force =     0.21409049   -1.68766722    0.23679752
     The local contribution  to forces
     atom    1 type  4   force =     0.98156576   -1.70016461   -0.00011436
     atom    2 type  4   force =     0.98156555    1.70016491    0.00011423
     atom    3 type  4   force =    -1.96318533    0.00001330   -0.00033432
     atom    4 type  1   force =     2.27857600   -2.77249801   -0.05773196
     atom    5 type  1   force =     1.26173381    3.35954650   -0.05667238
     atom    6 type  1   force =    -3.54034267   -0.58710974   -0.05875988
     atom    7 type  1   force =    -3.54034308    0.58711051    0.05875914
     atom    8 type  1   force =     2.27857496    2.77249919    0.05773267
     atom    9 type  1   force =     1.26170101   -3.35956410    0.05980761
     atom   10 type  3   force =     1.64533409   -2.84986530   -0.00043114
     atom   11 type  3   force =     1.64533337    2.84986640    0.00043090
     atom   12 type  3   force =    -3.29077188    0.00001212    0.00124400
     atom   13 type  2   force =     0.39488076    2.53532118   -0.67854166
     atom   14 type  2   force =    -2.39305577   -0.92565540   -0.67848574
     atom   15 type  2   force =     1.99817829   -1.60956532   -0.67852655
     atom   16 type  2   force =     1.99817859    1.60956451    0.67852637
     atom   17 type  2   force =     0.39488136   -2.53532149    0.67854200
     atom   18 type  2   force =    -2.39301728    0.92567438    0.67855722
     atom   19 type  2   force =    -1.29017235    1.09786851    0.23275737
     atom   20 type  2   force =    -0.30567978   -1.66622296    0.23287170
     atom   21 type  2   force =     1.59587375    0.56839676    0.23277877
     atom   22 type  2   force =     1.59587371   -0.56839804   -0.23277918
     atom   23 type  2   force =    -1.29017193   -1.09786997   -0.23275777
     atom   24 type  2   force =    -0.30567474    1.66629661   -0.23270670
     The core correction contribution to forces
     atom    1 type  4   force =     0.00007553   -0.00013093    0.00001037
     atom    2 type  4   force =     0.00007553    0.00013093   -0.00001037
     atom    3 type  4   force =    -0.00015116    0.00000001    0.00003114
     atom    4 type  1   force =     0.00709734   -0.00347189    0.00351758
     atom    5 type  1   force =    -0.00054272    0.00788197    0.00366691
     atom    6 type  1   force =    -0.00655521   -0.00441112    0.00337032
     atom    7 type  1   force =    -0.00655521    0.00441113   -0.00337032
     atom    8 type  1   force =     0.00709733    0.00347189   -0.00351758
     atom    9 type  1   force =    -0.00054182   -0.00788230   -0.00322150
     atom   10 type  3   force =     0.00033904   -0.00058752   -0.00004115
     atom   11 type  3   force =     0.00033904    0.00058752    0.00004115
     atom   12 type  3   force =    -0.00067853    0.00000008    0.00012160
     atom   13 type  2   force =     0.00091353   -0.00543485    0.00421615
     atom   14 type  2   force =     0.00425182    0.00350914    0.00421484
     atom   15 type  2   force =    -0.00516410    0.00192783    0.00422460
     atom   16 type  2   force =    -0.00516410   -0.00192783   -0.00422460
     atom   17 type  2   force =     0.00091353    0.00543485   -0.00421615
     atom   18 type  2   force =     0.00425150   -0.00350839   -0.00422772
     atom   19 type  2   force =     0.00355742    0.00383209   -0.00025416
     atom   20 type  2   force =    -0.00509767    0.00116426   -0.00025590
     atom   21 type  2   force =     0.00153997   -0.00499697   -0.00024806
     atom   22 type  2   force =     0.00153997    0.00499697    0.00024806
     atom   23 type  2   force =     0.00355742   -0.00383209    0.00025416
     atom   24 type  2   force =    -0.00509777   -0.00116468    0.00024184
     The Hubbard contrib.    to forces
     atom    1 type  4   force =     0.00000000    0.00000000    0.00000000
     atom    2 type  4   force =     0.00000000    0.00000000    0.00000000
     atom    3 type  4   force =     0.00000000    0.00000000    0.00000000
     atom    4 type  1   force =     0.00000000    0.00000000    0.00000000
     atom    5 type  1   force =     0.00000000    0.00000000    0.00000000
     atom    6 type  1   force =     0.00000000    0.00000000    0.00000000
     atom    7 type  1   force =     0.00000000    0.00000000    0.00000000
     atom    8 type  1   force =     0.00000000    0.00000000    0.00000000
     atom    9 type  1   force =     0.00000000    0.00000000    0.00000000
     atom   10 type  3   force =     0.00000000    0.00000000    0.00000000
     atom   11 type  3   force =     0.00000000    0.00000000    0.00000000
     atom   12 type  3   force =     0.00000000    0.00000000    0.00000000
     atom   13 type  2   force =     0.00000000    0.00000000    0.00000000
     atom   14 type  2   force =     0.00000000    0.00000000    0.00000000
     atom   15 type  2   force =     0.00000000    0.00000000    0.00000000
     atom   16 type  2   force =     0.00000000    0.00000000    0.00000000
     atom   17 type  2   force =     0.00000000    0.00000000    0.00000000
     atom   18 type  2   force =     0.00000000    0.00000000    0.00000000
     atom   19 type  2   force =     0.00000000    0.00000000    0.00000000
     atom   20 type  2   force =     0.00000000    0.00000000    0.00000000
     atom   21 type  2   force =     0.00000000    0.00000000    0.00000000
     atom   22 type  2   force =     0.00000000    0.00000000    0.00000000
     atom   23 type  2   force =     0.00000000    0.00000000    0.00000000
     atom   24 type  2   force =     0.00000000    0.00000000    0.00000000
     The SCF correction term to forces
     atom    1 type  4   force =    -0.00000051    0.00000089   -0.00000000
     atom    2 type  4   force =    -0.00000051   -0.00000089    0.00000000
     atom    3 type  4   force =     0.00000103   -0.00000000   -0.00000000
     atom    4 type  1   force =     0.00000075   -0.00000201    0.00000002
     atom    5 type  1   force =     0.00000137    0.00000165    0.00000002
     atom    6 type  1   force =    -0.00000212    0.00000036    0.00000002
     atom    7 type  1   force =    -0.00000212   -0.00000036   -0.00000002
     atom    8 type  1   force =     0.00000075    0.00000201   -0.00000002
     atom    9 type  1   force =     0.00000137   -0.00000165   -0.00000001
     atom   10 type  3   force =     0.00000015   -0.00000026   -0.00000000
     atom   11 type  3   force =     0.00000015    0.00000026    0.00000000
     atom   12 type  3   force =    -0.00000030   -0.00000000    0.00000000
     atom   13 type  2   force =    -0.00000127   -0.00000000   -0.00000046
     atom   14 type  2   force =     0.00000064   -0.00000110   -0.00000046
     atom   15 type  2   force =     0.00000063    0.00000110   -0.00000046
     atom   16 type  2   force =     0.00000063   -0.00000110    0.00000046
     atom   17 type  2   force =    -0.00000127    0.00000000    0.00000046
     atom   18 type  2   force =     0.00000064    0.00000110    0.00000046
     atom   19 type  2   force =    -0.00000107   -0.00000068    0.00000019
     atom   20 type  2   force =     0.00000112   -0.00000058    0.00000019
     atom   21 type  2   force =    -0.00000006    0.00000127    0.00000019
     atom   22 type  2   force =    -0.00000006   -0.00000127   -0.00000019
     atom   23 type  2   force =    -0.00000107    0.00000068   -0.00000019
     atom   24 type  2   force =     0.00000112    0.00000059   -0.00000019

     Total force =     0.001832     Total SCF correction =     0.000007


     Computing stress (Cartesian axis) and pressure


     negative rho (up, down):  1.979E-01 0.000E+00
          total   stress  (Ry/bohr**3)                   (kbar)     P=       -0.20
  -0.00000113  -0.00000000  -0.00000000           -0.17       -0.00       -0.00
  -0.00000000  -0.00000113   0.00000000           -0.00       -0.17        0.00
   0.00000000  -0.00000000  -0.00000177            0.00       -0.00       -0.26

     kinetic stress (kbar)   8972.37      0.00     -0.00
                                0.00   8972.37      0.00
                               -0.00     -0.00   8994.25

     local   stress (kbar)  -2572.35      0.01     -0.01
                                0.01  -2572.34      0.01
                               -0.01      0.01  -3064.54

     nonloc. stress (kbar)   4082.05      0.00     -0.00
                                0.00   4082.05     -0.00
                               -0.00     -0.00   4081.07

     hartree stress (kbar)   6647.64     -0.00     -0.00
                               -0.00   6647.63      0.00
                               -0.00      0.00   6848.48

     exc-cor stress (kbar)   8517.82     -0.00      0.00
                               -0.00   8517.82     -0.00
                                0.00     -0.00   8518.27

     corecor stress (kbar) -12608.96      0.00     -0.00
                                0.00 -12608.96     -0.00
                               -0.00     -0.00 -12610.06

     ewald   stress (kbar) -13038.73     -0.01      0.01
                               -0.01 -13038.74     -0.01
                                0.01     -0.01 -12767.72

     hubbard stress (kbar)      0.00      0.00      0.00
                                0.00      0.00      0.00
                                0.00      0.00      0.00

     DFT-D   stress (kbar)      0.00      0.00      0.00
                                0.00      0.00      0.00
                                0.00      0.00      0.00

     XDM     stress (kbar)      0.00      0.00      0.00
                                0.00      0.00      0.00
                                0.00      0.00      0.00

     dft-nl  stress (kbar)      0.00      0.00      0.00
                                0.00      0.00      0.00
                                0.00      0.00      0.00

     TS-vdW  stress (kbar)      0.00      0.00      0.00
                                0.00      0.00      0.00
                                0.00      0.00      0.00

     MDB     stress (kbar)      0.00      0.00      0.00
                                0.00      0.00      0.00
                                0.00      0.00      0.00

     3D-RISM stress (kbar)      0.00      0.00      0.00
                                0.00      0.00      0.00
                                0.00      0.00      0.00


     Writing all to output data dir ./tmp/relax/SrCu2SnS4_relax.save/ :
     XML data file, charge density, pseudopotentials, collected wavefunctions

     init_run     :     14.67s CPU     16.17s WALL (       2 calls)
     electrons    :   1370.95s CPU   1385.91s WALL (       6 calls)
     update_pot   :      2.18s CPU      2.23s WALL (       4 calls)
     forces       :     24.92s CPU     25.53s WALL (       6 calls)
     stress       :     85.89s CPU     86.53s WALL (       6 calls)

     Called by init_run:
     wfcinit      :     11.47s CPU     11.86s WALL (       2 calls)
     wfcinit:atom :      0.03s CPU      0.04s WALL (       8 calls)
     wfcinit:wfcr :     11.06s CPU     11.19s WALL (       8 calls)
     potinit      :      0.98s CPU      0.99s WALL (       2 calls)
     hinit0       :      0.47s CPU      0.48s WALL (       2 calls)

     Called by electrons:
     c_bands      :   1114.97s CPU   1125.80s WALL (      76 calls)
     sum_band     :    168.68s CPU    171.81s WALL (      76 calls)
     v_of_rho     :     15.24s CPU     15.56s WALL (      78 calls)
     v_h          :      1.01s CPU      1.01s WALL (      78 calls)
     v_xc         :     16.39s CPU     16.77s WALL (      90 calls)
     newd         :     54.47s CPU     55.83s WALL (      78 calls)
     PAW_pot      :     21.87s CPU     21.97s WALL (      82 calls)
     mix_rho      :      1.70s CPU      1.90s WALL (      76 calls)

     Called by c_bands:
     init_us_2    :      5.43s CPU      5.72s WALL (     680 calls)
     cegterg      :   1067.41s CPU   1076.22s WALL (     306 calls)

     Called by sum_band:
     sum_band:wei :      0.00s CPU      0.01s WALL (      76 calls)
     sum_band:loo :    105.10s CPU    106.87s WALL (      76 calls)
     sum_band:buf :      0.00s CPU      0.93s WALL (     304 calls)
     sum_band:ini :      2.34s CPU      2.38s WALL (     304 calls)
     sum_band:cal :     43.63s CPU     43.95s WALL (     320 calls)
     sum_band:bec :      0.07s CPU      0.07s WALL (     320 calls)
     addusdens    :     58.92s CPU     60.21s WALL (      76 calls)
                                        0.00s GPU  (      76 calls)
     addusd:skk   :      0.31s CPU      0.36s WALL (     304 calls)
                                        0.00s GPU  (     304 calls)

     Called by *egterg:
     cdiaghg      :     15.34s CPU     15.44s WALL (    1784 calls)
     cegterg:over :     85.18s CPU     85.84s WALL (    1512 calls)
     cegterg:upda :     49.03s CPU     49.38s WALL (    1512 calls)
     cegterg:last :    115.64s CPU    116.41s WALL (     833 calls)
     h_psi        :    647.90s CPU    653.41s WALL (    1826 calls)
     s_psi        :    138.47s CPU    139.58s WALL (    1826 calls)
     g_psi        :      0.90s CPU      0.91s WALL (    1512 calls)

     Called by h_psi:
     h_psi:calbec :    137.46s CPU    138.48s WALL (    1826 calls)
     vloc_psi     :    369.45s CPU    372.94s WALL (    1826 calls)
                                        0.00s GPU  (    1826 calls)
     add_vuspsi   :    140.02s CPU    140.92s WALL (    1826 calls)

     General routines
     calbec       :    237.49s CPU    239.14s WALL (    2554 calls)
     fft          :     12.86s CPU     13.01s WALL (    1160 calls)
     ffts         :      0.54s CPU      0.55s WALL (     154 calls)
     fftw         :    398.37s CPU    401.92s WALL (  237416 calls)
     interpolate  :      1.21s CPU      1.22s WALL (      78 calls)
     davcio       :      0.01s CPU      2.98s WALL (    1872 calls)

     Parallel routines

     PAW routines
     PAW_pot      :     21.87s CPU     21.97s WALL (      82 calls)
     PAW_symme    :      0.02s CPU      0.02s WALL (     158 calls)

     PWSCF        :  25m 5.14s CPU  25m23.30s WALL


   This run was terminated on:   5:37: 0  30Jun2026            

=------------------------------------------------------------------------------=
   JOB DONE.
=------------------------------------------------------------------------------=
