
     Program PWSCF v.7.3.1 starts on 21Aug2026 at  3:41:22 

     This program is part of the open-source Quantum ESPRESSO suite
     for quantum simulation of materials; please cite
         "P. Giannozzi et al., J. Phys.:Condens. Matter 21 395502 (2009);
         "P. Giannozzi et al., J. Phys.:Condens. Matter 29 465901 (2017);
         "P. Giannozzi et al., J. Chem. Phys. 152 154105 (2020);
          URL http://www.quantum-espresso.org", 
     in publications or presentations arising from this work. More details at
     http://www.quantum-espresso.org/quote

     Parallel version (MPI & OpenMP), running on      32 processor cores
     Number of MPI processes:                32
     Threads/MPI process:                     1

     MPI processes distributed on     1 nodes
     232936 MiB available memory on the printing compute node when the environment starts

     Reading input from scf.in

     Current dimensions of program PWSCF are:
     Max number of different atomic species (ntypx) = 10
     Max number of k-points (npk) =  40000
     Max angular momentum in pseudopotentials (lmaxx) =  4
     file Cu.paw.z_11.ld1.psl.v1.0.0-low.upf: wavefunction(s)  4S 3D renormalized

     K-points division:     npool     =       2
     R & G space division:  proc/nbgrp/npool/nimage =      16
     Subspace diagonalization in iterative solution of the eigenvalue problem:
     one sub-group per band group will be used
     scalapack distributed-memory algorithm (size of sub-group:  4*  4 procs)


     Parallelization info
     --------------------
     sticks:   dense  smooth     PW     G-vecs:    dense   smooth      PW
     Min        1193     597    157               163743    57882    7779
     Max        1194     599    158               163747    57885    7784
     Sum       19099    9565   2515              2619931   926125  124485

     Using Slab Decomposition



     bravais-lattice index     =            0
     lattice parameter (alat)  =      24.0273  a.u.
     unit-cell volume          =   14752.0463 (a.u.)^3
     number of atoms/cell      =           96
     number of atomic types    =            4
     number of electrons       =       840.00
     number of Kohn-Sham states=          420
     kinetic-energy cutoff     =      60.0000  Ry
     charge density cutoff     =     480.0000  Ry
     scf convergence threshold =      1.0E-09
     mixing beta               =       0.3000
     number of iterations used =            8  plain     mixing
     Exchange-correlation=  SLA  PW   PBX  PBC
                           (   1   4   3   4   0   0   0)

     celldm(1)=  24.027274  celldm(2)=   0.000000  celldm(3)=   0.000000
     celldm(4)=   0.000000  celldm(5)=   0.000000  celldm(6)=   0.000000

     crystal axes: (cart. coord. in units of alat)
               a(1) = (   1.000000   0.000000   0.000000 )  
               a(2) = (  -0.500000   0.866025   0.000000 )  
               a(3) = (   0.000000   0.000000   1.228028 )  

     reciprocal axes: (cart. coord. in units 2 pi/alat)
               b(1) = (  1.000000  0.577351 -0.000000 )  
               b(2) = (  0.000000  1.154701  0.000000 )  
               b(3) = (  0.000000 -0.000000  0.814314 )  


     PseudoPot. # 1 for Sr read from file:
     /home/yuhansun/pseudos/SSSP-1.3.0-PBE-precision/Sr_pbe_v1.uspp.F.UPF
     MD5 check sum: 6b418c05fbe9db5448babca5e47b7a5b
     Pseudo is Ultrasoft + core correction, Zval = 10.0
     Generated by new atomic code, or converted to UPF format
     Using radial grid of  883 points,  6 beta functions with: 
                l(1) =   0
                l(2) =   0
                l(3) =   1
                l(4) =   1
                l(5) =   2
                l(6) =   2
     Q(r) pseudized with  6 coefficients,  rinner =    1.400   1.400   1.400
                                                       1.400   1.400

     PseudoPot. # 2 for Cu read from file:
     /home/yuhansun/pseudos/SSSP-1.3.0-PBE-precision/Cu.paw.z_11.ld1.psl.v1.0.0-low.upf
     MD5 check sum: 619f40885d92a09a85a8b37550532d0c
     Pseudo is Projector augmented-wave + core cor, Zval = 11.0
     Generated using &quot;atomic&quot; code by A. Dal Corso  v.6.3MaX
     Shape of augmentation charge: PSQ
     Using radial grid of 1199 points,  6 beta functions with: 
                l(1) =   0
                l(2) =   0
                l(3) =   1
                l(4) =   1
                l(5) =   2
                l(6) =   2
     Q(r) pseudized with 0 coefficients 


     PseudoPot. # 3 for Sn read from file:
     /home/yuhansun/pseudos/SSSP-1.3.0-PBE-precision/Sn_pbe_v1.uspp.F.UPF
     MD5 check sum: 4cf58ce39ec5d5d420df3dd08604eb00
     Pseudo is Ultrasoft + core correction, Zval = 14.0
     Generated by new atomic code, or converted to UPF format
     Using radial grid of  891 points,  6 beta functions with: 
                l(1) =   0
                l(2) =   0
                l(3) =   1
                l(4) =   1
                l(5) =   2
                l(6) =   2
     Q(r) pseudized with  6 coefficients,  rinner =    1.200   1.200   1.200
                                                       1.200   1.200

     PseudoPot. # 4 for S  read from file:
     /home/yuhansun/pseudos/SSSP-1.3.0-PBE-precision/s_pbe_v1.4.uspp.F.UPF
     MD5 check sum: 88d86576ff6df21479756cfb9bdac1df
     Pseudo is Ultrasoft + core correction, Zval =  6.0
     Generated by new atomic code, or converted to UPF format
     Using radial grid of  907 points,  6 beta functions with: 
                l(1) =   0
                l(2) =   0
                l(3) =   1
                l(4) =   1
                l(5) =   2
                l(6) =   2
     Q(r) pseudized with  8 coefficients,  rinner =    1.300   1.300   1.300
                                                       1.300   1.300

     atomic species   valence    mass     pseudopotential
     Sr               10.00    87.62000     Sr( 1.00)
     Cu               11.00    63.54600     Cu( 1.00)
     Sn               14.00   118.71000     Sn( 1.00)
     S                 6.00    32.06500     S ( 1.00)

     No symmetry found



   Cartesian axes

     site n.     atom                  positions (alat units)
         1        Sr     tau(   1) = (  -0.1405753   0.2434834   0.2046717  )
         2        Sr     tau(   2) = (   0.3594247   0.2434834   0.2046717  )
         3        Sr     tau(   3) = (  -0.3905753   0.6764960   0.2046717  )
         4        Sr     tau(   4) = (   0.1094247   0.6764960   0.2046717  )
         5        Sr     tau(   5) = (   0.1094247   0.1895292   0.6140139  )
         6        Sr     tau(   6) = (   0.6094247   0.1895292   0.6140139  )
         7        Sr     tau(   7) = (  -0.1405753   0.6225418   0.6140139  )
         8        Sr     tau(   8) = (   0.3594247   0.6225418   0.6140139  )
         9        Sr     tau(   9) = (   0.2811505   0.0000000   1.0233574  )
        10        Sr     tau(  10) = (   0.7811505   0.0000000   1.0233574  )
        11        Sr     tau(  11) = (   0.0311505   0.4330126   1.0233574  )
        12        Sr     tau(  12) = (   0.5311505   0.4330126   1.0233574  )
        13        Cu     tau(  13) = (  -0.1226788   0.2753211   0.5061747  )
        14        Cu     tau(  14) = (   0.3773212   0.2753211   0.5061747  )
        15        Cu     tau(  15) = (  -0.3726788   0.7083337   0.5061747  )
        16        Cu     tau(  16) = (   0.1273212   0.7083337   0.5061747  )
        17        Cu     tau(  17) = (   0.0729045   0.1891087   0.9155169  )
        18        Cu     tau(  18) = (   0.5729045   0.1891087   0.9155169  )
        19        Cu     tau(  19) = (  -0.1770956   0.6221213   0.9155169  )
        20        Cu     tau(  20) = (   0.3229044   0.6221213   0.9155169  )
        21        Cu     tau(  21) = (   0.0497750   0.4015949   0.0968325  )
        22        Cu     tau(  22) = (   0.5497750   0.4015949   0.0968325  )
        23        Cu     tau(  23) = (  -0.2002251   0.8346075   0.0968325  )
        24        Cu     tau(  24) = (   0.2997749   0.8346075   0.0968325  )
        25        Cu     tau(  25) = (   0.2997745   0.0314177   0.7218532  )
        26        Cu     tau(  26) = (   0.7997745   0.0314177   0.7218532  )
        27        Cu     tau(  27) = (   0.0497745   0.4644302   0.7218532  )
        28        Cu     tau(  28) = (   0.5497745   0.4644302   0.7218532  )
        29        Cu     tau(  29) = (   0.1273207   0.1576915   0.3125110  )
        30        Cu     tau(  30) = (   0.6273207   0.1576915   0.3125110  )
        31        Cu     tau(  31) = (  -0.1226793   0.5907041   0.3125110  )
        32        Cu     tau(  32) = (   0.3773207   0.5907041   0.3125110  )
        33        Cu     tau(  33) = (   0.3229040   0.2439039   1.1311954  )
        34        Cu     tau(  34) = (   0.8229040   0.2439039   1.1311954  )
        35        Cu     tau(  35) = (   0.0729039   0.6769164   1.1311954  )
        36        Cu     tau(  36) = (   0.5729039   0.6769164   1.1311954  )
        37        Sn     tau(  37) = (  -0.1762580   0.3052877   0.8186857  )
        38        Sn     tau(  38) = (   0.3237420   0.3052877   0.8186857  )
        39        Sn     tau(  39) = (  -0.4262581   0.7383003   0.8186857  )
        40        Sn     tau(  40) = (   0.0737419   0.7383003   0.8186857  )
        41        Sn     tau(  41) = (   0.0737420   0.1277249   0.0000000  )
        42        Sn     tau(  42) = (   0.5737420   0.1277249   0.0000000  )
        43        Sn     tau(  43) = (  -0.1762581   0.5607374   0.0000000  )
        44        Sn     tau(  44) = (   0.3237419   0.5607374   0.0000000  )
        45        Sn     tau(  45) = (   0.3525160   0.0000000   0.4093422  )
        46        Sn     tau(  46) = (   0.8525160   0.0000000   0.4093422  )
        47        Sn     tau(  47) = (   0.1025160   0.4330126   0.4093422  )
        48        Sn     tau(  48) = (   0.6025160   0.4330126   0.4093422  )
        49        S      tau(  49) = (  -0.0975717   0.2081538   0.9696121  )
        50        S      tau(  50) = (   0.4011797   0.2103164   0.9671149  )
        51        S      tau(  51) = (  -0.3488203   0.6433290   0.9671149  )
        52        S      tau(  52) = (   0.1511797   0.6433290   0.9671149  )
        53        S      tau(  53) = (   0.1172707   0.2422736   0.1484293  )
        54        S      tau(  54) = (   0.6172707   0.2422736   0.1484293  )
        55        S      tau(  55) = (  -0.1327293   0.6752862   0.1484293  )
        56        S      tau(  56) = (   0.3672707   0.6752862   0.1484293  )
        57        S      tau(  57) = (  -0.0184505   0.4134352   0.5577727  )
        58        S      tau(  58) = (   0.4815495   0.4134352   0.5577727  )
        59        S      tau(  59) = (  -0.2684506   0.8464478   0.5577727  )
        60        S      tau(  60) = (   0.2315494   0.8464478   0.5577727  )
        61        S      tau(  61) = (   0.2315495   0.0195774   0.2609129  )
        62        S      tau(  62) = (   0.7315495   0.0195774   0.2609129  )
        63        S      tau(  63) = (  -0.0184505   0.4525899   0.2609129  )
        64        S      tau(  64) = (   0.4815495   0.4525899   0.2609129  )
        65        S      tau(  65) = (   0.1511797   0.2226962   1.0795986  )
        66        S      tau(  66) = (   0.6511797   0.2226962   1.0795986  )
        67        S      tau(  67) = (  -0.0988203   0.6557088   1.0795986  )
        68        S      tau(  68) = (   0.4011797   0.6557088   1.0795986  )
        69        S      tau(  69) = (   0.3672707   0.1907390   0.6702552  )
        70        S      tau(  70) = (   0.8672707   0.1907390   0.6702552  )
        71        S      tau(  71) = (   0.1172707   0.6237516   0.6702552  )
        72        S      tau(  72) = (   0.6172707   0.6237516   0.6702552  )
        73        S      tau(  73) = (  -0.0296498   0.1532012   0.4035914  )
        74        S      tau(  74) = (   0.4703502   0.1532012   0.4035914  )
        75        S      tau(  75) = (  -0.2796498   0.5862137   0.4035914  )
        76        S      tau(  76) = (   0.2203502   0.5862137   0.4035914  )
        77        S      tau(  77) = (   0.1321490   0.3307341   0.8129336  )
        78        S      tau(  78) = (   0.6321490   0.3307341   0.8129336  )
        79        S      tau(  79) = (  -0.1178511   0.7637467   0.8129336  )
        80        S      tau(  80) = (   0.3821489   0.7637467   0.8129336  )
        81        S      tau(  81) = (  -0.1024985   0.3820894   1.2222770  )
        82        S      tau(  82) = (   0.3975015   0.3820894   1.2222770  )
        83        S      tau(  83) = (  -0.3524986   0.8151020   1.2222770  )
        84        S      tau(  84) = (   0.1475014   0.8151020   1.2222770  )
        85        S      tau(  85) = (   0.1475010   0.0509231   0.8244365  )
        86        S      tau(  86) = (   0.6475010   0.0509231   0.8244365  )
        87        S      tau(  87) = (  -0.1024990   0.4839357   0.8244365  )
        88        S      tau(  88) = (   0.3975010   0.4839357   0.8244365  )
        89        S      tau(  89) = (   0.2203497   0.2798114   0.4150943  )
        90        S      tau(  90) = (   0.7203497   0.2798114   0.4150943  )
        91        S      tau(  91) = (  -0.0296503   0.7128240   0.4150943  )
        92        S      tau(  92) = (   0.4703497   0.7128240   0.4150943  )
        93        S      tau(  93) = (   0.3821485   0.1022784   0.0057509  )
        94        S      tau(  94) = (   0.8821485   0.1022784   0.0057509  )
        95        S      tau(  95) = (   0.1321485   0.5352910   0.0057509  )
        96        S      tau(  96) = (   0.6321485   0.5352910   0.0057509  )

     number of k points=    14
                       cart. coord. in units 2pi/alat
        k(    1) = (   0.0000000   0.0000000   0.0000000), wk =   0.0740741
        k(    2) = (   0.0000000   0.0000000   0.2714379), wk =   0.1481481
        k(    3) = (   0.0000000   0.3849003   0.0000000), wk =   0.1481481
        k(    4) = (   0.0000000   0.3849003   0.2714379), wk =   0.1481481
        k(    5) = (   0.3333333   0.5773505   0.0000000), wk =   0.1481481
        k(    6) = (   0.3333333   0.5773505   0.2714379), wk =   0.1481481
        k(    7) = (  -0.3333333   0.1924501   0.0000000), wk =   0.1481481
        k(    8) = (   0.3333333   0.1924502   0.0000000), wk =   0.1481481
        k(    9) = (   0.0000000  -0.3849003   0.2714379), wk =   0.1481481
        k(   10) = (  -0.3333333   0.1924501   0.2714379), wk =   0.1481481
        k(   11) = (   0.3333333   0.1924502   0.2714379), wk =   0.1481481
        k(   12) = (  -0.3333333  -0.1924502   0.2714379), wk =   0.1481481
        k(   13) = (   0.3333333  -0.1924501   0.2714379), wk =   0.1481481
        k(   14) = (  -0.3333333  -0.5773505   0.2714379), wk =   0.1481481

     Dense  grid:  2619931 G-vectors     FFT dimensions: ( 180, 180, 216)

     Smooth grid:   926125 G-vectors     FFT dimensions: ( 120, 120, 150)

     Estimated max dynamical RAM per process >       1.07 GB

     Estimated total dynamical RAM >      33.54 GB

     Initial potential from superposition of free atoms

     starting charge     827.5884, renormalised to     840.0000

     negative rho (up, down):  7.777E-01 0.000E+00
     Starting wfcs are  672 randomized atomic wfcs
     Checking if some PAW data can be deallocated... 

     total cpu time spent up to now is       41.8 secs

     Self-consistent Calculation

     iteration #  1     ecut=    60.00 Ry     beta= 0.30
     Davidson diagonalization with overlap
     ethr =  1.00E-02,  avg # of iterations =  2.0

     negative rho (up, down):  7.747E-01 0.000E+00

     total cpu time spent up to now is      116.7 secs

     total energy              =   -9070.26090855 Ry
     estimated scf accuracy    <      22.04645934 Ry

     iteration #  2     ecut=    60.00 Ry     beta= 0.30
     Davidson diagonalization with overlap
     ethr =  2.62E-03,  avg # of iterations =  4.9

     negative rho (up, down):  7.752E-01 0.000E+00

     total cpu time spent up to now is      211.4 secs

     total energy              =   -9076.60662423 Ry
     estimated scf accuracy    <       8.35144133 Ry

     iteration #  3     ecut=    60.00 Ry     beta= 0.30
     Davidson diagonalization with overlap
     ethr =  9.94E-04,  avg # of iterations =  2.0

     negative rho (up, down):  7.803E-01 0.000E+00

     total cpu time spent up to now is      287.3 secs

     total energy              =   -9076.47997681 Ry
     estimated scf accuracy    <       1.64114657 Ry

     iteration #  4     ecut=    60.00 Ry     beta= 0.30
     Davidson diagonalization with overlap
     ethr =  1.95E-04,  avg # of iterations =  6.6

     negative rho (up, down):  7.829E-01 0.000E+00

     total cpu time spent up to now is      397.5 secs

     total energy              =   -9076.70033783 Ry
     estimated scf accuracy    <       2.09907541 Ry

     iteration #  5     ecut=    60.00 Ry     beta= 0.30
     Davidson diagonalization with overlap
     ethr =  1.95E-04,  avg # of iterations =  5.5

     negative rho (up, down):  7.883E-01 0.000E+00

     total cpu time spent up to now is      487.0 secs

     total energy              =   -9077.13774847 Ry
     estimated scf accuracy    <       0.13747568 Ry

     iteration #  6     ecut=    60.00 Ry     beta= 0.30
     Davidson diagonalization with overlap
     ethr =  1.64E-05,  avg # of iterations =  5.9

     negative rho (up, down):  7.901E-01 0.000E+00

     total cpu time spent up to now is      582.0 secs

     total energy              =   -9077.18434001 Ry
     estimated scf accuracy    <       0.01396375 Ry

     iteration #  7     ecut=    60.00 Ry     beta= 0.30
     Davidson diagonalization with overlap
     ethr =  1.66E-06,  avg # of iterations =  5.3

     negative rho (up, down):  7.907E-01 0.000E+00

     total cpu time spent up to now is      680.7 secs

     total energy              =   -9077.18852090 Ry
     estimated scf accuracy    <       0.00609429 Ry

     iteration #  8     ecut=    60.00 Ry     beta= 0.30
     Davidson diagonalization with overlap
     ethr =  7.26E-07,  avg # of iterations =  6.2

     negative rho (up, down):  7.911E-01 0.000E+00

     total cpu time spent up to now is      797.7 secs

     total energy              =   -9077.17915272 Ry
     estimated scf accuracy    <       0.04833897 Ry

     iteration #  9     ecut=    60.00 Ry     beta= 0.30
     Davidson diagonalization with overlap
     ethr =  7.26E-07,  avg # of iterations =  6.9

     negative rho (up, down):  7.911E-01 0.000E+00

     total cpu time spent up to now is      922.8 secs

     total energy              =   -9077.18717623 Ry
     estimated scf accuracy    <       0.00180594 Ry

     iteration # 10     ecut=    60.00 Ry     beta= 0.30
     Davidson diagonalization with overlap
     ethr =  2.15E-07,  avg # of iterations =  2.0

     negative rho (up, down):  7.908E-01 0.000E+00

     total cpu time spent up to now is      995.0 secs

     total energy              =   -9077.18693620 Ry
     estimated scf accuracy    <       0.00079566 Ry

     iteration # 11     ecut=    60.00 Ry     beta= 0.30
     Davidson diagonalization with overlap
     ethr =  9.47E-08,  avg # of iterations =  6.1

     negative rho (up, down):  7.905E-01 0.000E+00

     total cpu time spent up to now is     1093.7 secs

     total energy              =   -9077.18716084 Ry
     estimated scf accuracy    <       0.00021023 Ry

     iteration # 12     ecut=    60.00 Ry     beta= 0.30
     Davidson diagonalization with overlap
     ethr =  2.50E-08,  avg # of iterations =  3.1

     negative rho (up, down):  7.904E-01 0.000E+00

     total cpu time spent up to now is     1180.7 secs

     total energy              =   -9077.18719189 Ry
     estimated scf accuracy    <       0.00008979 Ry

     iteration # 13     ecut=    60.00 Ry     beta= 0.30
     Davidson diagonalization with overlap
     ethr =  1.07E-08,  avg # of iterations =  2.6

     negative rho (up, down):  7.903E-01 0.000E+00

     total cpu time spent up to now is     1264.4 secs

     total energy              =   -9077.18719976 Ry
     estimated scf accuracy    <       0.00001872 Ry

     iteration # 14     ecut=    60.00 Ry     beta= 0.30
     Davidson diagonalization with overlap
     ethr =  2.23E-09,  avg # of iterations =  5.4

     negative rho (up, down):  7.903E-01 0.000E+00

     total cpu time spent up to now is     1360.1 secs

     total energy              =   -9077.18720474 Ry
     estimated scf accuracy    <       0.00000095 Ry

     iteration # 15     ecut=    60.00 Ry     beta= 0.30
     Davidson diagonalization with overlap
     ethr =  1.14E-10,  avg # of iterations =  6.4

     negative rho (up, down):  7.902E-01 0.000E+00

     total cpu time spent up to now is     1483.7 secs

     total energy              =   -9077.18720547 Ry
     estimated scf accuracy    <       0.00000044 Ry

     iteration # 16     ecut=    60.00 Ry     beta= 0.30
     Davidson diagonalization with overlap
     ethr =  5.22E-11,  avg # of iterations =  5.2

     negative rho (up, down):  7.902E-01 0.000E+00

     total cpu time spent up to now is     1579.8 secs

     total energy              =   -9077.18720561 Ry
     estimated scf accuracy    <       0.00000024 Ry

     iteration # 17     ecut=    60.00 Ry     beta= 0.30
     Davidson diagonalization with overlap
     ethr =  2.83E-11,  avg # of iterations =  2.0

     negative rho (up, down):  7.902E-01 0.000E+00

     total cpu time spent up to now is     1656.2 secs

     total energy              =   -9077.18720563 Ry
     estimated scf accuracy    <       0.00000008 Ry

     iteration # 18     ecut=    60.00 Ry     beta= 0.30
     Davidson diagonalization with overlap
     ethr =  9.22E-12,  avg # of iterations =  5.8

     negative rho (up, down):  7.902E-01 0.000E+00

     total cpu time spent up to now is     1753.3 secs

     total energy              =   -9077.18720567 Ry
     estimated scf accuracy    <       0.00000001 Ry

     iteration # 19     ecut=    60.00 Ry     beta= 0.30
     Davidson diagonalization with overlap
     ethr =  1.48E-12,  avg # of iterations =  4.0

     negative rho (up, down):  7.902E-01 0.000E+00

     total cpu time spent up to now is     1845.1 secs

     total energy              =   -9077.18720568 Ry
     estimated scf accuracy    <          4.4E-09 Ry

     iteration # 20     ecut=    60.00 Ry     beta= 0.30
     Davidson diagonalization with overlap
     ethr =  5.19E-13,  avg # of iterations =  5.3

     negative rho (up, down):  7.902E-01 0.000E+00

     total cpu time spent up to now is     1939.1 secs

     total energy              =   -9077.18720568 Ry
     estimated scf accuracy    <          1.2E-09 Ry

     iteration # 21     ecut=    60.00 Ry     beta= 0.30
     Davidson diagonalization with overlap
     ethr =  1.39E-13,  avg # of iterations =  4.2

     negative rho (up, down):  7.902E-01 0.000E+00

     total cpu time spent up to now is     2038.6 secs

     End of self-consistent calculation

          k = 0.0000 0.0000 0.0000 (115723 PWs)   bands (ev):

   -28.2796 -28.2780 -28.2779 -28.2778 -28.2770 -28.2755 -28.2751 -28.2749
   -28.2748 -28.2748 -28.2736 -28.2549 -14.9246 -14.9243 -14.9242 -14.9239
   -14.9237 -14.9234 -14.9233 -14.9213 -14.9213 -14.9210 -14.9204 -14.9187
   -14.9186 -14.9184 -14.9183 -14.9181 -14.9178 -14.9175 -14.9174 -14.9154
   -14.9153 -14.9145 -14.9128 -14.9119 -14.9066 -14.9064 -14.9062 -14.9060
   -14.9058 -14.9054 -14.9054 -14.9033 -14.9031 -14.9024 -14.9007 -14.8992
   -14.8664 -14.8662 -14.8660 -14.8658 -14.8656 -14.8653 -14.8653 -14.8642
   -14.8631 -14.8629 -14.8623 -14.8605 -14.8213 -14.8210 -14.8208 -14.8206
   -14.8204 -14.8201 -14.8201 -14.8191 -14.8179 -14.8179 -14.8171 -14.8154
   -10.3407 -10.3398 -10.3390 -10.3384 -10.3363 -10.3360 -10.3359 -10.3350
   -10.3331 -10.3317 -10.3263 -10.3155 -10.3109 -10.3090 -10.3085 -10.3057
   -10.3036 -10.3017 -10.3013 -10.2983 -10.2935 -10.2927 -10.2871 -10.2784
   -10.2729 -10.2700 -10.2692 -10.2669 -10.2656 -10.2644 -10.2629 -10.2624
   -10.2600 -10.2591 -10.2555 -10.2443  -6.8617  -6.5546  -6.5524  -6.4178
    -6.4163  -6.4102  -6.2998  -6.2988  -6.2934  -6.2190  -6.2165  -6.2097
    -5.9917  -5.9905  -5.9883  -5.8510  -5.8496  -5.8489  -5.7967  -5.7958
    -5.7939  -5.7377  -5.7358  -5.6198  -5.6187  -5.6165  -5.6146  -5.6128
    -5.6122  -5.5999  -5.5605  -5.5589  -5.5562  -5.5472  -5.5442  -5.5424
    -5.5181  -5.5116  -5.4327  -5.4297  -5.4290  -5.4241  -5.3748  -5.3713
    -5.3476  -5.3449  -5.3380  -5.2494  -0.6124  -0.6115  -0.6093  -0.3894
    -0.3887  -0.3882  -0.3491  -0.3166  -0.3150  -0.3132  -0.3004  -0.3000
     1.3844   1.3851   1.3853   1.5908   1.5935   1.6542   1.7163   1.7179
     1.7182   1.8038   1.8052   1.8077   2.0203   2.0409   2.0417   2.0834
     2.0845   2.0855   2.2474   2.2492   2.2501   2.3091   2.3120   2.4022
     2.4048   2.4062   2.4605   2.4610   2.4633   2.5474   2.5506   2.6608
     2.6629   2.6661   2.7838   2.7841   2.7854   2.8706   2.8733   2.9235
     2.9245   2.9265   2.9523   2.9537   2.9569   3.0259   3.0268   3.0279
     3.0460   3.0462   3.0473   3.1635   3.2137   3.2150   3.2178   3.2260
     3.2270   3.2562   3.2569   3.2605   3.3746   3.3765   3.3775   3.3914
     3.3930   3.4229   3.4265   3.4276   3.4343   3.4357   3.4362   3.4731
     3.4757   3.4765   3.4917   3.4942   3.4949   3.4956   3.5158   3.5199
     3.5835   3.5842   3.5858   3.6256   3.6273   3.6286   3.6886   3.6894
     3.6899   3.6916   3.6942   3.7046   3.7940   3.7958   3.8240   3.8251
     3.8270   3.9620   4.0184   4.0199   4.0228   4.0336   4.0357   4.0361
     4.1235   4.1236   4.1246   4.1272   4.1723   4.1735   4.1738   4.2009
     4.2081   4.2089   4.2100   4.2425   4.2439   4.2449   4.2804   4.2838
     4.4224   4.4245   4.4254   4.5171   4.5194   4.5195   4.5342   4.5362
     4.6198   4.6203   4.6210   4.8570   5.1233   5.1533   5.1541   5.1554
     5.1720   5.1730   5.1737   5.1760   5.1788   5.2207   5.2242   5.2256
     5.2269   5.2277   5.2290   5.2499   5.2510   5.2514   5.2643   5.2654
     5.2667   5.2768   5.2779   5.2792   5.3093   5.3097   5.3108   5.3112
     5.3123   5.3229   5.3356   5.3366   5.3373   5.3734   5.3746   5.3764
     5.4374   5.4381   5.4698   5.4707   5.4710   5.4732   5.4754   5.4763
     5.4775   5.4974   5.4985   5.5997   5.6001   5.6007   5.6163   5.6177
     5.6189   5.6256   5.6454   5.6459   5.6463   5.6573   5.6583   5.6611
     5.7239   5.7247   5.7426   5.7808   5.7825   5.7829   5.8185   5.8209
     5.8223   5.9020   5.9037   5.9048   5.9263   5.9275   5.9283   5.9946
     5.9973   6.0246   6.0257   6.0268   6.1484   6.1502   6.1508   6.1523
     6.2608   6.2615   6.2620   6.2628   6.2640   6.2650   6.2878   6.2920
     6.3317   6.3351   6.3364   6.3615   6.3625   6.3651   6.3880   6.3892
     6.3913   6.5514   6.5695   6.5705   6.5750   6.6346   6.6376   6.6392
     6.7452   6.7479   6.7489   6.7640   6.7647   6.7799   6.7824   6.7845
     6.8109   6.9648   7.1797   7.1825

          k = 0.0000 0.0000 0.2714 (115879 PWs)   bands (ev):

   -28.2796 -28.2780 -28.2779 -28.2778 -28.2770 -28.2755 -28.2751 -28.2749
   -28.2748 -28.2748 -28.2736 -28.2549 -14.9246 -14.9243 -14.9242 -14.9239
   -14.9237 -14.9234 -14.9233 -14.9213 -14.9213 -14.9210 -14.9204 -14.9187
   -14.9186 -14.9184 -14.9183 -14.9181 -14.9178 -14.9175 -14.9174 -14.9154
   -14.9153 -14.9145 -14.9128 -14.9119 -14.9066 -14.9064 -14.9062 -14.9060
   -14.9058 -14.9054 -14.9054 -14.9033 -14.9031 -14.9024 -14.9007 -14.8992
   -14.8664 -14.8662 -14.8660 -14.8658 -14.8656 -14.8653 -14.8653 -14.8642
   -14.8631 -14.8629 -14.8623 -14.8605 -14.8213 -14.8210 -14.8208 -14.8206
   -14.8204 -14.8201 -14.8201 -14.8191 -14.8179 -14.8179 -14.8171 -14.8154
   -10.3414 -10.3405 -10.3394 -10.3391 -10.3367 -10.3361 -10.3349 -10.3342
   -10.3330 -10.3304 -10.3266 -10.3156 -10.3126 -10.3097 -10.3070 -10.3064
   -10.3027 -10.3023 -10.2997 -10.2948 -10.2942 -10.2932 -10.2883 -10.2800
   -10.2722 -10.2693 -10.2686 -10.2675 -10.2664 -10.2646 -10.2626 -10.2621
   -10.2599 -10.2590 -10.2562 -10.2445  -6.8225  -6.7118  -6.4098  -6.4083
    -6.4075  -6.4006  -6.3044  -6.3035  -6.2981  -6.2315  -6.2283  -6.2221
    -5.9932  -5.9924  -5.9906  -5.8534  -5.8365  -5.8352  -5.8334  -5.7743
    -5.7727  -5.7703  -5.6569  -5.6558  -5.6541  -5.6508  -5.6139  -5.6125
    -5.6114  -5.6107  -5.5553  -5.5533  -5.5516  -5.5511  -5.5454  -5.5444
    -5.5420  -5.4535  -5.4356  -5.4348  -5.4339  -5.4296  -5.3757  -5.3457
    -5.3394  -5.3371  -5.3302  -5.2797  -0.6047  -0.6036  -0.6012  -0.4134
    -0.4118  -0.4116  -0.3468  -0.3312  -0.3018  -0.3003  -0.2985  -0.2738
     1.4082   1.4094   1.4098   1.5695   1.6131   1.6181   1.6191   1.6204
     1.6582   1.9336   1.9351   1.9369   2.0041   2.0470   2.0514   2.0526
     2.0544   2.0688   2.2758   2.2773   2.2788   2.3056   2.3888   2.3895
     2.3911   2.3920   2.4154   2.4164   2.4179   2.4570   2.6208   2.6230
     2.6259   2.6673   2.7194   2.7899   2.7975   2.7986   2.7992   2.8711
     2.8723   2.8748   2.9729   2.9752   2.9759   3.0445   3.0459   3.0489
     3.1057   3.1070   3.1094   3.1746   3.1978   3.2033   3.2048   3.2074
     3.2731   3.2737   3.2770   3.2833   3.3735   3.3806   3.3837   3.3840
     3.4165   3.4192   3.4205   3.4385   3.4393   3.4404   3.4481   3.4488
     3.4494   3.4755   3.4976   3.5163   3.5181   3.5195   3.5370   3.5441
     3.5485   3.5496   3.5516   3.6401   3.6438   3.6445   3.6483   3.6497
     3.6796   3.6807   3.6838   3.7726   3.8299   3.8749   3.8754   3.8778
     3.9076   3.9208   3.9935   3.9944   3.9967   4.0531   4.0551   4.0563
     4.0750   4.1160   4.1164   4.1178   4.1474   4.1479   4.1493   4.1644
     4.1707   4.1715   4.1726   4.2115   4.2500   4.2508   4.2514   4.2684
     4.4199   4.4214   4.4231   4.4832   4.5587   4.5599   4.5605   4.6048
     4.6056   4.6058   4.6763   4.8069   5.1346   5.1457   5.1524   5.1529
     5.1538   5.1632   5.1850   5.1852   5.1872   5.2148   5.2155   5.2159
     5.2164   5.2461   5.2466   5.2478   5.2569   5.2582   5.2584   5.2595
     5.2747   5.2756   5.2762   5.2781   5.3269   5.3282   5.3293   5.3310
     5.3323   5.3343   5.3396   5.3412   5.3422   5.3648   5.3735   5.3739
     5.3741   5.3882   5.4013   5.4186   5.4198   5.4214   5.5251   5.5307
     5.5312   5.5325   5.5812   5.5868   5.5873   5.5879   5.5890   5.6178
     5.6190   5.6203   5.6498   5.6508   5.6519   5.6600   5.6806   5.6809
     5.6832   5.7534   5.7548   5.7552   5.7895   5.7974   5.8153   5.8175
     5.8185   5.8705   5.8821   5.8836   5.8846   5.9872   5.9883   5.9892
     6.0409   6.0417   6.0436   6.0964   6.0976   6.0993   6.1748   6.1908
     6.1915   6.1937   6.2353   6.2678   6.2688   6.2694   6.3241   6.3257
     6.3277   6.3572   6.3612   6.3698   6.3705   6.3721   6.3948   6.4279
     6.4299   6.4317   6.4793   6.6389   6.6400   6.6409   6.6423   6.6443
     6.6460   6.6703   6.7068   6.7101   6.7125   6.7515   6.7533   6.7552
     6.9424   7.0046   7.0953   7.1703

          k = 0.0000 0.3849 0.0000 (115797 PWs)   bands (ev):

   -28.2796 -28.2780 -28.2779 -28.2778 -28.2770 -28.2755 -28.2751 -28.2749
   -28.2748 -28.2748 -28.2736 -28.2549 -14.9246 -14.9243 -14.9241 -14.9239
   -14.9237 -14.9234 -14.9234 -14.9213 -14.9213 -14.9210 -14.9204 -14.9187
   -14.9186 -14.9184 -14.9183 -14.9181 -14.9179 -14.9175 -14.9175 -14.9154
   -14.9152 -14.9145 -14.9128 -14.9119 -14.9066 -14.9063 -14.9062 -14.9060
   -14.9058 -14.9054 -14.9054 -14.9033 -14.9031 -14.9024 -14.9007 -14.8992
   -14.8664 -14.8662 -14.8660 -14.8658 -14.8656 -14.8653 -14.8653 -14.8642
   -14.8631 -14.8629 -14.8623 -14.8605 -14.8213 -14.8210 -14.8208 -14.8206
   -14.8204 -14.8201 -14.8201 -14.8191 -14.8179 -14.8179 -14.8171 -14.8154
   -10.3402 -10.3394 -10.3376 -10.3375 -10.3363 -10.3356 -10.3346 -10.3342
   -10.3328 -10.3323 -10.3279 -10.3152 -10.3091 -10.3074 -10.3066 -10.3053
   -10.3033 -10.3022 -10.3019 -10.2989 -10.2953 -10.2915 -10.2884 -10.2803
   -10.2717 -10.2694 -10.2687 -10.2681 -10.2658 -10.2649 -10.2634 -10.2623
   -10.2613 -10.2601 -10.2571 -10.2455  -6.7863  -6.5876  -6.4982  -6.4962
    -6.4383  -6.4359  -6.3630  -6.3481  -6.2842  -6.2804  -6.2474  -6.2426
    -5.9115  -5.9086  -5.8207  -5.8197  -5.8170  -5.7767  -5.7679  -5.7656
    -5.7315  -5.7237  -5.7229  -5.6911  -5.6895  -5.6480  -5.6388  -5.6365
    -5.6284  -5.5963  -5.5847  -5.5827  -5.5682  -5.5273  -5.5198  -5.5178
    -5.5123  -5.5047  -5.4621  -5.4499  -5.4368  -5.4331  -5.4214  -5.4149
    -5.3494  -5.3476  -5.3094  -5.2681  -0.5707  -0.5691  -0.5628  -0.4354
    -0.4041  -0.4025  -0.3766  -0.3390  -0.3381  -0.3362  -0.3107  -0.3012
     1.4190   1.4864   1.4878   1.5013   1.6393   1.6508   1.6875   1.7227
     1.7253   1.8272   1.8769   1.8795   1.9545   1.9556   1.9568   2.0283
     2.1162   2.2068   2.2305   2.2316   2.3410   2.3649   2.3854   2.3860
     2.3933   2.4091   2.4512   2.5368   2.5386   2.6120   2.6140   2.6169
     2.6568   2.7342   2.8122   2.8133   2.8213   2.8405   2.8420   2.8438
     2.8542   2.8850   2.9093   2.9116   2.9144   2.9622   2.9655   3.0036
     3.0500   3.0562   3.0575   3.1234   3.1466   3.1751   3.2032   3.2103
     3.2124   3.2331   3.2588   3.2629   3.2680   3.3233   3.3285   3.3306
     3.3386   3.3710   3.3944   3.3951   3.4331   3.4392   3.4420   3.4491
     3.4959   3.4985   3.4990   3.5096   3.5108   3.5142   3.5212   3.5448
     3.5624   3.6044   3.6064   3.6107   3.6342   3.6457   3.6784   3.6806
     3.6950   3.7014   3.7038   3.7072   3.7777   3.7807   3.8487   3.8588
     3.8951   3.9725   3.9755   3.9776   3.9798   4.0292   4.0373   4.0386
     4.0919   4.1110   4.1198   4.1213   4.1252   4.1617   4.1635   4.1772
     4.2473   4.2657   4.2674   4.2823   4.3046   4.3217   4.3221   4.3676
     4.3787   4.4149   4.4168   4.4824   4.5185   4.5261   4.5281   4.5317
     4.5899   4.5924   4.6256   4.7485   5.1420   5.1432   5.1457   5.1531
     5.1587   5.1594   5.1681   5.1733   5.2134   5.2181   5.2192   5.2203
     5.2264   5.2359   5.2473   5.2476   5.2487   5.2599   5.2659   5.2707
     5.2713   5.2878   5.3029   5.3033   5.3122   5.3173   5.3261   5.3267
     5.3359   5.3483   5.3512   5.3517   5.3563   5.3643   5.4122   5.4144
     5.4324   5.4495   5.4594   5.4608   5.4844   5.4921   5.4990   5.4997
     5.5019   5.5117   5.5262   5.5429   5.5553   5.5565   5.5600   5.6017
     5.6026   5.6294   5.6298   5.6328   5.6670   5.6775   5.6938   5.6954
     5.6966   5.7166   5.7288   5.7560   5.7732   5.7759   5.8075   5.8178
     5.8184   5.8633   5.8745   5.8756   5.9488   5.9512   5.9643   5.9657
     5.9902   6.0058   6.0067   6.0196   6.1386   6.1393   6.1448   6.1598
     6.2247   6.2295   6.2315   6.2514   6.2699   6.2889   6.2917   6.2985
     6.3606   6.3615   6.3766   6.3883   6.3895   6.4404   6.4849   6.4865
     6.5233   6.5372   6.5395   6.5759   6.6044   6.6505   6.6835   6.6908
     6.6942   6.7288   6.7362   6.7382   6.7632   6.7800   6.7927   6.8106
     6.8126   6.9056   6.9104   7.0830

          k = 0.0000 0.3849 0.2714 (115773 PWs)   bands (ev):

   -28.2796 -28.2780 -28.2779 -28.2778 -28.2770 -28.2755 -28.2751 -28.2749
   -28.2748 -28.2748 -28.2736 -28.2549 -14.9246 -14.9243 -14.9241 -14.9239
   -14.9237 -14.9234 -14.9234 -14.9213 -14.9213 -14.9210 -14.9204 -14.9187
   -14.9186 -14.9184 -14.9183 -14.9181 -14.9179 -14.9175 -14.9175 -14.9154
   -14.9152 -14.9145 -14.9128 -14.9119 -14.9066 -14.9063 -14.9062 -14.9060
   -14.9058 -14.9054 -14.9054 -14.9033 -14.9031 -14.9024 -14.9007 -14.8992
   -14.8664 -14.8662 -14.8660 -14.8658 -14.8656 -14.8653 -14.8653 -14.8642
   -14.8631 -14.8629 -14.8623 -14.8605 -14.8213 -14.8210 -14.8208 -14.8206
   -14.8204 -14.8201 -14.8201 -14.8191 -14.8179 -14.8179 -14.8171 -14.8154
   -10.3408 -10.3400 -10.3385 -10.3380 -10.3365 -10.3356 -10.3339 -10.3335
   -10.3324 -10.3313 -10.3281 -10.3155 -10.3106 -10.3086 -10.3068 -10.3054
   -10.3020 -10.3013 -10.2996 -10.2973 -10.2950 -10.2921 -10.2901 -10.2812
   -10.2716 -10.2693 -10.2682 -10.2677 -10.2659 -10.2652 -10.2630 -10.2624
   -10.2610 -10.2602 -10.2581 -10.2456  -6.7492  -6.6453  -6.5580  -6.4707
    -6.4227  -6.4207  -6.3625  -6.3281  -6.3233  -6.2573  -6.2237  -6.2185
    -5.9055  -5.9029  -5.8240  -5.8217  -5.8089  -5.8059  -5.7908  -5.7606
    -5.7578  -5.7320  -5.7111  -5.7094  -5.6702  -5.6363  -5.6289  -5.6282
    -5.6262  -5.6081  -5.6003  -5.5986  -5.5696  -5.5285  -5.5227  -5.5212
    -5.5178  -5.4964  -5.4667  -5.4325  -5.4292  -5.4257  -5.4212  -5.3633
    -5.3494  -5.3469  -5.3179  -5.2965  -0.5603  -0.5585  -0.5564  -0.4367
    -0.4347  -0.4254  -0.3925  -0.3716  -0.3194  -0.3186  -0.2978  -0.2776
     1.4335   1.4844   1.4859   1.4872   1.6255   1.6407   1.7717   1.7729
     1.7815   1.7890   1.7998   1.8035   1.9144   1.9957   1.9978   2.0773
     2.1570   2.2000   2.2102   2.2479   2.2494   2.3628   2.3930   2.3934
     2.3996   2.4484   2.5115   2.5127   2.5478   2.5891   2.5918   2.6075
     2.6422   2.7113   2.7610   2.7679   2.7699   2.7892   2.8089   2.8094
     2.8388   2.8734   2.9163   2.9169   2.9183   2.9818   3.0242   3.0269
     3.0669   3.1056   3.1068   3.1313   3.1698   3.1917   3.1930   3.1943
     3.1990   3.2320   3.2621   3.2666   3.2766   3.3167   3.3198   3.3216
     3.3242   3.3877   3.3898   3.4098   3.4447   3.4457   3.4676   3.4696
     3.4710   3.4720   3.4742   3.4760   3.5323   3.5351   3.5379   3.5897
     3.6093   3.6117   3.6130   3.6322   3.6449   3.6474   3.6583   3.6597
     3.6716   3.7100   3.7111   3.7116   3.8348   3.8375   3.8790   3.8880
     3.9035   3.9490   3.9516   3.9738   3.9810   4.0190   4.0469   4.0479
     4.0487   4.0651   4.1088   4.1114   4.1188   4.1316   4.1337   4.1466
     4.1898   4.2551   4.2659   4.2665   4.2875   4.2887   4.2960   4.3870
     4.3983   4.4360   4.4382   4.4678   4.5236   4.5242   4.5370   4.5971
     4.6099   4.6119   4.6213   4.7205   5.1493   5.1500   5.1532   5.1553
     5.1701   5.1743   5.1747   5.1824   5.1890   5.1965   5.1999   5.2065
     5.2072   5.2328   5.2334   5.2343   5.2531   5.2623   5.2639   5.2654
     5.2776   5.2962   5.3060   5.3115   5.3130   5.3278   5.3343   5.3361
     5.3567   5.3570   5.3587   5.3626   5.3789   5.3911   5.4056   5.4066
     5.4118   5.4306   5.4318   5.4437   5.4452   5.4914   5.5008   5.5015
     5.5081   5.5150   5.5522   5.5588   5.5732   5.5742   5.6013   5.6093
     5.6110   5.6177   5.6229   5.6250   5.6422   5.6693   5.6821   5.7123
     5.7151   5.7164   5.7343   5.7709   5.7715   5.7735   5.8007   5.8020
     5.8089   5.8578   5.8739   5.8750   5.8774   5.9144   5.9579   5.9590
     6.0334   6.0338   6.0356   6.0594   6.0780   6.0793   6.1723   6.2066
     6.2128   6.2148   6.2656   6.2688   6.2692   6.2769   6.2845   6.3470
     6.3495   6.3647   6.3711   6.4143   6.4226   6.4253   6.4275   6.4709
     6.4971   6.4991   6.5458   6.5588   6.5944   6.5964   6.6655   6.6679
     6.6778   6.7206   6.7355   6.7363   6.7462   6.8123   6.8139   6.8447
     6.8721   6.9294   6.9371   7.0543

          k = 0.3333 0.5774 0.0000 (115752 PWs)   bands (ev):

   -28.2796 -28.2780 -28.2779 -28.2778 -28.2770 -28.2755 -28.2751 -28.2749
   -28.2748 -28.2748 -28.2736 -28.2549 -14.9246 -14.9243 -14.9241 -14.9239
   -14.9237 -14.9234 -14.9234 -14.9213 -14.9212 -14.9210 -14.9204 -14.9187
   -14.9186 -14.9184 -14.9183 -14.9181 -14.9178 -14.9175 -14.9175 -14.9154
   -14.9153 -14.9145 -14.9128 -14.9119 -14.9066 -14.9063 -14.9062 -14.9060
   -14.9058 -14.9054 -14.9054 -14.9033 -14.9031 -14.9024 -14.9007 -14.8992
   -14.8664 -14.8662 -14.8660 -14.8658 -14.8656 -14.8653 -14.8653 -14.8642
   -14.8631 -14.8629 -14.8623 -14.8605 -14.8213 -14.8210 -14.8208 -14.8206
   -14.8204 -14.8201 -14.8201 -14.8191 -14.8179 -14.8179 -14.8171 -14.8154
   -10.3403 -10.3380 -10.3372 -10.3366 -10.3362 -10.3357 -10.3348 -10.3344
   -10.3319 -10.3308 -10.3303 -10.3157 -10.3084 -10.3066 -10.3053 -10.3047
   -10.3031 -10.3025 -10.3013 -10.2998 -10.2959 -10.2910 -10.2901 -10.2811
   -10.2709 -10.2689 -10.2681 -10.2670 -10.2664 -10.2653 -10.2651 -10.2641
   -10.2611 -10.2598 -10.2584 -10.2455  -6.6506  -6.6504  -6.6450  -6.3999
    -6.3995  -6.3987  -6.3981  -6.3973  -6.3882  -6.2923  -6.2869  -6.1901
    -5.8657  -5.8522  -5.8502  -5.7499  -5.7483  -5.7473  -5.7332  -5.7323
    -5.7287  -5.7089  -5.7064  -5.6951  -5.6940  -5.6916  -5.6856  -5.6849
    -5.6796  -5.6439  -5.5429  -5.5410  -5.5399  -5.5307  -5.5296  -5.5269
    -5.5113  -5.4729  -5.4717  -5.4705  -5.4676  -5.4665  -5.4594  -5.3980
    -5.3930  -5.3022  -5.3019  -5.2960  -0.5442  -0.5151  -0.5138  -0.5116
    -0.3969  -0.3947  -0.3910  -0.3898  -0.3885  -0.3108  -0.3091  -0.3071
     1.4833   1.4840   1.4856   1.6738   1.6747   1.6755   1.6845   1.6864
     1.6883   1.7332   1.7356   1.7988   2.0798   2.0819   2.0821   2.0828
     2.0869   2.1438   2.1451   2.1457   2.2556   2.3969   2.3977   2.4000
     2.4938   2.4951   2.4968   2.5629   2.5642   2.5652   2.5966   2.5987
     2.7735   2.7739   2.7751   2.8365   2.8382   2.8434   2.8442   2.8454
     2.8507   2.8523   2.8528   2.8557   2.8689   3.0085   3.0099   3.0124
     3.0232   3.0249   3.0261   3.0618   3.1320   3.1343   3.1351   3.1950
     3.1969   3.1981   3.2575   3.2589   3.2604   3.2693   3.2713   3.3608
     3.3688   3.3708   3.3726   3.3733   3.4239   3.4253   3.4257   3.4845
     3.4875   3.5010   3.5019   3.5029   3.5279   3.5295   3.5309   3.5464
     3.5482   3.5787   3.5793   3.5819   3.6488   3.6498   3.6529   3.7181
     3.7200   3.7227   3.7269   3.7292   3.7576   3.7994   3.8011   3.8033
     3.9570   3.9593   3.9604   3.9852   3.9871   4.0288   4.0296   4.0303
     4.0831   4.0844   4.0854   4.1398   4.1499   4.1505   4.1521   4.2837
     4.2847   4.2932   4.3178   4.3182   4.3193   4.3197   4.3208   4.3246
     4.3851   4.3861   4.3887   4.4955   4.5133   4.5157   4.5191   4.5199
     4.5229   4.6532   4.6545   4.6567   5.1363   5.1420   5.1429   5.1433
     5.1719   5.1723   5.1865   5.1869   5.1873   5.1949   5.1957   5.1960
     5.2449   5.2462   5.2466   5.2638   5.2650   5.2651   5.2965   5.2971
     5.2986   5.2997   5.3012   5.3022   5.3120   5.3171   5.3178   5.3188
     5.3387   5.3391   5.3396   5.4015   5.4023   5.4033   5.4067   5.4074
     5.4532   5.4549   5.4554   5.4571   5.4812   5.4824   5.4836   5.4874
     5.4883   5.5342   5.5346   5.5354   5.5631   5.5635   5.5642   5.5697
     5.5703   5.5710   5.6400   5.6709   5.6720   5.6931   5.6943   5.6951
     5.7057   5.7064   5.7069   5.7789   5.7793   5.7803   5.7980   5.7987
     5.7999   5.8232   5.8240   5.8436   5.9283   5.9302   5.9308   6.0458
     6.0460   6.0463   6.0477   6.0498   6.1378   6.1384   6.1389   6.1575
     6.2182   6.2189   6.2197   6.2586   6.2596   6.2610   6.2827   6.2848
     6.3748   6.4086   6.4098   6.4122   6.4158   6.4171   6.4243   6.4505
     6.4523   6.4535   6.6141   6.6155   6.6162   6.6750   6.6773   6.6790
     6.7253   6.7400   6.7411   6.8053   6.8055   6.8085   6.8093   6.8101
     6.8142   6.9385   6.9393   6.9416

          k = 0.3333 0.5774 0.2714 (115827 PWs)   bands (ev):

   -28.2796 -28.2780 -28.2779 -28.2778 -28.2770 -28.2755 -28.2751 -28.2749
   -28.2748 -28.2748 -28.2736 -28.2549 -14.9246 -14.9243 -14.9241 -14.9239
   -14.9237 -14.9234 -14.9234 -14.9213 -14.9212 -14.9210 -14.9204 -14.9187
   -14.9186 -14.9184 -14.9183 -14.9181 -14.9178 -14.9175 -14.9175 -14.9154
   -14.9153 -14.9145 -14.9128 -14.9119 -14.9066 -14.9063 -14.9062 -14.9060
   -14.9058 -14.9054 -14.9054 -14.9033 -14.9031 -14.9024 -14.9007 -14.8992
   -14.8664 -14.8662 -14.8660 -14.8658 -14.8656 -14.8653 -14.8653 -14.8642
   -14.8631 -14.8629 -14.8623 -14.8605 -14.8213 -14.8210 -14.8208 -14.8206
   -14.8204 -14.8201 -14.8201 -14.8191 -14.8179 -14.8179 -14.8171 -14.8154
   -10.3406 -10.3389 -10.3380 -10.3377 -10.3365 -10.3346 -10.3338 -10.3333
   -10.3319 -10.3309 -10.3302 -10.3157 -10.3093 -10.3082 -10.3069 -10.3054
   -10.3017 -10.3004 -10.2983 -10.2978 -10.2951 -10.2926 -10.2920 -10.2816
   -10.2711 -10.2686 -10.2684 -10.2675 -10.2663 -10.2645 -10.2640 -10.2634
   -10.2617 -10.2607 -10.2590 -10.2456  -6.6184  -6.6182  -6.6130  -6.5250
    -6.5246  -6.5191  -6.3063  -6.2894  -6.2890  -6.2833  -6.2547  -6.2116
    -5.8752  -5.8581  -5.8454  -5.7802  -5.7797  -5.7776  -5.7428  -5.7421
    -5.7384  -5.7151  -5.6889  -5.6878  -5.6855  -5.6730  -5.6723  -5.6718
    -5.6671  -5.6413  -5.5578  -5.5565  -5.5554  -5.5260  -5.5239  -5.5228
    -5.5054  -5.5044  -5.5025  -5.5012  -5.4567  -5.3984  -5.3980  -5.3933
    -5.3570  -5.3230  -5.3227  -5.3166  -0.5202  -0.5063  -0.5049  -0.5026
    -0.4608  -0.4175  -0.4167  -0.4147  -0.3545  -0.2933  -0.2924  -0.2906
     1.4814   1.4819   1.4837   1.6367   1.6383   1.6396   1.6906   1.7745
     1.7755   1.7763   1.7775   1.7933   1.9809   1.9816   1.9831   2.0559
     2.1705   2.1922   2.1938   2.1947   2.2481   2.3972   2.3981   2.4004
     2.4886   2.4898   2.4920   2.5575   2.5876   2.5884   2.5891   2.5932
     2.6790   2.7355   2.7367   2.7384   2.8222   2.8233   2.8243   2.8280
     2.9013   2.9025   2.9041   2.9245   2.9382   2.9533   2.9552   2.9583
     3.0583   3.0598   3.0609   3.0870   3.0880   3.0885   3.1264   3.1802
     3.2434   3.2443   3.2450   3.2696   3.2704   3.2713   3.3202   3.3265
     3.3269   3.3298   3.3724   3.4070   3.4198   3.4634   3.4649   3.4651
     3.4921   3.4972   3.4988   3.5000   3.5343   3.5368   3.5377   3.5394
     3.5608   3.6148   3.6158   3.6175   3.6528   3.6549   3.6571   3.6965
     3.6976   3.7009   3.7206   3.7444   3.8208   3.8400   3.8407   3.8437
     3.9372   3.9387   3.9406   3.9421   4.0286   4.0291   4.0295   4.0396
     4.0661   4.0669   4.0688   4.1077   4.1128   4.1137   4.1143   4.1675
     4.2721   4.2729   4.2748   4.2891   4.3137   4.3601   4.3614   4.3635
     4.4147   4.4166   4.4196   4.4920   4.4931   4.4950   4.5071   4.5109
     4.5641   4.6660   4.6671   4.6688   5.1476   5.1556   5.1559   5.1565
     5.1569   5.1808   5.1817   5.1821   5.1960   5.1968   5.1975   5.2096
     5.2226   5.2240   5.2243   5.2502   5.2512   5.2521   5.2553   5.2673
     5.2998   5.3009   5.3019   5.3081   5.3272   5.3280   5.3292   5.3663
     5.3672   5.3677   5.3738   5.3926   5.3941   5.4066   5.4080   5.4094
     5.4315   5.4322   5.4330   5.4377   5.4830   5.4838   5.4845   5.4899
     5.5376   5.5386   5.5394   5.5425   5.5647   5.5656   5.5665   5.6039
     5.6050   5.6055   5.6368   5.6382   5.6707   5.6719   5.6731   5.7022
     5.7030   5.7040   5.7176   5.7578   5.7587   5.7593   5.8005   5.8071
     5.8198   5.8223   5.8237   5.8249   5.8883   5.8900   5.8906   6.0562
     6.0592   6.0603   6.0615   6.0778   6.1187   6.1194   6.1206   6.1341
     6.1950   6.2367   6.2375   6.2397   6.2836   6.3003   6.3022   6.3037
     6.3066   6.3839   6.3846   6.3872   6.4500   6.4664   6.4681   6.4691
     6.4914   6.4935   6.5579   6.5590   6.5605   6.6453   6.6845   6.6855
     6.6886   6.7608   6.7771   6.7780   6.7816   6.7921   6.8539   6.8544
     6.8583   6.9347   6.9359   6.9389

          k =-0.3333 0.1925 0.0000 (115797 PWs)   bands (ev):

   -28.2796 -28.2780 -28.2779 -28.2778 -28.2770 -28.2755 -28.2751 -28.2749
   -28.2748 -28.2748 -28.2736 -28.2549 -14.9246 -14.9243 -14.9242 -14.9239
   -14.9237 -14.9234 -14.9234 -14.9213 -14.9212 -14.9210 -14.9204 -14.9187
   -14.9186 -14.9184 -14.9183 -14.9181 -14.9178 -14.9175 -14.9175 -14.9154
   -14.9153 -14.9145 -14.9128 -14.9119 -14.9066 -14.9063 -14.9062 -14.9060
   -14.9058 -14.9054 -14.9054 -14.9033 -14.9031 -14.9024 -14.9007 -14.8992
   -14.8664 -14.8662 -14.8660 -14.8658 -14.8656 -14.8653 -14.8653 -14.8642
   -14.8631 -14.8629 -14.8623 -14.8605 -14.8213 -14.8210 -14.8208 -14.8206
   -14.8204 -14.8201 -14.8201 -14.8191 -14.8179 -14.8179 -14.8171 -14.8154
   -10.3401 -10.3390 -10.3378 -10.3372 -10.3360 -10.3355 -10.3349 -10.3342
   -10.3338 -10.3317 -10.3280 -10.3159 -10.3086 -10.3076 -10.3068 -10.3048
   -10.3035 -10.3021 -10.3013 -10.2983 -10.2955 -10.2937 -10.2880 -10.2800
   -10.2713 -10.2694 -10.2689 -10.2671 -10.2665 -10.2646 -10.2637 -10.2633
   -10.2619 -10.2593 -10.2570 -10.2449  -6.7864  -6.5884  -6.4982  -6.4962
    -6.4377  -6.4340  -6.3635  -6.3474  -6.2852  -6.2796  -6.2485  -6.2424
    -5.9126  -5.9122  -5.8199  -5.8188  -5.8173  -5.7780  -5.7675  -5.7666
    -5.7325  -5.7245  -5.7205  -5.6895  -5.6885  -5.6453  -5.6379  -5.6375
    -5.6276  -5.5921  -5.5849  -5.5834  -5.5701  -5.5284  -5.5187  -5.5180
    -5.5156  -5.5035  -5.4640  -5.4502  -5.4372  -5.4343  -5.4210  -5.4149
    -5.3477  -5.3421  -5.3134  -5.2692  -0.5719  -0.5713  -0.5598  -0.4333
    -0.4048  -0.4037  -0.3774  -0.3371  -0.3363  -0.3351  -0.3130  -0.3028
     1.4180   1.4881   1.4886   1.4998   1.6407   1.6506   1.6895   1.7233
     1.7242   1.8283   1.8755   1.8771   1.9542   1.9546   1.9569   2.0272
     2.1158   2.2080   2.2293   2.2306   2.3387   2.3643   2.3869   2.3891
     2.3937   2.4090   2.4500   2.5376   2.5396   2.6126   2.6149   2.6175
     2.6566   2.7354   2.8135   2.8145   2.8217   2.8406   2.8428   2.8453
     2.8547   2.8841   2.9080   2.9099   2.9165   2.9613   2.9628   3.0041
     3.0508   3.0556   3.0561   3.1237   3.1493   3.1748   3.2019   3.2096
     3.2115   3.2345   3.2602   3.2617   3.2678   3.3223   3.3303   3.3305
     3.3386   3.3715   3.3930   3.3938   3.4334   3.4394   3.4408   3.4492
     3.4946   3.4976   3.5003   3.5093   3.5110   3.5129   3.5241   3.5410
     3.5605   3.6038   3.6055   3.6114   3.6349   3.6472   3.6780   3.6796
     3.6928   3.7025   3.7066   3.7073   3.7786   3.7807   3.8484   3.8590
     3.8961   3.9719   3.9734   3.9779   3.9795   4.0293   4.0380   4.0399
     4.0934   4.1117   4.1197   4.1214   4.1243   4.1607   4.1618   4.1776
     4.2486   4.2670   4.2676   4.2844   4.3018   4.3222   4.3237   4.3674
     4.3770   4.4161   4.4174   4.4833   4.5156   4.5265   4.5282   4.5296
     4.5895   4.5902   4.6285   4.7495   5.1418   5.1421   5.1459   5.1542
     5.1590   5.1597   5.1683   5.1726   5.2127   5.2175   5.2186   5.2208
     5.2273   5.2359   5.2470   5.2484   5.2491   5.2597   5.2656   5.2704
     5.2706   5.2875   5.3032   5.3039   5.3121   5.3176   5.3252   5.3270
     5.3350   5.3490   5.3514   5.3523   5.3570   5.3654   5.4120   5.4133
     5.4331   5.4502   5.4601   5.4614   5.4846   5.4913   5.4982   5.4992
     5.5016   5.5123   5.5281   5.5420   5.5555   5.5560   5.5605   5.6016
     5.6026   5.6288   5.6302   5.6306   5.6672   5.6770   5.6941   5.6947
     5.6959   5.7169   5.7281   5.7557   5.7741   5.7749   5.8072   5.8192
     5.8200   5.8621   5.8757   5.8764   5.9486   5.9495   5.9645   5.9653
     5.9890   6.0056   6.0071   6.0207   6.1389   6.1396   6.1445   6.1598
     6.2245   6.2275   6.2292   6.2494   6.2711   6.2880   6.2889   6.3006
     6.3613   6.3622   6.3775   6.3893   6.3913   6.4405   6.4859   6.4887
     6.5236   6.5375   6.5381   6.5762   6.6037   6.6520   6.6846   6.6910
     6.6926   6.7299   6.7368   6.7396   6.7629   6.7771   6.7948   6.8116
     6.8155   6.9033   6.9090   7.0801

          k = 0.3333 0.1925 0.0000 (115797 PWs)   bands (ev):

   -28.2796 -28.2780 -28.2779 -28.2778 -28.2770 -28.2755 -28.2751 -28.2749
   -28.2748 -28.2748 -28.2736 -28.2549 -14.9246 -14.9243 -14.9242 -14.9239
   -14.9237 -14.9234 -14.9233 -14.9213 -14.9212 -14.9211 -14.9204 -14.9187
   -14.9186 -14.9184 -14.9183 -14.9181 -14.9178 -14.9175 -14.9175 -14.9154
   -14.9153 -14.9145 -14.9128 -14.9119 -14.9066 -14.9063 -14.9062 -14.9060
   -14.9058 -14.9054 -14.9054 -14.9033 -14.9031 -14.9024 -14.9007 -14.8992
   -14.8664 -14.8662 -14.8660 -14.8658 -14.8656 -14.8653 -14.8653 -14.8642
   -14.8631 -14.8629 -14.8623 -14.8605 -14.8213 -14.8210 -14.8208 -14.8206
   -14.8204 -14.8201 -14.8201 -14.8191 -14.8179 -14.8179 -14.8171 -14.8154
   -10.3402 -10.3391 -10.3384 -10.3376 -10.3361 -10.3350 -10.3343 -10.3340
   -10.3329 -10.3322 -10.3281 -10.3158 -10.3089 -10.3075 -10.3069 -10.3051
   -10.3031 -10.3023 -10.3016 -10.2979 -10.2949 -10.2934 -10.2886 -10.2799
   -10.2718 -10.2694 -10.2688 -10.2680 -10.2657 -10.2641 -10.2631 -10.2624
   -10.2616 -10.2604 -10.2579 -10.2449  -6.7865  -6.5887  -6.4991  -6.4955
    -6.4387  -6.4316  -6.3649  -6.3452  -6.2848  -6.2820  -6.2482  -6.2436
    -5.9117  -5.9094  -5.8199  -5.8193  -5.8173  -5.7769  -5.7688  -5.7666
    -5.7312  -5.7240  -5.7218  -5.6917  -5.6888  -5.6476  -5.6388  -5.6372
    -5.6284  -5.5936  -5.5836  -5.5828  -5.5676  -5.5277  -5.5195  -5.5179
    -5.5149  -5.5031  -5.4617  -5.4514  -5.4365  -5.4335  -5.4236  -5.4138
    -5.3490  -5.3436  -5.3120  -5.2689  -0.5716  -0.5694  -0.5615  -0.4338
    -0.4041  -0.4029  -0.3768  -0.3392  -0.3375  -0.3353  -0.3119  -0.3026
     1.4190   1.4863   1.4887   1.5012   1.6390   1.6516   1.6861   1.7224
     1.7256   1.8281   1.8763   1.8779   1.9540   1.9556   1.9575   2.0284
     2.1157   2.2075   2.2297   2.2313   2.3395   2.3645   2.3854   2.3888
     2.3948   2.4095   2.4502   2.5362   2.5386   2.6125   2.6141   2.6178
     2.6584   2.7334   2.8132   2.8144   2.8226   2.8403   2.8432   2.8457
     2.8538   2.8847   2.9080   2.9093   2.9162   2.9623   2.9633   3.0043
     3.0487   3.0559   3.0569   3.1236   3.1462   3.1745   3.2049   3.2113
     3.2133   3.2325   3.2594   3.2605   3.2689   3.3224   3.3287   3.3300
     3.3385   3.3718   3.3949   3.3953   3.4329   3.4377   3.4407   3.4493
     3.4966   3.4976   3.4991   3.5089   3.5111   3.5140   3.5224   3.5433
     3.5619   3.6047   3.6059   3.6104   3.6344   3.6446   3.6782   3.6800
     3.6947   3.7019   3.7060   3.7092   3.7777   3.7795   3.8482   3.8593
     3.8949   3.9739   3.9751   3.9767   3.9806   4.0300   4.0362   4.0380
     4.0916   4.1118   4.1196   4.1205   4.1264   4.1622   4.1627   4.1772
     4.2474   4.2653   4.2677   4.2820   4.3035   4.3222   4.3231   4.3679
     4.3786   4.4147   4.4179   4.4829   4.5180   4.5261   4.5282   4.5295
     4.5904   4.5925   4.6253   4.7483   5.1430   5.1437   5.1450   5.1521
     5.1584   5.1592   5.1680   5.1739   5.2143   5.2179   5.2184   5.2200
     5.2258   5.2362   5.2474   5.2481   5.2488   5.2597   5.2674   5.2699
     5.2714   5.2882   5.3020   5.3032   5.3133   5.3176   5.3252   5.3263
     5.3358   5.3485   5.3508   5.3525   5.3558   5.3635   5.4124   5.4141
     5.4325   5.4496   5.4597   5.4604   5.4848   5.4929   5.4994   5.5002
     5.5017   5.5115   5.5253   5.5430   5.5552   5.5561   5.5602   5.6022
     5.6031   5.6301   5.6307   5.6312   5.6668   5.6771   5.6944   5.6948
     5.6965   5.7165   5.7287   5.7548   5.7742   5.7756   5.8076   5.8176
     5.8195   5.8640   5.8734   5.8754   5.9501   5.9512   5.9635   5.9638
     5.9902   6.0067   6.0068   6.0208   6.1373   6.1386   6.1448   6.1595
     6.2253   6.2296   6.2306   6.2516   6.2707   6.2892   6.2894   6.2980
     6.3611   6.3615   6.3767   6.3889   6.3912   6.4405   6.4849   6.4878
     6.5237   6.5375   6.5400   6.5757   6.6046   6.6503   6.6824   6.6918
     6.6945   6.7293   6.7369   6.7384   6.7629   6.7783   6.7925   6.8110
     6.8159   6.9046   6.9096   7.0808

          k = 0.0000-0.3849 0.2714 (115773 PWs)   bands (ev):

   -28.2796 -28.2780 -28.2779 -28.2778 -28.2770 -28.2755 -28.2751 -28.2749
   -28.2748 -28.2748 -28.2736 -28.2549 -14.9246 -14.9243 -14.9241 -14.9239
   -14.9237 -14.9234 -14.9234 -14.9213 -14.9213 -14.9210 -14.9204 -14.9187
   -14.9186 -14.9184 -14.9183 -14.9181 -14.9179 -14.9175 -14.9175 -14.9154
   -14.9152 -14.9145 -14.9128 -14.9119 -14.9066 -14.9063 -14.9062 -14.9060
   -14.9058 -14.9054 -14.9054 -14.9033 -14.9031 -14.9024 -14.9007 -14.8992
   -14.8664 -14.8662 -14.8660 -14.8658 -14.8656 -14.8653 -14.8653 -14.8642
   -14.8631 -14.8629 -14.8623 -14.8605 -14.8213 -14.8210 -14.8208 -14.8206
   -14.8204 -14.8201 -14.8201 -14.8191 -14.8179 -14.8179 -14.8171 -14.8154
   -10.3408 -10.3399 -10.3383 -10.3379 -10.3364 -10.3357 -10.3343 -10.3339
   -10.3318 -10.3312 -10.3282 -10.3155 -10.3107 -10.3082 -10.3069 -10.3049
   -10.3035 -10.3019 -10.2982 -10.2966 -10.2951 -10.2934 -10.2891 -10.2814
   -10.2714 -10.2693 -10.2685 -10.2683 -10.2660 -10.2643 -10.2628 -10.2621
   -10.2613 -10.2609 -10.2576 -10.2457  -6.7494  -6.6450  -6.5587  -6.4675
    -6.4194  -6.4178  -6.3624  -6.3397  -6.3346  -6.2636  -6.2099  -6.2048
    -5.9141  -5.9113  -5.8244  -5.8224  -5.8187  -5.8170  -5.7651  -5.7626
    -5.7520  -5.7339  -5.6834  -5.6826  -5.6803  -5.6624  -5.6421  -5.6414
    -5.6381  -5.6073  -5.5860  -5.5841  -5.5730  -5.5306  -5.5271  -5.5262
    -5.5150  -5.4851  -5.4649  -5.4399  -5.4371  -5.4338  -5.3999  -5.3697
    -5.3451  -5.3437  -5.3263  -5.2933  -0.5619  -0.5600  -0.5524  -0.4337
    -0.4294  -0.4278  -0.4101  -0.3583  -0.3226  -0.3219  -0.2886  -0.2825
     1.4051   1.4928   1.4947   1.5152   1.6116   1.7109   1.7135   1.7223
     1.7366   1.7719   1.8447   1.8477   1.9656   1.9855   2.0212   2.0232
     2.1305   2.1994   2.2093   2.2100   2.2868   2.3367   2.3976   2.4261
     2.4275   2.5185   2.5300   2.5308   2.5561   2.5573   2.5581   2.5600
     2.6002   2.6788   2.7633   2.7654   2.8234   2.8242   2.8249   2.8289
     2.8502   2.8514   2.8965   2.8968   2.9058   3.0084   3.0189   3.0212
     3.0756   3.0770   3.1184   3.1187   3.1333   3.1793   3.1811   3.1872
     3.2125   3.2453   3.2652   3.2832   3.2879   3.2948   3.3289   3.3309
     3.3734   3.3763   3.3785   3.3798   3.4458   3.4474   3.4488   3.4757
     3.4793   3.4810   3.5045   3.5195   3.5327   3.5346   3.5370   3.5573
     3.5855   3.5876   3.6108   3.6309   3.6392   3.6451   3.6819   3.6832
     3.6866   3.6973   3.7035   3.7064   3.8350   3.8378   3.8779   3.8799
     3.9403   3.9449   3.9468   3.9484   3.9709   4.0316   4.0529   4.0560
     4.0589   4.0608   4.0997   4.1003   4.1204   4.1229   4.1287   4.1329
     4.2224   4.2391   4.2671   4.2686   4.2896   4.2909   4.3151   4.3672
     4.3926   4.4329   4.4348   4.4813   4.5235   4.5429   4.5445   4.5859
     4.5952   4.5978   4.6302   4.7291   5.1461   5.1468   5.1517   5.1634
     5.1666   5.1676   5.1682   5.1716   5.1984   5.2033   5.2115   5.2167
     5.2183   5.2274   5.2391   5.2407   5.2586   5.2628   5.2635   5.2638
     5.2646   5.2720   5.3087   5.3093   5.3171   5.3328   5.3453   5.3462
     5.3585   5.3615   5.3618   5.3668   5.3682   5.3789   5.3876   5.3888
     5.4090   5.4317   5.4465   5.4500   5.4522   5.4678   5.4950   5.4976
     5.5157   5.5229   5.5550   5.5565   5.5671   5.5681   5.6003   5.6014
     5.6063   5.6195   5.6305   5.6487   5.6498   5.6598   5.6740   5.7073
     5.7095   5.7389   5.7585   5.7604   5.7695   5.7838   5.8042   5.8050
     5.8138   5.8390   5.8662   5.8667   5.8748   5.8933   5.9678   5.9687
     6.0189   6.0247   6.0257   6.1006   6.1019   6.1110   6.1585   6.1860
     6.2024   6.2033   6.2054   6.2624   6.2647   6.2864   6.3187   6.3412
     6.3544   6.3669   6.3704   6.4122   6.4189   6.4202   6.4519   6.4805
     6.4823   6.5065   6.5580   6.5655   6.6049   6.6086   6.6476   6.6654
     6.6677   6.7356   6.7389   6.7409   6.7496   6.8026   6.8054   6.8509
     6.8685   6.9182   6.9454   7.0417

          k =-0.3333 0.1925 0.2714 (115773 PWs)   bands (ev):

   -28.2796 -28.2780 -28.2779 -28.2778 -28.2770 -28.2755 -28.2751 -28.2749
   -28.2748 -28.2748 -28.2736 -28.2549 -14.9246 -14.9243 -14.9242 -14.9239
   -14.9237 -14.9234 -14.9234 -14.9213 -14.9212 -14.9210 -14.9204 -14.9187
   -14.9186 -14.9184 -14.9183 -14.9181 -14.9178 -14.9175 -14.9175 -14.9154
   -14.9153 -14.9145 -14.9128 -14.9119 -14.9066 -14.9063 -14.9062 -14.9060
   -14.9058 -14.9054 -14.9054 -14.9033 -14.9031 -14.9024 -14.9007 -14.8992
   -14.8664 -14.8662 -14.8660 -14.8658 -14.8656 -14.8653 -14.8653 -14.8642
   -14.8631 -14.8629 -14.8623 -14.8605 -14.8213 -14.8210 -14.8208 -14.8206
   -14.8204 -14.8201 -14.8201 -14.8191 -14.8179 -14.8179 -14.8171 -14.8154
   -10.3408 -10.3398 -10.3385 -10.3371 -10.3362 -10.3355 -10.3348 -10.3336
   -10.3328 -10.3309 -10.3283 -10.3159 -10.3105 -10.3092 -10.3054 -10.3047
   -10.3029 -10.3019 -10.2980 -10.2964 -10.2962 -10.2942 -10.2897 -10.2807
   -10.2706 -10.2692 -10.2685 -10.2677 -10.2672 -10.2644 -10.2635 -10.2625
   -10.2617 -10.2598 -10.2578 -10.2451  -6.7495  -6.6451  -6.5601  -6.4666
    -6.4184  -6.4151  -6.3622  -6.3410  -6.3351  -6.2640  -6.2109  -6.2045
    -5.9149  -5.9147  -5.8247  -5.8204  -5.8188  -5.8166  -5.7650  -5.7639
    -5.7543  -5.7318  -5.6829  -5.6818  -5.6792  -5.6637  -5.6413  -5.6405
    -5.6352  -5.6048  -5.5873  -5.5840  -5.5742  -5.5294  -5.5274  -5.5256
    -5.5179  -5.4874  -5.4642  -5.4406  -5.4379  -5.4348  -5.3957  -5.3701
    -5.3437  -5.3383  -5.3330  -5.2944  -0.5632  -0.5625  -0.5491  -0.4312
    -0.4288  -0.4281  -0.4115  -0.3605  -0.3207  -0.3202  -0.2906  -0.2831
     1.4043   1.4948   1.4957   1.5137   1.6118   1.7111   1.7124   1.7227
     1.7381   1.7733   1.8441   1.8452   1.9668   1.9860   2.0199   2.0215
     2.1292   2.2001   2.2093   2.2104   2.2859   2.3337   2.3962   2.4271
     2.4297   2.5194   2.5292   2.5319   2.5571   2.5582   2.5591   2.5616
     2.5992   2.6780   2.7641   2.7656   2.8237   2.8253   2.8264   2.8303
     2.8509   2.8528   2.8948   2.8969   2.9053   3.0084   3.0171   3.0204
     3.0770   3.0784   3.1167   3.1181   3.1333   3.1792   3.1800   3.1869
     3.2133   3.2459   3.2658   3.2839   3.2853   3.2942   3.3301   3.3313
     3.3745   3.3756   3.3767   3.3776   3.4466   3.4478   3.4492   3.4769
     3.4790   3.4802   3.5054   3.5166   3.5310   3.5340   3.5355   3.5579
     3.5853   3.5875   3.6095   3.6322   3.6417   3.6441   3.6819   3.6845
     3.6867   3.6963   3.7033   3.7064   3.8361   3.8381   3.8778   3.8799
     3.9412   3.9433   3.9451   3.9478   3.9718   4.0323   4.0535   4.0553
     4.0599   4.0615   4.0991   4.1000   4.1204   4.1216   4.1282   4.1328
     4.2262   4.2418   4.2686   4.2694   4.2907   4.2915   4.3123   4.3649
     4.3914   4.4344   4.4352   4.4796   4.5201   4.5446   4.5458   4.5843
     4.5948   4.5955   4.6323   4.7308   5.1455   5.1464   5.1526   5.1636
     5.1670   5.1674   5.1683   5.1717   5.1986   5.2036   5.2103   5.2165
     5.2174   5.2271   5.2399   5.2404   5.2586   5.2636   5.2640   5.2649
     5.2656   5.2713   5.3088   5.3095   5.3167   5.3321   5.3454   5.3460
     5.3582   5.3607   5.3621   5.3674   5.3690   5.3798   5.3871   5.3879
     5.4086   5.4327   5.4466   5.4498   5.4513   5.4681   5.4956   5.4966
     5.5157   5.5241   5.5556   5.5564   5.5671   5.5684   5.6004   5.6011
     5.6067   5.6194   5.6299   5.6487   5.6495   5.6596   5.6739   5.7069
     5.7086   5.7374   5.7591   5.7600   5.7698   5.7836   5.8049   5.8060
     5.8128   5.8384   5.8670   5.8681   5.8740   5.8924   5.9678   5.9692
     6.0181   6.0246   6.0255   6.1013   6.1025   6.1109   6.1584   6.1872
     6.2018   6.2025   6.2033   6.2609   6.2626   6.2890   6.3171   6.3429
     6.3542   6.3672   6.3682   6.4120   6.4197   6.4215   6.4520   6.4817
     6.4832   6.5057   6.5570   6.5677   6.6066   6.6081   6.6484   6.6673
     6.6689   6.7360   6.7372   6.7398   6.7492   6.8039   6.8066   6.8532
     6.8654   6.9192   6.9459   7.0374

          k = 0.3333 0.1925 0.2714 (115773 PWs)   bands (ev):

   -28.2796 -28.2780 -28.2779 -28.2778 -28.2770 -28.2755 -28.2751 -28.2749
   -28.2748 -28.2748 -28.2736 -28.2549 -14.9246 -14.9243 -14.9242 -14.9239
   -14.9237 -14.9234 -14.9233 -14.9213 -14.9212 -14.9211 -14.9204 -14.9187
   -14.9186 -14.9184 -14.9183 -14.9181 -14.9178 -14.9175 -14.9175 -14.9154
   -14.9153 -14.9145 -14.9128 -14.9119 -14.9066 -14.9063 -14.9062 -14.9060
   -14.9058 -14.9054 -14.9054 -14.9033 -14.9031 -14.9024 -14.9007 -14.8992
   -14.8664 -14.8662 -14.8660 -14.8658 -14.8656 -14.8653 -14.8653 -14.8642
   -14.8631 -14.8629 -14.8623 -14.8605 -14.8213 -14.8210 -14.8208 -14.8206
   -14.8204 -14.8201 -14.8201 -14.8191 -14.8179 -14.8179 -14.8171 -14.8154
   -10.3408 -10.3397 -10.3391 -10.3381 -10.3364 -10.3349 -10.3340 -10.3332
   -10.3325 -10.3310 -10.3287 -10.3159 -10.3107 -10.3079 -10.3073 -10.3050
   -10.3039 -10.3004 -10.2977 -10.2959 -10.2951 -10.2947 -10.2903 -10.2807
   -10.2715 -10.2693 -10.2686 -10.2683 -10.2656 -10.2641 -10.2625 -10.2621
   -10.2615 -10.2605 -10.2593 -10.2451  -6.7496  -6.6450  -6.5603  -6.4670
    -6.4200  -6.4117  -6.3619  -6.3402  -6.3375  -6.2630  -6.2105  -6.2067
    -5.9145  -5.9120  -5.8249  -5.8212  -5.8188  -5.8172  -5.7654  -5.7638
    -5.7523  -5.7330  -5.6833  -5.6823  -5.6790  -5.6626  -5.6438  -5.6422
    -5.6356  -5.6064  -5.5853  -5.5837  -5.5725  -5.5313  -5.5279  -5.5253
    -5.5153  -5.4851  -5.4663  -5.4397  -5.4372  -5.4350  -5.3990  -5.3688
    -5.3448  -5.3396  -5.3295  -5.2950  -0.5628  -0.5603  -0.5512  -0.4318
    -0.4297  -0.4272  -0.4103  -0.3604  -0.3229  -0.3205  -0.2898  -0.2829
     1.4052   1.4928   1.4952   1.5152   1.6118   1.7111   1.7136   1.7220
     1.7356   1.7720   1.8446   1.8465   1.9665   1.9859   2.0215   2.0228
     2.1300   2.1996   2.2090   2.2111   2.2854   2.3345   2.3968   2.4260
     2.4299   2.5197   2.5290   2.5299   2.5569   2.5576   2.5587   2.5631
     2.6001   2.6791   2.7634   2.7651   2.8227   2.8242   2.8268   2.8299
     2.8511   2.8517   2.8955   2.8967   2.9064   3.0089   3.0180   3.0192
     3.0742   3.0782   3.1172   3.1184   3.1325   3.1807   3.1821   3.1876
     3.2125   3.2456   3.2657   3.2847   3.2858   3.2944   3.3278   3.3304
     3.3744   3.3768   3.3789   3.3791   3.4433   3.4467   3.4496   3.4749
     3.4789   3.4799   3.5049   3.5197   3.5333   3.5349   3.5365   3.5574
     3.5851   3.5866   3.6103   3.6295   3.6419   3.6440   3.6824   3.6853
     3.6873   3.6965   3.7036   3.7071   3.8347   3.8364   3.8782   3.8797
     3.9406   3.9453   3.9463   3.9484   3.9703   4.0321   4.0531   4.0564
     4.0579   4.0597   4.0996   4.1003   4.1218   4.1224   4.1301   4.1326
     4.2226   4.2388   4.2672   4.2693   4.2903   4.2916   4.3145   4.3680
     4.3917   4.4329   4.4354   4.4806   4.5212   4.5430   4.5448   4.5856
     4.5959   4.5974   4.6302   4.7291   5.1469   5.1476   5.1513   5.1625
     5.1665   5.1676   5.1685   5.1710   5.1977   5.2035   5.2121   5.2169
     5.2183   5.2284   5.2393   5.2401   5.2590   5.2614   5.2627   5.2634
     5.2649   5.2723   5.3089   5.3100   5.3175   5.3333   5.3447   5.3459
     5.3590   5.3608   5.3625   5.3670   5.3680   5.3796   5.3872   5.3883
     5.4096   5.4314   5.4464   5.4504   5.4521   5.4678   5.4950   5.4962
     5.5157   5.5219   5.5544   5.5566   5.5678   5.5685   5.6011   5.6015
     5.6065   5.6193   5.6308   5.6490   5.6497   5.6595   5.6742   5.7075
     5.7095   5.7388   5.7590   5.7600   5.7692   5.7834   5.8032   5.8059
     5.8141   5.8392   5.8652   5.8669   5.8751   5.8948   5.9675   5.9682
     6.0191   6.0248   6.0255   6.1006   6.1012   6.1120   6.1593   6.1864
     6.2022   6.2031   6.2049   6.2614   6.2634   6.2868   6.3181   6.3406
     6.3543   6.3688   6.3707   6.4128   6.4184   6.4207   6.4516   6.4796
     6.4829   6.5064   6.5574   6.5661   6.6064   6.6093   6.6471   6.6652
     6.6682   6.7366   6.7384   6.7407   6.7485   6.8030   6.8081   6.8522
     6.8669   6.9187   6.9456   7.0387

          k =-0.3333-0.1925 0.2714 (115773 PWs)   bands (ev):

   -28.2796 -28.2780 -28.2779 -28.2778 -28.2770 -28.2755 -28.2751 -28.2749
   -28.2748 -28.2748 -28.2736 -28.2549 -14.9246 -14.9243 -14.9242 -14.9239
   -14.9237 -14.9234 -14.9233 -14.9213 -14.9212 -14.9211 -14.9204 -14.9187
   -14.9186 -14.9184 -14.9183 -14.9181 -14.9178 -14.9175 -14.9175 -14.9154
   -14.9153 -14.9145 -14.9128 -14.9119 -14.9066 -14.9063 -14.9062 -14.9060
   -14.9058 -14.9054 -14.9054 -14.9033 -14.9031 -14.9024 -14.9007 -14.8992
   -14.8664 -14.8662 -14.8660 -14.8658 -14.8656 -14.8653 -14.8653 -14.8642
   -14.8631 -14.8629 -14.8623 -14.8605 -14.8213 -14.8210 -14.8208 -14.8206
   -14.8204 -14.8201 -14.8201 -14.8191 -14.8179 -14.8179 -14.8171 -14.8154
   -10.3408 -10.3395 -10.3393 -10.3382 -10.3364 -10.3346 -10.3339 -10.3332
   -10.3326 -10.3312 -10.3286 -10.3158 -10.3110 -10.3084 -10.3066 -10.3054
   -10.3017 -10.3014 -10.2990 -10.2965 -10.2952 -10.2940 -10.2898 -10.2808
   -10.2717 -10.2694 -10.2684 -10.2675 -10.2658 -10.2647 -10.2629 -10.2621
   -10.2616 -10.2602 -10.2590 -10.2451  -6.7494  -6.6452  -6.5595  -6.4703
    -6.4232  -6.4152  -6.3622  -6.3285  -6.3255  -6.2565  -6.2243  -6.2205
    -5.9059  -5.9037  -5.8240  -5.8200  -5.8088  -5.8068  -5.7915  -5.7610
    -5.7591  -5.7311  -5.7120  -5.7074  -5.6711  -5.6351  -5.6294  -5.6283
    -5.6267  -5.6059  -5.5991  -5.5979  -5.5695  -5.5293  -5.5227  -5.5206
    -5.5196  -5.4971  -5.4671  -5.4320  -5.4290  -5.4270  -5.4194  -5.3641
    -5.3487  -5.3427  -5.3215  -5.2975  -0.5596  -0.5586  -0.5567  -0.4365
    -0.4348  -0.4234  -0.3934  -0.3725  -0.3197  -0.3171  -0.2986  -0.2787
     1.4340   1.4843   1.4864   1.4876   1.6249   1.6396   1.7707   1.7746
     1.7822   1.7891   1.8000   1.8011   1.9149   1.9961   1.9969   2.0769
     2.1556   2.2008   2.2115   2.2481   2.2496   2.3604   2.3930   2.3962
     2.3984   2.4493   2.5109   2.5123   2.5474   2.5890   2.5928   2.6088
     2.6454   2.7114   2.7605   2.7682   2.7701   2.7895   2.8075   2.8108
     2.8404   2.8724   2.9157   2.9173   2.9185   2.9813   3.0234   3.0250
     3.0654   3.1064   3.1075   3.1310   3.1706   3.1917   3.1931   3.1944
     3.1999   3.2321   3.2633   3.2642   3.2757   3.3162   3.3200   3.3219
     3.3240   3.3888   3.3896   3.4112   3.4435   3.4454   3.4679   3.4683
     3.4705   3.4722   3.4756   3.4765   3.5326   3.5344   3.5365   3.5900
     3.6103   3.6115   3.6125   3.6331   3.6418   3.6474   3.6581   3.6607
     3.6675   3.7103   3.7110   3.7181   3.8345   3.8352   3.8796   3.8867
     3.9037   3.9495   3.9507   3.9754   3.9804   4.0189   4.0463   4.0471
     4.0485   4.0660   4.1105   4.1107   4.1202   4.1319   4.1326   4.1474
     4.1888   4.2551   4.2653   4.2677   4.2882   4.2892   4.2944   4.3878
     4.3975   4.4365   4.4389   4.4675   4.5237   4.5250   4.5357   4.5964
     4.6102   4.6115   4.6208   4.7207   5.1504   5.1507   5.1531   5.1550
     5.1698   5.1734   5.1745   5.1820   5.1893   5.1966   5.2005   5.2065
     5.2073   5.2329   5.2340   5.2343   5.2532   5.2617   5.2637   5.2642
     5.2779   5.2974   5.3064   5.3109   5.3125   5.3274   5.3343   5.3351
     5.3564   5.3574   5.3590   5.3632   5.3788   5.3910   5.4061   5.4071
     5.4116   5.4310   5.4322   5.4437   5.4449   5.4914   5.5006   5.5014
     5.5071   5.5142   5.5528   5.5592   5.5730   5.5735   5.6021   5.6097
     5.6106   5.6176   5.6238   5.6256   5.6421   5.6692   5.6812   5.7130
     5.7148   5.7157   5.7336   5.7712   5.7720   5.7731   5.8004   5.8025
     5.8094   5.8581   5.8728   5.8749   5.8786   5.9145   5.9579   5.9588
     6.0334   6.0342   6.0367   6.0595   6.0766   6.0793   6.1726   6.2072
     6.2121   6.2131   6.2654   6.2670   6.2695   6.2766   6.2840   6.3484
     6.3497   6.3641   6.3709   6.4147   6.4241   6.4261   6.4275   6.4713
     6.4967   6.4992   6.5454   6.5587   6.5951   6.5965   6.6663   6.6684
     6.6769   6.7198   6.7360   6.7384   6.7474   6.8124   6.8158   6.8452
     6.8692   6.9281   6.9377   7.0524

          k = 0.3333-0.1925 0.2714 (115773 PWs)   bands (ev):

   -28.2796 -28.2780 -28.2779 -28.2778 -28.2770 -28.2755 -28.2751 -28.2749
   -28.2748 -28.2748 -28.2736 -28.2549 -14.9246 -14.9243 -14.9242 -14.9239
   -14.9237 -14.9234 -14.9234 -14.9213 -14.9212 -14.9210 -14.9204 -14.9187
   -14.9186 -14.9184 -14.9183 -14.9181 -14.9178 -14.9175 -14.9175 -14.9154
   -14.9153 -14.9145 -14.9128 -14.9119 -14.9066 -14.9063 -14.9062 -14.9060
   -14.9058 -14.9054 -14.9054 -14.9033 -14.9031 -14.9024 -14.9007 -14.8992
   -14.8664 -14.8662 -14.8660 -14.8658 -14.8656 -14.8653 -14.8653 -14.8642
   -14.8631 -14.8629 -14.8623 -14.8605 -14.8213 -14.8210 -14.8208 -14.8206
   -14.8204 -14.8201 -14.8201 -14.8191 -14.8179 -14.8179 -14.8171 -14.8154
   -10.3407 -10.3397 -10.3386 -10.3372 -10.3364 -10.3353 -10.3347 -10.3336
   -10.3330 -10.3308 -10.3283 -10.3158 -10.3111 -10.3075 -10.3067 -10.3053
   -10.3023 -10.3006 -10.2996 -10.2971 -10.2964 -10.2930 -10.2893 -10.2809
   -10.2708 -10.2699 -10.2694 -10.2668 -10.2662 -10.2644 -10.2637 -10.2626
   -10.2620 -10.2594 -10.2579 -10.2451  -6.7494  -6.6451  -6.5591  -6.4703
    -6.4218  -6.4182  -6.3627  -6.3293  -6.3236  -6.2571  -6.2247  -6.2182
    -5.9062  -5.9058  -5.8214  -5.8206  -5.8098  -5.8074  -5.7935  -5.7601
    -5.7588  -5.7310  -5.7097  -5.7086  -5.6726  -5.6334  -5.6279  -5.6273
    -5.6237  -5.6062  -5.6006  -5.5986  -5.5702  -5.5271  -5.5231  -5.5224
    -5.5211  -5.4940  -5.4697  -5.4346  -5.4293  -5.4271  -5.4203  -5.3613
    -5.3473  -5.3415  -5.3220  -5.2992  -0.5598  -0.5592  -0.5568  -0.4359
    -0.4353  -0.4226  -0.3942  -0.3730  -0.3175  -0.3169  -0.2993  -0.2790
     1.4323   1.4852   1.4864   1.4870   1.6266   1.6410   1.7731   1.7737
     1.7830   1.7906   1.7988   1.7999   1.9141   1.9936   1.9958   2.0774
     2.1551   2.2002   2.2119   2.2475   2.2486   2.3595   2.3937   2.3962
     2.3990   2.4495   2.5112   2.5144   2.5469   2.5911   2.5923   2.6079
     2.6435   2.7129   2.7620   2.7686   2.7697   2.7879   2.8084   2.8110
     2.8388   2.8736   2.9151   2.9160   2.9197   2.9809   3.0231   3.0264
     3.0687   3.1052   3.1060   3.1332   3.1684   3.1904   3.1931   3.1951
     3.1996   3.2308   3.2638   3.2647   3.2763   3.3174   3.3205   3.3216
     3.3228   3.3875   3.3877   3.4101   3.4441   3.4453   3.4675   3.4692
     3.4719   3.4723   3.4742   3.4773   3.5323   3.5358   3.5362   3.5919
     3.6098   3.6113   3.6125   3.6320   3.6420   3.6494   3.6583   3.6613
     3.6655   3.7095   3.7110   3.7153   3.8353   3.8357   3.8797   3.8885
     3.9043   3.9486   3.9492   3.9729   3.9820   4.0199   4.0477   4.0488
     4.0500   4.0644   4.1092   4.1101   4.1184   4.1316   4.1328   4.1465
     4.1921   4.2562   4.2669   4.2677   4.2879   4.2896   4.2944   4.3856
     4.3967   4.4378   4.4387   4.4673   4.5244   4.5257   4.5337   4.5947
     4.6095   4.6103   4.6238   4.7220   5.1484   5.1491   5.1533   5.1556
     5.1711   5.1751   5.1758   5.1820   5.1895   5.1964   5.1990   5.2057
     5.2062   5.2323   5.2337   5.2344   5.2535   5.2632   5.2642   5.2653
     5.2778   5.2960   5.3058   5.3120   5.3125   5.3275   5.3358   5.3365
     5.3563   5.3573   5.3590   5.3620   5.3788   5.3930   5.4051   5.4057
     5.4125   5.4303   5.4325   5.4433   5.4449   5.4921   5.5001   5.5009
     5.5096   5.5149   5.5521   5.5578   5.5727   5.5740   5.6019   5.6096
     5.6103   5.6180   5.6233   5.6244   5.6419   5.6696   5.6808   5.7129
     5.7139   5.7165   5.7321   5.7715   5.7719   5.7734   5.8024   5.8030
     5.8081   5.8575   5.8753   5.8758   5.8767   5.9130   5.9582   5.9593
     6.0330   6.0343   6.0349   6.0579   6.0788   6.0797   6.1723   6.2041
     6.2119   6.2125   6.2650   6.2665   6.2706   6.2779   6.2859   6.3484
     6.3495   6.3666   6.3721   6.4137   6.4238   6.4247   6.4270   6.4706
     6.4984   6.5013   6.5452   6.5594   6.5945   6.5949   6.6659   6.6678
     6.6779   6.7197   6.7349   6.7391   6.7487   6.8129   6.8154   6.8470
     6.8674   6.9277   6.9376   7.0517

          k =-0.3333-0.5774 0.2714 (115827 PWs)   bands (ev):

   -28.2796 -28.2780 -28.2779 -28.2778 -28.2770 -28.2755 -28.2751 -28.2749
   -28.2748 -28.2748 -28.2736 -28.2549 -14.9246 -14.9243 -14.9241 -14.9239
   -14.9237 -14.9234 -14.9234 -14.9213 -14.9212 -14.9210 -14.9204 -14.9187
   -14.9186 -14.9184 -14.9183 -14.9181 -14.9178 -14.9175 -14.9175 -14.9154
   -14.9153 -14.9145 -14.9128 -14.9119 -14.9066 -14.9063 -14.9062 -14.9060
   -14.9058 -14.9054 -14.9054 -14.9033 -14.9031 -14.9024 -14.9007 -14.8992
   -14.8664 -14.8662 -14.8660 -14.8658 -14.8656 -14.8653 -14.8653 -14.8642
   -14.8631 -14.8629 -14.8623 -14.8605 -14.8213 -14.8210 -14.8208 -14.8206
   -14.8204 -14.8201 -14.8201 -14.8191 -14.8179 -14.8179 -14.8171 -14.8154
   -10.3406 -10.3388 -10.3381 -10.3377 -10.3363 -10.3348 -10.3337 -10.3333
   -10.3315 -10.3313 -10.3301 -10.3157 -10.3093 -10.3082 -10.3071 -10.3053
   -10.3016 -10.3004 -10.2985 -10.2978 -10.2953 -10.2927 -10.2917 -10.2816
   -10.2712 -10.2687 -10.2682 -10.2673 -10.2664 -10.2650 -10.2640 -10.2634
   -10.2616 -10.2606 -10.2591 -10.2456  -6.6184  -6.6183  -6.6130  -6.5251
    -6.5246  -6.5190  -6.3063  -6.2895  -6.2889  -6.2835  -6.2546  -6.2115
    -5.8752  -5.8582  -5.8454  -5.7802  -5.7795  -5.7772  -5.7432  -5.7416
    -5.7393  -5.7155  -5.6887  -5.6878  -5.6851  -5.6732  -5.6722  -5.6713
    -5.6659  -5.6435  -5.5578  -5.5567  -5.5554  -5.5260  -5.5247  -5.5224
    -5.5051  -5.5037  -5.5027  -5.4987  -5.4589  -5.3987  -5.3979  -5.3935
    -5.3564  -5.3236  -5.3229  -5.3159  -0.5203  -0.5064  -0.5048  -0.5026
    -0.4608  -0.4174  -0.4166  -0.4148  -0.3546  -0.2935  -0.2919  -0.2908
     1.4814   1.4818   1.4836   1.6362   1.6386   1.6397   1.6905   1.7748
     1.7756   1.7766   1.7782   1.7931   1.9799   1.9817   1.9822   2.0557
     2.1715   2.1927   2.1937   2.1959   2.2471   2.3969   2.3985   2.4000
     2.4891   2.4902   2.4908   2.5571   2.5872   2.5878   2.5900   2.5927
     2.6804   2.7362   2.7370   2.7377   2.8219   2.8234   2.8243   2.8282
     2.9013   2.9025   2.9037   2.9265   2.9366   2.9539   2.9552   2.9572
     3.0579   3.0595   3.0616   3.0866   3.0876   3.0890   3.1260   3.1800
     3.2438   3.2446   3.2453   3.2695   3.2705   3.2725   3.3201   3.3261
     3.3270   3.3286   3.3733   3.4061   3.4191   3.4636   3.4648   3.4657
     3.4924   3.4971   3.4983   3.4999   3.5357   3.5365   3.5372   3.5402
     3.5605   3.6146   3.6158   3.6187   3.6530   3.6540   3.6575   3.6958
     3.6976   3.7012   3.7192   3.7454   3.8216   3.8392   3.8409   3.8425
     3.9371   3.9393   3.9406   3.9428   4.0287   4.0292   4.0298   4.0388
     4.0657   4.0676   4.0686   4.1081   4.1121   4.1132   4.1148   4.1674
     4.2715   4.2733   4.2750   4.2888   4.3140   4.3604   4.3610   4.3638
     4.4159   4.4168   4.4187   4.4916   4.4934   4.4948   4.5066   4.5115
     4.5640   4.6661   4.6672   4.6686   5.1476   5.1550   5.1560   5.1566
     5.1570   5.1809   5.1815   5.1824   5.1963   5.1970   5.1976   5.2096
     5.2232   5.2237   5.2247   5.2496   5.2511   5.2517   5.2555   5.2672
     5.3000   5.3006   5.3019   5.3081   5.3266   5.3279   5.3288   5.3663
     5.3669   5.3679   5.3731   5.3920   5.3943   5.4074   5.4083   5.4094
     5.4319   5.4323   5.4327   5.4378   5.4829   5.4836   5.4846   5.4907
     5.5376   5.5385   5.5397   5.5425   5.5647   5.5656   5.5666   5.6043
     5.6049   5.6061   5.6369   5.6380   5.6708   5.6714   5.6728   5.7020
     5.7029   5.7041   5.7161   5.7579   5.7590   5.7599   5.8015   5.8067
     5.8200   5.8224   5.8237   5.8240   5.8887   5.8897   5.8907   6.0562
     6.0590   6.0600   6.0613   6.0766   6.1189   6.1201   6.1210   6.1352
     6.1955   6.2367   6.2375   6.2389   6.2832   6.3009   6.3017   6.3037
     6.3069   6.3838   6.3846   6.3870   6.4496   6.4664   6.4677   6.4686
     6.4915   6.4933   6.5584   6.5588   6.5612   6.6453   6.6843   6.6857
     6.6880   6.7604   6.7775   6.7782   6.7814   6.7930   6.8536   6.8547
     6.8585   6.9353   6.9362   6.9380

     highest occupied level (ev):     7.1825

!    total energy              =   -9077.18720568 Ry
     estimated scf accuracy    <          3.0E-10 Ry

     The total energy is the sum of the following terms:
     one-electron contribution =   -2776.22804696 Ry
     hartree contribution      =    2019.86119549 Ry
     xc contribution           =   -2269.37558247 Ry
     ewald contribution        =   -3895.64696923 Ry
     one-center paw contrib.   =   -2155.79780252 Ry

     convergence has been achieved in  21 iterations

     negative rho (up, down):  7.902E-01 0.000E+00

     Forces acting on atoms (cartesian axes, Ry/au):

     atom    1 type  1   force =    -0.00014434    0.00018993   -0.00019127
     atom    2 type  1   force =    -0.00016118    0.00025803   -0.00007869
     atom    3 type  1   force =    -0.00015777    0.00028668   -0.00006748
     atom    4 type  1   force =    -0.00014142    0.00029562   -0.00006224
     atom    5 type  1   force =    -0.00009431   -0.00032059   -0.00001051
     atom    6 type  1   force =    -0.00021851   -0.00032218   -0.00001332
     atom    7 type  1   force =    -0.00017253   -0.00016542   -0.00017985
     atom    8 type  1   force =    -0.00016583   -0.00021952    0.00000000
     atom    9 type  1   force =     0.00024952    0.00011142    0.00009293
     atom   10 type  1   force =     0.00035736   -0.00020025    0.00017493
     atom   11 type  1   force =     0.00036355   -0.00029222    0.00028610
     atom   12 type  1   force =     0.00027819   -0.00002032    0.00011981
     atom   13 type  2   force =     0.00021099   -0.00039354    0.00012826
     atom   14 type  2   force =     0.00019407   -0.00040019    0.00018389
     atom   15 type  2   force =     0.00020065   -0.00038009    0.00017167
     atom   16 type  2   force =     0.00019270   -0.00038755    0.00017895
     atom   17 type  2   force =     0.00083004    0.00005861    0.00018031
     atom   18 type  2   force =     0.00025906    0.00035925    0.00019727
     atom   19 type  2   force =     0.00029262    0.00038613    0.00010812
     atom   20 type  2   force =     0.00024369    0.00039452    0.00020680
     atom   21 type  2   force =    -0.00045401    0.00001284    0.00016332
     atom   22 type  2   force =    -0.00045234    0.00002068    0.00016327
     atom   23 type  2   force =    -0.00043054    0.00003081    0.00016248
     atom   24 type  2   force =    -0.00029698    0.00012741    0.00017861
     atom   25 type  2   force =    -0.00052773   -0.00002417   -0.00015930
     atom   26 type  2   force =    -0.00042994    0.00000772   -0.00019793
     atom   27 type  2   force =    -0.00043468    0.00005200   -0.00023565
     atom   28 type  2   force =    -0.00042064   -0.00007216   -0.00012529
     atom   29 type  2   force =     0.00021877    0.00039443   -0.00021592
     atom   30 type  2   force =     0.00020439    0.00035997   -0.00021255
     atom   31 type  2   force =     0.00020339    0.00037680   -0.00020700
     atom   32 type  2   force =     0.00020281    0.00038838   -0.00021914
     atom   33 type  2   force =     0.00002069   -0.00038920   -0.00013710
     atom   34 type  2   force =     0.00017250   -0.00015172    0.00069050
     atom   35 type  2   force =     0.00024640   -0.00035560   -0.00016588
     atom   36 type  2   force =     0.00021735   -0.00036738   -0.00015607
     atom   37 type  3   force =     0.00464649   -0.00682680    0.00909417
     atom   38 type  3   force =     0.00040486   -0.00060032    0.00008518
     atom   39 type  3   force =     0.00018344   -0.00032198    0.00006186
     atom   40 type  3   force =     0.00038422   -0.00044170    0.00008376
     atom   41 type  3   force =     0.00008808    0.00050030   -0.00020705
     atom   42 type  3   force =     0.00025894    0.00042421   -0.00003045
     atom   43 type  3   force =     0.00029210    0.00030796    0.00012806
     atom   44 type  3   force =     0.00030639    0.00045442   -0.00000929
     atom   45 type  3   force =    -0.00057364    0.00000294   -0.00003449
     atom   46 type  3   force =    -0.00061168   -0.00004478   -0.00009193
     atom   47 type  3   force =    -0.00051030    0.00002436   -0.00010610
     atom   48 type  3   force =    -0.00054450    0.00004027   -0.00006771
     atom   49 type  4   force =    -0.00585932    0.00764778   -0.01340970
     atom   50 type  4   force =     0.00036216   -0.00006315   -0.00003930
     atom   51 type  4   force =     0.00035440   -0.00011964   -0.00001213
     atom   52 type  4   force =     0.00029527   -0.00020504   -0.00004409
     atom   53 type  4   force =    -0.00005633    0.00037372    0.00009539
     atom   54 type  4   force =    -0.00008067    0.00037695    0.00004672
     atom   55 type  4   force =    -0.00007719    0.00038772    0.00002579
     atom   56 type  4   force =    -0.00010268    0.00031155    0.00004263
     atom   57 type  4   force =    -0.00028787   -0.00023633    0.00009395
     atom   58 type  4   force =    -0.00024771   -0.00028897    0.00006861
     atom   59 type  4   force =    -0.00024559   -0.00026531    0.00001020
     atom   60 type  4   force =    -0.00026322   -0.00022475    0.00006222
     atom   61 type  4   force =    -0.00025887    0.00026513    0.00002364
     atom   62 type  4   force =    -0.00027796    0.00024230    0.00009900
     atom   63 type  4   force =    -0.00023335    0.00025661    0.00005235
     atom   64 type  4   force =    -0.00023508    0.00025449    0.00003997
     atom   65 type  4   force =     0.00179462    0.00032833    0.00083116
     atom   66 type  4   force =     0.00030767    0.00027420    0.00003924
     atom   67 type  4   force =     0.00037807    0.00009297   -0.00003129
     atom   68 type  4   force =     0.00037149   -0.00000112   -0.00000264
     atom   69 type  4   force =    -0.00008475   -0.00036437   -0.00002505
     atom   70 type  4   force =     0.00005858   -0.00055438    0.00024170
     atom   71 type  4   force =    -0.00012301   -0.00037930   -0.00003419
     atom   72 type  4   force =    -0.00006340   -0.00038716   -0.00004015
     atom   73 type  4   force =     0.00000696    0.00018406   -0.00012957
     atom   74 type  4   force =     0.00002142    0.00016325   -0.00022336
     atom   75 type  4   force =     0.00002591    0.00014535   -0.00021861
     atom   76 type  4   force =     0.00001900    0.00014906   -0.00021384
     atom   77 type  4   force =    -0.00045227   -0.00027736   -0.00005523
     atom   78 type  4   force =    -0.00044705    0.00009179   -0.00032970
     atom   79 type  4   force =    -0.00017171   -0.00018434   -0.00025939
     atom   80 type  4   force =    -0.00009409   -0.00020587   -0.00038646
     atom   81 type  4   force =     0.00004194    0.00034163   -0.00006418
     atom   82 type  4   force =     0.00017748   -0.00008062   -0.00022641
     atom   83 type  4   force =     0.00015688   -0.00012540   -0.00021719
     atom   84 type  4   force =     0.00009213   -0.00010404   -0.00014812
     atom   85 type  4   force =     0.00041679    0.00000012   -0.00000112
     atom   86 type  4   force =     0.00006557    0.00007810    0.00013614
     atom   87 type  4   force =     0.00030110   -0.00011789    0.00084524
     atom   88 type  4   force =     0.00014799    0.00010174    0.00022153
     atom   89 type  4   force =     0.00001068   -0.00014259    0.00029177
     atom   90 type  4   force =     0.00001414   -0.00017927    0.00030646
     atom   91 type  4   force =     0.00000664   -0.00016050    0.00028282
     atom   92 type  4   force =     0.00001447   -0.00014745    0.00027272
     atom   93 type  4   force =    -0.00009006    0.00006347    0.00026778
     atom   94 type  4   force =    -0.00016933   -0.00061619    0.00159063
     atom   95 type  4   force =    -0.00015705    0.00006095    0.00023419
     atom   96 type  4   force =    -0.00014319    0.00007180    0.00023184

     Total force =     0.021171     Total SCF correction =     0.000036
     Message from routine punch:
     Nothing written, as per user request (disk_io='none')

     init_run     :     39.28s CPU     41.44s WALL (       1 calls)
     electrons    :   1912.82s CPU   1996.81s WALL (       1 calls)
     forces       :     19.04s CPU     19.50s WALL (       1 calls)

     Called by init_run:
     wfcinit      :     35.22s CPU     37.09s WALL (       1 calls)
     potinit      :      1.17s CPU      1.21s WALL (       1 calls)
     hinit0       :      1.17s CPU      1.21s WALL (       1 calls)

     Called by electrons:
     c_bands      :   1695.90s CPU   1761.39s WALL (      21 calls)
     sum_band     :    193.40s CPU    207.86s WALL (      21 calls)
     v_of_rho     :      3.59s CPU      3.96s WALL (      22 calls)
     newd         :     14.71s CPU     18.41s WALL (      22 calls)
     PAW_pot      :      5.28s CPU      5.31s WALL (      22 calls)
     mix_rho      :      0.57s CPU      0.63s WALL (      21 calls)

     Called by c_bands:
     init_us_2    :     23.95s CPU     24.20s WALL (     308 calls)
     cegterg      :   1626.91s CPU   1691.87s WALL (     147 calls)

     Called by *egterg:
     cdiaghg      :     92.66s CPU     95.03s WALL (     852 calls)
     h_psi        :    887.03s CPU    939.07s WALL (     859 calls)
     s_psi        :    214.58s CPU    216.19s WALL (     859 calls)
     g_psi        :      3.03s CPU      3.07s WALL (     705 calls)

     Called by h_psi:
     h_psi:calbec :    214.96s CPU    217.85s WALL (     859 calls)
     vloc_psi     :    453.92s CPU    498.90s WALL (     859 calls)
     add_vuspsi   :    214.38s CPU    216.02s WALL (     859 calls)

     General routines
     calbec       :    300.51s CPU    304.55s WALL (    1034 calls)
     fft          :      3.35s CPU      3.74s WALL (     295 calls)
     ffts         :      0.75s CPU      0.76s WALL (      43 calls)
     fftw         :    397.98s CPU    439.12s WALL (  420388 calls)
     interpolate  :      0.89s CPU      0.93s WALL (      22 calls)

     Parallel routines

     PWSCF        :  32m51.40s CPU  34m18.41s WALL


   This run was terminated on:   4:15:41  21Aug2026            

=------------------------------------------------------------------------------=
   JOB DONE.
=------------------------------------------------------------------------------=
