
     Program PWSCF v.7.3.1 starts on 21Aug2026 at  3:52:10 

     This program is part of the open-source Quantum ESPRESSO suite
     for quantum simulation of materials; please cite
         "P. Giannozzi et al., J. Phys.:Condens. Matter 21 395502 (2009);
         "P. Giannozzi et al., J. Phys.:Condens. Matter 29 465901 (2017);
         "P. Giannozzi et al., J. Chem. Phys. 152 154105 (2020);
          URL http://www.quantum-espresso.org", 
     in publications or presentations arising from this work. More details at
     http://www.quantum-espresso.org/quote

     Parallel version (MPI & OpenMP), running on      32 processor cores
     Number of MPI processes:                32
     Threads/MPI process:                     1

     MPI processes distributed on     1 nodes
     198187 MiB available memory on the printing compute node when the environment starts

     Reading input from scf.in

     Current dimensions of program PWSCF are:
     Max number of different atomic species (ntypx) = 10
     Max number of k-points (npk) =  40000
     Max angular momentum in pseudopotentials (lmaxx) =  4
     file Cu.paw.z_11.ld1.psl.v1.0.0-low.upf: wavefunction(s)  4S 3D renormalized

     K-points division:     npool     =       2
     R & G space division:  proc/nbgrp/npool/nimage =      16
     Subspace diagonalization in iterative solution of the eigenvalue problem:
     one sub-group per band group will be used
     scalapack distributed-memory algorithm (size of sub-group:  4*  4 procs)


     Parallelization info
     --------------------
     sticks:   dense  smooth     PW     G-vecs:    dense   smooth      PW
     Min        1193     597    157               163743    57882    7779
     Max        1194     599    158               163747    57885    7784
     Sum       19099    9565   2515              2619931   926125  124485

     Using Slab Decomposition



     bravais-lattice index     =            0
     lattice parameter (alat)  =      24.0273  a.u.
     unit-cell volume          =   14752.0463 (a.u.)^3
     number of atoms/cell      =           96
     number of atomic types    =            4
     number of electrons       =       840.00
     number of Kohn-Sham states=          420
     kinetic-energy cutoff     =      60.0000  Ry
     charge density cutoff     =     480.0000  Ry
     scf convergence threshold =      1.0E-09
     mixing beta               =       0.3000
     number of iterations used =            8  plain     mixing
     Exchange-correlation=  SLA  PW   PBX  PBC
                           (   1   4   3   4   0   0   0)

     celldm(1)=  24.027274  celldm(2)=   0.000000  celldm(3)=   0.000000
     celldm(4)=   0.000000  celldm(5)=   0.000000  celldm(6)=   0.000000

     crystal axes: (cart. coord. in units of alat)
               a(1) = (   1.000000   0.000000   0.000000 )  
               a(2) = (  -0.500000   0.866025   0.000000 )  
               a(3) = (   0.000000   0.000000   1.228028 )  

     reciprocal axes: (cart. coord. in units 2 pi/alat)
               b(1) = (  1.000000  0.577351 -0.000000 )  
               b(2) = (  0.000000  1.154701  0.000000 )  
               b(3) = (  0.000000 -0.000000  0.814314 )  


     PseudoPot. # 1 for Sr read from file:
     /home/yuhansun/pseudos/SSSP-1.3.0-PBE-precision/Sr_pbe_v1.uspp.F.UPF
     MD5 check sum: 6b418c05fbe9db5448babca5e47b7a5b
     Pseudo is Ultrasoft + core correction, Zval = 10.0
     Generated by new atomic code, or converted to UPF format
     Using radial grid of  883 points,  6 beta functions with: 
                l(1) =   0
                l(2) =   0
                l(3) =   1
                l(4) =   1
                l(5) =   2
                l(6) =   2
     Q(r) pseudized with  6 coefficients,  rinner =    1.400   1.400   1.400
                                                       1.400   1.400

     PseudoPot. # 2 for Cu read from file:
     /home/yuhansun/pseudos/SSSP-1.3.0-PBE-precision/Cu.paw.z_11.ld1.psl.v1.0.0-low.upf
     MD5 check sum: 619f40885d92a09a85a8b37550532d0c
     Pseudo is Projector augmented-wave + core cor, Zval = 11.0
     Generated using &quot;atomic&quot; code by A. Dal Corso  v.6.3MaX
     Shape of augmentation charge: PSQ
     Using radial grid of 1199 points,  6 beta functions with: 
                l(1) =   0
                l(2) =   0
                l(3) =   1
                l(4) =   1
                l(5) =   2
                l(6) =   2
     Q(r) pseudized with 0 coefficients 


     PseudoPot. # 3 for Sn read from file:
     /home/yuhansun/pseudos/SSSP-1.3.0-PBE-precision/Sn_pbe_v1.uspp.F.UPF
     MD5 check sum: 4cf58ce39ec5d5d420df3dd08604eb00
     Pseudo is Ultrasoft + core correction, Zval = 14.0
     Generated by new atomic code, or converted to UPF format
     Using radial grid of  891 points,  6 beta functions with: 
                l(1) =   0
                l(2) =   0
                l(3) =   1
                l(4) =   1
                l(5) =   2
                l(6) =   2
     Q(r) pseudized with  6 coefficients,  rinner =    1.200   1.200   1.200
                                                       1.200   1.200

     PseudoPot. # 4 for S  read from file:
     /home/yuhansun/pseudos/SSSP-1.3.0-PBE-precision/s_pbe_v1.4.uspp.F.UPF
     MD5 check sum: 88d86576ff6df21479756cfb9bdac1df
     Pseudo is Ultrasoft + core correction, Zval =  6.0
     Generated by new atomic code, or converted to UPF format
     Using radial grid of  907 points,  6 beta functions with: 
                l(1) =   0
                l(2) =   0
                l(3) =   1
                l(4) =   1
                l(5) =   2
                l(6) =   2
     Q(r) pseudized with  8 coefficients,  rinner =    1.300   1.300   1.300
                                                       1.300   1.300

     atomic species   valence    mass     pseudopotential
     Sr               10.00    87.62000     Sr( 1.00)
     Cu               11.00    63.54600     Cu( 1.00)
     Sn               14.00   118.71000     Sn( 1.00)
     S                 6.00    32.06500     S ( 1.00)

     No symmetry found



   Cartesian axes

     site n.     atom                  positions (alat units)
         1        Sr     tau(   1) = (  -0.1405753   0.2434834   0.2046717  )
         2        Sr     tau(   2) = (   0.3594247   0.2434834   0.2046717  )
         3        Sr     tau(   3) = (  -0.3905753   0.6764960   0.2046717  )
         4        Sr     tau(   4) = (   0.1094247   0.6764960   0.2046717  )
         5        Sr     tau(   5) = (   0.1094247   0.1895292   0.6140139  )
         6        Sr     tau(   6) = (   0.6094247   0.1895292   0.6140139  )
         7        Sr     tau(   7) = (  -0.1405753   0.6225418   0.6140139  )
         8        Sr     tau(   8) = (   0.3594247   0.6225418   0.6140139  )
         9        Sr     tau(   9) = (   0.2811505   0.0000000   1.0233574  )
        10        Sr     tau(  10) = (   0.7811505   0.0000000   1.0233574  )
        11        Sr     tau(  11) = (   0.0311505   0.4330126   1.0233574  )
        12        Sr     tau(  12) = (   0.5311505   0.4330126   1.0233574  )
        13        Cu     tau(  13) = (  -0.1226788   0.2753211   0.5061747  )
        14        Cu     tau(  14) = (   0.3773212   0.2753211   0.5061747  )
        15        Cu     tau(  15) = (  -0.3726788   0.7083337   0.5061747  )
        16        Cu     tau(  16) = (   0.1273212   0.7083337   0.5061747  )
        17        Cu     tau(  17) = (   0.0729045   0.1891087   0.9155169  )
        18        Cu     tau(  18) = (   0.5729045   0.1891087   0.9155169  )
        19        Cu     tau(  19) = (  -0.1770956   0.6221213   0.9155169  )
        20        Cu     tau(  20) = (   0.3229044   0.6221213   0.9155169  )
        21        Cu     tau(  21) = (   0.0497750   0.4015949   0.0968325  )
        22        Cu     tau(  22) = (   0.5497750   0.4015949   0.0968325  )
        23        Cu     tau(  23) = (  -0.2002251   0.8346075   0.0968325  )
        24        Cu     tau(  24) = (   0.2997749   0.8346075   0.0968325  )
        25        Cu     tau(  25) = (   0.2997745   0.0314177   0.7218532  )
        26        Cu     tau(  26) = (   0.7997745   0.0314177   0.7218532  )
        27        Cu     tau(  27) = (   0.0497745   0.4644302   0.7218532  )
        28        Cu     tau(  28) = (   0.5497745   0.4644302   0.7218532  )
        29        Cu     tau(  29) = (   0.1273207   0.1576915   0.3125110  )
        30        Cu     tau(  30) = (   0.6273207   0.1576915   0.3125110  )
        31        Cu     tau(  31) = (  -0.1226793   0.5907041   0.3125110  )
        32        Cu     tau(  32) = (   0.3773207   0.5907041   0.3125110  )
        33        Cu     tau(  33) = (   0.3229040   0.2439039   1.1311954  )
        34        Cu     tau(  34) = (   0.8229040   0.2439039   1.1311954  )
        35        Cu     tau(  35) = (   0.0729039   0.6769164   1.1311954  )
        36        Cu     tau(  36) = (   0.5729039   0.6769164   1.1311954  )
        37        Sn     tau(  37) = (  -0.1762580   0.3052877   0.8186857  )
        38        Sn     tau(  38) = (   0.3237420   0.3052877   0.8186857  )
        39        Sn     tau(  39) = (  -0.4262581   0.7383003   0.8186857  )
        40        Sn     tau(  40) = (   0.0737419   0.7383003   0.8186857  )
        41        Sn     tau(  41) = (   0.0737420   0.1277249   0.0000000  )
        42        Sn     tau(  42) = (   0.5737420   0.1277249   0.0000000  )
        43        Sn     tau(  43) = (  -0.1762581   0.5607374   0.0000000  )
        44        Sn     tau(  44) = (   0.3237419   0.5607374   0.0000000  )
        45        Sn     tau(  45) = (   0.3525160   0.0000000   0.4093422  )
        46        Sn     tau(  46) = (   0.8525160   0.0000000   0.4093422  )
        47        Sn     tau(  47) = (   0.1025160   0.4330126   0.4093422  )
        48        Sn     tau(  48) = (   0.6025160   0.4330126   0.4093422  )
        49        S      tau(  49) = (  -0.0988203   0.2103164   0.9671149  )
        50        S      tau(  50) = (   0.4011797   0.2103164   0.9671149  )
        51        S      tau(  51) = (  -0.3488203   0.6433290   0.9671149  )
        52        S      tau(  52) = (   0.1511797   0.6433290   0.9671149  )
        53        S      tau(  53) = (   0.1172707   0.2422736   0.1484293  )
        54        S      tau(  54) = (   0.6172707   0.2422736   0.1484293  )
        55        S      tau(  55) = (  -0.1327293   0.6752862   0.1484293  )
        56        S      tau(  56) = (   0.3672707   0.6752862   0.1484293  )
        57        S      tau(  57) = (  -0.0184505   0.4134352   0.5577727  )
        58        S      tau(  58) = (   0.4815495   0.4134352   0.5577727  )
        59        S      tau(  59) = (  -0.2684506   0.8464478   0.5577727  )
        60        S      tau(  60) = (   0.2315494   0.8464478   0.5577727  )
        61        S      tau(  61) = (   0.2315495   0.0195774   0.2609129  )
        62        S      tau(  62) = (   0.7315495   0.0195774   0.2609129  )
        63        S      tau(  63) = (  -0.0184505   0.4525899   0.2609129  )
        64        S      tau(  64) = (   0.4815495   0.4525899   0.2609129  )
        65        S      tau(  65) = (   0.1511797   0.2226962   1.0795986  )
        66        S      tau(  66) = (   0.6511797   0.2226962   1.0795986  )
        67        S      tau(  67) = (  -0.0988203   0.6557088   1.0795986  )
        68        S      tau(  68) = (   0.4011797   0.6557088   1.0795986  )
        69        S      tau(  69) = (   0.3672707   0.1907390   0.6702552  )
        70        S      tau(  70) = (   0.8672707   0.1907390   0.6702552  )
        71        S      tau(  71) = (   0.1172707   0.6237516   0.6702552  )
        72        S      tau(  72) = (   0.6172707   0.6237516   0.6702552  )
        73        S      tau(  73) = (  -0.0346441   0.1532012   0.4035914  )
        74        S      tau(  74) = (   0.4703502   0.1532012   0.4035914  )
        75        S      tau(  75) = (  -0.2796498   0.5862137   0.4035914  )
        76        S      tau(  76) = (   0.2203502   0.5862137   0.4035914  )
        77        S      tau(  77) = (   0.1321490   0.3307341   0.8129336  )
        78        S      tau(  78) = (   0.6321490   0.3307341   0.8129336  )
        79        S      tau(  79) = (  -0.1178511   0.7637467   0.8129336  )
        80        S      tau(  80) = (   0.3821489   0.7637467   0.8129336  )
        81        S      tau(  81) = (  -0.1024985   0.3820894   1.2222770  )
        82        S      tau(  82) = (   0.3975015   0.3820894   1.2222770  )
        83        S      tau(  83) = (  -0.3524986   0.8151020   1.2222770  )
        84        S      tau(  84) = (   0.1475014   0.8151020   1.2222770  )
        85        S      tau(  85) = (   0.1475010   0.0509231   0.8244365  )
        86        S      tau(  86) = (   0.6475010   0.0509231   0.8244365  )
        87        S      tau(  87) = (  -0.1024990   0.4839357   0.8244365  )
        88        S      tau(  88) = (   0.3975010   0.4839357   0.8244365  )
        89        S      tau(  89) = (   0.2203497   0.2798114   0.4150943  )
        90        S      tau(  90) = (   0.7203497   0.2798114   0.4150943  )
        91        S      tau(  91) = (  -0.0296503   0.7128240   0.4150943  )
        92        S      tau(  92) = (   0.4703497   0.7128240   0.4150943  )
        93        S      tau(  93) = (   0.3821485   0.1022784   0.0057509  )
        94        S      tau(  94) = (   0.8821485   0.1022784   0.0057509  )
        95        S      tau(  95) = (   0.1321485   0.5352910   0.0057509  )
        96        S      tau(  96) = (   0.6321485   0.5352910   0.0057509  )

     number of k points=    14
                       cart. coord. in units 2pi/alat
        k(    1) = (   0.0000000   0.0000000   0.0000000), wk =   0.0740741
        k(    2) = (   0.0000000   0.0000000   0.2714379), wk =   0.1481481
        k(    3) = (   0.0000000   0.3849003   0.0000000), wk =   0.1481481
        k(    4) = (   0.0000000   0.3849003   0.2714379), wk =   0.1481481
        k(    5) = (   0.3333333   0.5773505   0.0000000), wk =   0.1481481
        k(    6) = (   0.3333333   0.5773505   0.2714379), wk =   0.1481481
        k(    7) = (  -0.3333333   0.1924501   0.0000000), wk =   0.1481481
        k(    8) = (   0.3333333   0.1924502   0.0000000), wk =   0.1481481
        k(    9) = (   0.0000000  -0.3849003   0.2714379), wk =   0.1481481
        k(   10) = (  -0.3333333   0.1924501   0.2714379), wk =   0.1481481
        k(   11) = (   0.3333333   0.1924502   0.2714379), wk =   0.1481481
        k(   12) = (  -0.3333333  -0.1924502   0.2714379), wk =   0.1481481
        k(   13) = (   0.3333333  -0.1924501   0.2714379), wk =   0.1481481
        k(   14) = (  -0.3333333  -0.5773505   0.2714379), wk =   0.1481481

     Dense  grid:  2619931 G-vectors     FFT dimensions: ( 180, 180, 216)

     Smooth grid:   926125 G-vectors     FFT dimensions: ( 120, 120, 150)

     Estimated max dynamical RAM per process >       1.07 GB

     Estimated total dynamical RAM >      33.54 GB

     Initial potential from superposition of free atoms

     starting charge     827.5884, renormalised to     840.0000

     negative rho (up, down):  7.777E-01 0.000E+00
     Starting wfcs are  672 randomized atomic wfcs
     Checking if some PAW data can be deallocated... 

     total cpu time spent up to now is       39.5 secs

     Self-consistent Calculation

     iteration #  1     ecut=    60.00 Ry     beta= 0.30
     Davidson diagonalization with overlap
     ethr =  1.00E-02,  avg # of iterations =  2.0

     negative rho (up, down):  7.747E-01 0.000E+00

     total cpu time spent up to now is      112.7 secs

     total energy              =   -9070.31984199 Ry
     estimated scf accuracy    <      21.91094681 Ry

     iteration #  2     ecut=    60.00 Ry     beta= 0.30
     Davidson diagonalization with overlap
     ethr =  2.61E-03,  avg # of iterations =  5.1

     negative rho (up, down):  7.752E-01 0.000E+00

     total cpu time spent up to now is      207.3 secs

     total energy              =   -9076.61871017 Ry
     estimated scf accuracy    <       8.17950101 Ry

     iteration #  3     ecut=    60.00 Ry     beta= 0.30
     Davidson diagonalization with overlap
     ethr =  9.74E-04,  avg # of iterations =  2.0

     negative rho (up, down):  7.804E-01 0.000E+00

     total cpu time spent up to now is      282.8 secs

     total energy              =   -9076.49345200 Ry
     estimated scf accuracy    <       1.61669046 Ry

     iteration #  4     ecut=    60.00 Ry     beta= 0.30
     Davidson diagonalization with overlap
     ethr =  1.92E-04,  avg # of iterations =  5.8

     negative rho (up, down):  7.829E-01 0.000E+00

     total cpu time spent up to now is      391.0 secs

     total energy              =   -9076.70417368 Ry
     estimated scf accuracy    <       2.06436727 Ry

     iteration #  5     ecut=    60.00 Ry     beta= 0.30
     Davidson diagonalization with overlap
     ethr =  1.92E-04,  avg # of iterations =  4.9

     negative rho (up, down):  7.882E-01 0.000E+00

     total cpu time spent up to now is      476.1 secs

     total energy              =   -9077.13829688 Ry
     estimated scf accuracy    <       0.14248294 Ry

     iteration #  6     ecut=    60.00 Ry     beta= 0.30
     Davidson diagonalization with overlap
     ethr =  1.70E-05,  avg # of iterations =  6.3

     negative rho (up, down):  7.902E-01 0.000E+00

     total cpu time spent up to now is      569.1 secs

     total energy              =   -9077.18351485 Ry
     estimated scf accuracy    <       0.01366470 Ry

     iteration #  7     ecut=    60.00 Ry     beta= 0.30
     Davidson diagonalization with overlap
     ethr =  1.63E-06,  avg # of iterations =  5.0

     negative rho (up, down):  7.907E-01 0.000E+00

     total cpu time spent up to now is      675.0 secs

     total energy              =   -9077.18766374 Ry
     estimated scf accuracy    <       0.00566457 Ry

     iteration #  8     ecut=    60.00 Ry     beta= 0.30
     Davidson diagonalization with overlap
     ethr =  6.74E-07,  avg # of iterations =  6.1

     negative rho (up, down):  7.912E-01 0.000E+00

     total cpu time spent up to now is      804.7 secs

     total energy              =   -9077.17850045 Ry
     estimated scf accuracy    <       0.04985449 Ry

     iteration #  9     ecut=    60.00 Ry     beta= 0.30
     Davidson diagonalization with overlap
     ethr =  6.74E-07,  avg # of iterations =  6.6

     negative rho (up, down):  7.911E-01 0.000E+00

     total cpu time spent up to now is      934.0 secs

     total energy              =   -9077.18673664 Ry
     estimated scf accuracy    <       0.00138420 Ry

     iteration # 10     ecut=    60.00 Ry     beta= 0.30
     Davidson diagonalization with overlap
     ethr =  1.65E-07,  avg # of iterations =  4.0

     negative rho (up, down):  7.908E-01 0.000E+00

     total cpu time spent up to now is     1008.7 secs

     total energy              =   -9077.18648731 Ry
     estimated scf accuracy    <       0.00078488 Ry

     iteration # 11     ecut=    60.00 Ry     beta= 0.30
     Davidson diagonalization with overlap
     ethr =  9.34E-08,  avg # of iterations =  5.1

     negative rho (up, down):  7.905E-01 0.000E+00

     total cpu time spent up to now is     1105.2 secs

     total energy              =   -9077.18668102 Ry
     estimated scf accuracy    <       0.00015917 Ry

     iteration # 12     ecut=    60.00 Ry     beta= 0.30
     Davidson diagonalization with overlap
     ethr =  1.89E-08,  avg # of iterations =  4.6

     negative rho (up, down):  7.904E-01 0.000E+00

     total cpu time spent up to now is     1201.6 secs

     total energy              =   -9077.18669984 Ry
     estimated scf accuracy    <       0.00010052 Ry

     iteration # 13     ecut=    60.00 Ry     beta= 0.30
     Davidson diagonalization with overlap
     ethr =  1.20E-08,  avg # of iterations =  3.9

     negative rho (up, down):  7.903E-01 0.000E+00

     total cpu time spent up to now is     1294.1 secs

     total energy              =   -9077.18671176 Ry
     estimated scf accuracy    <       0.00001500 Ry

     iteration # 14     ecut=    60.00 Ry     beta= 0.30
     Davidson diagonalization with overlap
     ethr =  1.79E-09,  avg # of iterations =  5.8

     negative rho (up, down):  7.903E-01 0.000E+00

     total cpu time spent up to now is     1389.3 secs

     total energy              =   -9077.18671523 Ry
     estimated scf accuracy    <       0.00000100 Ry

     iteration # 15     ecut=    60.00 Ry     beta= 0.30
     Davidson diagonalization with overlap
     ethr =  1.19E-10,  avg # of iterations =  6.0

     negative rho (up, down):  7.902E-01 0.000E+00

     total cpu time spent up to now is     1510.6 secs

     total energy              =   -9077.18671600 Ry
     estimated scf accuracy    <       0.00000025 Ry

     iteration # 16     ecut=    60.00 Ry     beta= 0.30
     Davidson diagonalization with overlap
     ethr =  2.98E-11,  avg # of iterations =  4.6

     negative rho (up, down):  7.902E-01 0.000E+00

     total cpu time spent up to now is     1610.0 secs

     total energy              =   -9077.18671610 Ry
     estimated scf accuracy    <       0.00000013 Ry

     iteration # 17     ecut=    60.00 Ry     beta= 0.30
     Davidson diagonalization with overlap
     ethr =  1.54E-11,  avg # of iterations =  4.6

     negative rho (up, down):  7.902E-01 0.000E+00

     total cpu time spent up to now is     1705.1 secs

     total energy              =   -9077.18671615 Ry
     estimated scf accuracy    <       0.00000001 Ry

     iteration # 18     ecut=    60.00 Ry     beta= 0.30
     Davidson diagonalization with overlap
     ethr =  1.43E-12,  avg # of iterations =  6.2

     negative rho (up, down):  7.902E-01 0.000E+00

     total cpu time spent up to now is     1842.5 secs

     total energy              =   -9077.18671617 Ry
     estimated scf accuracy    <          9.4E-09 Ry

     iteration # 19     ecut=    60.00 Ry     beta= 0.30
     Davidson diagonalization with overlap
     ethr =  1.12E-12,  avg # of iterations =  2.1

     negative rho (up, down):  7.902E-01 0.000E+00

     total cpu time spent up to now is     1921.8 secs

     total energy              =   -9077.18671618 Ry
     estimated scf accuracy    <          2.4E-09 Ry

     iteration # 20     ecut=    60.00 Ry     beta= 0.30
     Davidson diagonalization with overlap
     ethr =  2.86E-13,  avg # of iterations =  7.4

     negative rho (up, down):  7.902E-01 0.000E+00

     total cpu time spent up to now is     2046.6 secs

     total energy              =   -9077.18671618 Ry
     estimated scf accuracy    <          3.9E-09 Ry

     iteration # 21     ecut=    60.00 Ry     beta= 0.30
     Davidson diagonalization with overlap
     ethr =  2.86E-13,  avg # of iterations =  2.0

     negative rho (up, down):  7.902E-01 0.000E+00

     total cpu time spent up to now is     2120.8 secs

     total energy              =   -9077.18671618 Ry
     estimated scf accuracy    <          1.9E-09 Ry

     iteration # 22     ecut=    60.00 Ry     beta= 0.30
     Davidson diagonalization with overlap
     ethr =  2.25E-13,  avg # of iterations =  5.8

     negative rho (up, down):  7.902E-01 0.000E+00

     total cpu time spent up to now is     2227.5 secs

     End of self-consistent calculation

          k = 0.0000 0.0000 0.0000 (115723 PWs)   bands (ev):

   -28.2972 -28.2767 -28.2757 -28.2753 -28.2749 -28.2746 -28.2746 -28.2745
   -28.2741 -28.2738 -28.2713 -28.2606 -14.9349 -14.9244 -14.9237 -14.9229
   -14.9224 -14.9222 -14.9222 -14.9221 -14.9216 -14.9215 -14.9213 -14.9210
   -14.9185 -14.9173 -14.9170 -14.9166 -14.9164 -14.9163 -14.9162 -14.9158
   -14.9155 -14.9154 -14.9152 -14.9121 -14.9118 -14.9065 -14.9049 -14.9045
   -14.9043 -14.9042 -14.9042 -14.9037 -14.9035 -14.9033 -14.9031 -14.8997
   -14.8685 -14.8663 -14.8647 -14.8643 -14.8640 -14.8640 -14.8640 -14.8635
   -14.8635 -14.8631 -14.8630 -14.8593 -14.8254 -14.8211 -14.8195 -14.8191
   -14.8190 -14.8189 -14.8188 -14.8183 -14.8181 -14.8179 -14.8178 -14.8145
   -10.3554 -10.3385 -10.3372 -10.3367 -10.3360 -10.3353 -10.3352 -10.3342
   -10.3313 -10.3304 -10.3271 -10.3219 -10.3180 -10.3093 -10.3074 -10.3053
   -10.3031 -10.3011 -10.3009 -10.2983 -10.2934 -10.2912 -10.2878 -10.2826
   -10.2800 -10.2698 -10.2685 -10.2672 -10.2642 -10.2634 -10.2626 -10.2612
   -10.2588 -10.2585 -10.2556 -10.2501  -6.8649  -6.5604  -6.5542  -6.4253
    -6.4161  -6.4159  -6.3086  -6.2989  -6.2978  -6.2245  -6.2174  -6.2174
    -5.9949  -5.9896  -5.9883  -5.8532  -5.8485  -5.8479  -5.7990  -5.7955
    -5.7934  -5.7375  -5.7360  -5.6208  -5.6185  -5.6170  -5.6162  -5.6127
    -5.6120  -5.6005  -5.5618  -5.5584  -5.5575  -5.5486  -5.5442  -5.5436
    -5.5168  -5.5153  -5.4341  -5.4285  -5.4280  -5.4272  -5.3757  -5.3719
    -5.3454  -5.3444  -5.3431  -5.2502  -0.6125  -0.6106  -0.6078  -0.3909
    -0.3883  -0.3872  -0.3523  -0.3189  -0.3150  -0.3144  -0.3025  -0.3004
     1.3823   1.3856   1.3872   1.5919   1.5949   1.6584   1.7163   1.7178
     1.7187   1.8034   1.8072   1.8095   2.0176   2.0384   2.0411   2.0805
     2.0852   2.0864   2.2462   2.2486   2.2488   2.3075   2.3101   2.4029
     2.4053   2.4067   2.4566   2.4604   2.4621   2.5465   2.5505   2.6626
     2.6638   2.6665   2.7786   2.7845   2.7872   2.8707   2.8725   2.9237
     2.9251   2.9268   2.9520   2.9539   2.9585   3.0238   3.0273   3.0289
     3.0441   3.0467   3.0486   3.1657   3.2117   3.2156   3.2167   3.2282
     3.2303   3.2576   3.2586   3.2630   3.3785   3.3791   3.3811   3.3928
     3.3946   3.4251   3.4270   3.4282   3.4351   3.4370   3.4382   3.4753
     3.4765   3.4794   3.4935   3.4946   3.4962   3.4997   3.5164   3.5179
     3.5774   3.5867   3.5869   3.6195   3.6271   3.6285   3.6815   3.6913
     3.6916   3.6923   3.6940   3.7070   3.7950   3.7978   3.8241   3.8259
     3.8289   3.9639   4.0197   4.0210   4.0237   4.0361   4.0373   4.0388
     4.1231   4.1257   4.1266   4.1272   4.1694   4.1744   4.1769   4.2019
     4.2065   4.2113   4.2136   4.2439   4.2450   4.2479   4.2816   4.2836
     4.4236   4.4255   4.4259   4.5154   4.5193   4.5220   4.5360   4.5376
     4.6198   4.6203   4.6219   4.8560   5.1271   5.1560   5.1574   5.1586
     5.1738   5.1758   5.1768   5.1794   5.1835   5.2225   5.2258   5.2286
     5.2297   5.2320   5.2322   5.2513   5.2543   5.2550   5.2665   5.2678
     5.2713   5.2782   5.2802   5.2820   5.3097   5.3124   5.3139   5.3144
     5.3155   5.3269   5.3374   5.3395   5.3414   5.3761   5.3765   5.3798
     5.4398   5.4401   5.4713   5.4730   5.4732   5.4760   5.4778   5.4790
     5.4809   5.4992   5.5018   5.6012   5.6032   5.6041   5.6187   5.6197
     5.6209   5.6276   5.6470   5.6477   5.6498   5.6603   5.6612   5.6616
     5.7261   5.7274   5.7456   5.7825   5.7836   5.7857   5.8206   5.8222
     5.8242   5.9040   5.9048   5.9073   5.9275   5.9297   5.9315   5.9964
     5.9988   6.0262   6.0275   6.0281   6.1490   6.1501   6.1523   6.1541
     6.2600   6.2626   6.2639   6.2642   6.2651   6.2667   6.2911   6.2914
     6.3333   6.3361   6.3386   6.3621   6.3645   6.3656   6.3875   6.3894
     6.3909   6.5525   6.5696   6.5726   6.5732   6.6358   6.6383   6.6399
     6.7466   6.7483   6.7490   6.7652   6.7658   6.7815   6.7817   6.7843
     6.8084   6.9649   7.1795   7.1807

          k = 0.0000 0.0000 0.2714 (115879 PWs)   bands (ev):

   -28.2972 -28.2767 -28.2757 -28.2753 -28.2749 -28.2746 -28.2746 -28.2745
   -28.2741 -28.2738 -28.2713 -28.2606 -14.9349 -14.9244 -14.9237 -14.9229
   -14.9224 -14.9222 -14.9222 -14.9221 -14.9216 -14.9215 -14.9213 -14.9210
   -14.9185 -14.9173 -14.9170 -14.9166 -14.9164 -14.9163 -14.9162 -14.9158
   -14.9155 -14.9154 -14.9152 -14.9121 -14.9118 -14.9065 -14.9049 -14.9045
   -14.9043 -14.9042 -14.9042 -14.9037 -14.9035 -14.9033 -14.9031 -14.8997
   -14.8685 -14.8663 -14.8647 -14.8643 -14.8640 -14.8640 -14.8640 -14.8635
   -14.8635 -14.8631 -14.8630 -14.8593 -14.8254 -14.8211 -14.8195 -14.8191
   -14.8190 -14.8189 -14.8188 -14.8183 -14.8181 -14.8179 -14.8178 -14.8145
   -10.3555 -10.3394 -10.3383 -10.3374 -10.3365 -10.3354 -10.3340 -10.3329
   -10.3321 -10.3290 -10.3268 -10.3224 -10.3181 -10.3108 -10.3071 -10.3054
   -10.3030 -10.3013 -10.2995 -10.2952 -10.2929 -10.2922 -10.2888 -10.2826
   -10.2814 -10.2692 -10.2681 -10.2672 -10.2647 -10.2639 -10.2622 -10.2608
   -10.2586 -10.2582 -10.2562 -10.2505  -6.8258  -6.7152  -6.4213  -6.4081
    -6.4079  -6.4070  -6.3130  -6.3034  -6.3027  -6.2360  -6.2299  -6.2294
    -5.9970  -5.9915  -5.9900  -5.8530  -5.8390  -5.8338  -5.8330  -5.7764
    -5.7726  -5.7707  -5.6566  -5.6556  -5.6544  -5.6515  -5.6173  -5.6124
    -5.6112  -5.6104  -5.5559  -5.5550  -5.5518  -5.5511  -5.5466  -5.5444
    -5.5436  -5.4544  -5.4359  -5.4342  -5.4336  -5.4325  -5.3765  -5.3461
    -5.3374  -5.3368  -5.3351  -5.2808  -0.6045  -0.6027  -0.6003  -0.4147
    -0.4116  -0.4105  -0.3497  -0.3333  -0.3037  -0.3004  -0.2998  -0.2744
     1.4065   1.4100   1.4113   1.5715   1.6156   1.6176   1.6188   1.6238
     1.6588   1.9329   1.9359   1.9379   2.0034   2.0437   2.0507   2.0531
     2.0547   2.0670   2.2742   2.2766   2.2773   2.3044   2.3860   2.3884
     2.3902   2.3914   2.4156   2.4172   2.4181   2.4556   2.6213   2.6236
     2.6290   2.6667   2.7184   2.7891   2.7946   2.7987   2.7997   2.8690
     2.8725   2.8741   2.9741   2.9768   2.9784   3.0445   3.0463   3.0488
     3.1057   3.1073   3.1103   3.1768   3.1983   3.2033   3.2053   3.2068
     3.2722   3.2749   3.2782   3.2860   3.3756   3.3845   3.3857   3.3883
     3.4185   3.4203   3.4222   3.4365   3.4411   3.4421   3.4484   3.4512
     3.4524   3.4777   3.4995   3.5173   3.5189   3.5223   3.5369   3.5418
     3.5487   3.5510   3.5532   3.6360   3.6402   3.6451   3.6466   3.6523
     3.6758   3.6819   3.6824   3.7746   3.8317   3.8742   3.8768   3.8789
     3.9077   3.9226   3.9939   3.9955   3.9978   4.0551   4.0571   4.0583
     4.0756   4.1145   4.1183   4.1190   4.1450   4.1502   4.1516   4.1649
     4.1719   4.1731   4.1773   4.2129   4.2483   4.2520   4.2550   4.2697
     4.4204   4.4227   4.4245   4.4845   4.5575   4.5604   4.5624   4.6043
     4.6058   4.6068   4.6771   4.8066   5.1382   5.1490   5.1545   5.1562
     5.1574   5.1673   5.1872   5.1885   5.1907   5.2158   5.2177   5.2187
     5.2208   5.2482   5.2494   5.2513   5.2568   5.2608   5.2616   5.2633
     5.2772   5.2778   5.2788   5.2814   5.3297   5.3302   5.3319   5.3338
     5.3356   5.3378   5.3414   5.3445   5.3463   5.3667   5.3751   5.3757
     5.3800   5.3911   5.4046   5.4202   5.4219   5.4241   5.5267   5.5325
     5.5341   5.5361   5.5828   5.5880   5.5893   5.5911   5.5921   5.6199
     5.6211   5.6229   5.6516   5.6529   5.6539   5.6625   5.6826   5.6844
     5.6849   5.7549   5.7562   5.7579   5.7918   5.7998   5.8181   5.8188
     5.8213   5.8720   5.8835   5.8847   5.8876   5.9892   5.9901   5.9919
     6.0421   6.0436   6.0443   6.0967   6.0987   6.1001   6.1760   6.1919
     6.1933   6.1939   6.2377   6.2691   6.2696   6.2711   6.3241   6.3270
     6.3281   6.3600   6.3611   6.3696   6.3718   6.3744   6.3955   6.4287
     6.4308   6.4315   6.4813   6.6387   6.6408   6.6430   6.6433   6.6441
     6.6455   6.6714   6.7078   6.7100   6.7123   6.7516   6.7537   6.7556
     6.9411   7.0052   7.0941   7.1696

          k = 0.0000 0.3849 0.0000 (115797 PWs)   bands (ev):

   -28.2972 -28.2767 -28.2757 -28.2753 -28.2749 -28.2746 -28.2746 -28.2745
   -28.2741 -28.2738 -28.2713 -28.2606 -14.9349 -14.9244 -14.9237 -14.9228
   -14.9225 -14.9222 -14.9221 -14.9221 -14.9217 -14.9216 -14.9212 -14.9210
   -14.9185 -14.9173 -14.9169 -14.9166 -14.9164 -14.9163 -14.9162 -14.9158
   -14.9155 -14.9153 -14.9152 -14.9121 -14.9118 -14.9065 -14.9049 -14.9045
   -14.9043 -14.9042 -14.9042 -14.9037 -14.9035 -14.9033 -14.9032 -14.8997
   -14.8685 -14.8663 -14.8647 -14.8643 -14.8640 -14.8640 -14.8640 -14.8635
   -14.8635 -14.8631 -14.8630 -14.8593 -14.8254 -14.8211 -14.8195 -14.8191
   -14.8190 -14.8189 -14.8188 -14.8183 -14.8181 -14.8179 -14.8178 -14.8145
   -10.3551 -10.3378 -10.3365 -10.3360 -10.3353 -10.3342 -10.3339 -10.3328
   -10.3324 -10.3306 -10.3276 -10.3229 -10.3177 -10.3072 -10.3055 -10.3041
   -10.3025 -10.3017 -10.3011 -10.2982 -10.2948 -10.2927 -10.2878 -10.2828
   -10.2821 -10.2686 -10.2682 -10.2668 -10.2651 -10.2632 -10.2622 -10.2618
   -10.2613 -10.2591 -10.2568 -10.2515  -6.7896  -6.5910  -6.5041  -6.4987
    -6.4462  -6.4370  -6.3652  -6.3536  -6.2885  -6.2840  -6.2522  -6.2474
    -5.9113  -5.9096  -5.8243  -5.8187  -5.8172  -5.7785  -5.7709  -5.7651
    -5.7311  -5.7244  -5.7220  -5.6929  -5.6885  -5.6489  -5.6410  -5.6365
    -5.6291  -5.5958  -5.5846  -5.5831  -5.5677  -5.5285  -5.5207  -5.5178
    -5.5151  -5.5047  -5.4618  -5.4515  -5.4362  -5.4354  -5.4247  -5.4146
    -5.3480  -5.3463  -5.3124  -5.2696  -0.5716  -0.5697  -0.5605  -0.4366
    -0.4036  -0.4028  -0.3770  -0.3430  -0.3374  -0.3358  -0.3118  -0.3025
     1.4198   1.4843   1.4901   1.5013   1.6407   1.6522   1.6898   1.7223
     1.7268   1.8264   1.8754   1.8777   1.9539   1.9561   1.9587   2.0285
     2.1154   2.2032   2.2297   2.2307   2.3390   2.3634   2.3860   2.3877
     2.3928   2.4084   2.4508   2.5363   2.5396   2.6064   2.6127   2.6166
     2.6577   2.7315   2.8087   2.8139   2.8211   2.8415   2.8424   2.8449
     2.8548   2.8853   2.9085   2.9096   2.9146   2.9630   2.9641   3.0048
     3.0485   3.0565   3.0583   3.1225   3.1494   3.1771   3.2052   3.2130
     3.2136   3.2367   3.2613   3.2629   3.2700   3.3247   3.3308   3.3324
     3.3372   3.3723   3.3955   3.3965   3.4348   3.4401   3.4429   3.4509
     3.4977   3.4985   3.5015   3.5112   3.5139   3.5158   3.5233   3.5432
     3.5630   3.6056   3.6067   3.6090   3.6334   3.6442   3.6762   3.6816
     3.6953   3.7008   3.7059   3.7095   3.7772   3.7814   3.8503   3.8607
     3.8965   3.9741   3.9759   3.9792   3.9824   4.0304   4.0380   4.0431
     4.0917   4.1124   4.1198   4.1234   4.1270   4.1629   4.1639   4.1783
     4.2490   4.2624   4.2714   4.2853   4.3037   4.3221   4.3253   4.3689
     4.3795   4.4145   4.4207   4.4848   4.5183   4.5263   4.5281   4.5299
     4.5911   4.5923   4.6254   4.7478   5.1448   5.1457   5.1491   5.1573
     5.1612   5.1635   5.1720   5.1765   5.2153   5.2194   5.2215   5.2234
     5.2303   5.2397   5.2496   5.2506   5.2530   5.2625   5.2685   5.2721
     5.2746   5.2910   5.3046   5.3066   5.3155   5.3207   5.3264   5.3308
     5.3378   5.3505   5.3532   5.3558   5.3603   5.3686   5.4137   5.4166
     5.4344   5.4529   5.4618   5.4638   5.4868   5.4944   5.5013   5.5021
     5.5041   5.5150   5.5284   5.5447   5.5572   5.5591   5.5632   5.6033
     5.6061   5.6307   5.6316   5.6344   5.6692   5.6794   5.6953   5.6973
     5.6978   5.7195   5.7306   5.7576   5.7756   5.7772   5.8099   5.8195
     5.8225   5.8647   5.8752   5.8780   5.9510   5.9528   5.9658   5.9679
     5.9916   6.0080   6.0091   6.0223   6.1382   6.1408   6.1473   6.1622
     6.2251   6.2292   6.2309   6.2519   6.2714   6.2897   6.2913   6.3002
     6.3604   6.3627   6.3781   6.3897   6.3915   6.4422   6.4850   6.4883
     6.5247   6.5378   6.5402   6.5760   6.6055   6.6516   6.6822   6.6924
     6.6948   6.7303   6.7364   6.7397   6.7628   6.7781   6.7921   6.8116
     6.8144   6.9045   6.9094   7.0805

          k = 0.0000 0.3849 0.2714 (115773 PWs)   bands (ev):

   -28.2972 -28.2767 -28.2757 -28.2753 -28.2749 -28.2746 -28.2746 -28.2745
   -28.2741 -28.2738 -28.2713 -28.2606 -14.9349 -14.9244 -14.9237 -14.9228
   -14.9225 -14.9222 -14.9221 -14.9221 -14.9217 -14.9216 -14.9212 -14.9210
   -14.9185 -14.9173 -14.9169 -14.9166 -14.9164 -14.9163 -14.9162 -14.9158
   -14.9155 -14.9153 -14.9152 -14.9121 -14.9118 -14.9065 -14.9049 -14.9045
   -14.9043 -14.9042 -14.9042 -14.9037 -14.9035 -14.9033 -14.9032 -14.8997
   -14.8685 -14.8663 -14.8647 -14.8643 -14.8640 -14.8640 -14.8640 -14.8635
   -14.8635 -14.8631 -14.8630 -14.8593 -14.8254 -14.8211 -14.8195 -14.8191
   -14.8190 -14.8189 -14.8188 -14.8183 -14.8181 -14.8179 -14.8178 -14.8145
   -10.3552 -10.3386 -10.3375 -10.3369 -10.3352 -10.3340 -10.3331 -10.3327
   -10.3320 -10.3295 -10.3280 -10.3228 -10.3179 -10.3092 -10.3059 -10.3041
   -10.3020 -10.3010 -10.2983 -10.2965 -10.2951 -10.2927 -10.2886 -10.2840
   -10.2821 -10.2686 -10.2676 -10.2669 -10.2652 -10.2636 -10.2619 -10.2615
   -10.2611 -10.2591 -10.2574 -10.2518  -6.7525  -6.6488  -6.5613  -6.4748
    -6.4321  -6.4212  -6.3663  -6.3311  -6.3277  -6.2619  -6.2283  -6.2235
    -5.9062  -5.9035  -5.8266  -5.8210  -5.8090  -5.8066  -5.7915  -5.7645
    -5.7573  -5.7312  -5.7104  -5.7091  -5.6713  -5.6377  -5.6321  -5.6280
    -5.6258  -5.6077  -5.5998  -5.5988  -5.5699  -5.5309  -5.5234  -5.5210
    -5.5198  -5.4985  -5.4671  -5.4322  -5.4283  -5.4276  -5.4215  -5.3646
    -5.3476  -5.3456  -5.3215  -5.2988  -0.5599  -0.5578  -0.5568  -0.4376
    -0.4343  -0.4259  -0.3928  -0.3730  -0.3219  -0.3176  -0.2988  -0.2785
     1.4342   1.4825   1.4876   1.4887   1.6272   1.6416   1.7682   1.7754
     1.7826   1.7901   1.8003   1.8015   1.9151   1.9961   1.9969   2.0787
     2.1553   2.1988   2.2071   2.2477   2.2480   2.3608   2.3921   2.3945
     2.3981   2.4488   2.5121   2.5123   2.5464   2.5868   2.5923   2.6074
     2.6408   2.7090   2.7584   2.7677   2.7700   2.7883   2.8084   2.8116
     2.8392   2.8737   2.9148   2.9168   2.9200   2.9809   3.0246   3.0258
     3.0646   3.1065   3.1081   3.1338   3.1713   3.1914   3.1940   3.1966
     3.2007   3.2332   3.2645   3.2657   3.2783   3.3188   3.3217   3.3233
     3.3265   3.3894   3.3905   3.4125   3.4456   3.4469   3.4693   3.4709
     3.4731   3.4744   3.4765   3.4779   3.5341   3.5365   3.5399   3.5866
     3.6082   3.6134   3.6150   3.6335   3.6431   3.6456   3.6593   3.6606
     3.6683   3.7108   3.7126   3.7135   3.8335   3.8372   3.8803   3.8891
     3.9064   3.9490   3.9529   3.9757   3.9835   4.0185   4.0467   4.0487
     4.0521   4.0670   4.1103   4.1128   4.1206   4.1328   4.1334   4.1481
     4.1916   4.2564   4.2640   4.2711   4.2873   4.2935   4.2963   4.3882
     4.3985   4.4370   4.4399   4.4689   4.5234   4.5246   4.5363   4.5971
     4.6114   4.6117   4.6211   4.7203   5.1512   5.1525   5.1561   5.1601
     5.1734   5.1774   5.1802   5.1853   5.1931   5.1984   5.2031   5.2085
     5.2095   5.2344   5.2364   5.2375   5.2559   5.2647   5.2658   5.2696
     5.2815   5.3000   5.3086   5.3127   5.3157   5.3294   5.3365   5.3418
     5.3581   5.3601   5.3625   5.3656   5.3818   5.3951   5.4078   5.4084
     5.4140   5.4331   5.4352   5.4452   5.4475   5.4940   5.5022   5.5048
     5.5103   5.5180   5.5547   5.5607   5.5742   5.5770   5.6040   5.6102
     5.6134   5.6203   5.6244   5.6284   5.6441   5.6712   5.6831   5.7147
     5.7162   5.7187   5.7354   5.7735   5.7738   5.7753   5.8028   5.8056
     5.8114   5.8592   5.8745   5.8780   5.8802   5.9155   5.9602   5.9617
     6.0352   6.0360   6.0372   6.0605   6.0784   6.0816   6.1738   6.2072
     6.2116   6.2145   6.2660   6.2669   6.2703   6.2775   6.2866   6.3491
     6.3511   6.3667   6.3734   6.4166   6.4231   6.4260   6.4281   6.4722
     6.4974   6.5008   6.5467   6.5598   6.5953   6.5973   6.6656   6.6691
     6.6772   6.7193   6.7351   6.7391   6.7460   6.8131   6.8152   6.8445
     6.8700   6.9283   6.9369   7.0521

          k = 0.3333 0.5774 0.0000 (115752 PWs)   bands (ev):

   -28.2972 -28.2767 -28.2757 -28.2753 -28.2749 -28.2746 -28.2746 -28.2745
   -28.2741 -28.2738 -28.2713 -28.2606 -14.9349 -14.9244 -14.9237 -14.9228
   -14.9224 -14.9222 -14.9221 -14.9221 -14.9216 -14.9216 -14.9212 -14.9211
   -14.9185 -14.9173 -14.9169 -14.9166 -14.9164 -14.9163 -14.9162 -14.9158
   -14.9155 -14.9154 -14.9152 -14.9121 -14.9118 -14.9065 -14.9049 -14.9045
   -14.9043 -14.9042 -14.9042 -14.9037 -14.9035 -14.9033 -14.9032 -14.8997
   -14.8685 -14.8663 -14.8647 -14.8643 -14.8640 -14.8640 -14.8640 -14.8635
   -14.8635 -14.8631 -14.8630 -14.8593 -14.8254 -14.8211 -14.8195 -14.8191
   -14.8190 -14.8189 -14.8188 -14.8183 -14.8181 -14.8179 -14.8178 -14.8145
   -10.3548 -10.3376 -10.3358 -10.3353 -10.3347 -10.3344 -10.3340 -10.3329
   -10.3318 -10.3302 -10.3285 -10.3233 -10.3177 -10.3061 -10.3045 -10.3036
   -10.3026 -10.3011 -10.3008 -10.2995 -10.2960 -10.2905 -10.2891 -10.2846
   -10.2820 -10.2683 -10.2669 -10.2661 -10.2654 -10.2644 -10.2639 -10.2622
   -10.2613 -10.2584 -10.2576 -10.2524  -6.6574  -6.6499  -6.6494  -6.4157
    -6.3987  -6.3986  -6.3979  -6.3975  -6.3971  -6.2968  -6.2915  -6.1949
    -5.8667  -5.8545  -5.8499  -5.7531  -5.7479  -5.7467  -5.7331  -5.7311
    -5.7306  -5.7089  -5.7066  -5.6968  -5.6936  -5.6923  -5.6854  -5.6848
    -5.6825  -5.6446  -5.5482  -5.5407  -5.5401  -5.5318  -5.5286  -5.5278
    -5.5117  -5.4742  -5.4713  -5.4702  -5.4661  -5.4657  -5.4647  -5.3964
    -5.3957  -5.3025  -5.3010  -5.2987  -0.5434  -0.5164  -0.5140  -0.5117
    -0.3972  -0.3950  -0.3909  -0.3896  -0.3887  -0.3127  -0.3093  -0.3087
     1.4820   1.4853   1.4866   1.6701   1.6757   1.6776   1.6861   1.6870
     1.6910   1.7326   1.7357   1.7984   2.0781   2.0819   2.0826   2.0836
     2.0888   2.1416   2.1441   2.1463   2.2563   2.3952   2.3966   2.3979
     2.4912   2.4949   2.4960   2.5608   2.5630   2.5647   2.5953   2.5965
     2.7701   2.7745   2.7762   2.8305   2.8375   2.8405   2.8447   2.8458
     2.8482   2.8532   2.8536   2.8544   2.8705   3.0096   3.0110   3.0130
     3.0237   3.0256   3.0277   3.0633   3.1334   3.1350   3.1371   3.1974
     3.1981   3.2011   3.2602   3.2606   3.2625   3.2721   3.2738   3.3617
     3.3701   3.3709   3.3732   3.3743   3.4242   3.4267   3.4282   3.4868
     3.4897   3.5021   3.5040   3.5050   3.5297   3.5303   3.5315   3.5457
     3.5495   3.5786   3.5807   3.5829   3.6448   3.6516   3.6522   3.7158
     3.7215   3.7222   3.7285   3.7305   3.7572   3.8004   3.8026   3.8040
     3.9597   3.9606   3.9634   3.9862   3.9888   4.0284   4.0301   4.0332
     4.0834   4.0864   4.0876   4.1412   4.1512   4.1523   4.1530   4.2840
     4.2856   4.2940   4.3174   4.3190   4.3204   4.3218   4.3225   4.3268
     4.3847   4.3866   4.3891   4.4951   4.5147   4.5161   4.5197   4.5214
     4.5239   4.6523   4.6555   4.6583   5.1383   5.1449   5.1458   5.1476
     5.1742   5.1754   5.1875   5.1906   5.1915   5.1973   5.1990   5.2002
     5.2465   5.2488   5.2508   5.2662   5.2670   5.2689   5.2986   5.2994
     5.3007   5.3034   5.3042   5.3050   5.3147   5.3195   5.3211   5.3215
     5.3405   5.3421   5.3441   5.4027   5.4041   5.4066   5.4087   5.4102
     5.4554   5.4568   5.4592   5.4598   5.4831   5.4851   5.4860   5.4898
     5.4911   5.5359   5.5370   5.5386   5.5642   5.5657   5.5668   5.5716
     5.5731   5.5747   5.6422   5.6724   5.6747   5.6942   5.6965   5.6981
     5.7071   5.7084   5.7108   5.7804   5.7812   5.7830   5.7997   5.8014
     5.8021   5.8246   5.8261   5.8461   5.9300   5.9317   5.9329   6.0469
     6.0482   6.0487   6.0491   6.0512   6.1389   6.1403   6.1407   6.1597
     6.2182   6.2193   6.2216   6.2601   6.2611   6.2635   6.2840   6.2856
     6.3754   6.4093   6.4113   6.4124   6.4170   6.4177   6.4235   6.4511
     6.4531   6.4534   6.6143   6.6161   6.6175   6.6756   6.6773   6.6788
     6.7250   6.7398   6.7421   6.8040   6.8072   6.8082   6.8100   6.8106
     6.8119   6.9380   6.9390   6.9407

          k = 0.3333 0.5774 0.2714 (115827 PWs)   bands (ev):

   -28.2972 -28.2767 -28.2757 -28.2753 -28.2749 -28.2746 -28.2746 -28.2745
   -28.2741 -28.2738 -28.2713 -28.2606 -14.9349 -14.9244 -14.9237 -14.9228
   -14.9224 -14.9222 -14.9221 -14.9221 -14.9216 -14.9216 -14.9212 -14.9211
   -14.9185 -14.9173 -14.9169 -14.9166 -14.9164 -14.9163 -14.9162 -14.9158
   -14.9155 -14.9154 -14.9152 -14.9121 -14.9118 -14.9065 -14.9049 -14.9045
   -14.9043 -14.9042 -14.9042 -14.9037 -14.9035 -14.9033 -14.9032 -14.8997
   -14.8685 -14.8663 -14.8647 -14.8643 -14.8640 -14.8640 -14.8640 -14.8635
   -14.8635 -14.8631 -14.8630 -14.8593 -14.8254 -14.8211 -14.8195 -14.8191
   -14.8190 -14.8189 -14.8188 -14.8183 -14.8181 -14.8179 -14.8178 -14.8145
   -10.3549 -10.3381 -10.3371 -10.3361 -10.3354 -10.3335 -10.3330 -10.3324
   -10.3311 -10.3299 -10.3286 -10.3233 -10.3178 -10.3074 -10.3063 -10.3050
   -10.3020 -10.2994 -10.2983 -10.2967 -10.2946 -10.2916 -10.2908 -10.2854
   -10.2822 -10.2684 -10.2675 -10.2660 -10.2651 -10.2638 -10.2634 -10.2620
   -10.2607 -10.2592 -10.2585 -10.2526  -6.6257  -6.6177  -6.6172  -6.5313
    -6.5244  -6.5237  -6.3131  -6.2963  -6.2889  -6.2881  -6.2585  -6.2168
    -5.8760  -5.8575  -5.8481  -5.7811  -5.7787  -5.7771  -5.7453  -5.7413
    -5.7397  -5.7155  -5.6902  -5.6877  -5.6859  -5.6734  -5.6717  -5.6708
    -5.6695  -5.6438  -5.5628  -5.5557  -5.5549  -5.5283  -5.5241  -5.5229
    -5.5074  -5.5037  -5.5020  -5.5012  -5.4581  -5.3986  -5.3969  -5.3958
    -5.3571  -5.3235  -5.3220  -5.3195  -0.5201  -0.5073  -0.5048  -0.5031
    -0.4599  -0.4188  -0.4167  -0.4148  -0.3552  -0.2954  -0.2919  -0.2917
     1.4799   1.4833   1.4848   1.6359   1.6395   1.6421   1.6901   1.7711
     1.7769   1.7774   1.7793   1.7931   1.9789   1.9817   1.9850   2.0567
     2.1715   2.1892   2.1934   2.1947   2.2492   2.3949   2.3967   2.3984
     2.4863   2.4893   2.4899   2.5561   2.5851   2.5882   2.5904   2.5916
     2.6764   2.7317   2.7372   2.7391   2.8206   2.8235   2.8244   2.8271
     2.8984   2.9038   2.9046   2.9255   2.9376   2.9541   2.9551   2.9584
     3.0585   3.0614   3.0628   3.0879   3.0895   3.0900   3.1265   3.1820
     3.2440   3.2455   3.2463   3.2716   3.2725   3.2740   3.3228   3.3279
     3.3286   3.3316   3.3761   3.4076   3.4208   3.4655   3.4670   3.4676
     3.4928   3.4988   3.5004   3.5025   3.5336   3.5377   3.5389   3.5414
     3.5627   3.6116   3.6172   3.6186   3.6514   3.6559   3.6565   3.6961
     3.6984   3.7002   3.7195   3.7448   3.8215   3.8411   3.8420   3.8435
     3.9372   3.9416   3.9424   3.9438   4.0286   4.0312   4.0319   4.0409
     4.0670   4.0691   4.0708   4.1085   4.1135   4.1147   4.1153   4.1685
     4.2721   4.2738   4.2757   4.2911   4.3153   4.3606   4.3624   4.3643
     4.4152   4.4180   4.4210   4.4915   4.4946   4.4957   4.5071   4.5108
     4.5661   4.6664   4.6681   4.6689   5.1494   5.1579   5.1586   5.1592
     5.1616   5.1829   5.1839   5.1868   5.1989   5.2000   5.2016   5.2132
     5.2249   5.2268   5.2277   5.2523   5.2545   5.2553   5.2584   5.2703
     5.3017   5.3028   5.3049   5.3105   5.3291   5.3309   5.3331   5.3674
     5.3699   5.3707   5.3761   5.3943   5.3981   5.4089   5.4105   5.4116
     5.4338   5.4344   5.4364   5.4407   5.4851   5.4858   5.4883   5.4918
     5.5397   5.5413   5.5422   5.5449   5.5652   5.5676   5.5698   5.6063
     5.6070   5.6090   5.6385   5.6407   5.6724   5.6745   5.6764   5.7040
     5.7048   5.7069   5.7190   5.7593   5.7600   5.7621   5.8024   5.8086
     5.8230   5.8242   5.8255   5.8273   5.8902   5.8922   5.8934   6.0574
     6.0610   6.0615   6.0631   6.0787   6.1201   6.1216   6.1232   6.1366
     6.1965   6.2371   6.2379   6.2397   6.2841   6.3014   6.3031   6.3039
     6.3075   6.3857   6.3865   6.3871   6.4504   6.4681   6.4691   6.4706
     6.4909   6.4939   6.5594   6.5608   6.5610   6.6451   6.6852   6.6859
     6.6877   6.7607   6.7764   6.7785   6.7802   6.7931   6.8535   6.8549
     6.8570   6.9342   6.9366   6.9372

          k =-0.3333 0.1925 0.0000 (115797 PWs)   bands (ev):

   -28.2972 -28.2767 -28.2757 -28.2753 -28.2749 -28.2746 -28.2746 -28.2745
   -28.2741 -28.2738 -28.2713 -28.2606 -14.9349 -14.9244 -14.9237 -14.9229
   -14.9224 -14.9222 -14.9221 -14.9221 -14.9216 -14.9215 -14.9212 -14.9211
   -14.9185 -14.9173 -14.9170 -14.9166 -14.9164 -14.9163 -14.9162 -14.9158
   -14.9155 -14.9154 -14.9152 -14.9121 -14.9118 -14.9065 -14.9049 -14.9045
   -14.9043 -14.9042 -14.9042 -14.9037 -14.9035 -14.9033 -14.9032 -14.8997
   -14.8685 -14.8663 -14.8647 -14.8643 -14.8640 -14.8640 -14.8640 -14.8635
   -14.8635 -14.8631 -14.8630 -14.8593 -14.8254 -14.8211 -14.8195 -14.8191
   -14.8190 -14.8189 -14.8188 -14.8183 -14.8181 -14.8179 -14.8178 -14.8145
   -10.3548 -10.3378 -10.3365 -10.3359 -10.3351 -10.3349 -10.3341 -10.3325
   -10.3316 -10.3309 -10.3280 -10.3229 -10.3179 -10.3067 -10.3059 -10.3041
   -10.3030 -10.3012 -10.3006 -10.2985 -10.2955 -10.2922 -10.2883 -10.2834
   -10.2812 -10.2688 -10.2682 -10.2670 -10.2649 -10.2639 -10.2626 -10.2616
   -10.2601 -10.2592 -10.2570 -10.2512  -6.7898  -6.5927  -6.5044  -6.4975
    -6.4407  -6.4371  -6.3693  -6.3492  -6.2927  -6.2839  -6.2524  -6.2475
    -5.9166  -5.9107  -5.8238  -5.8182  -5.8172  -5.7767  -5.7680  -5.7670
    -5.7316  -5.7237  -5.7213  -5.6903  -5.6889  -5.6460  -5.6377  -5.6369
    -5.6286  -5.5940  -5.5864  -5.5835  -5.5727  -5.5307  -5.5191  -5.5180
    -5.5157  -5.5047  -5.4649  -5.4506  -5.4358  -5.4353  -5.4220  -5.4159
    -5.3474  -5.3465  -5.3126  -5.2696  -0.5728  -0.5687  -0.5607  -0.4350
    -0.4062  -0.4030  -0.3764  -0.3384  -0.3368  -0.3365  -0.3135  -0.3041
     1.4169   1.4882   1.4893   1.5015   1.6411   1.6532   1.6888   1.7240
     1.7264   1.8284   1.8750   1.8783   1.9500   1.9557   1.9587   2.0259
     2.1153   2.2067   2.2283   2.2298   2.3379   2.3616   2.3868   2.3887
     2.3934   2.4083   2.4488   2.5375   2.5391   2.6121   2.6138   2.6174
     2.6567   2.7347   2.8119   2.8150   2.8209   2.8375   2.8411   2.8442
     2.8551   2.8849   2.9057   2.9104   2.9145   2.9585   2.9639   3.0059
     3.0510   3.0549   3.0574   3.1258   3.1495   3.1776   3.2049   3.2123
     3.2140   3.2353   3.2615   3.2653   3.2693   3.3255   3.3313   3.3351
     3.3397   3.3723   3.3927   3.3963   3.4343   3.4390   3.4424   3.4506
     3.4965   3.4997   3.5021   3.5117   3.5134   3.5153   3.5240   3.5424
     3.5609   3.5962   3.6063   3.6126   3.6339   3.6468   3.6760   3.6813
     3.6937   3.7022   3.7042   3.7093   3.7795   3.7811   3.8491   3.8599
     3.8983   3.9740   3.9771   3.9797   3.9823   4.0299   4.0397   4.0411
     4.0937   4.1122   4.1212   4.1223   4.1254   4.1620   4.1646   4.1784
     4.2478   4.2665   4.2692   4.2827   4.3049   4.3227   4.3253   4.3677
     4.3810   4.4163   4.4189   4.4831   4.5176   4.5255   4.5287   4.5299
     4.5897   4.5936   4.6281   4.7490   5.1444   5.1464   5.1487   5.1563
     5.1608   5.1631   5.1700   5.1765   5.2162   5.2208   5.2216   5.2236
     5.2296   5.2392   5.2488   5.2516   5.2528   5.2630   5.2668   5.2738
     5.2752   5.2901   5.3050   5.3070   5.3139   5.3198   5.3288   5.3301
     5.3391   5.3507   5.3538   5.3548   5.3588   5.3675   5.4137   5.4168
     5.4355   5.4510   5.4617   5.4621   5.4870   5.4950   5.5005   5.5029
     5.5043   5.5154   5.5301   5.5470   5.5580   5.5592   5.5625   5.6039
     5.6054   5.6316   5.6319   5.6353   5.6686   5.6789   5.6959   5.6967
     5.6989   5.7185   5.7312   5.7582   5.7753   5.7771   5.8094   5.8198
     5.8210   5.8648   5.8770   5.8787   5.9494   5.9519   5.9661   5.9676
     5.9911   6.0081   6.0099   6.0225   6.1390   6.1412   6.1459   6.1619
     6.2258   6.2283   6.2311   6.2522   6.2718   6.2892   6.2906   6.3007
     6.3606   6.3639   6.3783   6.3901   6.3918   6.4412   6.4866   6.4883
     6.5239   6.5379   6.5403   6.5766   6.6048   6.6513   6.6840   6.6918
     6.6930   6.7298   6.7368   6.7387   6.7630   6.7786   6.7939   6.8113
     6.8137   6.9038   6.9096   7.0799

          k = 0.3333 0.1925 0.0000 (115797 PWs)   bands (ev):

   -28.2972 -28.2767 -28.2757 -28.2753 -28.2749 -28.2746 -28.2746 -28.2745
   -28.2741 -28.2738 -28.2713 -28.2606 -14.9349 -14.9244 -14.9237 -14.9228
   -14.9224 -14.9222 -14.9222 -14.9221 -14.9216 -14.9216 -14.9213 -14.9210
   -14.9185 -14.9173 -14.9169 -14.9166 -14.9164 -14.9163 -14.9162 -14.9158
   -14.9155 -14.9154 -14.9152 -14.9121 -14.9118 -14.9065 -14.9049 -14.9045
   -14.9043 -14.9042 -14.9042 -14.9037 -14.9035 -14.9033 -14.9031 -14.8997
   -14.8685 -14.8663 -14.8647 -14.8643 -14.8640 -14.8640 -14.8640 -14.8635
   -14.8635 -14.8631 -14.8630 -14.8593 -14.8254 -14.8211 -14.8195 -14.8191
   -14.8190 -14.8189 -14.8188 -14.8183 -14.8181 -14.8179 -14.8178 -14.8145
   -10.3551 -10.3373 -10.3370 -10.3361 -10.3357 -10.3345 -10.3338 -10.3330
   -10.3320 -10.3304 -10.3275 -10.3225 -10.3179 -10.3073 -10.3058 -10.3038
   -10.3031 -10.3012 -10.3010 -10.2991 -10.2938 -10.2913 -10.2889 -10.2831
   -10.2820 -10.2688 -10.2678 -10.2666 -10.2655 -10.2646 -10.2621 -10.2611
   -10.2600 -10.2590 -10.2569 -10.2523  -6.7898  -6.5923  -6.5049  -6.4975
    -6.4414  -6.4377  -6.3704  -6.3492  -6.2895  -6.2845  -6.2520  -6.2475
    -5.9149  -5.9090  -5.8227  -5.8181  -5.8171  -5.7790  -5.7678  -5.7670
    -5.7326  -5.7251  -5.7222  -5.6908  -5.6898  -5.6471  -5.6408  -5.6370
    -5.6292  -5.5952  -5.5870  -5.5833  -5.5677  -5.5272  -5.5213  -5.5180
    -5.5151  -5.5042  -5.4638  -5.4507  -5.4365  -5.4349  -5.4220  -5.4155
    -5.3483  -5.3467  -5.3120  -5.2694  -0.5705  -0.5681  -0.5622  -0.4363
    -0.4035  -0.4022  -0.3781  -0.3394  -0.3373  -0.3367  -0.3143  -0.3042
     1.4200   1.4845   1.4886   1.5022   1.6399   1.6540   1.6880   1.7208
     1.7257   1.8286   1.8768   1.8816   1.9536   1.9553   1.9593   2.0266
     2.1154   2.2050   2.2272   2.2309   2.3387   2.3636   2.3845   2.3876
     2.3941   2.4084   2.4490   2.5382   2.5395   2.6073   2.6141   2.6179
     2.6544   2.7351   2.8084   2.8134   2.8222   2.8404   2.8430   2.8448
     2.8535   2.8829   2.9069   2.9113   2.9140   2.9626   2.9643   3.0060
     3.0498   3.0556   3.0583   3.1245   3.1486   3.1763   3.2061   3.2124
     3.2162   3.2361   3.2612   3.2626   3.2717   3.3248   3.3316   3.3325
     3.3390   3.3738   3.3959   3.3988   3.4320   3.4385   3.4423   3.4501
     3.4965   3.4996   3.5021   3.5092   3.5132   3.5161   3.5227   3.5449
     3.5610   3.5991   3.6075   3.6118   3.6354   3.6455   3.6761   3.6809
     3.6930   3.7026   3.7048   3.7085   3.7788   3.7806   3.8496   3.8599
     3.8963   3.9728   3.9758   3.9796   3.9826   4.0318   4.0371   4.0401
     4.0944   4.1134   4.1198   4.1238   4.1273   4.1611   4.1649   4.1790
     4.2489   4.2662   4.2681   4.2833   4.3031   4.3217   4.3245   4.3694
     4.3778   4.4174   4.4181   4.4843   4.5176   4.5274   4.5292   4.5299
     4.5887   4.5950   4.6280   4.7492   5.1432   5.1466   5.1488   5.1554
     5.1618   5.1624   5.1712   5.1780   5.2164   5.2193   5.2212   5.2234
     5.2290   5.2383   5.2498   5.2507   5.2527   5.2624   5.2708   5.2728
     5.2752   5.2906   5.3048   5.3065   5.3167   5.3209   5.3271   5.3291
     5.3380   5.3498   5.3530   5.3551   5.3595   5.3667   5.4146   5.4158
     5.4341   5.4536   5.4622   5.4650   5.4856   5.4943   5.5006   5.5021
     5.5059   5.5139   5.5275   5.5437   5.5573   5.5587   5.5641   5.6032
     5.6053   5.6308   5.6328   5.6345   5.6690   5.6789   5.6949   5.6977
     5.7004   5.7191   5.7299   5.7579   5.7765   5.7792   5.8103   5.8197
     5.8210   5.8661   5.8763   5.8779   5.9504   5.9537   5.9655   5.9664
     5.9932   6.0071   6.0082   6.0212   6.1386   6.1411   6.1449   6.1627
     6.2252   6.2302   6.2311   6.2521   6.2723   6.2898   6.2916   6.3000
     6.3620   6.3640   6.3776   6.3889   6.3925   6.4414   6.4851   6.4875
     6.5243   6.5371   6.5387   6.5750   6.6055   6.6514   6.6846   6.6905
     6.6942   6.7303   6.7374   6.7391   6.7627   6.7780   6.7937   6.8114
     6.8130   6.9054   6.9094   7.0810

          k = 0.0000-0.3849 0.2714 (115773 PWs)   bands (ev):

   -28.2972 -28.2767 -28.2757 -28.2753 -28.2749 -28.2746 -28.2746 -28.2745
   -28.2741 -28.2738 -28.2713 -28.2606 -14.9349 -14.9244 -14.9237 -14.9228
   -14.9225 -14.9222 -14.9221 -14.9221 -14.9217 -14.9216 -14.9212 -14.9210
   -14.9185 -14.9173 -14.9169 -14.9166 -14.9164 -14.9163 -14.9162 -14.9158
   -14.9155 -14.9153 -14.9152 -14.9121 -14.9118 -14.9065 -14.9049 -14.9045
   -14.9043 -14.9042 -14.9042 -14.9037 -14.9035 -14.9033 -14.9032 -14.8997
   -14.8685 -14.8663 -14.8647 -14.8643 -14.8640 -14.8640 -14.8640 -14.8635
   -14.8635 -14.8631 -14.8630 -14.8593 -14.8254 -14.8211 -14.8195 -14.8191
   -14.8190 -14.8189 -14.8188 -14.8183 -14.8181 -14.8179 -14.8178 -14.8145
   -10.3552 -10.3387 -10.3373 -10.3368 -10.3352 -10.3342 -10.3334 -10.3328
   -10.3317 -10.3291 -10.3279 -10.3234 -10.3176 -10.3087 -10.3069 -10.3042
   -10.3023 -10.3006 -10.2977 -10.2964 -10.2945 -10.2933 -10.2894 -10.2837
   -10.2823 -10.2683 -10.2679 -10.2666 -10.2656 -10.2634 -10.2619 -10.2613
   -10.2609 -10.2594 -10.2577 -10.2517  -6.7527  -6.6486  -6.5620  -6.4718
    -6.4292  -6.4179  -6.3661  -6.3421  -6.3394  -6.2680  -6.2149  -6.2097
    -5.9144  -5.9121  -5.8262  -5.8237  -5.8191  -5.8162  -5.7675  -5.7626
    -5.7535  -5.7333  -5.6835  -5.6818  -5.6804  -5.6629  -5.6491  -5.6400
    -5.6371  -5.6072  -5.5852  -5.5845  -5.5724  -5.5336  -5.5281  -5.5257
    -5.5157  -5.4854  -5.4679  -5.4403  -5.4367  -5.4363  -5.3992  -5.3695
    -5.3439  -5.3420  -5.3307  -5.2957  -0.5624  -0.5609  -0.5502  -0.4356
    -0.4294  -0.4269  -0.4105  -0.3600  -0.3252  -0.3209  -0.2897  -0.2832
     1.4061   1.4910   1.4973   1.5160   1.6113   1.7091   1.7142   1.7221
     1.7402   1.7744   1.8447   1.8465   1.9651   1.9861   2.0206   2.0228
     2.1297   2.1958   2.2090   2.2098   2.2862   2.3345   2.3954   2.4266
     2.4301   2.5157   2.5288   2.5301   2.5518   2.5575   2.5586   2.5615
     2.5981   2.6782   2.7612   2.7663   2.8216   2.8239   2.8262   2.8305
     2.8482   2.8529   2.8957   2.8968   2.9068   3.0083   3.0184   3.0201
     3.0730   3.0784   3.1170   3.1196   3.1352   3.1814   3.1825   3.1894
     3.2161   3.2477   3.2676   3.2857   3.2879   3.2951   3.3305   3.3337
     3.3747   3.3778   3.3794   3.3801   3.4470   3.4501   3.4512   3.4779
     3.4804   3.4810   3.5069   3.5196   3.5348   3.5365   3.5381   3.5562
     3.5846   3.5888   3.6110   3.6291   3.6412   3.6430   3.6823   3.6849
     3.6880   3.6973   3.7029   3.7063   3.8323   3.8407   3.8790   3.8817
     3.9407   3.9460   3.9469   3.9503   3.9739   4.0325   4.0527   4.0573
     4.0597   4.0647   4.0998   4.1015   4.1217   4.1238   4.1308   4.1337
     4.2246   4.2412   4.2655   4.2736   4.2901   4.2955   4.3147   4.3680
     4.3932   4.4336   4.4361   4.4816   4.5216   4.5426   4.5446   4.5865
     4.5966   4.5985   4.6303   4.7288   5.1484   5.1496   5.1569   5.1664
     5.1686   5.1709   5.1721   5.1757   5.2012   5.2071   5.2136   5.2181
     5.2212   5.2303   5.2419   5.2434   5.2606   5.2639   5.2661   5.2670
     5.2709   5.2752   5.3103   5.3129   5.3209   5.3350   5.3466   5.3500
     5.3619   5.3631   5.3646   5.3701   5.3724   5.3826   5.3887   5.3920
     5.4111   5.4343   5.4490   5.4520   5.4542   5.4708   5.4976   5.4993
     5.5172   5.5256   5.5567   5.5588   5.5694   5.5709   5.6015   5.6049
     5.6092   5.6219   5.6327   5.6495   5.6527   5.6620   5.6758   5.7091
     5.7109   5.7401   5.7608   5.7619   5.7724   5.7856   5.8056   5.8085
     5.8156   5.8409   5.8671   5.8699   5.8768   5.8956   5.9705   5.9708
     6.0203   6.0265   6.0274   6.1016   6.1031   6.1132   6.1608   6.1885
     6.2010   6.2041   6.2063   6.2615   6.2649   6.2870   6.3189   6.3428
     6.3555   6.3702   6.3711   6.4130   6.4181   6.4210   6.4529   6.4804
     6.4838   6.5084   6.5589   6.5667   6.6068   6.6090   6.6481   6.6657
     6.6691   6.7371   6.7391   6.7400   6.7482   6.8039   6.8067   6.8509
     6.8663   6.9179   6.9453   7.0390

          k =-0.3333 0.1925 0.2714 (115773 PWs)   bands (ev):

   -28.2972 -28.2767 -28.2757 -28.2753 -28.2749 -28.2746 -28.2746 -28.2745
   -28.2741 -28.2738 -28.2713 -28.2606 -14.9349 -14.9244 -14.9237 -14.9229
   -14.9224 -14.9222 -14.9221 -14.9221 -14.9216 -14.9215 -14.9212 -14.9211
   -14.9185 -14.9173 -14.9170 -14.9166 -14.9164 -14.9163 -14.9162 -14.9158
   -14.9155 -14.9154 -14.9152 -14.9121 -14.9118 -14.9065 -14.9049 -14.9045
   -14.9043 -14.9042 -14.9042 -14.9037 -14.9035 -14.9033 -14.9032 -14.8997
   -14.8685 -14.8663 -14.8647 -14.8643 -14.8640 -14.8640 -14.8640 -14.8635
   -14.8635 -14.8631 -14.8630 -14.8593 -14.8254 -14.8211 -14.8195 -14.8191
   -14.8190 -14.8189 -14.8188 -14.8183 -14.8181 -14.8179 -14.8178 -14.8145
   -10.3549 -10.3386 -10.3373 -10.3364 -10.3359 -10.3344 -10.3333 -10.3326
   -10.3311 -10.3298 -10.3283 -10.3226 -10.3182 -10.3089 -10.3052 -10.3043
   -10.3033 -10.3010 -10.2981 -10.2963 -10.2940 -10.2936 -10.2900 -10.2834
   -10.2818 -10.2684 -10.2679 -10.2675 -10.2653 -10.2637 -10.2619 -10.2609
   -10.2605 -10.2594 -10.2578 -10.2514  -6.7531  -6.6485  -6.5643  -6.4704
    -6.4213  -6.4181  -6.3670  -6.3460  -6.3394  -6.2675  -6.2174  -6.2096
    -5.9188  -5.9132  -5.8245  -5.8224  -5.8199  -5.8167  -5.7651  -5.7639
    -5.7525  -5.7321  -5.6836  -5.6813  -5.6801  -5.6633  -5.6419  -5.6404
    -5.6365  -5.6060  -5.5872  -5.5851  -5.5766  -5.5314  -5.5273  -5.5260
    -5.5192  -5.4882  -5.4651  -5.4416  -5.4366  -5.4358  -5.3980  -5.3704
    -5.3433  -5.3425  -5.3311  -5.2953  -0.5639  -0.5598  -0.5505  -0.4324
    -0.4304  -0.4280  -0.4102  -0.3619  -0.3226  -0.3207  -0.2911  -0.2836
     1.4037   1.4953   1.4961   1.5157   1.6135   1.7111   1.7139   1.7238
     1.7374   1.7724   1.8443   1.8473   1.9660   1.9849   2.0177   2.0223
     2.1271   2.1990   2.2091   2.2107   2.2841   2.3336   2.3955   2.4264
     2.4282   2.5182   2.5278   2.5301   2.5558   2.5586   2.5598   2.5625
     2.5988   2.6777   2.7625   2.7656   2.8231   2.8241   2.8262   2.8302
     2.8490   2.8529   2.8893   2.8971   2.9079   3.0075   3.0167   3.0205
     3.0773   3.0796   3.1160   3.1189   3.1355   3.1790   3.1821   3.1899
     3.2155   3.2471   3.2667   3.2851   3.2888   3.2966   3.3312   3.3329
     3.3760   3.3772   3.3795   3.3860   3.4456   3.4491   3.4508   3.4766
     3.4787   3.4824   3.5068   3.5185   3.5341   3.5362   3.5381   3.5567
     3.5830   3.5877   3.6096   3.6318   3.6411   3.6450   3.6795   3.6847
     3.6875   3.6960   3.7024   3.7059   3.8372   3.8373   3.8782   3.8816
     3.9430   3.9455   3.9482   3.9509   3.9737   4.0310   4.0545   4.0551
     4.0610   4.0630   4.0996   4.1016   4.1217   4.1245   4.1296   4.1338
     4.2261   4.2403   4.2696   4.2704   4.2904   4.2942   4.3145   4.3697
     4.3907   4.4336   4.4359   4.4807   4.5206   4.5446   4.5461   4.5845
     4.5945   4.6002   4.6327   4.7303   5.1483   5.1492   5.1548   5.1661
     5.1690   5.1704   5.1719   5.1751   5.2011   5.2061   5.2147   5.2194
     5.2207   5.2296   5.2424   5.2441   5.2611   5.2659   5.2660   5.2673
     5.2682   5.2746   5.3104   5.3124   5.3199   5.3351   5.3481   5.3494
     5.3612   5.3642   5.3657   5.3696   5.3704   5.3808   5.3899   5.3915
     5.4122   5.4350   5.4492   5.4515   5.4533   5.4711   5.4984   5.5014
     5.5187   5.5262   5.5561   5.5598   5.5687   5.5706   5.6026   5.6031
     5.6101   5.6213   5.6333   5.6506   5.6513   5.6620   5.6765   5.7086
     5.7117   5.7409   5.7600   5.7615   5.7719   5.7869   5.8057   5.8079
     5.8150   5.8416   5.8687   5.8701   5.8765   5.8935   5.9693   5.9718
     6.0195   6.0262   6.0277   6.1018   6.1043   6.1127   6.1597   6.1878
     6.2031   6.2040   6.2048   6.2619   6.2635   6.2885   6.3198   6.3439
     6.3553   6.3678   6.3703   6.4124   6.4208   6.4217   6.4537   6.4822
     6.4843   6.5081   6.5589   6.5680   6.6062   6.6088   6.6465   6.6674
     6.6683   6.7351   6.7378   6.7405   6.7494   6.8047   6.8053   6.8515
     6.8659   6.9181   6.9459   7.0378

          k = 0.3333 0.1925 0.2714 (115773 PWs)   bands (ev):

   -28.2972 -28.2767 -28.2757 -28.2753 -28.2749 -28.2746 -28.2746 -28.2745
   -28.2741 -28.2738 -28.2713 -28.2606 -14.9349 -14.9244 -14.9237 -14.9228
   -14.9224 -14.9222 -14.9222 -14.9221 -14.9216 -14.9216 -14.9213 -14.9210
   -14.9185 -14.9173 -14.9169 -14.9166 -14.9164 -14.9163 -14.9162 -14.9158
   -14.9155 -14.9154 -14.9152 -14.9121 -14.9118 -14.9065 -14.9049 -14.9045
   -14.9043 -14.9042 -14.9042 -14.9037 -14.9035 -14.9033 -14.9031 -14.8997
   -14.8685 -14.8663 -14.8647 -14.8643 -14.8640 -14.8640 -14.8640 -14.8635
   -14.8635 -14.8631 -14.8630 -14.8593 -14.8254 -14.8211 -14.8195 -14.8191
   -14.8190 -14.8189 -14.8188 -14.8183 -14.8181 -14.8179 -14.8178 -14.8145
   -10.3552 -10.3383 -10.3378 -10.3366 -10.3361 -10.3344 -10.3334 -10.3320
   -10.3319 -10.3290 -10.3278 -10.3229 -10.3179 -10.3088 -10.3066 -10.3044
   -10.3025 -10.3016 -10.2982 -10.2950 -10.2940 -10.2929 -10.2892 -10.2845
   -10.2823 -10.2684 -10.2677 -10.2666 -10.2660 -10.2642 -10.2616 -10.2610
   -10.2601 -10.2590 -10.2573 -10.2528  -6.7530  -6.6486  -6.5639  -6.4708
    -6.4224  -6.4186  -6.3670  -6.3442  -6.3400  -6.2685  -6.2147  -6.2101
    -5.9173  -5.9117  -5.8245  -5.8229  -5.8174  -5.8164  -5.7673  -5.7641
    -5.7541  -5.7330  -5.6853  -5.6817  -5.6812  -5.6634  -5.6428  -5.6411
    -5.6376  -5.6076  -5.5894  -5.5849  -5.5721  -5.5305  -5.5286  -5.5265
    -5.5160  -5.4864  -5.4653  -5.4406  -5.4373  -5.4352  -5.3990  -5.3703
    -5.3441  -5.3428  -5.3300  -5.2951  -0.5616  -0.5595  -0.5516  -0.4342
    -0.4283  -0.4266  -0.4126  -0.3619  -0.3226  -0.3216  -0.2915  -0.2840
     1.4061   1.4911   1.4951   1.5164   1.6143   1.7103   1.7144   1.7229
     1.7367   1.7726   1.8425   1.8492   1.9676   1.9870   2.0227   2.0247
     2.1267   2.1973   2.2074   2.2104   2.2834   2.3340   2.3961   2.4247
     2.4279   2.5184   2.5263   2.5300   2.5547   2.5580   2.5596   2.5606
     2.6001   2.6771   2.7618   2.7657   2.8225   2.8248   2.8263   2.8291
     2.8503   2.8529   2.8945   2.8973   2.9066   3.0062   3.0173   3.0206
     3.0773   3.0786   3.1177   3.1206   3.1339   3.1804   3.1843   3.1902
     3.2145   3.2484   3.2680   3.2848   3.2874   3.2962   3.3311   3.3321
     3.3755   3.3778   3.3804   3.3822   3.4465   3.4483   3.4522   3.4769
     3.4787   3.4814   3.5055   3.5217   3.5331   3.5362   3.5386   3.5572
     3.5835   3.5886   3.6099   3.6314   3.6407   3.6442   3.6810   3.6843
     3.6865   3.6960   3.7025   3.7057   3.8358   3.8380   3.8781   3.8817
     3.9412   3.9438   3.9473   3.9501   3.9729   4.0345   4.0542   4.0577
     4.0601   4.0612   4.0987   4.1024   4.1209   4.1250   4.1315   4.1354
     4.2238   4.2400   4.2688   4.2694   4.2908   4.2932   4.3147   4.3671
     4.3928   4.4348   4.4354   4.4824   4.5224   4.5437   4.5459   4.5854
     4.5942   4.6007   4.6321   4.7301   5.1481   5.1507   5.1546   5.1652
     5.1690   5.1707   5.1729   5.1750   5.2013   5.2065   5.2139   5.2174
     5.2216   5.2318   5.2412   5.2433   5.2615   5.2646   5.2653   5.2668
     5.2679   5.2767   5.3106   5.3124   5.3196   5.3367   5.3464   5.3502
     5.3611   5.3639   5.3656   5.3689   5.3708   5.3832   5.3900   5.3910
     5.4113   5.4342   5.4489   5.4532   5.4545   5.4711   5.4958   5.4983
     5.5177   5.5241   5.5570   5.5589   5.5689   5.5721   5.6028   5.6040
     5.6078   5.6216   5.6319   5.6510   5.6532   5.6615   5.6761   5.7102
     5.7118   5.7405   5.7614   5.7636   5.7711   5.7856   5.8059   5.8077
     5.8169   5.8407   5.8674   5.8684   5.8764   5.8975   5.9690   5.9709
     6.0216   6.0255   6.0273   6.1013   6.1033   6.1126   6.1608   6.1887
     6.2025   6.2045   6.2057   6.2636   6.2643   6.2877   6.3180   6.3430
     6.3555   6.3687   6.3710   6.4140   6.4192   6.4211   6.4531   6.4799
     6.4834   6.5071   6.5584   6.5660   6.6072   6.6079   6.6491   6.6663
     6.6683   6.7355   6.7388   6.7399   6.7493   6.8035   6.8055   6.8511
     6.8678   6.9188   6.9463   7.0386

          k =-0.3333-0.1925 0.2714 (115773 PWs)   bands (ev):

   -28.2972 -28.2767 -28.2757 -28.2753 -28.2749 -28.2746 -28.2746 -28.2745
   -28.2741 -28.2738 -28.2713 -28.2606 -14.9349 -14.9244 -14.9237 -14.9228
   -14.9224 -14.9222 -14.9222 -14.9221 -14.9216 -14.9216 -14.9213 -14.9210
   -14.9185 -14.9173 -14.9169 -14.9166 -14.9164 -14.9163 -14.9162 -14.9158
   -14.9155 -14.9154 -14.9152 -14.9121 -14.9118 -14.9065 -14.9049 -14.9045
   -14.9043 -14.9042 -14.9042 -14.9037 -14.9035 -14.9033 -14.9031 -14.8997
   -14.8685 -14.8663 -14.8647 -14.8643 -14.8640 -14.8640 -14.8640 -14.8635
   -14.8635 -14.8631 -14.8630 -14.8593 -14.8254 -14.8211 -14.8195 -14.8191
   -14.8190 -14.8189 -14.8188 -14.8183 -14.8181 -14.8179 -14.8178 -14.8145
   -10.3552 -10.3382 -10.3378 -10.3366 -10.3363 -10.3343 -10.3332 -10.3325
   -10.3316 -10.3292 -10.3276 -10.3229 -10.3179 -10.3090 -10.3061 -10.3054
   -10.3016 -10.3001 -10.2989 -10.2962 -10.2945 -10.2921 -10.2897 -10.2841
   -10.2821 -10.2687 -10.2674 -10.2664 -10.2655 -10.2647 -10.2621 -10.2612
   -10.2594 -10.2590 -10.2578 -10.2526  -6.7529  -6.6487  -6.5631  -6.4745
    -6.4256  -6.4220  -6.3672  -6.3329  -6.3284  -6.2619  -6.2279  -6.2239
    -5.9084  -5.9032  -5.8235  -5.8208  -5.8094  -5.8068  -5.7930  -5.7618
    -5.7593  -5.7331  -5.7103  -5.7094  -5.6729  -5.6354  -5.6298  -5.6277
    -5.6267  -5.6076  -5.6031  -5.5990  -5.5689  -5.5288  -5.5243  -5.5214
    -5.5194  -5.4961  -5.4690  -5.4338  -5.4288  -5.4265  -5.4219  -5.3630
    -5.3478  -5.3464  -5.3208  -5.2987  -0.5603  -0.5580  -0.5554  -0.4353
    -0.4340  -0.4254  -0.3953  -0.3746  -0.3193  -0.3183  -0.3004  -0.2797
     1.4350   1.4824   1.4865   1.4884   1.6250   1.6425   1.7686   1.7738
     1.7834   1.7907   1.8002   1.8061   1.9141   1.9957   1.9989   2.0767
     2.1528   2.1993   2.2094   2.2460   2.2492   2.3599   2.3929   2.3936
     2.3984   2.4489   2.5103   2.5141   2.5466   2.5881   2.5915   2.6053
     2.6434   2.7104   2.7593   2.7656   2.7696   2.7892   2.8092   2.8102
     2.8390   2.8743   2.9146   2.9167   2.9191   2.9812   3.0223   3.0261
     3.0680   3.1062   3.1096   3.1322   3.1724   3.1929   3.1940   3.1966
     3.2008   3.2344   3.2651   3.2656   3.2788   3.3183   3.3223   3.3230
     3.3274   3.3899   3.3921   3.4094   3.4442   3.4476   3.4658   3.4709
     3.4731   3.4747   3.4774   3.4790   3.5348   3.5362   3.5391   3.5899
     3.6058   3.6128   3.6137   3.6333   3.6430   3.6478   3.6554   3.6607
     3.6673   3.7086   3.7124   3.7142   3.8356   3.8367   3.8810   3.8887
     3.9052   3.9481   3.9523   3.9765   3.9834   4.0196   4.0458   4.0485
     4.0501   4.0669   4.1099   4.1144   4.1229   4.1315   4.1348   4.1492
     4.1904   4.2551   4.2660   4.2679   4.2889   4.2906   4.2961   4.3871
     4.3988   4.4388   4.4393   4.4695   4.5238   4.5258   4.5369   4.5959
     4.6084   4.6137   4.6231   4.7219   5.1510   5.1543   5.1565   5.1589
     5.1734   5.1757   5.1779   5.1856   5.1933   5.1997   5.2027   5.2081
     5.2104   5.2345   5.2363   5.2382   5.2567   5.2644   5.2659   5.2683
     5.2818   5.2993   5.3088   5.3133   5.3154   5.3303   5.3370   5.3388
     5.3591   5.3604   5.3623   5.3640   5.3816   5.3941   5.4086   5.4101
     5.4132   5.4332   5.4349   5.4460   5.4461   5.4943   5.5021   5.5032
     5.5103   5.5169   5.5557   5.5604   5.5741   5.5767   5.6035   5.6115
     5.6126   5.6184   5.6263   5.6283   5.6440   5.6709   5.6835   5.7164
     5.7168   5.7187   5.7363   5.7733   5.7744   5.7770   5.8024   5.8045
     5.8117   5.8599   5.8755   5.8764   5.8814   5.9162   5.9597   5.9603
     6.0341   6.0351   6.0368   6.0619   6.0789   6.0809   6.1740   6.2078
     6.2138   6.2156   6.2670   6.2685   6.2705   6.2771   6.2865   6.3479
     6.3503   6.3659   6.3724   6.4149   6.4251   6.4262   6.4299   6.4712
     6.4962   6.4994   6.5453   6.5603   6.5945   6.5961   6.6664   6.6680
     6.6784   6.7207   6.7368   6.7375   6.7474   6.8128   6.8136   6.8449
     6.8702   6.9283   6.9371   7.0529

          k = 0.3333-0.1925 0.2714 (115773 PWs)   bands (ev):

   -28.2972 -28.2767 -28.2757 -28.2753 -28.2749 -28.2746 -28.2746 -28.2745
   -28.2741 -28.2738 -28.2713 -28.2606 -14.9349 -14.9244 -14.9237 -14.9229
   -14.9224 -14.9222 -14.9221 -14.9221 -14.9216 -14.9215 -14.9212 -14.9211
   -14.9185 -14.9173 -14.9170 -14.9166 -14.9164 -14.9163 -14.9162 -14.9158
   -14.9155 -14.9154 -14.9152 -14.9121 -14.9118 -14.9065 -14.9049 -14.9045
   -14.9043 -14.9042 -14.9042 -14.9037 -14.9035 -14.9033 -14.9032 -14.8997
   -14.8685 -14.8663 -14.8647 -14.8643 -14.8640 -14.8640 -14.8640 -14.8635
   -14.8635 -14.8631 -14.8630 -14.8593 -14.8254 -14.8211 -14.8195 -14.8191
   -14.8190 -14.8189 -14.8188 -14.8183 -14.8181 -14.8179 -14.8178 -14.8145
   -10.3549 -10.3386 -10.3372 -10.3365 -10.3361 -10.3344 -10.3332 -10.3326
   -10.3311 -10.3295 -10.3282 -10.3230 -10.3179 -10.3087 -10.3057 -10.3051
   -10.3023 -10.3003 -10.2992 -10.2970 -10.2938 -10.2925 -10.2893 -10.2841
   -10.2822 -10.2689 -10.2682 -10.2665 -10.2649 -10.2633 -10.2629 -10.2612
   -10.2599 -10.2593 -10.2579 -10.2515  -6.7529  -6.6487  -6.5635  -6.4738
    -6.4247  -6.4214  -6.3670  -6.3348  -6.3277  -6.2610  -6.2306  -6.2234
    -5.9105  -5.9045  -5.8221  -5.8209  -5.8139  -5.8070  -5.7910  -5.7596
    -5.7589  -5.7307  -5.7098  -5.7093  -5.6711  -5.6341  -5.6285  -5.6275
    -5.6259  -5.6074  -5.6010  -5.5985  -5.5731  -5.5289  -5.5249  -5.5222
    -5.5208  -5.4955  -5.4702  -5.4356  -5.4282  -5.4273  -5.4214  -5.3626
    -5.3470  -5.3459  -5.3214  -5.2992  -0.5605  -0.5584  -0.5559  -0.4375
    -0.4348  -0.4245  -0.3935  -0.3737  -0.3194  -0.3175  -0.2996  -0.2798
     1.4316   1.4861   1.4870   1.4884   1.6260   1.6437   1.7735   1.7745
     1.7818   1.7909   1.7984   1.8026   1.9130   1.9913   1.9978   2.0773
     2.1540   2.1978   2.2105   2.2475   2.2486   2.3598   2.3930   2.3943
     2.3974   2.4472   2.5096   2.5135   2.5471   2.5910   2.5918   2.6088
     2.6430   2.7110   2.7606   2.7681   2.7704   2.7888   2.8071   2.8101
     2.8389   2.8740   2.9102   2.9160   2.9211   2.9814   3.0232   3.0257
     3.0695   3.1020   3.1076   3.1335   3.1716   3.1925   3.1946   3.1953
     3.2014   3.2339   3.2640   3.2685   3.2777   3.3189   3.3219   3.3237
     3.3269   3.3887   3.3931   3.4123   3.4407   3.4468   3.4677   3.4715
     3.4729   3.4742   3.4761   3.4786   3.5342   3.5382   3.5394   3.5908
     3.6068   3.6131   3.6147   3.6323   3.6419   3.6489   3.6552   3.6607
     3.6673   3.7065   3.7121   3.7133   3.8364   3.8373   3.8801   3.8889
     3.9065   3.9494   3.9528   3.9735   3.9839   4.0209   4.0494   4.0499
     4.0532   4.0651   4.1097   4.1111   4.1183   4.1333   4.1352   4.1475
     4.1921   4.2578   4.2660   4.2695   4.2892   4.2916   4.2944   4.3892
     4.3965   4.4365   4.4389   4.4678   4.5254   4.5266   4.5347   4.5951
     4.6093   4.6130   4.6247   4.7223   5.1506   5.1526   5.1563   5.1583
     5.1725   5.1772   5.1787   5.1852   5.1913   5.1987   5.2029   5.2086
     5.2101   5.2348   5.2369   5.2384   5.2558   5.2660   5.2676   5.2688
     5.2792   5.2980   5.3084   5.3138   5.3167   5.3307   5.3377   5.3386
     5.3587   5.3603   5.3618   5.3663   5.3815   5.3933   5.4078   5.4090
     5.4161   5.4332   5.4354   5.4458   5.4478   5.4928   5.5029   5.5043
     5.5109   5.5171   5.5540   5.5624   5.5757   5.5773   5.6047   5.6116
     5.6132   5.6213   5.6248   5.6264   5.6457   5.6710   5.6835   5.7146
     5.7152   5.7187   5.7362   5.7731   5.7738   5.7750   5.8035   5.8045
     5.8099   5.8596   5.8764   5.8777   5.8786   5.9158   5.9597   5.9617
     6.0350   6.0363   6.0376   6.0592   6.0799   6.0812   6.1740   6.2071
     6.2125   6.2142   6.2659   6.2674   6.2705   6.2781   6.2866   6.3489
     6.3506   6.3669   6.3728   6.4153   6.4222   6.4256   6.4284   6.4719
     6.4997   6.5010   6.5475   6.5601   6.5958   6.5984   6.6659   6.6679
     6.6773   6.7192   6.7349   6.7378   6.7489   6.8121   6.8146   6.8452
     6.8683   6.9277   6.9377   7.0515

          k =-0.3333-0.5774 0.2714 (115827 PWs)   bands (ev):

   -28.2972 -28.2767 -28.2757 -28.2753 -28.2749 -28.2746 -28.2746 -28.2745
   -28.2741 -28.2738 -28.2713 -28.2606 -14.9349 -14.9244 -14.9237 -14.9228
   -14.9224 -14.9222 -14.9221 -14.9221 -14.9216 -14.9216 -14.9212 -14.9211
   -14.9185 -14.9173 -14.9169 -14.9166 -14.9164 -14.9163 -14.9162 -14.9158
   -14.9155 -14.9154 -14.9152 -14.9121 -14.9118 -14.9065 -14.9049 -14.9045
   -14.9043 -14.9042 -14.9042 -14.9037 -14.9035 -14.9033 -14.9032 -14.8997
   -14.8685 -14.8663 -14.8647 -14.8643 -14.8640 -14.8640 -14.8640 -14.8635
   -14.8635 -14.8631 -14.8630 -14.8593 -14.8254 -14.8211 -14.8195 -14.8191
   -14.8190 -14.8189 -14.8188 -14.8183 -14.8181 -14.8179 -14.8178 -14.8145
   -10.3549 -10.3378 -10.3374 -10.3362 -10.3353 -10.3338 -10.3326 -10.3324
   -10.3311 -10.3298 -10.3287 -10.3232 -10.3179 -10.3073 -10.3065 -10.3048
   -10.3021 -10.2996 -10.2978 -10.2969 -10.2946 -10.2924 -10.2904 -10.2851
   -10.2824 -10.2682 -10.2677 -10.2658 -10.2649 -10.2644 -10.2629 -10.2623
   -10.2610 -10.2591 -10.2583 -10.2526  -6.6258  -6.6177  -6.6172  -6.5313
    -6.5244  -6.5237  -6.3124  -6.2969  -6.2889  -6.2881  -6.2598  -6.2156
    -5.8777  -5.8597  -5.8440  -5.7802  -5.7785  -5.7773  -5.7458  -5.7414
    -5.7398  -5.7149  -5.6905  -5.6873  -5.6858  -5.6753  -5.6718  -5.6711
    -5.6696  -5.6427  -5.5629  -5.5557  -5.5547  -5.5285  -5.5239  -5.5233
    -5.5064  -5.5034  -5.5020  -5.5017  -5.4580  -5.3984  -5.3976  -5.3958
    -5.3572  -5.3232  -5.3219  -5.3197  -0.5194  -0.5076  -0.5049  -0.5030
    -0.4609  -0.4185  -0.4166  -0.4146  -0.3549  -0.2955  -0.2920  -0.2919
     1.4803   1.4836   1.4844   1.6360   1.6394   1.6409   1.6903   1.7717
     1.7761   1.7774   1.7789   1.7933   1.9793   1.9827   1.9857   2.0569
     2.1720   2.1902   2.1929   2.1949   2.2477   2.3934   2.3966   2.3983
     2.4862   2.4879   2.4898   2.5557   2.5846   2.5882   2.5896   2.5918
     2.6782   2.7360   2.7372   2.7394   2.8166   2.8236   2.8245   2.8277
     2.9004   2.9018   2.9049   2.9238   2.9378   2.9540   2.9565   2.9587
     3.0591   3.0606   3.0619   3.0863   3.0901   3.0917   3.1274   3.1820
     3.2452   3.2456   3.2483   3.2716   3.2719   3.2736   3.3229   3.3248
     3.3289   3.3310   3.3740   3.4079   3.4229   3.4652   3.4664   3.4683
     3.4909   3.4989   3.5005   3.5018   3.5358   3.5378   3.5389   3.5407
     3.5629   3.6137   3.6169   3.6183   3.6505   3.6554   3.6566   3.6968
     3.6985   3.7000   3.7214   3.7441   3.8206   3.8403   3.8424   3.8429
     3.9379   3.9411   3.9423   3.9459   4.0278   4.0303   4.0323   4.0396
     4.0659   4.0688   4.0695   4.1088   4.1141   4.1150   4.1176   4.1686
     4.2726   4.2742   4.2767   4.2901   4.3169   4.3610   4.3626   4.3633
     4.4135   4.4174   4.4204   4.4924   4.4936   4.4962   4.5067   4.5115
     4.5660   4.6662   4.6681   4.6699   5.1498   5.1571   5.1585   5.1593
     5.1610   5.1827   5.1848   5.1865   5.1975   5.1998   5.2013   5.2121
     5.2257   5.2266   5.2285   5.2519   5.2536   5.2552   5.2598   5.2702
     5.3023   5.3033   5.3055   5.3109   5.3289   5.3310   5.3321   5.3683
     5.3694   5.3723   5.3768   5.3939   5.3968   5.4098   5.4114   5.4124
     5.4334   5.4347   5.4360   5.4398   5.4832   5.4854   5.4877   5.4935
     5.5386   5.5396   5.5406   5.5452   5.5663   5.5684   5.5698   5.6068
     5.6075   5.6094   5.6382   5.6412   5.6723   5.6742   5.6746   5.7045
     5.7052   5.7073   5.7190   5.7600   5.7610   5.7628   5.8024   5.8099
     5.8214   5.8244   5.8255   5.8272   5.8893   5.8913   5.8936   6.0579
     6.0607   6.0616   6.0635   6.0782   6.1205   6.1209   6.1234   6.1360
     6.1956   6.2371   6.2393   6.2402   6.2848   6.3009   6.3034   6.3036
     6.3079   6.3849   6.3863   6.3877   6.4497   6.4676   6.4688   6.4697
     6.4919   6.4932   6.5589   6.5612   6.5623   6.6464   6.6841   6.6856
     6.6872   6.7602   6.7778   6.7788   6.7801   6.7927   6.8540   6.8554
     6.8566   6.9346   6.9355   6.9376

     highest occupied level (ev):     7.1807

!    total energy              =   -9077.18671618 Ry
     estimated scf accuracy    <          4.9E-10 Ry

     The total energy is the sum of the following terms:
     one-electron contribution =   -2776.94130236 Ry
     hartree contribution      =    2020.24167919 Ry
     xc contribution           =   -2269.39924983 Ry
     ewald contribution        =   -3895.29276154 Ry
     one-center paw contrib.   =   -2155.79508164 Ry

     convergence has been achieved in  22 iterations

     negative rho (up, down):  7.902E-01 0.000E+00

     Forces acting on atoms (cartesian axes, Ry/au):

     atom    1 type  1   force =    -0.00114394    0.00059961   -0.00117196
     atom    2 type  1   force =    -0.00006426    0.00027180   -0.00001188
     atom    3 type  1   force =    -0.00015188    0.00021126   -0.00005429
     atom    4 type  1   force =    -0.00004840    0.00048824    0.00002124
     atom    5 type  1   force =    -0.00018975   -0.00011826    0.00007261
     atom    6 type  1   force =    -0.00017644   -0.00028157   -0.00006548
     atom    7 type  1   force =    -0.00017129   -0.00021875    0.00001165
     atom    8 type  1   force =    -0.00021467   -0.00027632    0.00003335
     atom    9 type  1   force =     0.00032255   -0.00001007    0.00001673
     atom   10 type  1   force =     0.00030197    0.00000144    0.00004663
     atom   11 type  1   force =     0.00028038    0.00001468    0.00004392
     atom   12 type  1   force =     0.00030728   -0.00000136    0.00000890
     atom   13 type  2   force =    -0.00116095    0.00169156    0.00251753
     atom   14 type  2   force =     0.00032155   -0.00046384    0.00027662
     atom   15 type  2   force =     0.00024583   -0.00042855    0.00022251
     atom   16 type  2   force =     0.00012808   -0.00041769    0.00011261
     atom   17 type  2   force =     0.00021487    0.00036432    0.00020063
     atom   18 type  2   force =     0.00023645    0.00036773    0.00020023
     atom   19 type  2   force =     0.00023385    0.00037355    0.00020170
     atom   20 type  2   force =     0.00022844    0.00036304    0.00019496
     atom   21 type  2   force =    -0.00046601    0.00006830    0.00015224
     atom   22 type  2   force =    -0.00043354    0.00000964    0.00018874
     atom   23 type  2   force =    -0.00043346   -0.00002343    0.00006717
     atom   24 type  2   force =    -0.00038084    0.00001049    0.00022631
     atom   25 type  2   force =    -0.00043132   -0.00000145   -0.00015442
     atom   26 type  2   force =    -0.00037583   -0.00002257   -0.00016408
     atom   27 type  2   force =    -0.00039972    0.00005432   -0.00009586
     atom   28 type  2   force =    -0.00041752   -0.00000820   -0.00019083
     atom   29 type  2   force =    -0.00328012    0.00100020    0.00178443
     atom   30 type  2   force =     0.00032263    0.00040172   -0.00013750
     atom   31 type  2   force =     0.00021675    0.00039699   -0.00020060
     atom   32 type  2   force =     0.00010937    0.00033629   -0.00025194
     atom   33 type  2   force =     0.00023846   -0.00035560   -0.00018579
     atom   34 type  2   force =     0.00025130   -0.00038359   -0.00017629
     atom   35 type  2   force =     0.00022876   -0.00033795   -0.00019019
     atom   36 type  2   force =     0.00023306   -0.00037592   -0.00017828
     atom   37 type  3   force =     0.00029818   -0.00060238    0.00007925
     atom   38 type  3   force =     0.00035181   -0.00043766    0.00003151
     atom   39 type  3   force =     0.00023827   -0.00053487    0.00001478
     atom   40 type  3   force =     0.00029502   -0.00051275   -0.00000246
     atom   41 type  3   force =     0.00005804    0.00033906   -0.00012882
     atom   42 type  3   force =     0.00036114    0.00041747    0.00006662
     atom   43 type  3   force =     0.00026669    0.00042684   -0.00003699
     atom   44 type  3   force =     0.00030518    0.00050622    0.00006082
     atom   45 type  3   force =    -0.00042034   -0.00001506   -0.00002808
     atom   46 type  3   force =    -0.00842885   -0.00904962   -0.00001209
     atom   47 type  3   force =    -0.00036865    0.00021607   -0.00019263
     atom   48 type  3   force =    -0.00053192   -0.00055364   -0.00003538
     atom   49 type  4   force =     0.00034742   -0.00007099    0.00005995
     atom   50 type  4   force =     0.00034590   -0.00010404   -0.00000034
     atom   51 type  4   force =     0.00035757   -0.00008130    0.00000690
     atom   52 type  4   force =     0.00034823   -0.00010462    0.00000436
     atom   53 type  4   force =    -0.00048740    0.00000739    0.00117368
     atom   54 type  4   force =    -0.00016059    0.00033643    0.00001617
     atom   55 type  4   force =    -0.00008905    0.00037335    0.00006907
     atom   56 type  4   force =    -0.00009381    0.00037918   -0.00003725
     atom   57 type  4   force =    -0.00043723   -0.00072460   -0.00010332
     atom   58 type  4   force =    -0.00042184   -0.00015146    0.00005256
     atom   59 type  4   force =    -0.00052381   -0.00006826    0.00003656
     atom   60 type  4   force =    -0.00012812   -0.00032091   -0.00032348
     atom   61 type  4   force =    -0.00120118    0.00053848    0.00047592
     atom   62 type  4   force =    -0.00091825   -0.00051112   -0.00010824
     atom   63 type  4   force =    -0.00027702    0.00015541    0.00004407
     atom   64 type  4   force =    -0.00031414    0.00033243    0.00002347
     atom   65 type  4   force =     0.00038500    0.00012223    0.00001808
     atom   66 type  4   force =     0.00033786    0.00011265   -0.00002596
     atom   67 type  4   force =     0.00034986    0.00010941   -0.00002908
     atom   68 type  4   force =     0.00035099    0.00009305   -0.00002690
     atom   69 type  4   force =    -0.00018234   -0.00036395   -0.00002834
     atom   70 type  4   force =    -0.00020568   -0.00006292    0.00083975
     atom   71 type  4   force =    -0.00016471   -0.00051370    0.00003817
     atom   72 type  4   force =    -0.00007694   -0.00035648   -0.00001556
     atom   73 type  4   force =     0.01967339    0.00676094   -0.00492075
     atom   74 type  4   force =    -0.00001365    0.00017541   -0.00024683
     atom   75 type  4   force =    -0.00002986    0.00017009   -0.00021247
     atom   76 type  4   force =    -0.00000667    0.00014978   -0.00021758
     atom   77 type  4   force =    -0.00017714   -0.00017708   -0.00040825
     atom   78 type  4   force =    -0.00013733   -0.00006960   -0.00026269
     atom   79 type  4   force =    -0.00016890   -0.00005323   -0.00026496
     atom   80 type  4   force =    -0.00012152   -0.00005214   -0.00024879
     atom   81 type  4   force =     0.00014402   -0.00000601   -0.00032258
     atom   82 type  4   force =     0.00011680   -0.00011184   -0.00025343
     atom   83 type  4   force =     0.00013718   -0.00009660   -0.00023506
     atom   84 type  4   force =     0.00010267   -0.00006957   -0.00033250
     atom   85 type  4   force =     0.00010403    0.00016097    0.00017530
     atom   86 type  4   force =     0.00011478    0.00006552    0.00023730
     atom   87 type  4   force =     0.00012084    0.00006664    0.00021254
     atom   88 type  4   force =     0.00010575    0.00008078    0.00026656
     atom   89 type  4   force =    -0.00168830   -0.00128315    0.00009845
     atom   90 type  4   force =    -0.00180322    0.00121324    0.00000170
     atom   91 type  4   force =     0.00001283   -0.00020466    0.00032524
     atom   92 type  4   force =     0.00007777    0.00048756    0.00029408
     atom   93 type  4   force =    -0.00020734    0.00004869    0.00027568
     atom   94 type  4   force =    -0.00010364    0.00002989    0.00019527
     atom   95 type  4   force =    -0.00015466    0.00001762    0.00024561
     atom   96 type  4   force =    -0.00014478    0.00007136    0.00025008

     Total force =     0.025864     Total SCF correction =     0.000052
     Message from routine punch:
     Nothing written, as per user request (disk_io='none')

     init_run     :     37.28s CPU     39.15s WALL (       1 calls)
     electrons    :   2107.93s CPU   2187.99s WALL (       1 calls)
     forces       :     19.60s CPU     20.01s WALL (       1 calls)

     Called by init_run:
     wfcinit      :     33.84s CPU     35.47s WALL (       1 calls)
     potinit      :      1.09s CPU      1.13s WALL (       1 calls)
     hinit0       :      1.06s CPU      1.09s WALL (       1 calls)

     Called by electrons:
     c_bands      :   1869.52s CPU   1932.05s WALL (      22 calls)
     sum_band     :    210.98s CPU    224.03s WALL (      22 calls)
     v_of_rho     :      3.98s CPU      4.36s WALL (      23 calls)
     newd         :     17.91s CPU     22.00s WALL (      23 calls)
     PAW_pot      :      5.45s CPU      5.48s WALL (      23 calls)
     mix_rho      :      0.70s CPU      0.73s WALL (      22 calls)

     Called by c_bands:
     init_us_2    :     22.79s CPU     23.00s WALL (     322 calls)
     cegterg      :   1792.12s CPU   1854.09s WALL (     154 calls)

     Called by *egterg:
     cdiaghg      :     95.49s CPU     97.50s WALL (     909 calls)
     h_psi        :    975.84s CPU   1023.66s WALL (     916 calls)
     s_psi        :    232.47s CPU    234.10s WALL (     916 calls)
     g_psi        :      3.24s CPU      3.27s WALL (     755 calls)

     Called by h_psi:
     h_psi:calbec :    233.20s CPU    235.65s WALL (     916 calls)
     vloc_psi     :    505.72s CPU    546.62s WALL (     916 calls)
     add_vuspsi   :    232.68s CPU    234.32s WALL (     916 calls)

     General routines
     calbec       :    323.39s CPU    326.77s WALL (    1098 calls)
     fft          :      5.25s CPU      5.64s WALL (     308 calls)
     ffts         :      0.79s CPU      0.81s WALL (      45 calls)
     fftw         :    409.30s CPU    444.97s WALL (  448358 calls)
     interpolate  :      0.93s CPU      0.99s WALL (      23 calls)

     Parallel routines

     PWSCF        :  36m 5.09s CPU  37m27.72s WALL


   This run was terminated on:   4:29:38  21Aug2026            

=------------------------------------------------------------------------------=
   JOB DONE.
=------------------------------------------------------------------------------=
