
     Program PWSCF v.7.3.1 starts on 21Aug2026 at  2:27: 8 

     This program is part of the open-source Quantum ESPRESSO suite
     for quantum simulation of materials; please cite
         "P. Giannozzi et al., J. Phys.:Condens. Matter 21 395502 (2009);
         "P. Giannozzi et al., J. Phys.:Condens. Matter 29 465901 (2017);
         "P. Giannozzi et al., J. Chem. Phys. 152 154105 (2020);
          URL http://www.quantum-espresso.org", 
     in publications or presentations arising from this work. More details at
     http://www.quantum-espresso.org/quote

     Parallel version (MPI & OpenMP), running on      32 processor cores
     Number of MPI processes:                32
     Threads/MPI process:                     1

     MPI processes distributed on     1 nodes
     218928 MiB available memory on the printing compute node when the environment starts

     Reading input from scf.in

     Current dimensions of program PWSCF are:
     Max number of different atomic species (ntypx) = 10
     Max number of k-points (npk) =  40000
     Max angular momentum in pseudopotentials (lmaxx) =  4
     file Cu.paw.z_11.ld1.psl.v1.0.0-low.upf: wavefunction(s)  4S 3D renormalized

     K-points division:     npool     =       2
     R & G space division:  proc/nbgrp/npool/nimage =      16
     Subspace diagonalization in iterative solution of the eigenvalue problem:
     one sub-group per band group will be used
     scalapack distributed-memory algorithm (size of sub-group:  4*  4 procs)


     Parallelization info
     --------------------
     sticks:   dense  smooth     PW     G-vecs:    dense   smooth      PW
     Min        1193     597    157               163743    57882    7779
     Max        1194     599    158               163747    57885    7784
     Sum       19099    9565   2515              2619931   926125  124485

     Using Slab Decomposition



     bravais-lattice index     =            0
     lattice parameter (alat)  =      24.0273  a.u.
     unit-cell volume          =   14752.0463 (a.u.)^3
     number of atoms/cell      =           96
     number of atomic types    =            4
     number of electrons       =       840.00
     number of Kohn-Sham states=          420
     kinetic-energy cutoff     =      60.0000  Ry
     charge density cutoff     =     480.0000  Ry
     scf convergence threshold =      1.0E-09
     mixing beta               =       0.3000
     number of iterations used =            8  plain     mixing
     Exchange-correlation=  SLA  PW   PBX  PBC
                           (   1   4   3   4   0   0   0)

     celldm(1)=  24.027274  celldm(2)=   0.000000  celldm(3)=   0.000000
     celldm(4)=   0.000000  celldm(5)=   0.000000  celldm(6)=   0.000000

     crystal axes: (cart. coord. in units of alat)
               a(1) = (   1.000000   0.000000   0.000000 )  
               a(2) = (  -0.500000   0.866025   0.000000 )  
               a(3) = (   0.000000   0.000000   1.228028 )  

     reciprocal axes: (cart. coord. in units 2 pi/alat)
               b(1) = (  1.000000  0.577351 -0.000000 )  
               b(2) = (  0.000000  1.154701  0.000000 )  
               b(3) = (  0.000000 -0.000000  0.814314 )  


     PseudoPot. # 1 for Sr read from file:
     /home/yuhansun/pseudos/SSSP-1.3.0-PBE-precision/Sr_pbe_v1.uspp.F.UPF
     MD5 check sum: 6b418c05fbe9db5448babca5e47b7a5b
     Pseudo is Ultrasoft + core correction, Zval = 10.0
     Generated by new atomic code, or converted to UPF format
     Using radial grid of  883 points,  6 beta functions with: 
                l(1) =   0
                l(2) =   0
                l(3) =   1
                l(4) =   1
                l(5) =   2
                l(6) =   2
     Q(r) pseudized with  6 coefficients,  rinner =    1.400   1.400   1.400
                                                       1.400   1.400

     PseudoPot. # 2 for Cu read from file:
     /home/yuhansun/pseudos/SSSP-1.3.0-PBE-precision/Cu.paw.z_11.ld1.psl.v1.0.0-low.upf
     MD5 check sum: 619f40885d92a09a85a8b37550532d0c
     Pseudo is Projector augmented-wave + core cor, Zval = 11.0
     Generated using &quot;atomic&quot; code by A. Dal Corso  v.6.3MaX
     Shape of augmentation charge: PSQ
     Using radial grid of 1199 points,  6 beta functions with: 
                l(1) =   0
                l(2) =   0
                l(3) =   1
                l(4) =   1
                l(5) =   2
                l(6) =   2
     Q(r) pseudized with 0 coefficients 


     PseudoPot. # 3 for Sn read from file:
     /home/yuhansun/pseudos/SSSP-1.3.0-PBE-precision/Sn_pbe_v1.uspp.F.UPF
     MD5 check sum: 4cf58ce39ec5d5d420df3dd08604eb00
     Pseudo is Ultrasoft + core correction, Zval = 14.0
     Generated by new atomic code, or converted to UPF format
     Using radial grid of  891 points,  6 beta functions with: 
                l(1) =   0
                l(2) =   0
                l(3) =   1
                l(4) =   1
                l(5) =   2
                l(6) =   2
     Q(r) pseudized with  6 coefficients,  rinner =    1.200   1.200   1.200
                                                       1.200   1.200

     PseudoPot. # 4 for S  read from file:
     /home/yuhansun/pseudos/SSSP-1.3.0-PBE-precision/s_pbe_v1.4.uspp.F.UPF
     MD5 check sum: 88d86576ff6df21479756cfb9bdac1df
     Pseudo is Ultrasoft + core correction, Zval =  6.0
     Generated by new atomic code, or converted to UPF format
     Using radial grid of  907 points,  6 beta functions with: 
                l(1) =   0
                l(2) =   0
                l(3) =   1
                l(4) =   1
                l(5) =   2
                l(6) =   2
     Q(r) pseudized with  8 coefficients,  rinner =    1.300   1.300   1.300
                                                       1.300   1.300

     atomic species   valence    mass     pseudopotential
     Sr               10.00    87.62000     Sr( 1.00)
     Cu               11.00    63.54600     Cu( 1.00)
     Sn               14.00   118.71000     Sn( 1.00)
     S                 6.00    32.06500     S ( 1.00)

     No symmetry found



   Cartesian axes

     site n.     atom                  positions (alat units)
         1        Sr     tau(   1) = (  -0.1405753   0.2434834   0.2046717  )
         2        Sr     tau(   2) = (   0.3594247   0.2434834   0.2046717  )
         3        Sr     tau(   3) = (  -0.3905753   0.6764960   0.2046717  )
         4        Sr     tau(   4) = (   0.1094247   0.6764960   0.2046717  )
         5        Sr     tau(   5) = (   0.1094247   0.1895292   0.6140139  )
         6        Sr     tau(   6) = (   0.6094247   0.1895292   0.6140139  )
         7        Sr     tau(   7) = (  -0.1405753   0.6225418   0.6140139  )
         8        Sr     tau(   8) = (   0.3594247   0.6225418   0.6140139  )
         9        Sr     tau(   9) = (   0.2811505   0.0000000   1.0233574  )
        10        Sr     tau(  10) = (   0.7811505   0.0000000   1.0233574  )
        11        Sr     tau(  11) = (   0.0311505   0.4330126   1.0233574  )
        12        Sr     tau(  12) = (   0.5311505   0.4330126   1.0233574  )
        13        Cu     tau(  13) = (  -0.1264245   0.2774837   0.5061747  )
        14        Cu     tau(  14) = (   0.3773212   0.2753211   0.5061747  )
        15        Cu     tau(  15) = (  -0.3726788   0.7083337   0.5061747  )
        16        Cu     tau(  16) = (   0.1273212   0.7083337   0.5061747  )
        17        Cu     tau(  17) = (   0.0729045   0.1891087   0.9155169  )
        18        Cu     tau(  18) = (   0.5729045   0.1891087   0.9155169  )
        19        Cu     tau(  19) = (  -0.1770956   0.6221213   0.9155169  )
        20        Cu     tau(  20) = (   0.3229044   0.6221213   0.9155169  )
        21        Cu     tau(  21) = (   0.0497750   0.4015949   0.0968325  )
        22        Cu     tau(  22) = (   0.5497750   0.4015949   0.0968325  )
        23        Cu     tau(  23) = (  -0.2002251   0.8346075   0.0968325  )
        24        Cu     tau(  24) = (   0.2997749   0.8346075   0.0968325  )
        25        Cu     tau(  25) = (   0.2997745   0.0314177   0.7218532  )
        26        Cu     tau(  26) = (   0.7997745   0.0314177   0.7218532  )
        27        Cu     tau(  27) = (   0.0497745   0.4644302   0.7218532  )
        28        Cu     tau(  28) = (   0.5497745   0.4644302   0.7218532  )
        29        Cu     tau(  29) = (   0.1273207   0.1576915   0.3125110  )
        30        Cu     tau(  30) = (   0.6273207   0.1576915   0.3125110  )
        31        Cu     tau(  31) = (  -0.1226793   0.5907041   0.3125110  )
        32        Cu     tau(  32) = (   0.3773207   0.5907041   0.3125110  )
        33        Cu     tau(  33) = (   0.3229040   0.2439039   1.1311954  )
        34        Cu     tau(  34) = (   0.8229040   0.2439039   1.1311954  )
        35        Cu     tau(  35) = (   0.0729039   0.6769164   1.1311954  )
        36        Cu     tau(  36) = (   0.5729039   0.6769164   1.1311954  )
        37        Sn     tau(  37) = (  -0.1762580   0.3052877   0.8186857  )
        38        Sn     tau(  38) = (   0.3237420   0.3052877   0.8186857  )
        39        Sn     tau(  39) = (  -0.4262581   0.7383003   0.8186857  )
        40        Sn     tau(  40) = (   0.0737419   0.7383003   0.8186857  )
        41        Sn     tau(  41) = (   0.0737420   0.1277249   0.0000000  )
        42        Sn     tau(  42) = (   0.5737420   0.1277249   0.0000000  )
        43        Sn     tau(  43) = (  -0.1762581   0.5607374   0.0000000  )
        44        Sn     tau(  44) = (   0.3237419   0.5607374   0.0000000  )
        45        Sn     tau(  45) = (   0.3525160   0.0000000   0.4093422  )
        46        Sn     tau(  46) = (   0.8525160   0.0000000   0.4093422  )
        47        Sn     tau(  47) = (   0.1025160   0.4330126   0.4093422  )
        48        Sn     tau(  48) = (   0.6025160   0.4330126   0.4093422  )
        49        S      tau(  49) = (  -0.0988203   0.2103164   0.9671149  )
        50        S      tau(  50) = (   0.4011797   0.2103164   0.9671149  )
        51        S      tau(  51) = (  -0.3488203   0.6433290   0.9671149  )
        52        S      tau(  52) = (   0.1511797   0.6433290   0.9671149  )
        53        S      tau(  53) = (   0.1172707   0.2422736   0.1484293  )
        54        S      tau(  54) = (   0.6172707   0.2422736   0.1484293  )
        55        S      tau(  55) = (  -0.1327293   0.6752862   0.1484293  )
        56        S      tau(  56) = (   0.3672707   0.6752862   0.1484293  )
        57        S      tau(  57) = (  -0.0184505   0.4134352   0.5577727  )
        58        S      tau(  58) = (   0.4815495   0.4134352   0.5577727  )
        59        S      tau(  59) = (  -0.2684506   0.8464478   0.5577727  )
        60        S      tau(  60) = (   0.2315494   0.8464478   0.5577727  )
        61        S      tau(  61) = (   0.2315495   0.0195774   0.2609129  )
        62        S      tau(  62) = (   0.7315495   0.0195774   0.2609129  )
        63        S      tau(  63) = (  -0.0184505   0.4525899   0.2609129  )
        64        S      tau(  64) = (   0.4815495   0.4525899   0.2609129  )
        65        S      tau(  65) = (   0.1511797   0.2226962   1.0795986  )
        66        S      tau(  66) = (   0.6511797   0.2226962   1.0795986  )
        67        S      tau(  67) = (  -0.0988203   0.6557088   1.0795986  )
        68        S      tau(  68) = (   0.4011797   0.6557088   1.0795986  )
        69        S      tau(  69) = (   0.3672707   0.1907390   0.6702552  )
        70        S      tau(  70) = (   0.8672707   0.1907390   0.6702552  )
        71        S      tau(  71) = (   0.1172707   0.6237516   0.6702552  )
        72        S      tau(  72) = (   0.6172707   0.6237516   0.6702552  )
        73        S      tau(  73) = (  -0.0296498   0.1532012   0.4035914  )
        74        S      tau(  74) = (   0.4703502   0.1532012   0.4035914  )
        75        S      tau(  75) = (  -0.2796498   0.5862137   0.4035914  )
        76        S      tau(  76) = (   0.2203502   0.5862137   0.4035914  )
        77        S      tau(  77) = (   0.1321490   0.3307341   0.8129336  )
        78        S      tau(  78) = (   0.6321490   0.3307341   0.8129336  )
        79        S      tau(  79) = (  -0.1178511   0.7637467   0.8129336  )
        80        S      tau(  80) = (   0.3821489   0.7637467   0.8129336  )
        81        S      tau(  81) = (  -0.1024985   0.3820894   1.2222770  )
        82        S      tau(  82) = (   0.3975015   0.3820894   1.2222770  )
        83        S      tau(  83) = (  -0.3524986   0.8151020   1.2222770  )
        84        S      tau(  84) = (   0.1475014   0.8151020   1.2222770  )
        85        S      tau(  85) = (   0.1475010   0.0509231   0.8244365  )
        86        S      tau(  86) = (   0.6475010   0.0509231   0.8244365  )
        87        S      tau(  87) = (  -0.1024990   0.4839357   0.8244365  )
        88        S      tau(  88) = (   0.3975010   0.4839357   0.8244365  )
        89        S      tau(  89) = (   0.2203497   0.2798114   0.4150943  )
        90        S      tau(  90) = (   0.7203497   0.2798114   0.4150943  )
        91        S      tau(  91) = (  -0.0296503   0.7128240   0.4150943  )
        92        S      tau(  92) = (   0.4703497   0.7128240   0.4150943  )
        93        S      tau(  93) = (   0.3821485   0.1022784   0.0057509  )
        94        S      tau(  94) = (   0.8821485   0.1022784   0.0057509  )
        95        S      tau(  95) = (   0.1321485   0.5352910   0.0057509  )
        96        S      tau(  96) = (   0.6321485   0.5352910   0.0057509  )

     number of k points=    14
                       cart. coord. in units 2pi/alat
        k(    1) = (   0.0000000   0.0000000   0.0000000), wk =   0.0740741
        k(    2) = (   0.0000000   0.0000000   0.2714379), wk =   0.1481481
        k(    3) = (   0.0000000   0.3849003   0.0000000), wk =   0.1481481
        k(    4) = (   0.0000000   0.3849003   0.2714379), wk =   0.1481481
        k(    5) = (   0.3333333   0.5773505   0.0000000), wk =   0.1481481
        k(    6) = (   0.3333333   0.5773505   0.2714379), wk =   0.1481481
        k(    7) = (  -0.3333333   0.1924501   0.0000000), wk =   0.1481481
        k(    8) = (   0.3333333   0.1924502   0.0000000), wk =   0.1481481
        k(    9) = (   0.0000000  -0.3849003   0.2714379), wk =   0.1481481
        k(   10) = (  -0.3333333   0.1924501   0.2714379), wk =   0.1481481
        k(   11) = (   0.3333333   0.1924502   0.2714379), wk =   0.1481481
        k(   12) = (  -0.3333333  -0.1924502   0.2714379), wk =   0.1481481
        k(   13) = (   0.3333333  -0.1924501   0.2714379), wk =   0.1481481
        k(   14) = (  -0.3333333  -0.5773505   0.2714379), wk =   0.1481481

     Dense  grid:  2619931 G-vectors     FFT dimensions: ( 180, 180, 216)

     Smooth grid:   926125 G-vectors     FFT dimensions: ( 120, 120, 150)

     Estimated max dynamical RAM per process >       1.07 GB

     Estimated total dynamical RAM >      33.54 GB

     Initial potential from superposition of free atoms

     starting charge     827.5884, renormalised to     840.0000

     negative rho (up, down):  7.777E-01 0.000E+00
     Starting wfcs are  672 randomized atomic wfcs
     Checking if some PAW data can be deallocated... 

     total cpu time spent up to now is       47.5 secs

     Self-consistent Calculation

     iteration #  1     ecut=    60.00 Ry     beta= 0.30
     Davidson diagonalization with overlap
     ethr =  1.00E-02,  avg # of iterations =  2.0

     negative rho (up, down):  7.747E-01 0.000E+00

     total cpu time spent up to now is      138.6 secs

     total energy              =   -9070.28910098 Ry
     estimated scf accuracy    <      21.98276122 Ry

     iteration #  2     ecut=    60.00 Ry     beta= 0.30
     Davidson diagonalization with overlap
     ethr =  2.62E-03,  avg # of iterations =  4.7

     negative rho (up, down):  7.752E-01 0.000E+00

     total cpu time spent up to now is      252.1 secs

     total energy              =   -9076.61677721 Ry
     estimated scf accuracy    <       8.20307501 Ry

     iteration #  3     ecut=    60.00 Ry     beta= 0.30
     Davidson diagonalization with overlap
     ethr =  9.77E-04,  avg # of iterations =  2.0

     negative rho (up, down):  7.804E-01 0.000E+00

     total cpu time spent up to now is      345.0 secs

     total energy              =   -9076.48949020 Ry
     estimated scf accuracy    <       1.62323979 Ry

     iteration #  4     ecut=    60.00 Ry     beta= 0.30
     Davidson diagonalization with overlap
     ethr =  1.93E-04,  avg # of iterations =  6.4

     negative rho (up, down):  7.829E-01 0.000E+00

     total cpu time spent up to now is      478.2 secs

     total energy              =   -9076.69872489 Ry
     estimated scf accuracy    <       2.07997795 Ry

     iteration #  5     ecut=    60.00 Ry     beta= 0.30
     Davidson diagonalization with overlap
     ethr =  1.93E-04,  avg # of iterations =  5.5

     negative rho (up, down):  7.883E-01 0.000E+00

     total cpu time spent up to now is      579.6 secs

     total energy              =   -9077.13732937 Ry
     estimated scf accuracy    <       0.15018806 Ry

     iteration #  6     ecut=    60.00 Ry     beta= 0.30
     Davidson diagonalization with overlap
     ethr =  1.79E-05,  avg # of iterations =  6.1

     negative rho (up, down):  7.902E-01 0.000E+00

     total cpu time spent up to now is      683.0 secs

     total energy              =   -9077.18392562 Ry
     estimated scf accuracy    <       0.01270771 Ry

     iteration #  7     ecut=    60.00 Ry     beta= 0.30
     Davidson diagonalization with overlap
     ethr =  1.51E-06,  avg # of iterations =  4.9

     negative rho (up, down):  7.907E-01 0.000E+00

     total cpu time spent up to now is      800.8 secs

     total energy              =   -9077.18826061 Ry
     estimated scf accuracy    <       0.00542991 Ry

     iteration #  8     ecut=    60.00 Ry     beta= 0.30
     Davidson diagonalization with overlap
     ethr =  6.46E-07,  avg # of iterations =  6.2

     negative rho (up, down):  7.912E-01 0.000E+00

     total cpu time spent up to now is      938.3 secs

     total energy              =   -9077.17928007 Ry
     estimated scf accuracy    <       0.04858986 Ry

     iteration #  9     ecut=    60.00 Ry     beta= 0.30
     Davidson diagonalization with overlap
     ethr =  6.46E-07,  avg # of iterations =  7.4

     negative rho (up, down):  7.911E-01 0.000E+00

     total cpu time spent up to now is     1077.1 secs

     total energy              =   -9077.18747059 Ry
     estimated scf accuracy    <       0.00141561 Ry

     iteration # 10     ecut=    60.00 Ry     beta= 0.30
     Davidson diagonalization with overlap
     ethr =  1.69E-07,  avg # of iterations =  3.1

     negative rho (up, down):  7.907E-01 0.000E+00

     total cpu time spent up to now is     1161.4 secs

     total energy              =   -9077.18732757 Ry
     estimated scf accuracy    <       0.00049619 Ry

     iteration # 11     ecut=    60.00 Ry     beta= 0.30
     Davidson diagonalization with overlap
     ethr =  5.91E-08,  avg # of iterations =  5.5

     negative rho (up, down):  7.905E-01 0.000E+00

     total cpu time spent up to now is     1273.0 secs

     total energy              =   -9077.18749857 Ry
     estimated scf accuracy    <       0.00019080 Ry

     iteration # 12     ecut=    60.00 Ry     beta= 0.30
     Davidson diagonalization with overlap
     ethr =  2.27E-08,  avg # of iterations =  3.6

     negative rho (up, down):  7.904E-01 0.000E+00

     total cpu time spent up to now is     1367.8 secs

     total energy              =   -9077.18751693 Ry
     estimated scf accuracy    <       0.00004837 Ry

     iteration # 13     ecut=    60.00 Ry     beta= 0.30
     Davidson diagonalization with overlap
     ethr =  5.76E-09,  avg # of iterations =  5.3

     negative rho (up, down):  7.903E-01 0.000E+00

     total cpu time spent up to now is     1468.5 secs

     total energy              =   -9077.18752735 Ry
     estimated scf accuracy    <       0.00000709 Ry

     iteration # 14     ecut=    60.00 Ry     beta= 0.30
     Davidson diagonalization with overlap
     ethr =  8.44E-10,  avg # of iterations =  4.1

     negative rho (up, down):  7.903E-01 0.000E+00

     total cpu time spent up to now is     1566.5 secs

     total energy              =   -9077.18752877 Ry
     estimated scf accuracy    <       0.00000146 Ry

     iteration # 15     ecut=    60.00 Ry     beta= 0.30
     Davidson diagonalization with overlap
     ethr =  1.74E-10,  avg # of iterations =  4.6

     negative rho (up, down):  7.902E-01 0.000E+00

     total cpu time spent up to now is     1667.8 secs

     total energy              =   -9077.18752933 Ry
     estimated scf accuracy    <       0.00000024 Ry

     iteration # 16     ecut=    60.00 Ry     beta= 0.30
     Davidson diagonalization with overlap
     ethr =  2.83E-11,  avg # of iterations =  5.9

     negative rho (up, down):  7.902E-01 0.000E+00

     total cpu time spent up to now is     1789.5 secs

     total energy              =   -9077.18752949 Ry
     estimated scf accuracy    <       0.00000005 Ry

     iteration # 17     ecut=    60.00 Ry     beta= 0.30
     Davidson diagonalization with overlap
     ethr =  6.44E-12,  avg # of iterations =  4.8

     negative rho (up, down):  7.902E-01 0.000E+00

     total cpu time spent up to now is     1901.7 secs

     total energy              =   -9077.18752952 Ry
     estimated scf accuracy    <       0.00000002 Ry

     iteration # 18     ecut=    60.00 Ry     beta= 0.30
     Davidson diagonalization with overlap
     ethr =  2.07E-12,  avg # of iterations =  6.4

     negative rho (up, down):  7.902E-01 0.000E+00

     total cpu time spent up to now is     2020.2 secs

     total energy              =   -9077.18752954 Ry
     estimated scf accuracy    <       0.00000002 Ry

     iteration # 19     ecut=    60.00 Ry     beta= 0.30
     Davidson diagonalization with overlap
     ethr =  2.07E-12,  avg # of iterations =  2.6

     negative rho (up, down):  7.902E-01 0.000E+00

     total cpu time spent up to now is     2108.4 secs

     total energy              =   -9077.18752954 Ry
     estimated scf accuracy    <          3.2E-09 Ry

     iteration # 20     ecut=    60.00 Ry     beta= 0.30
     Davidson diagonalization with overlap
     ethr =  3.75E-13,  avg # of iterations =  7.2

     negative rho (up, down):  7.902E-01 0.000E+00

     total cpu time spent up to now is     2245.9 secs

     total energy              =   -9077.18752955 Ry
     estimated scf accuracy    <          9.0E-09 Ry

     iteration # 21     ecut=    60.00 Ry     beta= 0.30
     Davidson diagonalization with overlap
     ethr =  3.75E-13,  avg # of iterations =  6.0

     negative rho (up, down):  7.902E-01 0.000E+00

     total cpu time spent up to now is     2343.5 secs

     End of self-consistent calculation

          k = 0.0000 0.0000 0.0000 (115723 PWs)   bands (ev):

   -28.2766 -28.2759 -28.2757 -28.2756 -28.2755 -28.2755 -28.2755 -28.2754
   -28.2754 -28.2753 -28.2745 -28.2740 -14.9248 -14.9237 -14.9236 -14.9232
   -14.9231 -14.9229 -14.9228 -14.9226 -14.9225 -14.9223 -14.9220 -14.9200
   -14.9187 -14.9179 -14.9174 -14.9172 -14.9170 -14.9170 -14.9169 -14.9167
   -14.9167 -14.9164 -14.9162 -14.9142 -14.9067 -14.9058 -14.9055 -14.9052
   -14.9050 -14.9049 -14.9048 -14.9047 -14.9046 -14.9044 -14.9041 -14.9021
   -14.8666 -14.8656 -14.8654 -14.8651 -14.8648 -14.8647 -14.8646 -14.8645
   -14.8644 -14.8642 -14.8640 -14.8619 -14.8212 -14.8205 -14.8200 -14.8198
   -14.8195 -14.8195 -14.8195 -14.8193 -14.8193 -14.8191 -14.8188 -14.8168
   -10.3386 -10.3383 -10.3381 -10.3367 -10.3366 -10.3362 -10.3355 -10.3354
   -10.3352 -10.3308 -10.3306 -10.3242 -10.3093 -10.3089 -10.3086 -10.3043
   -10.3041 -10.3015 -10.3012 -10.3010 -10.2925 -10.2924 -10.2921 -10.2821
   -10.2708 -10.2705 -10.2702 -10.2650 -10.2648 -10.2647 -10.2626 -10.2626
   -10.2622 -10.2583 -10.2581 -10.2543  -6.8629  -6.5551  -6.5547  -6.4186
    -6.4165  -6.4141  -6.3023  -6.2990  -6.2962  -6.2189  -6.2179  -6.2165
    -5.9924  -5.9896  -5.9876  -5.8536  -5.8493  -5.8459  -5.7992  -5.7956
    -5.7926  -5.7372  -5.7358  -5.6218  -5.6182  -5.6176  -5.6165  -5.6133
    -5.6091  -5.6000  -5.5594  -5.5583  -5.5579  -5.5480  -5.5449  -5.5388
    -5.5173  -5.5149  -5.4330  -5.4290  -5.4277  -5.4263  -5.3730  -5.3715
    -5.3455  -5.3447  -5.3438  -5.2503  -0.6135  -0.6114  -0.6102  -0.3909
    -0.3883  -0.3866  -0.3508  -0.3172  -0.3151  -0.3133  -0.3012  -0.3006
     1.3831   1.3855   1.3864   1.5900   1.5926   1.6547   1.7136   1.7173
     1.7192   1.8032   1.8069   1.8091   2.0207   2.0404   2.0439   2.0812
     2.0861   2.0900   2.2469   2.2487   2.2499   2.3089   2.3113   2.4036
     2.4047   2.4055   2.4596   2.4617   2.4642   2.5487   2.5513   2.6558
     2.6634   2.6689   2.7831   2.7840   2.7876   2.8716   2.8720   2.9249
     2.9251   2.9270   2.9521   2.9542   2.9560   3.0260   3.0281   3.0307
     3.0425   3.0462   3.0471   3.1639   3.2117   3.2152   3.2170   3.2271
     3.2287   3.2543   3.2581   3.2629   3.3751   3.3780   3.3798   3.3939
     3.3947   3.4272   3.4281   3.4288   3.4340   3.4360   3.4420   3.4759
     3.4764   3.4775   3.4932   3.4951   3.4956   3.4978   3.5173   3.5195
     3.5829   3.5861   3.5879   3.6253   3.6273   3.6325   3.6879   3.6901
     3.6915   3.6917   3.6953   3.7089   3.7957   3.7959   3.8241   3.8268
     3.8281   3.9649   4.0201   4.0213   4.0231   4.0359   4.0374   4.0389
     4.1214   4.1253   4.1266   4.1307   4.1711   4.1739   4.1758   4.2002
     4.2071   4.2106   4.2130   4.2440   4.2449   4.2459   4.2816   4.2836
     4.4217   4.4248   4.4283   4.5174   4.5202   4.5212   4.5359   4.5381
     4.6202   4.6208   4.6247   4.8582   5.1243   5.1546   5.1562   5.1573
     5.1740   5.1745   5.1760   5.1784   5.1787   5.2230   5.2277   5.2278
     5.2292   5.2295   5.2315   5.2517   5.2526   5.2543   5.2654   5.2673
     5.2680   5.2784   5.2785   5.2801   5.3114   5.3116   5.3121   5.3136
     5.3151   5.3250   5.3372   5.3379   5.3396   5.3744   5.3760   5.3776
     5.4391   5.4398   5.4696   5.4712   5.4721   5.4752   5.4765   5.4782
     5.4795   5.4987   5.4999   5.6005   5.6015   5.6021   5.6183   5.6186
     5.6199   5.6273   5.6467   5.6478   5.6492   5.6586   5.6598   5.6601
     5.7246   5.7258   5.7436   5.7807   5.7830   5.7861   5.8184   5.8213
     5.8235   5.9015   5.9030   5.9040   5.9266   5.9275   5.9284   5.9964
     5.9968   6.0268   6.0272   6.0287   6.1491   6.1503   6.1504   6.1532
     6.2610   6.2620   6.2625   6.2632   6.2643   6.2652   6.2898   6.2909
     6.3339   6.3352   6.3360   6.3636   6.3645   6.3656   6.3889   6.3896
     6.3932   6.5520   6.5709   6.5717   6.5718   6.6377   6.6384   6.6410
     6.7468   6.7473   6.7492   6.7648   6.7656   6.7801   6.7814   6.7827
     6.8082   6.9639   7.1802   7.1806

          k = 0.0000 0.0000 0.2714 (115879 PWs)   bands (ev):

   -28.2766 -28.2759 -28.2757 -28.2756 -28.2755 -28.2755 -28.2755 -28.2754
   -28.2754 -28.2753 -28.2745 -28.2740 -14.9248 -14.9237 -14.9236 -14.9232
   -14.9231 -14.9229 -14.9228 -14.9226 -14.9225 -14.9223 -14.9220 -14.9200
   -14.9187 -14.9179 -14.9174 -14.9172 -14.9170 -14.9170 -14.9169 -14.9167
   -14.9167 -14.9164 -14.9162 -14.9142 -14.9067 -14.9058 -14.9055 -14.9052
   -14.9050 -14.9049 -14.9048 -14.9047 -14.9046 -14.9044 -14.9041 -14.9021
   -14.8666 -14.8656 -14.8654 -14.8651 -14.8648 -14.8647 -14.8646 -14.8645
   -14.8644 -14.8642 -14.8640 -14.8619 -14.8212 -14.8205 -14.8200 -14.8198
   -14.8195 -14.8195 -14.8195 -14.8193 -14.8193 -14.8191 -14.8188 -14.8168
   -10.3395 -10.3393 -10.3391 -10.3373 -10.3371 -10.3369 -10.3341 -10.3339
   -10.3337 -10.3322 -10.3279 -10.3253 -10.3121 -10.3077 -10.3075 -10.3072
   -10.3020 -10.3017 -10.3016 -10.2938 -10.2936 -10.2934 -10.2927 -10.2846
   -10.2702 -10.2699 -10.2696 -10.2657 -10.2656 -10.2653 -10.2621 -10.2621
   -10.2618 -10.2580 -10.2577 -10.2558  -6.8237  -6.7132  -6.4113  -6.4086
    -6.4081  -6.4048  -6.3068  -6.3036  -6.3007  -6.2308  -6.2301  -6.2293
    -5.9954  -5.9915  -5.9883  -5.8530  -5.8394  -5.8346  -5.8306  -5.7756
    -5.7730  -5.7700  -5.6563  -5.6557  -5.6544  -5.6519  -5.6185  -5.6124
    -5.6118  -5.6069  -5.5578  -5.5543  -5.5515  -5.5497  -5.5466  -5.5446
    -5.5379  -5.4537  -5.4360  -5.4344  -5.4335  -5.4308  -5.3747  -5.3455
    -5.3376  -5.3366  -5.3359  -5.2808  -0.6055  -0.6036  -0.6024  -0.4142
    -0.4119  -0.4101  -0.3482  -0.3326  -0.3022  -0.3008  -0.2983  -0.2741
     1.4077   1.4096   1.4108   1.5693   1.6115   1.6174   1.6190   1.6214
     1.6570   1.9320   1.9361   1.9389   2.0053   2.0474   2.0495   2.0542
     2.0578   2.0701   2.2757   2.2774   2.2783   2.3054   2.3886   2.3901
     2.3911   2.3923   2.4152   2.4167   2.4185   2.4563   2.6151   2.6229
     2.6273   2.6685   2.7186   2.7913   2.7975   2.7986   2.8022   2.8716
     2.8727   2.8754   2.9740   2.9758   2.9775   3.0427   3.0467   3.0496
     3.1034   3.1074   3.1089   3.1752   3.1982   3.2037   3.2054   3.2074
     3.2712   3.2742   3.2770   3.2860   3.3759   3.3824   3.3843   3.3860
     3.4190   3.4203   3.4219   3.4377   3.4401   3.4447   3.4488   3.4499
     3.4534   3.4786   3.5000   3.5186   3.5193   3.5201   3.5389   3.5438
     3.5500   3.5511   3.5537   3.6387   3.6430   3.6451   3.6477   3.6546
     3.6796   3.6808   3.6873   3.7731   3.8306   3.8752   3.8772   3.8787
     3.9087   3.9232   3.9940   3.9952   3.9984   4.0555   4.0570   4.0577
     4.0756   4.1145   4.1184   4.1225   4.1467   4.1494   4.1509   4.1660
     4.1712   4.1735   4.1746   4.2121   4.2487   4.2513   4.2541   4.2691
     4.4182   4.4224   4.4257   4.4846   4.5593   4.5607   4.5625   4.6054
     4.6061   4.6095   4.6777   4.8082   5.1356   5.1474   5.1541   5.1552
     5.1555   5.1640   5.1865   5.1878   5.1890   5.2162   5.2169   5.2177
     5.2191   5.2475   5.2489   5.2500   5.2587   5.2598   5.2603   5.2629
     5.2767   5.2772   5.2777   5.2791   5.3291   5.3301   5.3313   5.3323
     5.3343   5.3363   5.3411   5.3428   5.3441   5.3668   5.3734   5.3748
     5.3756   5.3903   5.4031   5.4206   5.4208   5.4226   5.5261   5.5324
     5.5334   5.5343   5.5822   5.5869   5.5894   5.5899   5.5903   5.6196
     5.6205   5.6220   5.6510   5.6517   5.6526   5.6610   5.6803   5.6825
     5.6836   5.7531   5.7551   5.7582   5.7904   5.7983   5.8147   5.8179
     5.8199   5.8714   5.8816   5.8836   5.8842   5.9878   5.9883   5.9897
     6.0422   6.0442   6.0452   6.0969   6.0985   6.0995   6.1750   6.1920
     6.1926   6.1947   6.2362   6.2681   6.2688   6.2701   6.3252   6.3261
     6.3272   6.3591   6.3600   6.3707   6.3721   6.3732   6.3949   6.4288
     6.4295   6.4324   6.4803   6.6410   6.6415   6.6418   6.6430   6.6437
     6.6466   6.6702   6.7084   6.7092   6.7103   6.7522   6.7530   6.7546
     6.9409   7.0050   7.0941   7.1702

          k = 0.0000 0.3849 0.0000 (115797 PWs)   bands (ev):

   -28.2766 -28.2759 -28.2757 -28.2756 -28.2755 -28.2755 -28.2755 -28.2754
   -28.2754 -28.2753 -28.2745 -28.2740 -14.9247 -14.9237 -14.9235 -14.9232
   -14.9231 -14.9229 -14.9227 -14.9226 -14.9225 -14.9223 -14.9221 -14.9200
   -14.9188 -14.9179 -14.9174 -14.9173 -14.9170 -14.9170 -14.9168 -14.9168
   -14.9167 -14.9165 -14.9162 -14.9142 -14.9067 -14.9058 -14.9055 -14.9052
   -14.9050 -14.9049 -14.9048 -14.9047 -14.9046 -14.9044 -14.9042 -14.9021
   -14.8666 -14.8656 -14.8654 -14.8651 -14.8648 -14.8647 -14.8646 -14.8645
   -14.8644 -14.8642 -14.8640 -14.8619 -14.8212 -14.8205 -14.8200 -14.8198
   -14.8195 -14.8195 -14.8195 -14.8193 -14.8193 -14.8191 -14.8188 -14.8168
   -10.3383 -10.3378 -10.3369 -10.3362 -10.3359 -10.3355 -10.3345 -10.3342
   -10.3326 -10.3324 -10.3316 -10.3265 -10.3074 -10.3070 -10.3062 -10.3042
   -10.3031 -10.3019 -10.3015 -10.3013 -10.2946 -10.2945 -10.2904 -10.2851
   -10.2699 -10.2692 -10.2691 -10.2667 -10.2664 -10.2637 -10.2627 -10.2627
   -10.2624 -10.2605 -10.2595 -10.2562  -6.7877  -6.5897  -6.4992  -6.4982
    -6.4397  -6.4353  -6.3654  -6.3488  -6.2858  -6.2832  -6.2494  -6.2462
    -5.9114  -5.9104  -5.8236  -5.8185  -5.8157  -5.7785  -5.7717  -5.7630
    -5.7314  -5.7239  -5.7221  -5.6939  -5.6862  -5.6475  -5.6398  -5.6353
    -5.6282  -5.5947  -5.5848  -5.5827  -5.5680  -5.5277  -5.5209  -5.5174
    -5.5142  -5.5030  -5.4623  -5.4508  -5.4361  -5.4358  -5.4207  -5.4144
    -5.3476  -5.3469  -5.3127  -5.2697  -0.5710  -0.5707  -0.5629  -0.4359
    -0.4043  -0.4028  -0.3770  -0.3412  -0.3373  -0.3334  -0.3122  -0.3029
     1.4187   1.4853   1.4894   1.5013   1.6402   1.6521   1.6864   1.7220
     1.7267   1.8291   1.8757   1.8796   1.9529   1.9558   1.9577   2.0275
     2.1162   2.2071   2.2289   2.2314   2.3392   2.3641   2.3823   2.3892
     2.3948   2.4090   2.4503   2.5377   2.5390   2.6088   2.6162   2.6196
     2.6582   2.7355   2.8111   2.8153   2.8219   2.8399   2.8424   2.8462
     2.8542   2.8853   2.9078   2.9092   2.9170   2.9614   2.9633   3.0044
     3.0515   3.0556   3.0590   3.1246   3.1479   3.1763   3.2042   3.2115
     3.2131   3.2329   3.2589   3.2653   3.2696   3.3243   3.3286   3.3343
     3.3413   3.3731   3.3952   3.3958   3.4342   3.4410   3.4423   3.4506
     3.4963   3.5002   3.5012   3.5101   3.5125   3.5141   3.5238   3.5431
     3.5619   3.6050   3.6061   3.6123   3.6348   3.6501   3.6792   3.6836
     3.6950   3.7022   3.7050   3.7116   3.7783   3.7828   3.8501   3.8604
     3.8966   3.9741   3.9752   3.9782   3.9818   4.0306   4.0369   4.0419
     4.0934   4.1122   4.1189   4.1241   4.1264   4.1621   4.1643   4.1777
     4.2485   4.2633   4.2699   4.2851   4.3036   4.3228   4.3255   4.3691
     4.3795   4.4137   4.4204   4.4850   4.5178   4.5287   4.5294   4.5313
     4.5911   4.5925   4.6281   4.7501   5.1437   5.1445   5.1472   5.1537
     5.1607   5.1626   5.1698   5.1748   5.2156   5.2195   5.2207   5.2227
     5.2291   5.2372   5.2489   5.2500   5.2506   5.2617   5.2682   5.2717
     5.2735   5.2891   5.3047   5.3060   5.3139   5.3193   5.3279   5.3287
     5.3373   5.3495   5.3525   5.3546   5.3577   5.3665   5.4140   5.4148
     5.4346   5.4507   5.4616   5.4627   5.4864   5.4931   5.4998   5.5002
     5.5034   5.5123   5.5285   5.5437   5.5570   5.5576   5.5611   5.6033
     5.6045   5.6304   5.6315   5.6326   5.6687   5.6781   5.6955   5.6963
     5.6987   5.7171   5.7293   5.7562   5.7744   5.7764   5.8079   5.8163
     5.8208   5.8633   5.8741   5.8792   5.9502   5.9519   5.9650   5.9665
     5.9902   6.0061   6.0073   6.0206   6.1384   6.1402   6.1437   6.1602
     6.2267   6.2296   6.2307   6.2517   6.2708   6.2892   6.2899   6.2998
     6.3610   6.3631   6.3778   6.3903   6.3907   6.4410   6.4859   6.4883
     6.5235   6.5376   6.5390   6.5754   6.6048   6.6513   6.6851   6.6927
     6.6931   6.7297   6.7375   6.7386   6.7629   6.7775   6.7930   6.8121
     6.8137   6.9044   6.9085   7.0806

          k = 0.0000 0.3849 0.2714 (115773 PWs)   bands (ev):

   -28.2766 -28.2759 -28.2757 -28.2756 -28.2755 -28.2755 -28.2755 -28.2754
   -28.2754 -28.2753 -28.2745 -28.2740 -14.9247 -14.9237 -14.9235 -14.9232
   -14.9231 -14.9229 -14.9227 -14.9226 -14.9225 -14.9223 -14.9221 -14.9200
   -14.9188 -14.9179 -14.9174 -14.9173 -14.9170 -14.9170 -14.9168 -14.9168
   -14.9167 -14.9165 -14.9162 -14.9142 -14.9067 -14.9058 -14.9055 -14.9052
   -14.9050 -14.9049 -14.9048 -14.9047 -14.9046 -14.9044 -14.9042 -14.9021
   -14.8666 -14.8656 -14.8654 -14.8651 -14.8648 -14.8647 -14.8646 -14.8645
   -14.8644 -14.8642 -14.8640 -14.8619 -14.8212 -14.8205 -14.8200 -14.8198
   -14.8195 -14.8195 -14.8195 -14.8193 -14.8193 -14.8191 -14.8188 -14.8168
   -10.3390 -10.3386 -10.3379 -10.3372 -10.3366 -10.3343 -10.3340 -10.3332
   -10.3328 -10.3319 -10.3298 -10.3273 -10.3104 -10.3068 -10.3065 -10.3058
   -10.3014 -10.3007 -10.3003 -10.2964 -10.2964 -10.2939 -10.2909 -10.2875
   -10.2699 -10.2694 -10.2682 -10.2669 -10.2663 -10.2640 -10.2626 -10.2623
   -10.2620 -10.2605 -10.2591 -10.2578  -6.7506  -6.6465  -6.5604  -6.4720
    -6.4242  -6.4193  -6.3640  -6.3293  -6.3272  -6.2589  -6.2258  -6.2223
    -5.9063  -5.9037  -5.8245  -5.8209  -5.8091  -5.8063  -5.7919  -5.7643
    -5.7557  -5.7315  -5.7121  -5.7079  -5.6715  -5.6366  -5.6312  -5.6281
    -5.6228  -5.6075  -5.6002  -5.5980  -5.5685  -5.5286  -5.5236  -5.5206
    -5.5187  -5.4948  -5.4677  -5.4327  -5.4284  -5.4275  -5.4215  -5.3627
    -5.3470  -5.3463  -5.3215  -5.2992  -0.5608  -0.5587  -0.5577  -0.4370
    -0.4345  -0.4252  -0.3935  -0.3731  -0.3206  -0.3160  -0.2988  -0.2788
     1.4336   1.4830   1.4869   1.4881   1.6253   1.6415   1.7683   1.7762
     1.7823   1.7921   1.8000   1.8011   1.9150   1.9954   1.9968   2.0765
     2.1556   2.2005   2.2111   2.2462   2.2500   2.3601   2.3914   2.3962
     2.3987   2.4488   2.5112   2.5139   2.5474   2.5855   2.5954   2.6095
     2.6439   2.7115   2.7602   2.7673   2.7716   2.7896   2.8092   2.8096
     2.8397   2.8754   2.9147   2.9177   2.9189   2.9812   3.0229   3.0258
     3.0691   3.1063   3.1079   3.1320   3.1710   3.1924   3.1932   3.1946
     3.2025   3.2324   3.2623   3.2674   3.2778   3.3174   3.3210   3.3238
     3.3264   3.3892   3.3905   3.4111   3.4459   3.4465   3.4668   3.4701
     3.4721   3.4750   3.4764   3.4800   3.5337   3.5366   3.5376   3.5920
     3.6103   3.6125   3.6175   3.6329   3.6430   3.6507   3.6589   3.6623
     3.6710   3.7102   3.7111   3.7142   3.8347   3.8388   3.8806   3.8904
     3.9043   3.9496   3.9509   3.9751   3.9827   4.0207   4.0451   4.0493
     4.0533   4.0658   4.1099   4.1124   4.1198   4.1320   4.1360   4.1483
     4.1927   4.2565   4.2650   4.2696   4.2857   4.2910   4.2973   4.3878
     4.3987   4.4359   4.4410   4.4691   4.5257   4.5271   4.5360   4.5966
     4.6111   4.6125   4.6236   4.7226   5.1511   5.1512   5.1549   5.1562
     5.1714   5.1761   5.1778   5.1842   5.1904   5.1986   5.2015   5.2084
     5.2088   5.2344   5.2357   5.2368   5.2555   5.2639   5.2661   5.2674
     5.2792   5.2975   5.3079   5.3134   5.3149   5.3294   5.3360   5.3391
     5.3585   5.3589   5.3611   5.3633   5.3806   5.3931   5.4073   5.4079
     5.4136   5.4316   5.4336   5.4451   5.4459   5.4934   5.5027   5.5028
     5.5104   5.5160   5.5537   5.5599   5.5748   5.5754   5.6023   5.6111
     5.6124   5.6184   5.6247   5.6264   5.6431   5.6708   5.6824   5.7139
     5.7160   5.7167   5.7344   5.7718   5.7725   5.7735   5.7996   5.8032
     5.8098   5.8585   5.8726   5.8777   5.8792   5.9148   5.9588   5.9604
     6.0337   6.0347   6.0358   6.0595   6.0783   6.0805   6.1729   6.2064
     6.2133   6.2140   6.2659   6.2672   6.2708   6.2783   6.2858   6.3478
     6.3497   6.3655   6.3722   6.4154   6.4245   6.4258   6.4271   6.4709
     6.4980   6.4995   6.5454   6.5597   6.5950   6.5974   6.6669   6.6671
     6.6778   6.7192   6.7367   6.7368   6.7488   6.8132   6.8155   6.8437
     6.8689   6.9284   6.9375   7.0519

          k = 0.3333 0.5774 0.0000 (115752 PWs)   bands (ev):

   -28.2766 -28.2759 -28.2757 -28.2756 -28.2755 -28.2755 -28.2755 -28.2754
   -28.2754 -28.2753 -28.2745 -28.2740 -14.9247 -14.9237 -14.9235 -14.9232
   -14.9230 -14.9228 -14.9228 -14.9226 -14.9225 -14.9223 -14.9221 -14.9200
   -14.9188 -14.9179 -14.9174 -14.9173 -14.9170 -14.9170 -14.9169 -14.9168
   -14.9167 -14.9165 -14.9162 -14.9142 -14.9067 -14.9058 -14.9055 -14.9052
   -14.9050 -14.9049 -14.9048 -14.9047 -14.9046 -14.9044 -14.9042 -14.9021
   -14.8666 -14.8656 -14.8654 -14.8651 -14.8648 -14.8647 -14.8646 -14.8645
   -14.8644 -14.8642 -14.8640 -14.8619 -14.8212 -14.8205 -14.8200 -14.8198
   -14.8195 -14.8195 -14.8195 -14.8193 -14.8193 -14.8191 -14.8188 -14.8168
   -10.3388 -10.3362 -10.3357 -10.3353 -10.3351 -10.3351 -10.3350 -10.3345
   -10.3343 -10.3305 -10.3302 -10.3299 -10.3072 -10.3052 -10.3047 -10.3045
   -10.3022 -10.3021 -10.3018 -10.3001 -10.2997 -10.2902 -10.2898 -10.2895
   -10.2697 -10.2675 -10.2672 -10.2670 -10.2660 -10.2656 -10.2644 -10.2641
   -10.2636 -10.2591 -10.2586 -10.2585  -6.6526  -6.6499  -6.6475  -6.4044
    -6.3988  -6.3985  -6.3983  -6.3977  -6.3932  -6.2928  -6.2909  -6.1926
    -5.8655  -5.8539  -5.8485  -5.7519  -5.7483  -5.7463  -5.7332  -5.7313
    -5.7306  -5.7098  -5.7064  -5.6967  -5.6940  -5.6913  -5.6850  -5.6839
    -5.6818  -5.6443  -5.5447  -5.5409  -5.5394  -5.5301  -5.5289  -5.5254
    -5.5107  -5.4747  -5.4712  -5.4694  -5.4668  -5.4652  -5.4621  -5.3966
    -5.3955  -5.3025  -5.3009  -5.2994  -0.5443  -0.5165  -0.5142  -0.5122
    -0.3974  -0.3956  -0.3920  -0.3898  -0.3875  -0.3101  -0.3096  -0.3082
     1.4821   1.4845   1.4856   1.6728   1.6759   1.6777   1.6840   1.6868
     1.6887   1.7332   1.7358   1.8008   2.0751   2.0817   2.0825   2.0837
     2.0869   2.1429   2.1450   2.1469   2.2549   2.3961   2.3976   2.3998
     2.4938   2.4954   2.4962   2.5625   2.5637   2.5657   2.5976   2.5986
     2.7706   2.7747   2.7777   2.8349   2.8382   2.8426   2.8444   2.8462
     2.8498   2.8503   2.8531   2.8621   2.8679   3.0068   3.0108   3.0138
     3.0254   3.0259   3.0282   3.0622   3.1328   3.1347   3.1377   3.1944
     3.1981   3.2000   3.2557   3.2600   3.2635   3.2705   3.2738   3.3618
     3.3696   3.3719   3.3723   3.3754   3.4254   3.4261   3.4286   3.4870
     3.4885   3.5012   3.5031   3.5055   3.5294   3.5299   3.5323   3.5470
     3.5490   3.5777   3.5802   3.5848   3.6488   3.6509   3.6563   3.7200
     3.7214   3.7237   3.7280   3.7350   3.7575   3.8007   3.8024   3.8030
     3.9589   3.9595   3.9613   3.9871   3.9883   4.0280   4.0304   4.0329
     4.0832   4.0852   4.0888   4.1404   4.1494   4.1518   4.1547   4.2851
     4.2865   4.2936   4.3148   4.3197   4.3206   4.3209   4.3216   4.3285
     4.3861   4.3871   4.3905   4.4973   4.5136   4.5156   4.5204   4.5214
     4.5255   4.6539   4.6560   4.6577   5.1385   5.1441   5.1447   5.1455
     5.1737   5.1746   5.1874   5.1884   5.1898   5.1967   5.1975   5.1991
     5.2468   5.2480   5.2487   5.2654   5.2666   5.2675   5.2983   5.2993
     5.3002   5.3013   5.3030   5.3040   5.3145   5.3189   5.3197   5.3209
     5.3401   5.3409   5.3429   5.4011   5.4035   5.4043   5.4088   5.4091
     5.4548   5.4558   5.4570   5.4590   5.4828   5.4840   5.4851   5.4883
     5.4895   5.5352   5.5358   5.5362   5.5637   5.5644   5.5663   5.5699
     5.5712   5.5726   5.6416   5.6716   5.6731   5.6938   5.6948   5.6954
     5.7066   5.7074   5.7086   5.7796   5.7806   5.7820   5.7980   5.7995
     5.8004   5.8237   5.8256   5.8438   5.9305   5.9317   5.9325   6.0450
     6.0470   6.0474   6.0481   6.0500   6.1373   6.1390   6.1405   6.1587
     6.2181   6.2199   6.2216   6.2589   6.2602   6.2606   6.2835   6.2845
     6.3745   6.4110   6.4112   6.4125   6.4164   6.4176   6.4239   6.4515
     6.4519   6.4529   6.6148   6.6157   6.6163   6.6749   6.6770   6.6774
     6.7261   6.7405   6.7429   6.8052   6.8062   6.8071   6.8099   6.8109
     6.8128   6.9380   6.9393   6.9402

          k = 0.3333 0.5774 0.2714 (115827 PWs)   bands (ev):

   -28.2766 -28.2759 -28.2757 -28.2756 -28.2755 -28.2755 -28.2755 -28.2754
   -28.2754 -28.2753 -28.2745 -28.2740 -14.9247 -14.9237 -14.9235 -14.9232
   -14.9230 -14.9228 -14.9228 -14.9226 -14.9225 -14.9223 -14.9221 -14.9200
   -14.9188 -14.9179 -14.9174 -14.9173 -14.9170 -14.9170 -14.9169 -14.9168
   -14.9167 -14.9165 -14.9162 -14.9142 -14.9067 -14.9058 -14.9055 -14.9052
   -14.9050 -14.9049 -14.9048 -14.9047 -14.9046 -14.9044 -14.9042 -14.9021
   -14.8666 -14.8656 -14.8654 -14.8651 -14.8648 -14.8647 -14.8646 -14.8645
   -14.8644 -14.8642 -14.8640 -14.8619 -14.8212 -14.8205 -14.8200 -14.8198
   -14.8195 -14.8195 -14.8195 -14.8193 -14.8193 -14.8191 -14.8188 -14.8168
   -10.3389 -10.3381 -10.3371 -10.3368 -10.3364 -10.3337 -10.3333 -10.3329
   -10.3328 -10.3307 -10.3302 -10.3300 -10.3080 -10.3076 -10.3074 -10.3049
   -10.3011 -10.3009 -10.2976 -10.2973 -10.2970 -10.2920 -10.2915 -10.2913
   -10.2697 -10.2688 -10.2668 -10.2665 -10.2662 -10.2644 -10.2640 -10.2635
   -10.2629 -10.2599 -10.2594 -10.2593  -6.6206  -6.6178  -6.6153  -6.5271
    -6.5243  -6.5218  -6.3079  -6.2926  -6.2888  -6.2857  -6.2573  -6.2138
    -5.8758  -5.8597  -5.8428  -5.7801  -5.7790  -5.7771  -5.7451  -5.7417
    -5.7394  -5.7154  -5.6912  -5.6876  -5.6863  -5.6750  -5.6717  -5.6706
    -5.6681  -5.6412  -5.5595  -5.5561  -5.5525  -5.5269  -5.5244  -5.5221
    -5.5070  -5.5040  -5.5027  -5.4961  -5.4583  -5.3985  -5.3964  -5.3956
    -5.3570  -5.3238  -5.3220  -5.3200  -0.5206  -0.5076  -0.5051  -0.5033
    -0.4607  -0.4193  -0.4164  -0.4147  -0.3548  -0.2937  -0.2926  -0.2906
     1.4800   1.4829   1.4835   1.6366   1.6391   1.6398   1.6899   1.7755
     1.7759   1.7769   1.7808   1.7943   1.9767   1.9819   1.9833   2.0555
     2.1671   2.1921   2.1943   2.1952   2.2495   2.3968   2.3977   2.3999
     2.4887   2.4896   2.4905   2.5574   2.5858   2.5887   2.5895   2.5937
     2.6794   2.7349   2.7372   2.7418   2.8208   2.8232   2.8246   2.8297
     2.9004   2.9026   2.9085   2.9243   2.9353   2.9521   2.9562   2.9596
     3.0599   3.0606   3.0619   3.0847   3.0896   3.0909   3.1276   3.1819
     3.2408   3.2459   3.2478   3.2688   3.2714   3.2773   3.3208   3.3266
     3.3284   3.3295   3.3752   3.4058   3.4210   3.4648   3.4659   3.4682
     3.4939   3.4994   3.5003   3.5028   3.5364   3.5374   3.5386   3.5417
     3.5618   3.6149   3.6166   3.6233   3.6535   3.6553   3.6598   3.6969
     3.6988   3.7011   3.7207   3.7461   3.8217   3.8407   3.8422   3.8427
     3.9375   3.9401   3.9411   3.9439   4.0287   4.0303   4.0323   4.0423
     4.0645   4.0680   4.0709   4.1074   4.1137   4.1144   4.1193   4.1697
     4.2714   4.2744   4.2771   4.2913   4.3142   4.3586   4.3620   4.3668
     4.4163   4.4177   4.4187   4.4931   4.4946   4.4967   4.5079   4.5138
     4.5640   4.6669   4.6686   4.6698   5.1495   5.1568   5.1576   5.1582
     5.1594   5.1828   5.1833   5.1843   5.1981   5.1987   5.1995   5.2117
     5.2246   5.2255   5.2268   5.2516   5.2524   5.2540   5.2581   5.2697
     5.3020   5.3031   5.3037   5.3089   5.3285   5.3290   5.3314   5.3681
     5.3687   5.3703   5.3751   5.3944   5.3954   5.4089   5.4095   5.4116
     5.4319   5.4336   5.4348   5.4390   5.4846   5.4851   5.4860   5.4927
     5.5388   5.5397   5.5401   5.5436   5.5663   5.5673   5.5683   5.6045
     5.6060   5.6071   5.6385   5.6397   5.6710   5.6726   5.6732   5.7029
     5.7041   5.7052   5.7166   5.7583   5.7597   5.7600   5.8012   5.8082
     5.8209   5.8234   5.8243   5.8252   5.8897   5.8909   5.8923   6.0563
     6.0585   6.0609   6.0622   6.0772   6.1203   6.1210   6.1218   6.1354
     6.1963   6.2365   6.2383   6.2399   6.2841   6.3017   6.3029   6.3037
     6.3067   6.3846   6.3863   6.3871   6.4500   6.4673   6.4683   6.4699
     6.4914   6.4930   6.5587   6.5601   6.5614   6.6468   6.6843   6.6853
     6.6859   6.7621   6.7774   6.7784   6.7793   6.7929   6.8536   6.8547
     6.8566   6.9353   6.9363   6.9374

          k =-0.3333 0.1925 0.0000 (115797 PWs)   bands (ev):

   -28.2766 -28.2759 -28.2757 -28.2756 -28.2755 -28.2755 -28.2755 -28.2754
   -28.2754 -28.2753 -28.2745 -28.2740 -14.9248 -14.9237 -14.9236 -14.9232
   -14.9230 -14.9228 -14.9228 -14.9226 -14.9225 -14.9223 -14.9221 -14.9200
   -14.9188 -14.9179 -14.9174 -14.9173 -14.9170 -14.9170 -14.9169 -14.9167
   -14.9167 -14.9165 -14.9162 -14.9142 -14.9067 -14.9058 -14.9055 -14.9052
   -14.9050 -14.9049 -14.9048 -14.9047 -14.9046 -14.9044 -14.9042 -14.9021
   -14.8666 -14.8656 -14.8654 -14.8651 -14.8648 -14.8647 -14.8646 -14.8645
   -14.8644 -14.8642 -14.8640 -14.8619 -14.8212 -14.8205 -14.8200 -14.8198
   -14.8195 -14.8195 -14.8195 -14.8193 -14.8193 -14.8191 -14.8188 -14.8168
   -10.3382 -10.3380 -10.3365 -10.3364 -10.3361 -10.3357 -10.3344 -10.3343
   -10.3325 -10.3322 -10.3318 -10.3265 -10.3074 -10.3071 -10.3061 -10.3042
   -10.3030 -10.3018 -10.3017 -10.3014 -10.2945 -10.2943 -10.2906 -10.2851
   -10.2697 -10.2693 -10.2690 -10.2667 -10.2664 -10.2637 -10.2633 -10.2625
   -10.2618 -10.2603 -10.2599 -10.2562  -6.7876  -6.5892  -6.4994  -6.4977
    -6.4390  -6.4376  -6.3649  -6.3485  -6.2866  -6.2834  -6.2490  -6.2471
    -5.9119  -5.9085  -5.8213  -5.8185  -5.8129  -5.7784  -5.7677  -5.7664
    -5.7322  -5.7254  -5.7224  -5.6912  -5.6894  -5.6472  -5.6412  -5.6374
    -5.6292  -5.5959  -5.5865  -5.5833  -5.5659  -5.5265  -5.5203  -5.5178
    -5.5142  -5.5032  -5.4609  -5.4510  -5.4361  -5.4350  -5.4222  -5.4131
    -5.3479  -5.3470  -5.3125  -5.2697  -0.5732  -0.5694  -0.5619  -0.4353
    -0.4056  -0.4019  -0.3767  -0.3382  -0.3374  -0.3370  -0.3123  -0.3026
     1.4176   1.4874   1.4884   1.5002   1.6381   1.6512   1.6885   1.7232
     1.7259   1.8299   1.8744   1.8780   1.9536   1.9572   1.9599   2.0303
     2.1159   2.2070   2.2288   2.2312   2.3399   2.3640   2.3854   2.3869
     2.3945   2.4094   2.4496   2.5366   2.5385   2.6110   2.6137   2.6170
     2.6568   2.7360   2.8123   2.8138   2.8254   2.8401   2.8423   2.8474
     2.8539   2.8834   2.9077   2.9101   2.9147   2.9601   2.9652   3.0042
     3.0499   3.0558   3.0597   3.1242   3.1490   3.1760   3.2023   3.2100
     3.2142   3.2339   3.2610   3.2638   3.2694   3.3235   3.3307   3.3326
     3.3405   3.3735   3.3935   3.3967   3.4331   3.4407   3.4435   3.4493
     3.4978   3.4988   3.5026   3.5104   3.5111   3.5158   3.5233   3.5448
     3.5617   3.6050   3.6104   3.6150   3.6358   3.6466   3.6784   3.6813
     3.6926   3.7032   3.7053   3.7128   3.7793   3.7809   3.8504   3.8616
     3.8961   3.9713   3.9760   3.9786   3.9815   4.0297   4.0393   4.0405
     4.0934   4.1120   4.1204   4.1233   4.1284   4.1620   4.1663   4.1778
     4.2468   4.2671   4.2680   4.2828   4.3040   4.3232   4.3257   4.3679
     4.3790   4.4155   4.4191   4.4837   4.5192   4.5269   4.5293   4.5337
     4.5890   4.5936   4.6274   4.7498   5.1438   5.1467   5.1477   5.1547
     5.1607   5.1616   5.1702   5.1750   5.2148   5.2199   5.2210   5.2221
     5.2285   5.2378   5.2489   5.2499   5.2515   5.2617   5.2691   5.2717
     5.2726   5.2901   5.3039   5.3051   5.3152   5.3194   5.3273   5.3288
     5.3371   5.3502   5.3517   5.3539   5.3584   5.3664   5.4138   5.4158
     5.4336   5.4511   5.4609   5.4617   5.4865   5.4933   5.4989   5.5012
     5.5027   5.5129   5.5279   5.5444   5.5568   5.5574   5.5613   5.6037
     5.6042   5.6299   5.6319   5.6332   5.6679   5.6769   5.6935   5.6958
     5.6968   5.7181   5.7307   5.7559   5.7744   5.7768   5.8081   5.8191
     5.8205   5.8639   5.8752   5.8758   5.9508   5.9527   5.9639   5.9665
     5.9907   6.0064   6.0073   6.0207   6.1380   6.1391   6.1459   6.1603
     6.2256   6.2298   6.2306   6.2523   6.2708   6.2886   6.2908   6.2990
     6.3612   6.3630   6.3777   6.3905   6.3918   6.4411   6.4860   6.4870
     6.5237   6.5377   6.5393   6.5771   6.6052   6.6510   6.6842   6.6926
     6.6939   6.7301   6.7377   6.7391   6.7631   6.7770   6.7923   6.8121
     6.8133   6.9034   6.9085   7.0803

          k = 0.3333 0.1925 0.0000 (115797 PWs)   bands (ev):

   -28.2766 -28.2759 -28.2757 -28.2756 -28.2755 -28.2755 -28.2755 -28.2754
   -28.2754 -28.2753 -28.2745 -28.2740 -14.9248 -14.9237 -14.9236 -14.9232
   -14.9230 -14.9228 -14.9228 -14.9226 -14.9226 -14.9223 -14.9221 -14.9200
   -14.9187 -14.9179 -14.9174 -14.9172 -14.9170 -14.9170 -14.9169 -14.9168
   -14.9167 -14.9165 -14.9162 -14.9142 -14.9067 -14.9058 -14.9055 -14.9052
   -14.9050 -14.9049 -14.9048 -14.9047 -14.9046 -14.9044 -14.9042 -14.9021
   -14.8666 -14.8656 -14.8654 -14.8651 -14.8648 -14.8647 -14.8646 -14.8645
   -14.8644 -14.8642 -14.8640 -14.8619 -14.8212 -14.8205 -14.8200 -14.8198
   -14.8195 -14.8195 -14.8195 -14.8193 -14.8193 -14.8191 -14.8188 -14.8168
   -10.3383 -10.3379 -10.3369 -10.3364 -10.3360 -10.3356 -10.3344 -10.3341
   -10.3325 -10.3324 -10.3317 -10.3265 -10.3075 -10.3069 -10.3063 -10.3043
   -10.3030 -10.3020 -10.3015 -10.3013 -10.2947 -10.2943 -10.2905 -10.2851
   -10.2698 -10.2695 -10.2689 -10.2667 -10.2665 -10.2638 -10.2628 -10.2626
   -10.2619 -10.2605 -10.2598 -10.2562  -6.7877  -6.5899  -6.4995  -6.4978
    -6.4386  -6.4358  -6.3660  -6.3488  -6.2852  -6.2831  -6.2485  -6.2469
    -5.9147  -5.9098  -5.8242  -5.8190  -5.8176  -5.7760  -5.7688  -5.7669
    -5.7316  -5.7238  -5.7205  -5.6900  -5.6884  -5.6470  -5.6385  -5.6357
    -5.6283  -5.5942  -5.5849  -5.5807  -5.5684  -5.5297  -5.5191  -5.5175
    -5.5153  -5.5040  -5.4623  -5.4506  -5.4368  -5.4350  -5.4210  -5.4147
    -5.3484  -5.3467  -5.3125  -5.2696  -0.5720  -0.5708  -0.5614  -0.4353
    -0.4043  -0.4038  -0.3770  -0.3383  -0.3372  -0.3361  -0.3124  -0.3033
     1.4193   1.4868   1.4885   1.5005   1.6400   1.6508   1.6888   1.7224
     1.7260   1.8265   1.8761   1.8795   1.9510   1.9545   1.9588   2.0273
     2.1161   2.2076   2.2299   2.2328   2.3389   2.3642   2.3858   2.3873
     2.3939   2.4092   2.4510   2.5374   2.5391   2.6126   2.6157   2.6180
     2.6595   2.7344   2.8122   2.8146   2.8192   2.8404   2.8425   2.8441
     2.8557   2.8870   2.9080   2.9102   2.9171   2.9607   2.9645   3.0040
     3.0515   3.0564   3.0592   3.1248   3.1485   3.1741   3.2045   3.2106
     3.2143   3.2351   3.2586   3.2617   3.2710   3.3241   3.3296   3.3320
     3.3387   3.3726   3.3943   3.3981   3.4350   3.4408   3.4439   3.4521
     3.4970   3.4989   3.5004   3.5107   3.5128   3.5140   3.5227   3.5429
     3.5626   3.6022   3.6052   3.6116   3.6358   3.6478   3.6799   3.6815
     3.6983   3.7031   3.7045   3.7147   3.7791   3.7801   3.8487   3.8590
     3.8964   3.9738   3.9757   3.9785   3.9837   4.0298   4.0386   4.0412
     4.0928   4.1124   4.1186   4.1219   4.1275   4.1626   4.1648   4.1779
     4.2498   4.2671   4.2698   4.2833   4.3040   4.3222   4.3244   4.3702
     4.3777   4.4171   4.4178   4.4840   4.5182   4.5271   4.5299   4.5319
     4.5883   4.5957   4.6272   4.7499   5.1441   5.1449   5.1475   5.1548
     5.1604   5.1617   5.1705   5.1753   5.2144   5.2185   5.2213   5.2234
     5.2287   5.2384   5.2487   5.2496   5.2511   5.2614   5.2673   5.2713
     5.2736   5.2898   5.3041   5.3060   5.3139   5.3189   5.3274   5.3289
     5.3382   5.3509   5.3536   5.3538   5.3580   5.3659   5.4134   5.4143
     5.4349   5.4511   5.4607   5.4619   5.4855   5.4944   5.5002   5.5010
     5.5030   5.5132   5.5282   5.5436   5.5565   5.5570   5.5614   5.6028
     5.6045   5.6298   5.6315   5.6323   5.6686   5.6793   5.6954   5.6963
     5.6973   5.7175   5.7288   5.7560   5.7745   5.7759   5.8083   5.8184
     5.8202   5.8630   5.8757   5.8764   5.9512   5.9524   5.9650   5.9659
     5.9898   6.0068   6.0076   6.0210   6.1390   6.1404   6.1446   6.1605
     6.2258   6.2299   6.2325   6.2511   6.2708   6.2887   6.2901   6.2995
     6.3610   6.3624   6.3775   6.3899   6.3907   6.4418   6.4853   6.4875
     6.5239   6.5370   6.5393   6.5754   6.6054   6.6510   6.6835   6.6927
     6.6960   6.7298   6.7373   6.7380   6.7622   6.7783   6.7930   6.8120
     6.8128   6.9047   6.9086   7.0806

          k = 0.0000-0.3849 0.2714 (115773 PWs)   bands (ev):

   -28.2766 -28.2759 -28.2757 -28.2756 -28.2755 -28.2755 -28.2755 -28.2754
   -28.2754 -28.2753 -28.2745 -28.2740 -14.9247 -14.9237 -14.9235 -14.9232
   -14.9231 -14.9229 -14.9227 -14.9226 -14.9225 -14.9223 -14.9221 -14.9200
   -14.9188 -14.9179 -14.9174 -14.9173 -14.9170 -14.9170 -14.9168 -14.9168
   -14.9167 -14.9165 -14.9162 -14.9142 -14.9067 -14.9058 -14.9055 -14.9052
   -14.9050 -14.9049 -14.9048 -14.9047 -14.9046 -14.9044 -14.9042 -14.9021
   -14.8666 -14.8656 -14.8654 -14.8651 -14.8648 -14.8647 -14.8646 -14.8645
   -14.8644 -14.8642 -14.8640 -14.8619 -14.8212 -14.8205 -14.8200 -14.8198
   -14.8195 -14.8195 -14.8195 -14.8193 -14.8193 -14.8191 -14.8188 -14.8168
   -10.3392 -10.3387 -10.3378 -10.3370 -10.3364 -10.3346 -10.3341 -10.3333
   -10.3330 -10.3314 -10.3297 -10.3275 -10.3101 -10.3081 -10.3052 -10.3049
   -10.3030 -10.3027 -10.2976 -10.2955 -10.2955 -10.2946 -10.2929 -10.2869
   -10.2695 -10.2689 -10.2686 -10.2673 -10.2671 -10.2629 -10.2623 -10.2622
   -10.2620 -10.2611 -10.2598 -10.2573  -6.7508  -6.6464  -6.5612  -6.4685
    -6.4210  -6.4159  -6.3635  -6.3408  -6.3391  -6.2656  -6.2121  -6.2085
    -5.9145  -5.9126  -5.8252  -5.8240  -5.8186  -5.8146  -5.7680  -5.7617
    -5.7530  -5.7325  -5.6854  -5.6818  -5.6797  -5.6631  -5.6475  -5.6397
    -5.6327  -5.6065  -5.5855  -5.5850  -5.5726  -5.5322  -5.5281  -5.5227
    -5.5159  -5.4860  -5.4644  -5.4396  -5.4369  -5.4358  -5.3978  -5.3698
    -5.3433  -5.3429  -5.3313  -5.2954  -0.5622  -0.5616  -0.5528  -0.4344
    -0.4292  -0.4271  -0.4107  -0.3606  -0.3239  -0.3192  -0.2899  -0.2832
     1.4049   1.4918   1.4963   1.5155   1.6127   1.7092   1.7140   1.7238
     1.7359   1.7729   1.8449   1.8468   1.9665   1.9858   2.0210   2.0237
     2.1298   2.1994   2.2080   2.2111   2.2858   2.3341   2.3966   2.4233
     2.4301   2.5186   2.5285   2.5319   2.5563   2.5572   2.5600   2.5630
     2.5994   2.6787   2.7618   2.7680   2.8208   2.8238   2.8269   2.8309
     2.8501   2.8561   2.8953   2.8974   2.9059   3.0083   3.0176   3.0198
     3.0769   3.0804   3.1172   3.1207   3.1342   3.1803   3.1822   3.1885
     3.2126   3.2457   3.2659   3.2833   3.2885   3.2970   3.3291   3.3346
     3.3752   3.3775   3.3790   3.3800   3.4470   3.4479   3.4507   3.4771
     3.4802   3.4839   3.5074   3.5195   3.5342   3.5354   3.5372   3.5598
     3.5852   3.5903   3.6119   3.6308   3.6401   3.6508   3.6827   3.6847
     3.6872   3.6962   3.7040   3.7090   3.8352   3.8390   3.8792   3.8813
     3.9420   3.9453   3.9463   3.9496   3.9725   4.0321   4.0535   4.0567
     4.0594   4.0639   4.0991   4.1034   4.1214   4.1244   4.1299   4.1347
     4.2247   4.2420   4.2653   4.2722   4.2903   4.2938   4.3140   4.3673
     4.3936   4.4327   4.4378   4.4817   4.5218   4.5459   4.5474   4.5865
     4.5967   4.5971   4.6325   4.7310   5.1477   5.1486   5.1530   5.1644
     5.1688   5.1691   5.1702   5.1735   5.2005   5.2051   5.2128   5.2186
     5.2198   5.2297   5.2414   5.2425   5.2610   5.2640   5.2651   5.2669
     5.2681   5.2738   5.3101   5.3105   5.3179   5.3344   5.3468   5.3484
     5.3589   5.3633   5.3640   5.3691   5.3704   5.3814   5.3891   5.3899
     5.4102   5.4343   5.4481   5.4519   5.4526   5.4693   5.4979   5.4983
     5.5174   5.5243   5.5559   5.5579   5.5685   5.5697   5.6024   5.6028
     5.6073   5.6208   5.6307   5.6498   5.6518   5.6606   5.6750   5.7090
     5.7098   5.7393   5.7587   5.7617   5.7701   5.7842   5.8032   5.8063
     5.8140   5.8391   5.8651   5.8699   5.8757   5.8945   5.9688   5.9705
     6.0191   6.0254   6.0258   6.1003   6.1027   6.1122   6.1594   6.1867
     6.2024   6.2038   6.2043   6.2629   6.2642   6.2885   6.3185   6.3428
     6.3554   6.3686   6.3692   6.4126   6.4183   6.4226   6.4521   6.4815
     6.4828   6.5068   6.5582   6.5669   6.6065   6.6084   6.6468   6.6667
     6.6687   6.7374   6.7382   6.7409   6.7487   6.8043   6.8056   6.8513
     6.8664   6.9176   6.9454   7.0387

          k =-0.3333 0.1925 0.2714 (115773 PWs)   bands (ev):

   -28.2766 -28.2759 -28.2757 -28.2756 -28.2755 -28.2755 -28.2755 -28.2754
   -28.2754 -28.2753 -28.2745 -28.2740 -14.9248 -14.9237 -14.9236 -14.9232
   -14.9230 -14.9228 -14.9228 -14.9226 -14.9225 -14.9223 -14.9221 -14.9200
   -14.9188 -14.9179 -14.9174 -14.9173 -14.9170 -14.9170 -14.9169 -14.9167
   -14.9167 -14.9165 -14.9162 -14.9142 -14.9067 -14.9058 -14.9055 -14.9052
   -14.9050 -14.9049 -14.9048 -14.9047 -14.9046 -14.9044 -14.9042 -14.9021
   -14.8666 -14.8656 -14.8654 -14.8651 -14.8648 -14.8647 -14.8646 -14.8645
   -14.8644 -14.8642 -14.8640 -14.8619 -14.8212 -14.8205 -14.8200 -14.8198
   -14.8195 -14.8195 -14.8195 -14.8193 -14.8193 -14.8191 -14.8188 -14.8168
   -10.3391 -10.3388 -10.3376 -10.3369 -10.3367 -10.3347 -10.3343 -10.3332
   -10.3329 -10.3314 -10.3296 -10.3275 -10.3101 -10.3079 -10.3053 -10.3051
   -10.3030 -10.3028 -10.2977 -10.2956 -10.2951 -10.2944 -10.2931 -10.2870
   -10.2693 -10.2689 -10.2688 -10.2673 -10.2671 -10.2631 -10.2627 -10.2620
   -10.2613 -10.2609 -10.2602 -10.2574  -6.7507  -6.6463  -6.5605  -6.4683
    -6.4199  -6.4187  -6.3637  -6.3421  -6.3389  -6.2649  -6.2120  -6.2084
    -5.9145  -5.9113  -5.8242  -5.8225  -5.8177  -5.8132  -5.7661  -5.7624
    -5.7549  -5.7331  -5.6869  -5.6818  -5.6810  -5.6636  -5.6428  -5.6408
    -5.6377  -5.6081  -5.5873  -5.5852  -5.5702  -5.5309  -5.5285  -5.5264
    -5.5144  -5.4839  -5.4645  -5.4397  -5.4367  -5.4335  -5.3991  -5.3701
    -5.3439  -5.3427  -5.3308  -5.2953  -0.5642  -0.5606  -0.5516  -0.4331
    -0.4301  -0.4275  -0.4103  -0.3606  -0.3226  -0.3209  -0.2902  -0.2828
     1.4039   1.4944   1.4951   1.5146   1.6112   1.7099   1.7126   1.7219
     1.7369   1.7749   1.8450   1.8484   1.9663   1.9874   2.0209   2.0239
     2.1304   2.1998   2.2083   2.2096   2.2864   2.3350   2.3971   2.4258
     2.4279   2.5184   2.5287   2.5303   2.5569   2.5579   2.5593   2.5606
     2.5995   2.6797   2.7631   2.7651   2.8228   2.8249   2.8253   2.8302
     2.8510   2.8533   2.8938   2.8979   2.9100   3.0051   3.0175   3.0204
     3.0769   3.0783   3.1176   3.1194   3.1336   3.1785   3.1822   3.1907
     3.2137   3.2433   3.2652   3.2853   3.2880   3.2967   3.3310   3.3334
     3.3753   3.3778   3.3801   3.3819   3.4458   3.4488   3.4509   3.4768
     3.4801   3.4844   3.5072   3.5218   3.5330   3.5353   3.5367   3.5595
     3.5859   3.5917   3.6107   3.6320   3.6402   3.6443   3.6830   3.6844
     3.6897   3.6968   3.7045   3.7101   3.8356   3.8382   3.8797   3.8809
     3.9409   3.9436   3.9470   3.9494   3.9723   4.0341   4.0533   4.0566
     4.0612   4.0631   4.1008   4.1027   4.1220   4.1242   4.1311   4.1343
     4.2239   4.2405   4.2687   4.2707   4.2914   4.2929   4.3152   4.3646
     4.3946   4.4329   4.4368   4.4820   4.5245   4.5437   4.5462   4.5858
     4.5942   4.6000   4.6321   4.7308   5.1480   5.1504   5.1537   5.1649
     5.1688   5.1694   5.1702   5.1730   5.1998   5.2054   5.2129   5.2185
     5.2214   5.2306   5.2411   5.2419   5.2605   5.2645   5.2648   5.2655
     5.2669   5.2744   5.3099   5.3111   5.3196   5.3342   5.3462   5.3473
     5.3604   5.3623   5.3643   5.3686   5.3710   5.3815   5.3893   5.3900
     5.4105   5.4337   5.4479   5.4520   5.4531   5.4689   5.4971   5.4981
     5.5166   5.5242   5.5557   5.5582   5.5688   5.5695   5.6024   5.6037
     5.6079   5.6194   5.6308   5.6500   5.6510   5.6603   5.6754   5.7066
     5.7097   5.7396   5.7590   5.7609   5.7708   5.7833   5.8042   5.8059
     5.8139   5.8405   5.8675   5.8685   5.8765   5.8948   5.9679   5.9695
     6.0198   6.0243   6.0255   6.1011   6.1024   6.1126   6.1592   6.1868
     6.2023   6.2034   6.2058   6.2624   6.2645   6.2879   6.3198   6.3419
     6.3544   6.3693   6.3713   6.4135   6.4197   6.4199   6.4513   6.4812
     6.4828   6.5079   6.5583   6.5669   6.6067   6.6078   6.6472   6.6671
     6.6681   6.7372   6.7394   6.7412   6.7476   6.8041   6.8057   6.8506
     6.8657   6.9180   6.9455   7.0387

          k = 0.3333 0.1925 0.2714 (115773 PWs)   bands (ev):

   -28.2766 -28.2759 -28.2757 -28.2756 -28.2755 -28.2755 -28.2755 -28.2754
   -28.2754 -28.2753 -28.2745 -28.2740 -14.9248 -14.9237 -14.9236 -14.9232
   -14.9230 -14.9228 -14.9228 -14.9226 -14.9226 -14.9223 -14.9221 -14.9200
   -14.9187 -14.9179 -14.9174 -14.9172 -14.9170 -14.9170 -14.9169 -14.9168
   -14.9167 -14.9165 -14.9162 -14.9142 -14.9067 -14.9058 -14.9055 -14.9052
   -14.9050 -14.9049 -14.9048 -14.9047 -14.9046 -14.9044 -14.9042 -14.9021
   -14.8666 -14.8656 -14.8654 -14.8651 -14.8648 -14.8647 -14.8646 -14.8645
   -14.8644 -14.8642 -14.8640 -14.8619 -14.8212 -14.8205 -14.8200 -14.8198
   -14.8195 -14.8195 -14.8195 -14.8193 -14.8193 -14.8191 -14.8188 -14.8168
   -10.3391 -10.3387 -10.3378 -10.3370 -10.3366 -10.3346 -10.3341 -10.3332
   -10.3328 -10.3315 -10.3296 -10.3275 -10.3101 -10.3080 -10.3054 -10.3050
   -10.3031 -10.3025 -10.2977 -10.2955 -10.2952 -10.2947 -10.2929 -10.2869
   -10.2694 -10.2691 -10.2685 -10.2674 -10.2671 -10.2630 -10.2623 -10.2621
   -10.2614 -10.2612 -10.2601 -10.2574  -6.7508  -6.6464  -6.5615  -6.4685
    -6.4194  -6.4171  -6.3639  -6.3412  -6.3375  -6.2658  -6.2109  -6.2097
    -5.9172  -5.9120  -5.8252  -5.8220  -5.8202  -5.8176  -5.7662  -5.7637
    -5.7513  -5.7328  -5.6834  -5.6816  -5.6789  -5.6623  -5.6420  -5.6403
    -5.6368  -5.6069  -5.5880  -5.5820  -5.5724  -5.5313  -5.5272  -5.5240
    -5.5164  -5.4864  -5.4653  -5.4411  -5.4368  -5.4351  -5.3985  -5.3692
    -5.3440  -5.3426  -5.3307  -5.2955  -0.5631  -0.5620  -0.5509  -0.4333
    -0.4288  -0.4284  -0.4111  -0.3608  -0.3220  -0.3210  -0.2900  -0.2834
     1.4054   1.4940   1.4950   1.5146   1.6116   1.7102   1.7137   1.7230
     1.7376   1.7723   1.8426   1.8469   1.9659   1.9858   2.0193   2.0249
     2.1296   2.1996   2.2094   2.2117   2.2856   2.3340   2.3968   2.4272
     2.4284   2.5189   2.5296   2.5310   2.5549   2.5586   2.5592   2.5616
     2.6007   2.6784   2.7638   2.7655   2.8239   2.8257   2.8268   2.8299
     2.8502   2.8538   2.8960   2.8971   2.9035   3.0096   3.0184   3.0222
     3.0764   3.0793   3.1175   3.1200   3.1340   3.1799   3.1827   3.1876
     3.2138   3.2474   3.2689   3.2848   3.2860   3.2963   3.3300   3.3318
     3.3721   3.3771   3.3786   3.3796   3.4473   3.4498   3.4520   3.4771
     3.4788   3.4821   3.5064   3.5193   3.5341   3.5364   3.5386   3.5581
     3.5862   3.5876   3.6129   3.6320   3.6410   3.6468   3.6832   3.6849
     3.6879   3.6977   3.7037   3.7082   3.8369   3.8381   3.8773   3.8805
     3.9416   3.9449   3.9465   3.9525   3.9721   4.0301   4.0534   4.0569
     4.0601   4.0633   4.0995   4.1033   4.1222   4.1241   4.1300   4.1376
     4.2243   4.2419   4.2692   4.2701   4.2898   4.2926   4.3146   4.3690
     4.3907   4.4352   4.4360   4.4817   4.5220   4.5456   4.5472   4.5857
     4.5936   4.6004   4.6321   4.7308   5.1479   5.1485   5.1535   5.1651
     5.1683   5.1691   5.1698   5.1741   5.2002   5.2053   5.2132   5.2185
     5.2192   5.2297   5.2405   5.2431   5.2613   5.2640   5.2656   5.2659
     5.2670   5.2738   5.3101   5.3126   5.3197   5.3345   5.3466   5.3480
     5.3607   5.3622   5.3646   5.3687   5.3699   5.3809   5.3886   5.3895
     5.4107   5.4335   5.4476   5.4516   5.4530   5.4689   5.4970   5.4980
     5.5182   5.5249   5.5562   5.5570   5.5671   5.5696   5.6018   5.6033
     5.6079   5.6208   5.6325   5.6490   5.6503   5.6615   5.6749   5.7074
     5.7095   5.7383   5.7599   5.7614   5.7702   5.7840   5.8048   5.8063
     5.8143   5.8404   5.8667   5.8687   5.8757   5.8944   5.9688   5.9700
     6.0184   6.0255   6.0270   6.1009   6.1025   6.1125   6.1602   6.1882
     6.2029   6.2035   6.2048   6.2632   6.2636   6.2875   6.3168   6.3422
     6.3553   6.3691   6.3700   6.4140   6.4188   6.4203   6.4521   6.4811
     6.4820   6.5073   6.5574   6.5665   6.6070   6.6081   6.6481   6.6663
     6.6682   6.7377   6.7388   6.7409   6.7485   6.8042   6.8054   6.8504
     6.8666   6.9180   6.9459   7.0386

          k =-0.3333-0.1925 0.2714 (115773 PWs)   bands (ev):

   -28.2766 -28.2759 -28.2757 -28.2756 -28.2755 -28.2755 -28.2755 -28.2754
   -28.2754 -28.2753 -28.2745 -28.2740 -14.9248 -14.9237 -14.9236 -14.9232
   -14.9230 -14.9228 -14.9228 -14.9226 -14.9226 -14.9223 -14.9221 -14.9200
   -14.9187 -14.9179 -14.9174 -14.9172 -14.9170 -14.9170 -14.9169 -14.9168
   -14.9167 -14.9165 -14.9162 -14.9142 -14.9067 -14.9058 -14.9055 -14.9052
   -14.9050 -14.9049 -14.9048 -14.9047 -14.9046 -14.9044 -14.9042 -14.9021
   -14.8666 -14.8656 -14.8654 -14.8651 -14.8648 -14.8647 -14.8646 -14.8645
   -14.8644 -14.8642 -14.8640 -14.8619 -14.8212 -14.8205 -14.8200 -14.8198
   -14.8195 -14.8195 -14.8195 -14.8193 -14.8193 -14.8191 -14.8188 -14.8168
   -10.3390 -10.3386 -10.3379 -10.3373 -10.3368 -10.3343 -10.3338 -10.3330
   -10.3327 -10.3321 -10.3298 -10.3273 -10.3104 -10.3069 -10.3063 -10.3060
   -10.3014 -10.3008 -10.3002 -10.2964 -10.2962 -10.2939 -10.2910 -10.2875
   -10.2699 -10.2696 -10.2680 -10.2668 -10.2665 -10.2641 -10.2626 -10.2622
   -10.2616 -10.2606 -10.2593 -10.2578  -6.7507  -6.6465  -6.5607  -6.4721
    -6.4226  -6.4204  -6.3642  -6.3296  -6.3259  -6.2591  -6.2246  -6.2234
    -5.9087  -5.9035  -5.8224  -5.8208  -5.8148  -5.8076  -5.7904  -5.7598
    -5.7586  -5.7300  -5.7099  -5.7090  -5.6713  -5.6345  -5.6295  -5.6278
    -5.6250  -5.6078  -5.6009  -5.5945  -5.5698  -5.5293  -5.5243  -5.5216
    -5.5172  -5.4956  -5.4678  -5.4342  -5.4283  -5.4270  -5.4206  -5.3633
    -5.3474  -5.3465  -5.3215  -5.2987  -0.5606  -0.5587  -0.5577  -0.4359
    -0.4355  -0.4245  -0.3938  -0.3736  -0.3187  -0.3178  -0.2989  -0.2789
     1.4338   1.4846   1.4861   1.4873   1.6260   1.6411   1.7718   1.7750
     1.7819   1.7892   1.7976   1.8032   1.9146   1.9912   1.9988   2.0760
     2.1553   2.2005   2.2116   2.2472   2.2525   2.3601   2.3937   2.3946
     2.3983   2.4485   2.5119   2.5137   2.5486   2.5904   2.5918   2.6103
     2.6430   2.7124   2.7590   2.7676   2.7696   2.7875   2.8093   2.8115
     2.8402   2.8759   2.9154   2.9168   2.9187   2.9823   3.0242   3.0269
     3.0689   3.1067   3.1080   3.1333   3.1688   3.1913   3.1939   3.1948
     3.2023   3.2313   3.2624   3.2652   3.2792   3.3196   3.3201   3.3224
     3.3253   3.3874   3.3905   3.4120   3.4438   3.4485   3.4688   3.4702
     3.4726   3.4745   3.4769   3.4790   3.5335   3.5367   3.5377   3.5915
     3.6100   3.6131   3.6185   3.6334   3.6428   3.6484   3.6575   3.6594
     3.6728   3.7101   3.7115   3.7160   3.8359   3.8374   3.8791   3.8892
     3.9045   3.9494   3.9533   3.9749   3.9827   4.0203   4.0458   4.0498
     4.0511   4.0640   4.1096   4.1121   4.1215   4.1331   4.1362   4.1516
     4.1927   4.2556   4.2666   4.2685   4.2879   4.2903   4.2956   4.3880
     4.3976   4.4382   4.4393   4.4685   4.5258   4.5273   4.5366   4.5964
     4.6082   4.6152   4.6228   4.7224   5.1510   5.1515   5.1549   5.1572
     5.1725   5.1765   5.1771   5.1841   5.1906   5.1985   5.2021   5.2068
     5.2104   5.2343   5.2351   5.2361   5.2550   5.2642   5.2656   5.2675
     5.2791   5.2992   5.3078   5.3135   5.3143   5.3290   5.3368   5.3374
     5.3578   5.3592   5.3611   5.3648   5.3807   5.3929   5.4060   5.4079
     5.4140   5.4325   5.4338   5.4451   5.4461   5.4927   5.5029   5.5035
     5.5096   5.5161   5.5539   5.5600   5.5737   5.5750   5.6038   5.6097
     5.6116   5.6204   5.6241   5.6261   5.6431   5.6704   5.6822   5.7138
     5.7147   5.7171   5.7328   5.7719   5.7732   5.7738   5.8023   5.8028
     5.8092   5.8590   5.8748   5.8761   5.8780   5.9147   5.9591   5.9598
     6.0345   6.0359   6.0368   6.0588   6.0791   6.0808   6.1729   6.2062
     6.2130   6.2133   6.2665   6.2671   6.2704   6.2767   6.2858   6.3485
     6.3493   6.3653   6.3727   6.4162   6.4241   6.4261   6.4273   6.4718
     6.4974   6.4996   6.5453   6.5600   6.5943   6.5960   6.6665   6.6697
     6.6765   6.7202   6.7367   6.7382   6.7473   6.8133   6.8142   6.8441
     6.8694   6.9284   6.9364   7.0523

          k = 0.3333-0.1925 0.2714 (115773 PWs)   bands (ev):

   -28.2766 -28.2759 -28.2757 -28.2756 -28.2755 -28.2755 -28.2755 -28.2754
   -28.2754 -28.2753 -28.2745 -28.2740 -14.9248 -14.9237 -14.9236 -14.9232
   -14.9230 -14.9228 -14.9228 -14.9226 -14.9225 -14.9223 -14.9221 -14.9200
   -14.9188 -14.9179 -14.9174 -14.9173 -14.9170 -14.9170 -14.9169 -14.9167
   -14.9167 -14.9165 -14.9162 -14.9142 -14.9067 -14.9058 -14.9055 -14.9052
   -14.9050 -14.9049 -14.9048 -14.9047 -14.9046 -14.9044 -14.9042 -14.9021
   -14.8666 -14.8656 -14.8654 -14.8651 -14.8648 -14.8647 -14.8646 -14.8645
   -14.8644 -14.8642 -14.8640 -14.8619 -14.8212 -14.8205 -14.8200 -14.8198
   -14.8195 -14.8195 -14.8195 -14.8193 -14.8193 -14.8191 -14.8188 -14.8168
   -10.3390 -10.3387 -10.3378 -10.3371 -10.3369 -10.3344 -10.3340 -10.3330
   -10.3327 -10.3320 -10.3298 -10.3273 -10.3104 -10.3068 -10.3066 -10.3059
   -10.3014 -10.3006 -10.3004 -10.2964 -10.2960 -10.2939 -10.2912 -10.2875
   -10.2698 -10.2695 -10.2683 -10.2667 -10.2665 -10.2640 -10.2631 -10.2622
   -10.2616 -10.2604 -10.2594 -10.2578  -6.7505  -6.6465  -6.5598  -6.4715
    -6.4232  -6.4220  -6.3640  -6.3302  -6.3273  -6.2586  -6.2259  -6.2222
    -5.9054  -5.9030  -5.8234  -5.8212  -5.8083  -5.8012  -5.7928  -5.7620
    -5.7589  -5.7339  -5.7105  -5.7100  -5.6719  -5.6371  -5.6308  -5.6273
    -5.6258  -5.6080  -5.6018  -5.5986  -5.5676  -5.5284  -5.5252  -5.5217
    -5.5157  -5.4966  -5.4660  -5.4329  -5.4278  -5.4248  -5.4224  -5.3630
    -5.3477  -5.3465  -5.3212  -5.2991  -0.5608  -0.5593  -0.5571  -0.4370
    -0.4346  -0.4250  -0.3933  -0.3730  -0.3194  -0.3177  -0.2988  -0.2787
     1.4324   1.4847   1.4859   1.4880   1.6243   1.6409   1.7719   1.7732
     1.7810   1.7904   1.8006   1.8016   1.9165   1.9965   1.9993   2.0801
     2.1571   2.1998   2.2104   2.2454   2.2486   2.3612   2.3925   2.3940
     2.3994   2.4496   2.5110   2.5122   2.5467   2.5887   2.5911   2.6072
     2.6432   2.7109   2.7630   2.7689   2.7701   2.7912   2.8081   2.8113
     2.8375   2.8736   2.9136   2.9174   2.9215   2.9811   3.0223   3.0254
     3.0679   3.1051   3.1102   3.1324   3.1723   3.1903   3.1936   3.1951
     3.2006   3.2315   3.2644   3.2678   3.2759   3.3176   3.3217   3.3231
     3.3266   3.3888   3.3907   3.4109   3.4456   3.4488   3.4682   3.4703
     3.4717   3.4750   3.4758   3.4827   3.5333   3.5366   3.5381   3.5923
     3.6092   3.6128   3.6150   3.6341   3.6424   3.6478   3.6592   3.6654
     3.6669   3.7105   3.7111   3.7192   3.8354   3.8371   3.8806   3.8893
     3.9045   3.9466   3.9516   3.9753   3.9824   4.0200   4.0482   4.0493
     4.0521   4.0686   4.1116   4.1136   4.1186   4.1329   4.1359   4.1467
     4.1906   4.2565   4.2675   4.2682   4.2892   4.2907   4.2962   4.3854
     4.3999   4.4361   4.4401   4.4690   4.5236   4.5256   4.5385   4.5974
     4.6096   4.6138   4.6233   4.7217   5.1506   5.1537   5.1553   5.1569
     5.1723   5.1761   5.1765   5.1837   5.1911   5.1983   5.2021   5.2086
     5.2100   5.2338   5.2351   5.2384   5.2554   5.2638   5.2659   5.2664
     5.2805   5.2990   5.3084   5.3132   5.3137   5.3290   5.3365   5.3373
     5.3574   5.3588   5.3607   5.3639   5.3808   5.3936   5.4069   5.4087
     5.4130   5.4317   5.4335   5.4451   5.4463   5.4925   5.5016   5.5039
     5.5094   5.5162   5.5538   5.5598   5.5745   5.5755   5.6019   5.6108
     5.6118   5.6193   5.6247   5.6265   5.6427   5.6707   5.6803   5.7123
     5.7146   5.7183   5.7344   5.7720   5.7726   5.7740   5.8017   5.8031
     5.8097   5.8589   5.8751   5.8761   5.8787   5.9152   5.9579   5.9601
     6.0332   6.0347   6.0359   6.0605   6.0786   6.0797   6.1736   6.2065
     6.2124   6.2147   6.2657   6.2671   6.2698   6.2780   6.2856   6.3495
     6.3510   6.3655   6.3717   6.4158   6.4237   6.4258   6.4273   6.4716
     6.4978   6.4991   6.5474   6.5590   6.5961   6.5973   6.6665   6.6684
     6.6767   6.7191   6.7360   6.7369   6.7477   6.8135   6.8148   6.8446
     6.8685   6.9283   6.9370   7.0516

          k =-0.3333-0.5774 0.2714 (115827 PWs)   bands (ev):

   -28.2766 -28.2759 -28.2757 -28.2756 -28.2755 -28.2755 -28.2755 -28.2754
   -28.2754 -28.2753 -28.2745 -28.2740 -14.9247 -14.9237 -14.9235 -14.9232
   -14.9230 -14.9228 -14.9228 -14.9226 -14.9225 -14.9223 -14.9221 -14.9200
   -14.9188 -14.9179 -14.9174 -14.9173 -14.9170 -14.9170 -14.9169 -14.9168
   -14.9167 -14.9165 -14.9162 -14.9142 -14.9067 -14.9058 -14.9055 -14.9052
   -14.9050 -14.9049 -14.9048 -14.9047 -14.9046 -14.9044 -14.9042 -14.9021
   -14.8666 -14.8656 -14.8654 -14.8651 -14.8648 -14.8647 -14.8646 -14.8645
   -14.8644 -14.8642 -14.8640 -14.8619 -14.8212 -14.8205 -14.8200 -14.8198
   -14.8195 -14.8195 -14.8195 -14.8193 -14.8193 -14.8191 -14.8188 -14.8168
   -10.3389 -10.3381 -10.3371 -10.3367 -10.3364 -10.3336 -10.3332 -10.3331
   -10.3329 -10.3305 -10.3303 -10.3300 -10.3081 -10.3076 -10.3073 -10.3049
   -10.3012 -10.3009 -10.2976 -10.2972 -10.2971 -10.2920 -10.2917 -10.2912
   -10.2697 -10.2689 -10.2667 -10.2666 -10.2664 -10.2641 -10.2640 -10.2637
   -10.2630 -10.2599 -10.2595 -10.2593  -6.6205  -6.6178  -6.6153  -6.5271
    -6.5243  -6.5218  -6.3080  -6.2925  -6.2888  -6.2857  -6.2569  -6.2144
    -5.8748  -5.8565  -5.8473  -5.7802  -5.7791  -5.7775  -5.7448  -5.7416
    -5.7392  -5.7160  -5.6910  -5.6874  -5.6848  -5.6734  -5.6717  -5.6711
    -5.6677  -5.6443  -5.5598  -5.5560  -5.5523  -5.5273  -5.5244  -5.5215
    -5.5061  -5.5034  -5.5026  -5.4967  -5.4575  -5.3990  -5.3973  -5.3957
    -5.3574  -5.3231  -5.3216  -5.3204  -0.5204  -0.5077  -0.5052  -0.5034
    -0.4610  -0.4190  -0.4166  -0.4146  -0.3547  -0.2936  -0.2927  -0.2907
     1.4804   1.4828   1.4837   1.6364   1.6389   1.6402   1.6904   1.7721
     1.7766   1.7770   1.7789   1.7961   1.9789   1.9816   1.9846   2.0544
     2.1730   2.1914   2.1936   2.1951   2.2444   2.3970   2.3980   2.3991
     2.4884   2.4898   2.4912   2.5580   2.5862   2.5889   2.5895   2.5935
     2.6792   2.7350   2.7378   2.7394   2.8209   2.8241   2.8248   2.8305
     2.8974   2.9031   2.9052   2.9249   2.9369   2.9544   2.9564   2.9593
     3.0582   3.0613   3.0625   3.0883   3.0889   3.0932   3.1267   3.1803
     3.2436   3.2451   3.2474   3.2667   3.2715   3.2751   3.3218   3.3264
     3.3284   3.3290   3.3742   3.4106   3.4217   3.4647   3.4658   3.4690
     3.4914   3.4986   3.4998   3.5032   3.5357   3.5369   3.5389   3.5430
     3.5607   3.6143   3.6176   3.6185   3.6542   3.6551   3.6611   3.6975
     3.6984   3.7037   3.7221   3.7438   3.8224   3.8404   3.8422   3.8432
     3.9384   3.9400   3.9410   3.9434   4.0268   4.0305   4.0322   4.0402
     4.0668   4.0683   4.0730   4.1099   4.1112   4.1150   4.1188   4.1697
     4.2717   4.2742   4.2765   4.2886   4.3154   4.3586   4.3620   4.3658
     4.4163   4.4177   4.4215   4.4925   4.4937   4.4963   4.5101   4.5127
     4.5636   4.6667   4.6692   4.6695   5.1496   5.1570   5.1576   5.1581
     5.1602   5.1823   5.1831   5.1842   5.1979   5.1990   5.2004   5.2119
     5.2247   5.2263   5.2271   5.2511   5.2523   5.2540   5.2574   5.2683
     5.3020   5.3021   5.3034   5.3099   5.3290   5.3296   5.3323   5.3677
     5.3687   5.3694   5.3753   5.3945   5.3963   5.4093   5.4096   5.4103
     5.4317   5.4341   5.4349   5.4396   5.4846   5.4851   5.4860   5.4914
     5.5387   5.5401   5.5410   5.5432   5.5658   5.5663   5.5675   5.6054
     5.6060   5.6069   5.6379   5.6398   5.6716   5.6729   5.6741   5.7026
     5.7037   5.7042   5.7179   5.7581   5.7602   5.7606   5.8013   5.8081
     5.8200   5.8236   5.8244   5.8253   5.8899   5.8908   5.8923   6.0571
     6.0599   6.0613   6.0624   6.0774   6.1185   6.1202   6.1214   6.1349
     6.1958   6.2379   6.2384   6.2395   6.2837   6.3012   6.3028   6.3043
     6.3067   6.3849   6.3864   6.3877   6.4506   6.4665   6.4680   6.4694
     6.4920   6.4929   6.5587   6.5593   6.5614   6.6457   6.6840   6.6860
     6.6862   6.7609   6.7774   6.7785   6.7794   6.7946   6.8542   6.8547
     6.8567   6.9352   6.9359   6.9372

     highest occupied level (ev):     7.1806

!    total energy              =   -9077.18752955 Ry
     estimated scf accuracy    <          4.4E-10 Ry

     The total energy is the sum of the following terms:
     one-electron contribution =   -2775.91214510 Ry
     hartree contribution      =    2019.71602177 Ry
     xc contribution           =   -2269.38389878 Ry
     ewald contribution        =   -3895.81161760 Ry
     one-center paw contrib.   =   -2155.79588984 Ry

     convergence has been achieved in  21 iterations

     negative rho (up, down):  7.902E-01 0.000E+00

     Forces acting on atoms (cartesian axes, Ry/au):

     atom    1 type  1   force =     0.00012205    0.00010707    0.00005237
     atom    2 type  1   force =    -0.00024124    0.00026232    0.00000181
     atom    3 type  1   force =    -0.00015727    0.00030560    0.00001331
     atom    4 type  1   force =    -0.00017305    0.00025870   -0.00000745
     atom    5 type  1   force =    -0.00085941   -0.00006812   -0.00047285
     atom    6 type  1   force =    -0.00023227   -0.00034815    0.00018675
     atom    7 type  1   force =    -0.00009875   -0.00035195   -0.00001413
     atom    8 type  1   force =    -0.00015969   -0.00023828   -0.00000088
     atom    9 type  1   force =     0.00030583   -0.00000388   -0.00000480
     atom   10 type  1   force =     0.00031156   -0.00000104   -0.00000350
     atom   11 type  1   force =     0.00030599   -0.00000307   -0.00000570
     atom   12 type  1   force =     0.00030803    0.00000708   -0.00000231
     atom   13 type  2   force =     0.00653188   -0.00249162    0.00198804
     atom   14 type  2   force =     0.00016481   -0.00035757    0.00018297
     atom   15 type  2   force =     0.00020461   -0.00037593    0.00019975
     atom   16 type  2   force =     0.00019065   -0.00037295    0.00019016
     atom   17 type  2   force =     0.00023564    0.00036849    0.00019283
     atom   18 type  2   force =     0.00023138    0.00036454    0.00018501
     atom   19 type  2   force =     0.00022733    0.00037453    0.00019517
     atom   20 type  2   force =     0.00023269    0.00037731    0.00019168
     atom   21 type  2   force =    -0.00042735    0.00000247    0.00018758
     atom   22 type  2   force =    -0.00045157    0.00003994    0.00018439
     atom   23 type  2   force =    -0.00044608    0.00002668    0.00021011
     atom   24 type  2   force =    -0.00043278    0.00002100    0.00018020
     atom   25 type  2   force =    -0.00044029   -0.00001776   -0.00019127
     atom   26 type  2   force =    -0.00048112    0.00004468   -0.00019718
     atom   27 type  2   force =    -0.00048869    0.00003444   -0.00014647
     atom   28 type  2   force =    -0.00045766   -0.00001983   -0.00017702
     atom   29 type  2   force =    -0.00012707    0.00018493   -0.00013779
     atom   30 type  2   force =     0.00001036   -0.00003417   -0.00040992
     atom   31 type  2   force =     0.00020990    0.00039892   -0.00018191
     atom   32 type  2   force =     0.00019799    0.00039139   -0.00018182
     atom   33 type  2   force =     0.00023094   -0.00037230   -0.00018724
     atom   34 type  2   force =     0.00023944   -0.00037088   -0.00018920
     atom   35 type  2   force =     0.00023515   -0.00037018   -0.00018454
     atom   36 type  2   force =     0.00023130   -0.00036649   -0.00019108
     atom   37 type  3   force =     0.00030413   -0.00060926   -0.00007629
     atom   38 type  3   force =     0.00025288   -0.00047676    0.00000798
     atom   39 type  3   force =     0.00027450   -0.00047396   -0.00000401
     atom   40 type  3   force =     0.00029032   -0.00047559   -0.00002428
     atom   41 type  3   force =     0.00028320    0.00051582    0.00006298
     atom   42 type  3   force =     0.00024903    0.00037728   -0.00006601
     atom   43 type  3   force =     0.00028671    0.00046586    0.00000842
     atom   44 type  3   force =     0.00025564    0.00047319   -0.00000689
     atom   45 type  3   force =    -0.00060340   -0.00011529   -0.00006633
     atom   46 type  3   force =     0.00013733    0.00071217    0.00000789
     atom   47 type  3   force =    -0.00070607   -0.00018010   -0.00009077
     atom   48 type  3   force =    -0.00098497    0.00074624   -0.00001777
     atom   49 type  4   force =     0.00033840   -0.00007830    0.00001646
     atom   50 type  4   force =     0.00035593   -0.00009804    0.00001331
     atom   51 type  4   force =     0.00035312   -0.00010448    0.00001581
     atom   52 type  4   force =     0.00035496   -0.00010099    0.00002343
     atom   53 type  4   force =    -0.00002943    0.00037938   -0.00007006
     atom   54 type  4   force =    -0.00003194    0.00047971    0.00017678
     atom   55 type  4   force =    -0.00009614    0.00034904   -0.00000080
     atom   56 type  4   force =    -0.00008792    0.00034821    0.00003831
     atom   57 type  4   force =    -0.00095819   -0.00115349   -0.00005014
     atom   58 type  4   force =    -0.00021003   -0.00031017    0.00002113
     atom   59 type  4   force =    -0.00021256   -0.00025871    0.00001284
     atom   60 type  4   force =    -0.00030129   -0.00028360   -0.00000827
     atom   61 type  4   force =    -0.00013040    0.00027043   -0.00000557
     atom   62 type  4   force =    -0.00027628    0.00027347    0.00003950
     atom   63 type  4   force =    -0.00023955    0.00026935   -0.00001841
     atom   64 type  4   force =    -0.00027434    0.00021424   -0.00006000
     atom   65 type  4   force =     0.00035072    0.00009841   -0.00004040
     atom   66 type  4   force =     0.00035399    0.00010838    0.00002501
     atom   67 type  4   force =     0.00035040    0.00010222   -0.00002314
     atom   68 type  4   force =     0.00035518    0.00009776   -0.00001482
     atom   69 type  4   force =    -0.00008672   -0.00036339   -0.00001735
     atom   70 type  4   force =     0.00009495    0.00036299   -0.00082125
     atom   71 type  4   force =    -0.00007053   -0.00033557    0.00002236
     atom   72 type  4   force =    -0.00009124   -0.00034676   -0.00001604
     atom   73 type  4   force =    -0.00149704    0.00188511    0.00148318
     atom   74 type  4   force =     0.00012909    0.00030269   -0.00023067
     atom   75 type  4   force =     0.00006741    0.00017290   -0.00022692
     atom   76 type  4   force =    -0.00003204    0.00011101   -0.00021270
     atom   77 type  4   force =    -0.00013097   -0.00004980   -0.00025562
     atom   78 type  4   force =    -0.00009048   -0.00008226   -0.00025279
     atom   79 type  4   force =    -0.00014663   -0.00006545   -0.00023923
     atom   80 type  4   force =    -0.00014753   -0.00004650   -0.00025616
     atom   81 type  4   force =     0.00012156   -0.00008187   -0.00024952
     atom   82 type  4   force =     0.00013626   -0.00009947   -0.00024556
     atom   83 type  4   force =     0.00013921   -0.00009057   -0.00024899
     atom   84 type  4   force =     0.00012694   -0.00009133   -0.00024445
     atom   85 type  4   force =     0.00012753    0.00009295    0.00024726
     atom   86 type  4   force =     0.00009818    0.00007784    0.00025871
     atom   87 type  4   force =     0.00014769    0.00004756    0.00024605
     atom   88 type  4   force =     0.00014767    0.00008953    0.00023584
     atom   89 type  4   force =     0.00011216   -0.00011262    0.00024641
     atom   90 type  4   force =    -0.00361518   -0.00025763   -0.00198139
     atom   91 type  4   force =     0.00003090   -0.00015528    0.00024878
     atom   92 type  4   force =    -0.00008179   -0.00019786    0.00025057
     atom   93 type  4   force =    -0.00011522    0.00007773    0.00025177
     atom   94 type  4   force =    -0.00014994    0.00005530    0.00023354
     atom   95 type  4   force =    -0.00013638    0.00007373    0.00024457
     atom   96 type  4   force =    -0.00014503    0.00005870    0.00024861

     Total force =     0.009932     Total SCF correction =     0.000042
     Message from routine punch:
     Nothing written, as per user request (disk_io='none')

     init_run     :     44.71s CPU     47.18s WALL (       1 calls)
     electrons    :   2201.59s CPU   2296.10s WALL (       1 calls)
     forces       :     17.76s CPU     18.19s WALL (       1 calls)

     Called by init_run:
     wfcinit      :     40.72s CPU     42.91s WALL (       1 calls)
     potinit      :      1.19s CPU      1.23s WALL (       1 calls)
     hinit0       :      1.22s CPU      1.25s WALL (       1 calls)

     Called by electrons:
     c_bands      :   1948.78s CPU   2024.84s WALL (      21 calls)
     sum_band     :    225.58s CPU    239.80s WALL (      21 calls)
     v_of_rho     :      4.54s CPU      4.98s WALL (      22 calls)
     newd         :     17.27s CPU     21.09s WALL (      22 calls)
     PAW_pot      :      5.52s CPU      5.54s WALL (      22 calls)
     mix_rho      :      0.70s CPU      0.75s WALL (      21 calls)

     Called by c_bands:
     init_us_2    :     24.59s CPU     24.82s WALL (     308 calls)
     cegterg      :   1878.90s CPU   1954.44s WALL (     147 calls)

     Called by *egterg:
     cdiaghg      :     83.60s CPU     85.96s WALL (     887 calls)
     h_psi        :   1030.48s CPU   1092.88s WALL (     894 calls)
     s_psi        :    229.71s CPU    231.49s WALL (     894 calls)
     g_psi        :      3.47s CPU      3.50s WALL (     740 calls)

     Called by h_psi:
     h_psi:calbec :    236.97s CPU    240.28s WALL (     894 calls)
     vloc_psi     :    558.66s CPU    613.66s WALL (     894 calls)
     add_vuspsi   :    229.91s CPU    231.67s WALL (     894 calls)

     General routines
     calbec       :    323.78s CPU    328.29s WALL (    1069 calls)
     fft          :      6.49s CPU      6.95s WALL (     295 calls)
     ffts         :      0.78s CPU      0.80s WALL (      43 calls)
     fftw         :    455.97s CPU    508.32s WALL (  434472 calls)
     interpolate  :      0.97s CPU      1.02s WALL (      22 calls)

     Parallel routines

     PWSCF        :  37m44.33s CPU  39m22.03s WALL


   This run was terminated on:   3: 6:30  21Aug2026            

=------------------------------------------------------------------------------=
   JOB DONE.
=------------------------------------------------------------------------------=
