
     Program PWSCF v.7.5 starts on  2Jul2026 at  2:27:51 
        Git branch: develop
        Last git commit: ea9b1b3d7915154c244e4a71786faaa0fdafa55c
        Last git commit date: Mon Mar 16 14:03:30 2026 +0000
        Last git commit subject: Merge branch 'dev_td_porting' into 'develop'

     This program is part of the open-source Quantum ESPRESSO suite
     for quantum simulation of materials; please cite
         "P. Giannozzi et al., J. Phys.:Condens. Matter 21 395502 (2009);
         "P. Giannozzi et al., J. Phys.:Condens. Matter 29 465901 (2017);
         "P. Giannozzi et al., J. Chem. Phys. 152 154105 (2020);
          URL http://www.quantum-espresso.org", 
     in publications or presentations arising from this work. More details at
     http://www.quantum-espresso.org/quote

     Parallel version (MPI), running on     4 processors

     MPI processes distributed on     1 nodes
     0 MiB available memory on the printing compute node when the environment starts

     Reading input from inputs/k_6x3x2.in
Warning: card &CELL ignored

     Current dimensions of program PWSCF are:
     Max number of different atomic species (ntypx) = 10
     Max number of k-points (npk) =  40000
     Max angular momentum in pseudopotentials (lmaxx) =  4

     Exact exchange band parallelism type set to band_pairs

     Message from routine setup:
     using ibrav=0 with symmetry is DISCOURAGED, use correct ibrav instead

     R & G space division:  proc/nbgrp/npool/nimage =       4
     Subspace diagonalization in iterative solution of the eigenvalue problem:
     a serial algorithm will be used


     Parallelization info
     --------------------
     sticks:   dense  smooth     PW     G-vecs:    dense   smooth      PW
     Min         937     467    132               105173    37183    5623
     Max         938     468    133               105182    37188    5627
     Sum        3749    1869    531               420701   148739   22501

     Using Slab Decomposition



     bravais-lattice index     =            0
     lattice parameter (alat)  =       7.2569  a.u.
     unit-cell volume          =    3114.5940 (a.u.)^3
     number of atoms/cell      =           20
     number of atomic types    =            3
     number of electrons       =       160.00
     number of Kohn-Sham states=           80
     kinetic-energy cutoff     =      50.0000  Ry
     charge density cutoff     =     400.0000  Ry
     scf convergence threshold =      1.0E-08
     mixing beta               =       0.3000
     number of iterations used =            8  plain     mixing
     Exchange-correlation= SLA  PW   PBE  PBE
                           (   1   4   3   4   0   0   0)

     celldm(1)=   7.256926  celldm(2)=   0.000000  celldm(3)=   0.000000
     celldm(4)=   0.000000  celldm(5)=   0.000000  celldm(6)=   0.000000

     crystal axes: (cart. coord. in units of alat)
               a(1) = (   1.000000   0.000000   0.000000 )  
               a(2) = (  -0.000000   2.236035   0.000000 )  
               a(3) = (   0.000000   0.000000   3.644724 )  

     reciprocal axes: (cart. coord. in units 2 pi/alat)
               b(1) = (  1.000000  0.000000 -0.000000 )  
               b(2) = (  0.000000  0.447220  0.000000 )  
               b(3) = (  0.000000 -0.000000  0.274369 )  


     PseudoPot. # 1 for S  read from file:
     /Users/kaede/scientific-tools/pseudopotentials/SSSP/1.3.0/PBE/precision/s_pbe_v1.4.uspp.F.UPF
     MD5 check sum: 88d86576ff6df21479756cfb9bdac1df
     Pseudo is Ultrasoft + core correction, Zval =  6.0
     Generated by new atomic code, or converted to UPF format
     Using radial grid of  907 points,  6 beta functions with: 
                l(1) =   0
                l(2) =   0
                l(3) =   1
                l(4) =   1
                l(5) =   2
                l(6) =   2
     Q(r) pseudized with  8 coefficients,  rinner =    1.300   1.300   1.300
                                                       1.300   1.300

     PseudoPot. # 2 for Sr read from file:
     /Users/kaede/scientific-tools/pseudopotentials/SSSP/1.3.0/PBE/precision/Sr_pbe_v1.uspp.F.UPF
     MD5 check sum: 6b418c05fbe9db5448babca5e47b7a5b
     Pseudo is Ultrasoft + core correction, Zval = 10.0
     Generated by new atomic code, or converted to UPF format
     Using radial grid of  883 points,  6 beta functions with: 
                l(1) =   0
                l(2) =   0
                l(3) =   1
                l(4) =   1
                l(5) =   2
                l(6) =   2
     Q(r) pseudized with  6 coefficients,  rinner =    1.400   1.400   1.400
                                                       1.400   1.400

     PseudoPot. # 3 for Zr read from file:
     /Users/kaede/scientific-tools/pseudopotentials/SSSP/1.3.0/PBE/precision/Zr_pbe_v1.uspp.F.UPF
     MD5 check sum: 5db81b1e868ab7776c4564c113de050b
     Pseudo is Ultrasoft + core correction, Zval = 12.0
     Generated by new atomic code, or converted to UPF format
     Using radial grid of  887 points,  6 beta functions with: 
                l(1) =   0
                l(2) =   0
                l(3) =   1
                l(4) =   1
                l(5) =   2
                l(6) =   2
     Q(r) pseudized with  6 coefficients,  rinner =    1.200   1.200   1.200
                                                       1.200   1.200

     atomic species   valence    mass     pseudopotential
     S                 6.00    32.06500     S ( 1.00)
     Sr               10.00    87.62000     Sr( 1.00)
     Zr               12.00    91.22400     Zr( 1.00)

      8 Sym. Ops., with inversion, found ( 6 have fractional translation)


                                    s                        frac. trans.

      isym =  1     identity                                     

 cryst.   s( 1) = (     1          0          0      )
                  (     0          1          0      )
                  (     0          0          1      )

 cart.    s( 1) = (  1.0000000  0.0000000  0.0000000 )
                  (  0.0000000  1.0000000  0.0000000 )
                  (  0.0000000  0.0000000  1.0000000 )


      isym =  2     180 deg rotation - cart. axis [0,0,1]        

 cryst.   s( 2) = (    -1          0          0      )    f =(  0.0000000 )
                  (     0         -1          0      )       ( -0.5000000 )
                  (     0          0          1      )       (  0.5000000 )

 cart.    s( 2) = ( -1.0000000  0.0000000  0.0000000 )    f =(  0.0000000 )
                  (  0.0000000 -1.0000000  0.0000000 )       ( -1.1180177 )
                  (  0.0000000  0.0000000  1.0000000 )       (  1.8223620 )


      isym =  3     180 deg rotation - cart. axis [0,1,0]        

 cryst.   s( 3) = (    -1          0          0      )    f =(  0.5000000 )
                  (     0          1          0      )       (  0.5000000 )
                  (     0          0         -1      )       (  0.5000000 )

 cart.    s( 3) = ( -1.0000000  0.0000000  0.0000000 )    f =(  0.5000000 )
                  (  0.0000000  1.0000000  0.0000000 )       (  1.1180177 )
                  (  0.0000000  0.0000000 -1.0000000 )       (  1.8223620 )


      isym =  4     180 deg rotation - cart. axis [1,0,0]        

 cryst.   s( 4) = (     1          0          0      )    f =( -0.5000000 )
                  (     0         -1          0      )       (  0.0000000 )
                  (     0          0         -1      )       (  0.0000000 )

 cart.    s( 4) = (  1.0000000  0.0000000  0.0000000 )    f =( -0.5000000 )
                  (  0.0000000 -1.0000000  0.0000000 )       (  0.0000000 )
                  (  0.0000000  0.0000000 -1.0000000 )       (  0.0000000 )


      isym =  5     inversion                                    

 cryst.   s( 5) = (    -1          0          0      )
                  (     0         -1          0      )
                  (     0          0         -1      )

 cart.    s( 5) = ( -1.0000000  0.0000000  0.0000000 )
                  (  0.0000000 -1.0000000  0.0000000 )
                  (  0.0000000  0.0000000 -1.0000000 )


      isym =  6     inv. 180 deg rotation - cart. axis [0,0,1]   

 cryst.   s( 6) = (     1          0          0      )    f =(  0.0000000 )
                  (     0          1          0      )       (  0.5000000 )
                  (     0          0         -1      )       (  0.5000000 )

 cart.    s( 6) = (  1.0000000  0.0000000  0.0000000 )    f =(  0.0000000 )
                  (  0.0000000  1.0000000  0.0000000 )       (  1.1180177 )
                  (  0.0000000  0.0000000 -1.0000000 )       (  1.8223620 )


      isym =  7     inv. 180 deg rotation - cart. axis [0,1,0]   

 cryst.   s( 7) = (     1          0          0      )    f =( -0.5000000 )
                  (     0         -1          0      )       ( -0.5000000 )
                  (     0          0          1      )       (  0.5000000 )

 cart.    s( 7) = (  1.0000000  0.0000000  0.0000000 )    f =( -0.5000000 )
                  (  0.0000000 -1.0000000  0.0000000 )       ( -1.1180177 )
                  (  0.0000000  0.0000000  1.0000000 )       (  1.8223620 )


      isym =  8     inv. 180 deg rotation - cart. axis [1,0,0]   

 cryst.   s( 8) = (    -1          0          0      )    f =(  0.5000000 )
                  (     0          1          0      )       (  0.0000000 )
                  (     0          0          1      )       (  0.0000000 )

 cart.    s( 8) = ( -1.0000000  0.0000000  0.0000000 )    f =(  0.5000000 )
                  (  0.0000000  1.0000000  0.0000000 )       (  0.0000000 )
                  (  0.0000000  0.0000000  1.0000000 )       (  0.0000000 )


   Cartesian axes

     site n.     atom                  positions (alat units)
         1        Sr     tau(   1) = (   0.2500000   0.1482894   2.9910901  )
         2        Sr     tau(   2) = (   0.7500000   2.0877460   0.6536339  )
         3        Sr     tau(   3) = (   0.7500000   0.9697283   1.1687281  )
         4        Sr     tau(   4) = (   0.2500000   1.2663071   2.4759958  )
         5        Zr     tau(   5) = (   0.2500000   0.7327533   0.2079279  )
         6        Zr     tau(   6) = (   0.7500000   1.5032821   3.4367961  )
         7        Zr     tau(   7) = (   0.7500000   0.3852644   2.0302898  )
         8        Zr     tau(   8) = (   0.2500000   1.8507709   1.6144341  )
         9        S      tau(   9) = (   0.2500000   0.4620834   0.7862872  )
        10        S      tau(  10) = (   0.7500000   1.7739519   2.8584367  )
        11        S      tau(  11) = (   0.7500000   0.6559343   2.6086492  )
        12        S      tau(  12) = (   0.2500000   1.5801011   1.0360747  )
        13        S      tau(  13) = (   0.2500000   0.7520860   1.7723564  )
        14        S      tau(  14) = (   0.7500000   1.4839493   1.8723676  )
        15        S      tau(  15) = (   0.7500000   0.3659317   3.5947184  )
        16        S      tau(  16) = (   0.2500000   1.8701037   0.0500056  )
        17        S      tau(  17) = (   0.2500000   1.0839137   3.2590575  )
        18        S      tau(  18) = (   0.7500000   1.1521217   0.3856665  )
        19        S      tau(  19) = (   0.7500000   0.0341040   1.4366955  )
        20        S      tau(  20) = (   0.2500000   2.2019314   2.2080285  )

   Crystallographic axes

     site n.     atom                  positions (cryst. coord.)
         1        Sr     tau(   1) = (  0.2500000  0.0663180  0.8206630  )
         2        Sr     tau(   2) = (  0.7500000  0.9336820  0.1793370  )
         3        Sr     tau(   3) = (  0.7500000  0.4336820  0.3206630  )
         4        Sr     tau(   4) = (  0.2500000  0.5663180  0.6793370  )
         5        Zr     tau(   5) = (  0.2500000  0.3277020  0.0570490  )
         6        Zr     tau(   6) = (  0.7500000  0.6722980  0.9429510  )
         7        Zr     tau(   7) = (  0.7500000  0.1722980  0.5570490  )
         8        Zr     tau(   8) = (  0.2500000  0.8277020  0.4429510  )
         9        S      tau(   9) = (  0.2500000  0.2066530  0.2157330  )
        10        S      tau(  10) = (  0.7500000  0.7933470  0.7842670  )
        11        S      tau(  11) = (  0.7500000  0.2933470  0.7157330  )
        12        S      tau(  12) = (  0.2500000  0.7066530  0.2842670  )
        13        S      tau(  13) = (  0.2500000  0.3363480  0.4862800  )
        14        S      tau(  14) = (  0.7500000  0.6636520  0.5137200  )
        15        S      tau(  15) = (  0.7500000  0.1636520  0.9862800  )
        16        S      tau(  16) = (  0.2500000  0.8363480  0.0137200  )
        17        S      tau(  17) = (  0.2500000  0.4847480  0.8941850  )
        18        S      tau(  18) = (  0.7500000  0.5152520  0.1058150  )
        19        S      tau(  19) = (  0.7500000  0.0152520  0.3941850  )
        20        S      tau(  20) = (  0.2500000  0.9847480  0.6058150  )

     number of k points=    16
                       cart. coord. in units 2pi/alat
        k(    1) = (   0.0000000   0.0000000   0.0000000), wk =   0.0555556
        k(    2) = (   0.0000000   0.0000000  -0.1371846), wk =   0.0555556
        k(    3) = (   0.0000000   0.1490734   0.0000000), wk =   0.1111111
        k(    4) = (   0.0000000   0.1490734  -0.1371846), wk =   0.1111111
        k(    5) = (   0.1666667   0.0000000   0.0000000), wk =   0.1111111
        k(    6) = (   0.1666667   0.0000000  -0.1371846), wk =   0.1111111
        k(    7) = (   0.1666667   0.1490734   0.0000000), wk =   0.2222222
        k(    8) = (   0.1666667   0.1490734  -0.1371846), wk =   0.2222222
        k(    9) = (   0.3333333   0.0000000   0.0000000), wk =   0.1111111
        k(   10) = (   0.3333333   0.0000000  -0.1371846), wk =   0.1111111
        k(   11) = (   0.3333333   0.1490734   0.0000000), wk =   0.2222222
        k(   12) = (   0.3333333   0.1490734  -0.1371846), wk =   0.2222222
        k(   13) = (  -0.5000000   0.0000000   0.0000000), wk =   0.0555556
        k(   14) = (  -0.5000000   0.0000000  -0.1371846), wk =   0.0555556
        k(   15) = (  -0.5000000   0.1490734   0.0000000), wk =   0.1111111
        k(   16) = (  -0.5000000   0.1490734  -0.1371846), wk =   0.1111111

                       cryst. coord.
        k(    1) = (   0.0000000   0.0000000   0.0000000), wk =   0.0555556
        k(    2) = (   0.0000000   0.0000000  -0.5000000), wk =   0.0555556
        k(    3) = (   0.0000000   0.3333333   0.0000000), wk =   0.1111111
        k(    4) = (   0.0000000   0.3333333  -0.5000000), wk =   0.1111111
        k(    5) = (   0.1666667   0.0000000   0.0000000), wk =   0.1111111
        k(    6) = (   0.1666667   0.0000000  -0.5000000), wk =   0.1111111
        k(    7) = (   0.1666667   0.3333333   0.0000000), wk =   0.2222222
        k(    8) = (   0.1666667   0.3333333  -0.5000000), wk =   0.2222222
        k(    9) = (   0.3333333   0.0000000   0.0000000), wk =   0.1111111
        k(   10) = (   0.3333333   0.0000000  -0.5000000), wk =   0.1111111
        k(   11) = (   0.3333333   0.3333333   0.0000000), wk =   0.2222222
        k(   12) = (   0.3333333   0.3333333  -0.5000000), wk =   0.2222222
        k(   13) = (  -0.5000000   0.0000000   0.0000000), wk =   0.0555556
        k(   14) = (  -0.5000000   0.0000000  -0.5000000), wk =   0.0555556
        k(   15) = (  -0.5000000   0.3333333   0.0000000), wk =   0.1111111
        k(   16) = (  -0.5000000   0.3333333  -0.5000000), wk =   0.1111111

     Dense  grid:   420701 G-vectors     FFT dimensions: (  48, 108, 180)

     Smooth grid:   148739 G-vectors     FFT dimensions: (  36,  80, 120)

     Dynamical RAM for                 wfc:       5.67 MB

     Dynamical RAM for     wfc (w. buffer):      96.46 MB

     Dynamical RAM for           str. fact:       4.81 MB

     Dynamical RAM for           local pot:       0.00 MB

     Dynamical RAM for          nlocal pot:      25.53 MB

     Dynamical RAM for                qrad:       4.82 MB

     Dynamical RAM for          rho,v,vnew:      10.15 MB

     Dynamical RAM for               rhoin:       3.38 MB

     Dynamical RAM for            rho*nmix:      25.68 MB

     Dynamical RAM for           G-vectors:       6.30 MB

     Dynamical RAM for          h,s,v(r/c):       1.17 MB

     Dynamical RAM for          <psi|beta>:       0.44 MB

     Dynamical RAM for                 psi:      11.35 MB

     Dynamical RAM for                hpsi:      11.35 MB

     Dynamical RAM for                spsi:      11.35 MB

     Dynamical RAM for      wfcinit/wfcrot:      11.49 MB

     Dynamical RAM for           addusdens:     317.78 MB

     Dynamical RAM for         addusstress:     322.59 MB

     Estimated static dynamical RAM per process >     166.78 MB

     Estimated max dynamical RAM per process >     515.05 MB

     Estimated total dynamical RAM >       2.01 GB

     Initial potential from superposition of free atoms

     starting charge     159.8564, renormalised to     160.0000

     negative rho (up, down):  4.974E-01 0.000E+00
     Starting wfcs are  152 randomized atomic wfcs

     total cpu time spent up to now is        6.1 secs

     Self-consistent Calculation

     iteration #  1     ecut=    50.00 Ry     beta= 0.30
     Davidson diagonalization with overlap

---- Real-time Memory Report at c_bands before calling an iterative solver
             0 MiB given to the printing process from OS
             0 MiB allocation reported by mallinfo(arena+hblkhd)
             0 MiB available memory on the node where the printing process lives
------------------
     ethr =  1.00E-02,  avg # of iterations =  1.0

     negative rho (up, down):  5.021E-01 0.000E+00

     total cpu time spent up to now is       13.7 secs

     total energy              =    -968.72041263 Ry
     estimated scf accuracy    <       1.80375620 Ry

     iteration #  2     ecut=    50.00 Ry     beta= 0.30
     Davidson diagonalization with overlap

---- Real-time Memory Report at c_bands before calling an iterative solver
             0 MiB given to the printing process from OS
             0 MiB allocation reported by mallinfo(arena+hblkhd)
             0 MiB available memory on the node where the printing process lives
------------------
     ethr =  1.13E-03,  avg # of iterations =  3.2

     negative rho (up, down):  5.077E-01 0.000E+00

     total cpu time spent up to now is       23.7 secs

     total energy              =    -968.97143319 Ry
     estimated scf accuracy    <       0.27832651 Ry

     iteration #  3     ecut=    50.00 Ry     beta= 0.30
     Davidson diagonalization with overlap

---- Real-time Memory Report at c_bands before calling an iterative solver
             0 MiB given to the printing process from OS
             0 MiB allocation reported by mallinfo(arena+hblkhd)
             0 MiB available memory on the node where the printing process lives
------------------
     ethr =  1.74E-04,  avg # of iterations =  4.4

     negative rho (up, down):  5.111E-01 0.000E+00

     total cpu time spent up to now is       35.1 secs

     total energy              =    -969.01922822 Ry
     estimated scf accuracy    <       0.08033594 Ry

     iteration #  4     ecut=    50.00 Ry     beta= 0.30
     Davidson diagonalization with overlap

---- Real-time Memory Report at c_bands before calling an iterative solver
             0 MiB given to the printing process from OS
             0 MiB allocation reported by mallinfo(arena+hblkhd)
             0 MiB available memory on the node where the printing process lives
------------------
     ethr =  5.02E-05,  avg # of iterations =  4.1

     negative rho (up, down):  5.141E-01 0.000E+00

     total cpu time spent up to now is       45.8 secs

     total energy              =    -969.03521110 Ry
     estimated scf accuracy    <       0.02905256 Ry

     iteration #  5     ecut=    50.00 Ry     beta= 0.30
     Davidson diagonalization with overlap

---- Real-time Memory Report at c_bands before calling an iterative solver
             0 MiB given to the printing process from OS
             0 MiB allocation reported by mallinfo(arena+hblkhd)
             0 MiB available memory on the node where the printing process lives
------------------
     ethr =  1.82E-05,  avg # of iterations =  3.2

     negative rho (up, down):  5.168E-01 0.000E+00

     total cpu time spent up to now is       55.6 secs

     total energy              =    -969.03845221 Ry
     estimated scf accuracy    <       0.00543241 Ry

     iteration #  6     ecut=    50.00 Ry     beta= 0.30
     Davidson diagonalization with overlap

---- Real-time Memory Report at c_bands before calling an iterative solver
             0 MiB given to the printing process from OS
             0 MiB allocation reported by mallinfo(arena+hblkhd)
             0 MiB available memory on the node where the printing process lives
------------------
     ethr =  3.40E-06,  avg # of iterations =  5.7

     negative rho (up, down):  5.171E-01 0.000E+00

     total cpu time spent up to now is       69.4 secs

     total energy              =    -969.03445607 Ry
     estimated scf accuracy    <       0.01743855 Ry

     iteration #  7     ecut=    50.00 Ry     beta= 0.30
     Davidson diagonalization with overlap

---- Real-time Memory Report at c_bands before calling an iterative solver
             0 MiB given to the printing process from OS
             0 MiB allocation reported by mallinfo(arena+hblkhd)
             0 MiB available memory on the node where the printing process lives
------------------
     ethr =  3.40E-06,  avg # of iterations =  5.9

     negative rho (up, down):  5.171E-01 0.000E+00

     total cpu time spent up to now is       83.3 secs

     total energy              =    -969.03956918 Ry
     estimated scf accuracy    <       0.00489219 Ry

     iteration #  8     ecut=    50.00 Ry     beta= 0.30
     Davidson diagonalization with overlap

---- Real-time Memory Report at c_bands before calling an iterative solver
             0 MiB given to the printing process from OS
             0 MiB allocation reported by mallinfo(arena+hblkhd)
             0 MiB available memory on the node where the printing process lives
------------------
     ethr =  3.06E-06,  avg # of iterations =  2.0

     negative rho (up, down):  5.171E-01 0.000E+00

     total cpu time spent up to now is       91.9 secs

     total energy              =    -969.03885460 Ry
     estimated scf accuracy    <       0.00167839 Ry

     iteration #  9     ecut=    50.00 Ry     beta= 0.30
     Davidson diagonalization with overlap

---- Real-time Memory Report at c_bands before calling an iterative solver
             0 MiB given to the printing process from OS
             0 MiB allocation reported by mallinfo(arena+hblkhd)
             0 MiB available memory on the node where the printing process lives
------------------
     ethr =  1.05E-06,  avg # of iterations =  5.6

     negative rho (up, down):  5.169E-01 0.000E+00

     total cpu time spent up to now is      104.7 secs

     total energy              =    -969.03953170 Ry
     estimated scf accuracy    <       0.00159562 Ry

     iteration # 10     ecut=    50.00 Ry     beta= 0.30
     Davidson diagonalization with overlap

---- Real-time Memory Report at c_bands before calling an iterative solver
             0 MiB given to the printing process from OS
             0 MiB allocation reported by mallinfo(arena+hblkhd)
             0 MiB available memory on the node where the printing process lives
------------------
     ethr =  9.97E-07,  avg # of iterations =  2.2

     negative rho (up, down):  5.168E-01 0.000E+00

     total cpu time spent up to now is      113.9 secs

     total energy              =    -969.03965746 Ry
     estimated scf accuracy    <       0.00022613 Ry

     iteration # 11     ecut=    50.00 Ry     beta= 0.30
     Davidson diagonalization with overlap

---- Real-time Memory Report at c_bands before calling an iterative solver
             0 MiB given to the printing process from OS
             0 MiB allocation reported by mallinfo(arena+hblkhd)
             0 MiB available memory on the node where the printing process lives
------------------
     ethr =  1.41E-07,  avg # of iterations =  4.5

     negative rho (up, down):  5.167E-01 0.000E+00

     total cpu time spent up to now is      124.3 secs

     total energy              =    -969.03967366 Ry
     estimated scf accuracy    <       0.00003547 Ry

     iteration # 12     ecut=    50.00 Ry     beta= 0.30
     Davidson diagonalization with overlap

---- Real-time Memory Report at c_bands before calling an iterative solver
             0 MiB given to the printing process from OS
             0 MiB allocation reported by mallinfo(arena+hblkhd)
             0 MiB available memory on the node where the printing process lives
------------------
     ethr =  2.22E-08,  avg # of iterations =  5.2

     negative rho (up, down):  5.167E-01 0.000E+00

     total cpu time spent up to now is      138.0 secs

     total energy              =    -969.03969081 Ry
     estimated scf accuracy    <       0.00003834 Ry

     iteration # 13     ecut=    50.00 Ry     beta= 0.30
     Davidson diagonalization with overlap

---- Real-time Memory Report at c_bands before calling an iterative solver
             0 MiB given to the printing process from OS
             0 MiB allocation reported by mallinfo(arena+hblkhd)
             0 MiB available memory on the node where the printing process lives
------------------
     ethr =  2.22E-08,  avg # of iterations =  2.3

     negative rho (up, down):  5.167E-01 0.000E+00

     total cpu time spent up to now is      147.4 secs

     total energy              =    -969.03969501 Ry
     estimated scf accuracy    <       0.00000276 Ry

     iteration # 14     ecut=    50.00 Ry     beta= 0.30
     Davidson diagonalization with overlap

---- Real-time Memory Report at c_bands before calling an iterative solver
             0 MiB given to the printing process from OS
             0 MiB allocation reported by mallinfo(arena+hblkhd)
             0 MiB available memory on the node where the printing process lives
------------------
     ethr =  1.73E-09,  avg # of iterations =  4.4

     negative rho (up, down):  5.167E-01 0.000E+00

     total cpu time spent up to now is      160.1 secs

     total energy              =    -969.03969638 Ry
     estimated scf accuracy    <       0.00000019 Ry

     iteration # 15     ecut=    50.00 Ry     beta= 0.30
     Davidson diagonalization with overlap

---- Real-time Memory Report at c_bands before calling an iterative solver
             0 MiB given to the printing process from OS
             0 MiB allocation reported by mallinfo(arena+hblkhd)
             0 MiB available memory on the node where the printing process lives
------------------
     ethr =  1.18E-10,  avg # of iterations =  6.0

     negative rho (up, down):  5.167E-01 0.000E+00

     total cpu time spent up to now is      175.9 secs

     total energy              =    -969.03969628 Ry
     estimated scf accuracy    <       0.00000075 Ry

     iteration # 16     ecut=    50.00 Ry     beta= 0.30
     Davidson diagonalization with overlap

---- Real-time Memory Report at c_bands before calling an iterative solver
             0 MiB given to the printing process from OS
             0 MiB allocation reported by mallinfo(arena+hblkhd)
             0 MiB available memory on the node where the printing process lives
------------------
     ethr =  1.18E-10,  avg # of iterations =  4.4

     negative rho (up, down):  5.167E-01 0.000E+00

     total cpu time spent up to now is      186.6 secs

     total energy              =    -969.03969631 Ry
     estimated scf accuracy    <       0.00000009 Ry

     iteration # 17     ecut=    50.00 Ry     beta= 0.30
     Davidson diagonalization with overlap

---- Real-time Memory Report at c_bands before calling an iterative solver
             0 MiB given to the printing process from OS
             0 MiB allocation reported by mallinfo(arena+hblkhd)
             0 MiB available memory on the node where the printing process lives
------------------
     ethr =  5.32E-11,  avg # of iterations =  5.0

     negative rho (up, down):  5.167E-01 0.000E+00

     total cpu time spent up to now is      199.0 secs

     total energy              =    -969.03969634 Ry
     estimated scf accuracy    <       0.00000002 Ry

     iteration # 18     ecut=    50.00 Ry     beta= 0.30
     Davidson diagonalization with overlap

---- Real-time Memory Report at c_bands before calling an iterative solver
             0 MiB given to the printing process from OS
             0 MiB allocation reported by mallinfo(arena+hblkhd)
             0 MiB available memory on the node where the printing process lives
------------------
     ethr =  1.22E-11,  avg # of iterations =  2.4

     negative rho (up, down):  5.167E-01 0.000E+00

     total cpu time spent up to now is      208.4 secs

     End of self-consistent calculation

          k = 0.0000 0.0000 0.0000 ( 18571 PWs)   bands (ev):

   -41.3263 -41.3263 -41.3217 -41.3217 -26.5844 -26.5843 -26.5828 -26.5826
   -19.4181 -19.4181 -19.3847 -19.3847 -19.3385 -19.3385 -19.3102 -19.3102
   -19.2915 -19.2915 -19.2749 -19.2749  -8.6896  -8.6826  -8.6801  -8.6719
    -8.6584  -8.6336  -8.5791  -8.5786  -8.5199  -8.5190  -8.5133  -8.5123
    -4.8338  -4.5993  -4.0441  -3.9909  -3.7542  -3.6583  -3.6260  -3.6216
    -3.4873  -3.3913  -3.3396  -3.2626   3.6912   3.9257   3.9569   3.9893
     4.0268   4.2204   4.3378   4.5928   4.8034   4.8045   4.8335   4.8792
     4.9241   4.9546   4.9667   5.4833   5.7142   5.7287   5.7735   5.9704
     5.9815   6.0252   6.3385   6.3550   6.5537   6.6132   6.6893   6.7248
     6.8178   6.8876   7.0107   7.1774   7.5088   7.5357   7.7399   7.9446

     occupation numbers 
     1.0000   1.0000   1.0000   1.0000   1.0000   1.0000   1.0000   1.0000
     1.0000   1.0000   1.0000   1.0000   1.0000   1.0000   1.0000   1.0000
     1.0000   1.0000   1.0000   1.0000   1.0000   1.0000   1.0000   1.0000
     1.0000   1.0000   1.0000   1.0000   1.0000   1.0000   1.0000   1.0000
     1.0000   1.0000   1.0000   1.0000   1.0000   1.0000   1.0000   1.0000
     1.0000   1.0000   1.0000   1.0000   1.0000   1.0000   1.0000   1.0000
     1.0000   1.0000   1.0000   1.0000   1.0000   1.0000   1.0000   1.0000
     1.0000   1.0000   1.0000   1.0000   1.0000   1.0000   1.0000   1.0000
     1.0000   1.0000   1.0000   1.0000   1.0000   1.0000   1.0000   1.0000
     1.0000   1.0000   1.0000   1.0000   1.0000   1.0000   1.0000   1.0000

          k = 0.0000 0.0000-0.1372 ( 18560 PWs)   bands (ev):

   -41.3263 -41.3263 -41.3217 -41.3217 -26.5844 -26.5844 -26.5827 -26.5827
   -19.4181 -19.4181 -19.3847 -19.3847 -19.3385 -19.3385 -19.3102 -19.3102
   -19.2915 -19.2915 -19.2749 -19.2749  -8.6860  -8.6860  -8.6777  -8.6777
    -8.6445  -8.6445  -8.5789  -8.5789  -8.5195  -8.5195  -8.5128  -8.5128
    -4.7316  -4.7316  -4.0006  -4.0006  -3.7056  -3.7056  -3.6093  -3.6093
    -3.4697  -3.4697  -3.2878  -3.2878   3.7799   3.7799   3.9854   3.9854
     4.1121   4.1121   4.5638   4.5638   4.8180   4.8180   4.8801   4.8801
     4.9476   4.9476   4.9608   4.9608   5.5950   5.5950   5.9973   5.9973
     6.2225   6.2225   6.3522   6.3522   6.6809   6.6809   6.7451   6.7451
     6.7496   6.7496   7.1076   7.1076   7.3741   7.3741   7.8378   7.8378

     occupation numbers 
     1.0000   1.0000   1.0000   1.0000   1.0000   1.0000   1.0000   1.0000
     1.0000   1.0000   1.0000   1.0000   1.0000   1.0000   1.0000   1.0000
     1.0000   1.0000   1.0000   1.0000   1.0000   1.0000   1.0000   1.0000
     1.0000   1.0000   1.0000   1.0000   1.0000   1.0000   1.0000   1.0000
     1.0000   1.0000   1.0000   1.0000   1.0000   1.0000   1.0000   1.0000
     1.0000   1.0000   1.0000   1.0000   1.0000   1.0000   1.0000   1.0000
     1.0000   1.0000   1.0000   1.0000   1.0000   1.0000   1.0000   1.0000
     1.0000   1.0000   1.0000   1.0000   1.0000   1.0000   1.0000   1.0000
     1.0000   1.0000   1.0000   1.0000   1.0000   1.0000   1.0000   1.0000
     1.0000   1.0000   1.0000   1.0000   1.0000   1.0000   1.0000   1.0000

          k = 0.0000 0.1491 0.0000 ( 18580 PWs)   bands (ev):

   -41.3263 -41.3263 -41.3217 -41.3217 -26.5840 -26.5838 -26.5832 -26.5830
   -19.4179 -19.4179 -19.3850 -19.3849 -19.3384 -19.3384 -19.3103 -19.3102
   -19.2915 -19.2915 -19.2749 -19.2749  -8.6960  -8.6871  -8.6750  -8.6634
    -8.6425  -8.6201  -8.6009  -8.5916  -8.5182  -8.5173  -8.5150  -8.5140
    -4.7119  -4.5584  -4.1586  -4.1131  -3.8837  -3.8623  -3.4966  -3.4482
    -3.4072  -3.3807  -3.2914  -3.2790   3.5037   3.6384   3.7829   3.8090
     4.1443   4.2868   4.4110   4.7925   4.8153   4.9347   4.9463   4.9527
     4.9575   5.1939   5.2913   5.3296   5.5996   5.6846   5.8582   6.0958
     6.1568   6.1631   6.1778   6.3891   6.5492   6.5996   6.7573   6.8496
     6.8514   6.9249   6.9944   7.1369   7.2263   7.2968   7.3786   7.4351

     occupation numbers 
     1.0000   1.0000   1.0000   1.0000   1.0000   1.0000   1.0000   1.0000
     1.0000   1.0000   1.0000   1.0000   1.0000   1.0000   1.0000   1.0000
     1.0000   1.0000   1.0000   1.0000   1.0000   1.0000   1.0000   1.0000
     1.0000   1.0000   1.0000   1.0000   1.0000   1.0000   1.0000   1.0000
     1.0000   1.0000   1.0000   1.0000   1.0000   1.0000   1.0000   1.0000
     1.0000   1.0000   1.0000   1.0000   1.0000   1.0000   1.0000   1.0000
     1.0000   1.0000   1.0000   1.0000   1.0000   1.0000   1.0000   1.0000
     1.0000   1.0000   1.0000   1.0000   1.0000   1.0000   1.0000   1.0000
     1.0000   1.0000   1.0000   1.0000   1.0000   1.0000   1.0000   1.0000
     1.0000   1.0000   1.0000   1.0000   1.0000   1.0000   1.0000   1.0000

          k = 0.0000 0.1491-0.1372 ( 18590 PWs)   bands (ev):

   -41.3263 -41.3263 -41.3217 -41.3217 -26.5839 -26.5839 -26.5831 -26.5831
   -19.4179 -19.4179 -19.3849 -19.3849 -19.3384 -19.3384 -19.3102 -19.3102
   -19.2915 -19.2915 -19.2749 -19.2749  -8.6886  -8.6886  -8.6744  -8.6744
    -8.6301  -8.6301  -8.5954  -8.5954  -8.5179  -8.5179  -8.5144  -8.5144
    -4.6372  -4.6372  -4.1540  -4.1540  -3.8461  -3.8461  -3.4893  -3.4893
    -3.3547  -3.3547  -3.3142  -3.3142   3.5654   3.5654   3.7733   3.7733
     4.2459   4.2459   4.7138   4.7138   4.8047   4.8047   4.8964   4.8964
     4.9423   4.9423   5.4544   5.4544   5.5983   5.5983   5.9891   5.9891
     6.1675   6.1675   6.4003   6.4003   6.5751   6.5751   6.7754   6.7754
     6.7986   6.7986   7.0522   7.0522   7.2207   7.2207   7.4800   7.4800

     occupation numbers 
     1.0000   1.0000   1.0000   1.0000   1.0000   1.0000   1.0000   1.0000
     1.0000   1.0000   1.0000   1.0000   1.0000   1.0000   1.0000   1.0000
     1.0000   1.0000   1.0000   1.0000   1.0000   1.0000   1.0000   1.0000
     1.0000   1.0000   1.0000   1.0000   1.0000   1.0000   1.0000   1.0000
     1.0000   1.0000   1.0000   1.0000   1.0000   1.0000   1.0000   1.0000
     1.0000   1.0000   1.0000   1.0000   1.0000   1.0000   1.0000   1.0000
     1.0000   1.0000   1.0000   1.0000   1.0000   1.0000   1.0000   1.0000
     1.0000   1.0000   1.0000   1.0000   1.0000   1.0000   1.0000   1.0000
     1.0000   1.0000   1.0000   1.0000   1.0000   1.0000   1.0000   1.0000
     1.0000   1.0000   1.0000   1.0000   1.0000   1.0000   1.0000   1.0000

          k = 0.1667 0.0000 0.0000 ( 18537 PWs)   bands (ev):

   -41.3247 -41.3247 -41.3207 -41.3207 -26.5794 -26.5792 -26.5778 -26.5776
   -19.4102 -19.4102 -19.3794 -19.3794 -19.3376 -19.3376 -19.3281 -19.3280
   -19.3042 -19.3042 -19.3031 -19.3031  -8.6643  -8.6611  -8.6606  -8.6499
    -8.6435  -8.6193  -8.6177  -8.6150  -8.5991  -8.5972  -8.5668  -8.5662
    -4.6450  -4.4393  -3.9494  -3.9031  -3.7775  -3.6950  -3.6376  -3.6085
    -3.4488  -3.3381  -3.3283  -3.2822   3.8446   3.9325   4.0935   4.1105
     4.1511   4.2534   4.3356   4.3766   4.4687   4.4718   4.6707   5.0884
     5.1884   5.2940   5.4163   5.4771   5.5232   5.5852   5.6968   5.7730
     5.8087   5.8670   5.9091   6.1814   6.1821   6.3179   6.3641   6.4880
     6.5103   6.7024   6.7065   6.9268   7.0163   7.3244   7.4573   7.5383

     occupation numbers 
     1.0000   1.0000   1.0000   1.0000   1.0000   1.0000   1.0000   1.0000
     1.0000   1.0000   1.0000   1.0000   1.0000   1.0000   1.0000   1.0000
     1.0000   1.0000   1.0000   1.0000   1.0000   1.0000   1.0000   1.0000
     1.0000   1.0000   1.0000   1.0000   1.0000   1.0000   1.0000   1.0000
     1.0000   1.0000   1.0000   1.0000   1.0000   1.0000   1.0000   1.0000
     1.0000   1.0000   1.0000   1.0000   1.0000   1.0000   1.0000   1.0000
     1.0000   1.0000   1.0000   1.0000   1.0000   1.0000   1.0000   1.0000
     1.0000   1.0000   1.0000   1.0000   1.0000   1.0000   1.0000   1.0000
     1.0000   1.0000   1.0000   1.0000   1.0000   1.0000   1.0000   1.0000
     1.0000   1.0000   1.0000   1.0000   1.0000   1.0000   1.0000   1.0000

          k = 0.1667 0.0000-0.1372 ( 18576 PWs)   bands (ev):

   -41.3247 -41.3247 -41.3207 -41.3207 -26.5793 -26.5793 -26.5777 -26.5777
   -19.4102 -19.4102 -19.3794 -19.3794 -19.3376 -19.3376 -19.3280 -19.3280
   -19.3042 -19.3042 -19.3031 -19.3031  -8.6618  -8.6618  -8.6579  -8.6579
    -8.6315  -8.6315  -8.6144  -8.6144  -8.5983  -8.5983  -8.5665  -8.5665
    -4.5550  -4.5550  -3.9136  -3.9136  -3.7328  -3.7328  -3.6224  -3.6224
    -3.4068  -3.4068  -3.2959  -3.2959   3.8795   3.8795   4.0851   4.0851
     4.2000   4.2000   4.3458   4.3458   4.5723   4.5723   4.7949   4.7949
     5.2288   5.2288   5.4258   5.4258   5.5373   5.5373   5.7063   5.7063
     5.8672   5.8672   6.1219   6.1219   6.3088   6.3088   6.4087   6.4087
     6.5636   6.5636   6.7375   6.7375   7.2512   7.2512   7.5012   7.5012

     occupation numbers 
     1.0000   1.0000   1.0000   1.0000   1.0000   1.0000   1.0000   1.0000
     1.0000   1.0000   1.0000   1.0000   1.0000   1.0000   1.0000   1.0000
     1.0000   1.0000   1.0000   1.0000   1.0000   1.0000   1.0000   1.0000
     1.0000   1.0000   1.0000   1.0000   1.0000   1.0000   1.0000   1.0000
     1.0000   1.0000   1.0000   1.0000   1.0000   1.0000   1.0000   1.0000
     1.0000   1.0000   1.0000   1.0000   1.0000   1.0000   1.0000   1.0000
     1.0000   1.0000   1.0000   1.0000   1.0000   1.0000   1.0000   1.0000
     1.0000   1.0000   1.0000   1.0000   1.0000   1.0000   1.0000   1.0000
     1.0000   1.0000   1.0000   1.0000   1.0000   1.0000   1.0000   1.0000
     1.0000   1.0000   1.0000   1.0000   1.0000   1.0000   1.0000   1.0000

          k = 0.1667 0.1491 0.0000 ( 18591 PWs)   bands (ev):

   -41.3247 -41.3247 -41.3207 -41.3207 -26.5790 -26.5788 -26.5782 -26.5780
   -19.4100 -19.4100 -19.3796 -19.3796 -19.3375 -19.3375 -19.3281 -19.3281
   -19.3042 -19.3042 -19.3031 -19.3031  -8.6721  -8.6660  -8.6546  -8.6472
    -8.6297  -8.6172  -8.6121  -8.6101  -8.5985  -8.5964  -8.5810  -8.5773
    -4.5437  -4.4116  -4.0337  -3.9927  -3.8777  -3.8576  -3.4830  -3.4506
    -3.4301  -3.3840  -3.2910  -3.2900   3.7561   3.8568   3.9572   3.9744
     4.1902   4.2720   4.3851   4.5549   4.5864   4.6249   4.8445   4.9948
     5.0719   5.1659   5.3802   5.4090   5.4796   5.6265   5.6277   5.6688
     5.8234   5.9779   6.0561   6.0765   6.1899   6.2392   6.4674   6.5366
     6.6575   6.7048   6.8030   6.9478   7.1549   7.3010   7.4008   7.4354

     occupation numbers 
     1.0000   1.0000   1.0000   1.0000   1.0000   1.0000   1.0000   1.0000
     1.0000   1.0000   1.0000   1.0000   1.0000   1.0000   1.0000   1.0000
     1.0000   1.0000   1.0000   1.0000   1.0000   1.0000   1.0000   1.0000
     1.0000   1.0000   1.0000   1.0000   1.0000   1.0000   1.0000   1.0000
     1.0000   1.0000   1.0000   1.0000   1.0000   1.0000   1.0000   1.0000
     1.0000   1.0000   1.0000   1.0000   1.0000   1.0000   1.0000   1.0000
     1.0000   1.0000   1.0000   1.0000   1.0000   1.0000   1.0000   1.0000
     1.0000   1.0000   1.0000   1.0000   1.0000   1.0000   1.0000   1.0000
     1.0000   1.0000   1.0000   1.0000   1.0000   1.0000   1.0000   1.0000
     1.0000   1.0000   1.0000   1.0000   1.0000   1.0000   1.0000   1.0000

          k = 0.1667 0.1491-0.1372 ( 18560 PWs)   bands (ev):

   -41.3247 -41.3247 -41.3207 -41.3207 -26.5789 -26.5789 -26.5781 -26.5781
   -19.4100 -19.4100 -19.3796 -19.3796 -19.3375 -19.3375 -19.3281 -19.3281
   -19.3042 -19.3042 -19.3031 -19.3031  -8.6665  -8.6665  -8.6551  -8.6551
    -8.6215  -8.6215  -8.6117  -8.6117  -8.5974  -8.5974  -8.5790  -8.5790
    -4.4787  -4.4787  -4.0356  -4.0356  -3.8425  -3.8425  -3.4814  -3.4814
    -3.3646  -3.3646  -3.3200  -3.3200   3.7815   3.7815   3.9353   3.9353
     4.3154   4.3154   4.4833   4.4833   4.6635   4.6635   4.8413   4.8413
     5.0531   5.0531   5.3712   5.3712   5.5671   5.5671   5.6274   5.6274
     5.9463   5.9463   6.0805   6.0805   6.2713   6.2713   6.4613   6.4613
     6.7389   6.7389   6.8395   6.8395   7.2157   7.2157   7.3952   7.3952

     occupation numbers 
     1.0000   1.0000   1.0000   1.0000   1.0000   1.0000   1.0000   1.0000
     1.0000   1.0000   1.0000   1.0000   1.0000   1.0000   1.0000   1.0000
     1.0000   1.0000   1.0000   1.0000   1.0000   1.0000   1.0000   1.0000
     1.0000   1.0000   1.0000   1.0000   1.0000   1.0000   1.0000   1.0000
     1.0000   1.0000   1.0000   1.0000   1.0000   1.0000   1.0000   1.0000
     1.0000   1.0000   1.0000   1.0000   1.0000   1.0000   1.0000   1.0000
     1.0000   1.0000   1.0000   1.0000   1.0000   1.0000   1.0000   1.0000
     1.0000   1.0000   1.0000   1.0000   1.0000   1.0000   1.0000   1.0000
     1.0000   1.0000   1.0000   1.0000   1.0000   1.0000   1.0000   1.0000
     1.0000   1.0000   1.0000   1.0000   1.0000   1.0000   1.0000   1.0000

          k = 0.3333 0.0000 0.0000 ( 18620 PWs)   bands (ev):

   -41.3212 -41.3212 -41.3190 -41.3190 -26.5691 -26.5690 -26.5677 -26.5676
   -19.4005 -19.4005 -19.3891 -19.3891 -19.3635 -19.3634 -19.3632 -19.3632
   -19.3228 -19.3228 -19.3110 -19.3109  -8.8040  -8.8035  -8.7665  -8.7657
    -8.6195  -8.6187  -8.6153  -8.6067  -8.5973  -8.5878  -8.5422  -8.5415
    -4.2073  -4.0842  -3.8598  -3.8578  -3.7966  -3.7518  -3.5814  -3.5768
    -3.3344  -3.3172  -3.3162  -3.2199   3.6794   3.8436   4.0020   4.0830
     4.1031   4.1964   4.3224   4.4597   4.6322   4.7140   4.7382   4.8063
     4.8440   4.8561   4.9897   5.1894   5.4613   5.5134   5.5797   5.6109
     5.7119   5.7676   5.8163   5.8258   6.0504   6.2448   6.2955   6.3477
     6.4844   6.5435   6.5810   6.6030   6.6666   6.6850   7.0357   7.0424

     occupation numbers 
     1.0000   1.0000   1.0000   1.0000   1.0000   1.0000   1.0000   1.0000
     1.0000   1.0000   1.0000   1.0000   1.0000   1.0000   1.0000   1.0000
     1.0000   1.0000   1.0000   1.0000   1.0000   1.0000   1.0000   1.0000
     1.0000   1.0000   1.0000   1.0000   1.0000   1.0000   1.0000   1.0000
     1.0000   1.0000   1.0000   1.0000   1.0000   1.0000   1.0000   1.0000
     1.0000   1.0000   1.0000   1.0000   1.0000   1.0000   1.0000   1.0000
     1.0000   1.0000   1.0000   1.0000   1.0000   1.0000   1.0000   1.0000
     1.0000   1.0000   1.0000   1.0000   1.0000   1.0000   1.0000   1.0000
     1.0000   1.0000   1.0000   1.0000   1.0000   1.0000   1.0000   1.0000
     1.0000   1.0000   1.0000   1.0000   1.0000   1.0000   1.0000   1.0000

          k = 0.3333 0.0000-0.1372 ( 18610 PWs)   bands (ev):

   -41.3212 -41.3212 -41.3190 -41.3190 -26.5691 -26.5691 -26.5677 -26.5677
   -19.4005 -19.4005 -19.3891 -19.3891 -19.3635 -19.3635 -19.3632 -19.3632
   -19.3228 -19.3228 -19.3109 -19.3109  -8.8038  -8.8038  -8.7661  -8.7661
    -8.6187  -8.6187  -8.6122  -8.6122  -8.5917  -8.5917  -8.5419  -8.5419
    -4.1518  -4.1518  -3.8595  -3.8595  -3.7694  -3.7694  -3.5776  -3.5776
    -3.3346  -3.3346  -3.2587  -3.2587   3.8065   3.8065   3.9115   3.9115
     4.1529   4.1529   4.4373   4.4373   4.7074   4.7074   4.8133   4.8133
     4.8653   4.8653   5.1004   5.1004   5.4205   5.4205   5.6335   5.6335
     5.8374   5.8374   5.8599   5.8599   5.9450   5.9450   6.1578   6.1578
     6.4850   6.4850   6.6871   6.6871   6.8029   6.8029   7.0590   7.0590

     occupation numbers 
     1.0000   1.0000   1.0000   1.0000   1.0000   1.0000   1.0000   1.0000
     1.0000   1.0000   1.0000   1.0000   1.0000   1.0000   1.0000   1.0000
     1.0000   1.0000   1.0000   1.0000   1.0000   1.0000   1.0000   1.0000
     1.0000   1.0000   1.0000   1.0000   1.0000   1.0000   1.0000   1.0000
     1.0000   1.0000   1.0000   1.0000   1.0000   1.0000   1.0000   1.0000
     1.0000   1.0000   1.0000   1.0000   1.0000   1.0000   1.0000   1.0000
     1.0000   1.0000   1.0000   1.0000   1.0000   1.0000   1.0000   1.0000
     1.0000   1.0000   1.0000   1.0000   1.0000   1.0000   1.0000   1.0000
     1.0000   1.0000   1.0000   1.0000   1.0000   1.0000   1.0000   1.0000
     1.0000   1.0000   1.0000   1.0000   1.0000   1.0000   1.0000   1.0000

          k = 0.3333 0.1491 0.0000 ( 18628 PWs)   bands (ev):

   -41.3212 -41.3212 -41.3190 -41.3190 -26.5688 -26.5687 -26.5681 -26.5680
   -19.4005 -19.4005 -19.3893 -19.3893 -19.3635 -19.3635 -19.3630 -19.3630
   -19.3228 -19.3228 -19.3109 -19.3109  -8.7951  -8.7942  -8.7764  -8.7753
    -8.6244  -8.6222  -8.6134  -8.6095  -8.5798  -8.5738  -8.5538  -8.5513
    -4.1658  -4.0970  -3.8970  -3.8783  -3.7690  -3.7585  -3.5696  -3.5681
    -3.3467  -3.3327  -3.2828  -3.2394   3.7707   3.8098   3.9721   3.9986
     4.2769   4.3159   4.3816   4.4459   4.5054   4.5468   4.6575   4.6947
     4.7904   4.9621   5.1615   5.2985   5.2991   5.3346   5.4564   5.5205
     5.7209   5.7426   5.8436   5.9858   6.0849   6.0865   6.2983   6.3398
     6.3841   6.4502   6.7866   6.8123   6.9030   6.9221   6.9731   7.0763

     occupation numbers 
     1.0000   1.0000   1.0000   1.0000   1.0000   1.0000   1.0000   1.0000
     1.0000   1.0000   1.0000   1.0000   1.0000   1.0000   1.0000   1.0000
     1.0000   1.0000   1.0000   1.0000   1.0000   1.0000   1.0000   1.0000
     1.0000   1.0000   1.0000   1.0000   1.0000   1.0000   1.0000   1.0000
     1.0000   1.0000   1.0000   1.0000   1.0000   1.0000   1.0000   1.0000
     1.0000   1.0000   1.0000   1.0000   1.0000   1.0000   1.0000   1.0000
     1.0000   1.0000   1.0000   1.0000   1.0000   1.0000   1.0000   1.0000
     1.0000   1.0000   1.0000   1.0000   1.0000   1.0000   1.0000   1.0000
     1.0000   1.0000   1.0000   1.0000   1.0000   1.0000   1.0000   1.0000
     1.0000   1.0000   1.0000   1.0000   1.0000   1.0000   1.0000   1.0000

          k = 0.3333 0.1491-0.1372 ( 18596 PWs)   bands (ev):

   -41.3212 -41.3212 -41.3190 -41.3190 -26.5687 -26.5687 -26.5680 -26.5680
   -19.4005 -19.4005 -19.3893 -19.3893 -19.3635 -19.3635 -19.3630 -19.3630
   -19.3228 -19.3228 -19.3109 -19.3109  -8.7947  -8.7947  -8.7759  -8.7759
    -8.6222  -8.6222  -8.6128  -8.6128  -8.5766  -8.5766  -8.5525  -8.5525
    -4.1284  -4.1284  -3.9019  -3.9019  -3.7548  -3.7548  -3.5686  -3.5686
    -3.3269  -3.3269  -3.2718  -3.2718   3.7990   3.7990   3.9209   3.9209
     4.2939   4.2939   4.4415   4.4415   4.5551   4.5551   4.7435   4.7435
     4.9012   4.9012   5.2043   5.2043   5.3159   5.3159   5.4268   5.4268
     5.7025   5.7025   5.8057   5.8057   6.1929   6.1929   6.2950   6.2950
     6.5318   6.5318   6.7007   6.7007   6.8845   6.8845   7.0968   7.0968

     occupation numbers 
     1.0000   1.0000   1.0000   1.0000   1.0000   1.0000   1.0000   1.0000
     1.0000   1.0000   1.0000   1.0000   1.0000   1.0000   1.0000   1.0000
     1.0000   1.0000   1.0000   1.0000   1.0000   1.0000   1.0000   1.0000
     1.0000   1.0000   1.0000   1.0000   1.0000   1.0000   1.0000   1.0000
     1.0000   1.0000   1.0000   1.0000   1.0000   1.0000   1.0000   1.0000
     1.0000   1.0000   1.0000   1.0000   1.0000   1.0000   1.0000   1.0000
     1.0000   1.0000   1.0000   1.0000   1.0000   1.0000   1.0000   1.0000
     1.0000   1.0000   1.0000   1.0000   1.0000   1.0000   1.0000   1.0000
     1.0000   1.0000   1.0000   1.0000   1.0000   1.0000   1.0000   1.0000
     1.0000   1.0000   1.0000   1.0000   1.0000   1.0000   1.0000   1.0000

          k =-0.5000 0.0000 0.0000 ( 18628 PWs)   bands (ev):

   -41.3188 -41.3188 -41.3188 -41.3188 -26.5640 -26.5640 -26.5626 -26.5626
   -19.4154 -19.4154 -19.4154 -19.4154 -19.3635 -19.3635 -19.3635 -19.3635
   -19.3177 -19.3177 -19.3176 -19.3176  -8.8922  -8.8922  -8.8462  -8.8462
    -8.5964  -8.5964  -8.5943  -8.5943  -8.5696  -8.5696  -8.5294  -8.5294
    -3.9234  -3.9234  -3.9220  -3.9220  -3.6366  -3.6366  -3.6232  -3.6232
    -3.3299  -3.3299  -3.2169  -3.2169   3.5989   3.5989   3.7903   3.7903
     4.0900   4.0900   4.3536   4.3536   4.5703   4.5703   4.6588   4.6588
     5.1335   5.1335   5.2794   5.2794   5.3291   5.3291   5.3346   5.3346
     5.5466   5.5466   5.9424   5.9424   6.0337   6.0337   6.1146   6.1146
     6.6245   6.6245   6.6846   6.6846   6.7939   6.7939   6.8659   6.8659

     occupation numbers 
     1.0000   1.0000   1.0000   1.0000   1.0000   1.0000   1.0000   1.0000
     1.0000   1.0000   1.0000   1.0000   1.0000   1.0000   1.0000   1.0000
     1.0000   1.0000   1.0000   1.0000   1.0000   1.0000   1.0000   1.0000
     1.0000   1.0000   1.0000   1.0000   1.0000   1.0000   1.0000   1.0000
     1.0000   1.0000   1.0000   1.0000   1.0000   1.0000   1.0000   1.0000
     1.0000   1.0000   1.0000   1.0000   1.0000   1.0000   1.0000   1.0000
     1.0000   1.0000   1.0000   1.0000   1.0000   1.0000   1.0000   1.0000
     1.0000   1.0000   1.0000   1.0000   1.0000   1.0000   1.0000   1.0000
     1.0000   1.0000   1.0000   1.0000   1.0000   1.0000   1.0000   1.0000
     1.0000   1.0000   1.0000   1.0000   1.0000   1.0000   1.0000   1.0000

          k =-0.5000 0.0000-0.1372 ( 18652 PWs)   bands (ev):

   -41.3188 -41.3188 -41.3188 -41.3188 -26.5640 -26.5640 -26.5626 -26.5626
   -19.4154 -19.4154 -19.4154 -19.4154 -19.3635 -19.3635 -19.3635 -19.3635
   -19.3177 -19.3177 -19.3176 -19.3176  -8.8922  -8.8922  -8.8462  -8.8462
    -8.5964  -8.5964  -8.5943  -8.5943  -8.5697  -8.5697  -8.5294  -8.5294
    -3.9265  -3.9265  -3.9190  -3.9190  -3.6376  -3.6376  -3.6226  -3.6226
    -3.3299  -3.3299  -3.2165  -3.2165   3.5790   3.5790   3.8250   3.8250
     4.0796   4.0796   4.2957   4.2957   4.6125   4.6125   4.7518   4.7518
     5.0456   5.0456   5.1324   5.1324   5.3011   5.3011   5.4668   5.4668
     5.7379   5.7379   5.7553   5.7553   5.9602   5.9602   6.4446   6.4446
     6.5044   6.5044   6.5833   6.5833   6.7372   6.7372   6.9253   6.9253

     occupation numbers 
     1.0000   1.0000   1.0000   1.0000   1.0000   1.0000   1.0000   1.0000
     1.0000   1.0000   1.0000   1.0000   1.0000   1.0000   1.0000   1.0000
     1.0000   1.0000   1.0000   1.0000   1.0000   1.0000   1.0000   1.0000
     1.0000   1.0000   1.0000   1.0000   1.0000   1.0000   1.0000   1.0000
     1.0000   1.0000   1.0000   1.0000   1.0000   1.0000   1.0000   1.0000
     1.0000   1.0000   1.0000   1.0000   1.0000   1.0000   1.0000   1.0000
     1.0000   1.0000   1.0000   1.0000   1.0000   1.0000   1.0000   1.0000
     1.0000   1.0000   1.0000   1.0000   1.0000   1.0000   1.0000   1.0000
     1.0000   1.0000   1.0000   1.0000   1.0000   1.0000   1.0000   1.0000
     1.0000   1.0000   1.0000   1.0000   1.0000   1.0000   1.0000   1.0000

          k =-0.5000 0.1491 0.0000 ( 18590 PWs)   bands (ev):

   -41.3188 -41.3188 -41.3188 -41.3188 -26.5637 -26.5637 -26.5630 -26.5630
   -19.4155 -19.4155 -19.4154 -19.4154 -19.3634 -19.3634 -19.3634 -19.3634
   -19.3176 -19.3176 -19.3176 -19.3176  -8.8808  -8.8808  -8.8578  -8.8578
    -8.5980  -8.5980  -8.5963  -8.5963  -8.5575  -8.5575  -8.5381  -8.5381
    -3.9232  -3.9232  -3.9221  -3.9221  -3.6343  -3.6343  -3.6288  -3.6288
    -3.2986  -3.2986  -3.2430  -3.2430   3.5239   3.5239   3.5832   3.5832
     4.3088   4.3088   4.4329   4.4329   4.6836   4.6836   4.6977   4.6977
     5.0343   5.0343   5.1127   5.1127   5.3353   5.3353   5.4374   5.4374
     5.7613   5.7613   5.8316   5.8316   6.2217   6.2217   6.2299   6.2299
     6.4672   6.4672   6.4691   6.4691   6.7369   6.7369   6.7493   6.7493

     occupation numbers 
     1.0000   1.0000   1.0000   1.0000   1.0000   1.0000   1.0000   1.0000
     1.0000   1.0000   1.0000   1.0000   1.0000   1.0000   1.0000   1.0000
     1.0000   1.0000   1.0000   1.0000   1.0000   1.0000   1.0000   1.0000
     1.0000   1.0000   1.0000   1.0000   1.0000   1.0000   1.0000   1.0000
     1.0000   1.0000   1.0000   1.0000   1.0000   1.0000   1.0000   1.0000
     1.0000   1.0000   1.0000   1.0000   1.0000   1.0000   1.0000   1.0000
     1.0000   1.0000   1.0000   1.0000   1.0000   1.0000   1.0000   1.0000
     1.0000   1.0000   1.0000   1.0000   1.0000   1.0000   1.0000   1.0000
     1.0000   1.0000   1.0000   1.0000   1.0000   1.0000   1.0000   1.0000
     1.0000   1.0000   1.0000   1.0000   1.0000   1.0000   1.0000   1.0000

          k =-0.5000 0.1491-0.1372 ( 18600 PWs)   bands (ev):

   -41.3188 -41.3188 -41.3188 -41.3188 -26.5637 -26.5637 -26.5630 -26.5630
   -19.4155 -19.4155 -19.4154 -19.4154 -19.3634 -19.3634 -19.3634 -19.3634
   -19.3176 -19.3176 -19.3176 -19.3176  -8.8808  -8.8808  -8.8578  -8.8578
    -8.5979  -8.5979  -8.5963  -8.5963  -8.5576  -8.5576  -8.5380  -8.5380
    -3.9244  -3.9244  -3.9209  -3.9209  -3.6360  -3.6360  -3.6275  -3.6275
    -3.2985  -3.2985  -3.2425  -3.2425   3.5011   3.5011   3.5967   3.5967
     4.2994   4.2994   4.4399   4.4399   4.6595   4.6595   4.6829   4.6829
     5.1198   5.1198   5.2311   5.2311   5.3621   5.3621   5.3639   5.3639
     5.7588   5.7588   5.8329   5.8329   6.0130   6.0130   6.1074   6.1074
     6.4853   6.4853   6.5142   6.5142   6.8346   6.8346   6.8406   6.8406

     occupation numbers 
     1.0000   1.0000   1.0000   1.0000   1.0000   1.0000   1.0000   1.0000
     1.0000   1.0000   1.0000   1.0000   1.0000   1.0000   1.0000   1.0000
     1.0000   1.0000   1.0000   1.0000   1.0000   1.0000   1.0000   1.0000
     1.0000   1.0000   1.0000   1.0000   1.0000   1.0000   1.0000   1.0000
     1.0000   1.0000   1.0000   1.0000   1.0000   1.0000   1.0000   1.0000
     1.0000   1.0000   1.0000   1.0000   1.0000   1.0000   1.0000   1.0000
     1.0000   1.0000   1.0000   1.0000   1.0000   1.0000   1.0000   1.0000
     1.0000   1.0000   1.0000   1.0000   1.0000   1.0000   1.0000   1.0000
     1.0000   1.0000   1.0000   1.0000   1.0000   1.0000   1.0000   1.0000
     1.0000   1.0000   1.0000   1.0000   1.0000   1.0000   1.0000   1.0000

     highest occupied level (ev):     7.9446

!    total energy              =    -969.03969634 Ry
     estimated scf accuracy    <          3.1E-09 Ry

     The total energy is the sum of the following terms:
     one-electron contribution =    -192.67163337 Ry
     hartree contribution      =     157.19034348 Ry
     xc contribution           =    -246.09835152 Ry
     ewald contribution        =    -687.46005493 Ry

     convergence has been achieved in  18 iterations


     Computing stress (Cartesian axis) and pressure


     negative rho (up, down):  5.167E-01 0.000E+00
          total   stress  (Ry/bohr**3)                   (kbar)     P=        3.19
   0.00001482   0.00000000   0.00000000            2.18        0.00        0.00
   0.00000000   0.00002334   0.00000000            0.00        3.43        0.00
   0.00000000   0.00000000   0.00002684            0.00        0.00        3.95

     kinetic stress (kbar)   8980.87      0.00      0.00
                                0.00   9009.50      0.00
                                0.00      0.00   9029.91

     local   stress (kbar)  -7808.31      0.00     -0.00
                                0.00  -4280.09     -0.00
                               -0.00     -0.00  -4001.13

     nonloc. stress (kbar)   7415.23      0.00      0.00
                                0.00   7411.67      0.00
                                0.00      0.00   7417.13

     hartree stress (kbar)   3497.10      0.00      0.00
                                0.00   2110.61      0.00
                                0.00      0.00   1816.53

     exc-cor stress (kbar)   2585.96      0.00     -0.00
                                0.00   2583.78     -0.00
                               -0.00     -0.00   2586.47

     corecor stress (kbar)  -5291.91     -0.00      0.00
                               -0.00  -5291.84      0.00
                                0.00      0.00  -5292.57

     ewald   stress (kbar)  -9376.77      0.00      0.00
                                0.00 -11540.20      0.00
                                0.00      0.00 -11552.39

     hubbard stress (kbar)      0.00      0.00      0.00
                                0.00      0.00      0.00
                                0.00      0.00      0.00

     DFT-D   stress (kbar)      0.00      0.00      0.00
                                0.00      0.00      0.00
                                0.00      0.00      0.00

     XDM     stress (kbar)      0.00      0.00      0.00
                                0.00      0.00      0.00
                                0.00      0.00      0.00

     dft-nl  stress (kbar)      0.00      0.00      0.00
                                0.00      0.00      0.00
                                0.00      0.00      0.00

     TS-vdW  stress (kbar)      0.00      0.00      0.00
                                0.00      0.00      0.00
                                0.00      0.00      0.00

     MDB     stress (kbar)      0.00      0.00      0.00
                                0.00      0.00      0.00
                                0.00      0.00      0.00

     3D-RISM stress (kbar)      0.00      0.00      0.00
                                0.00      0.00      0.00
                                0.00      0.00      0.00


     Writing all to output data dir ./tmp/k_6x3x2/SrZrS3_k_6x3x2.save/ :
     XML data file, charge density, pseudopotentials, collected wavefunctions

     init_run     :      5.81s CPU      5.93s WALL (       1 calls)
     electrons    :    199.16s CPU    202.36s WALL (       1 calls)
     stress       :      8.81s CPU      8.92s WALL (       1 calls)

     Called by init_run:
     wfcinit      :      5.28s CPU      5.37s WALL (       1 calls)
     wfcinit:atom :      0.02s CPU      0.02s WALL (      16 calls)
     wfcinit:wfcr :      5.03s CPU      5.11s WALL (      16 calls)
     potinit      :      0.06s CPU      0.06s WALL (       1 calls)
     hinit0       :      0.09s CPU      0.09s WALL (       1 calls)

     Called by electrons:
     c_bands      :    169.95s CPU    172.62s WALL (      18 calls)
     sum_band     :     23.00s CPU     23.46s WALL (      18 calls)
     v_of_rho     :      0.82s CPU      0.84s WALL (      19 calls)
     v_h          :      0.05s CPU      0.05s WALL (      19 calls)
     v_xc         :      0.81s CPU      0.83s WALL (      20 calls)
     newd         :      5.54s CPU      5.61s WALL (      19 calls)
     mix_rho      :      0.12s CPU      0.12s WALL (      18 calls)

     Called by c_bands:
     init_us_2    :      1.13s CPU      1.14s WALL (     608 calls)
     cegterg      :    162.22s CPU    164.79s WALL (     288 calls)

     Called by sum_band:
     sum_band:wei :      0.00s CPU      0.00s WALL (      18 calls)
     sum_band:loo :     16.79s CPU     17.07s WALL (      18 calls)
     sum_band:buf :      0.08s CPU      0.09s WALL (     288 calls)
     sum_band:ini :      0.55s CPU      0.56s WALL (     288 calls)
     sum_band:cal :      7.68s CPU      7.79s WALL (     288 calls)
     sum_band:bec :      0.03s CPU      0.03s WALL (     288 calls)
     addusdens    :      5.87s CPU      6.05s WALL (      18 calls)
                                        0.00s GPU  (      18 calls)
     addusd:skk   :      0.03s CPU      0.04s WALL (      54 calls)
                                        0.00s GPU  (      54 calls)

     Called by *egterg:
     cdiaghg      :      5.44s CPU      5.51s WALL (    1432 calls)
     cegterg:over :     12.79s CPU     12.97s WALL (    1144 calls)
     cegterg:upda :      7.33s CPU      7.43s WALL (    1144 calls)
     cegterg:last :     16.78s CPU     17.01s WALL (     704 calls)
     h_psi        :     95.22s CPU     96.83s WALL (    1448 calls)
     s_psi        :     24.28s CPU     24.64s WALL (    1448 calls)
     g_psi        :      0.17s CPU      0.17s WALL (    1144 calls)

     Called by h_psi:
     h_psi:calbec :     24.39s CPU     24.73s WALL (    1448 calls)
     vloc_psi     :     46.12s CPU     47.02s WALL (    1448 calls)
                                        0.00s GPU  (    1448 calls)
     add_vuspsi   :     24.53s CPU     24.88s WALL (    1448 calls)

     General routines
     calbec       :     37.58s CPU     38.09s WALL (    1944 calls)
     fft          :      0.61s CPU      0.62s WALL (     259 calls)
     ffts         :      0.04s CPU      0.04s WALL (      37 calls)
     fftw         :     49.13s CPU     50.05s WALL (  161396 calls)
     interpolate  :      0.06s CPU      0.06s WALL (      19 calls)

     Parallel routines

     PWSCF        :   3m33.95s CPU   3m37.51s WALL


   This run was terminated on:   2:31:29   2Jul2026            

=------------------------------------------------------------------------------=
   JOB DONE.
=------------------------------------------------------------------------------=
