
     Program PWSCF v.7.5 starts on  2Jul2026 at  2:31:29 
        Git branch: develop
        Last git commit: ea9b1b3d7915154c244e4a71786faaa0fdafa55c
        Last git commit date: Mon Mar 16 14:03:30 2026 +0000
        Last git commit subject: Merge branch 'dev_td_porting' into 'develop'

     This program is part of the open-source Quantum ESPRESSO suite
     for quantum simulation of materials; please cite
         "P. Giannozzi et al., J. Phys.:Condens. Matter 21 395502 (2009);
         "P. Giannozzi et al., J. Phys.:Condens. Matter 29 465901 (2017);
         "P. Giannozzi et al., J. Chem. Phys. 152 154105 (2020);
          URL http://www.quantum-espresso.org", 
     in publications or presentations arising from this work. More details at
     http://www.quantum-espresso.org/quote

     Parallel version (MPI), running on     4 processors

     MPI processes distributed on     1 nodes
     0 MiB available memory on the printing compute node when the environment starts

     Reading input from inputs/k_8x4x2.in
Warning: card &CELL ignored

     Current dimensions of program PWSCF are:
     Max number of different atomic species (ntypx) = 10
     Max number of k-points (npk) =  40000
     Max angular momentum in pseudopotentials (lmaxx) =  4

     Exact exchange band parallelism type set to band_pairs

     Message from routine setup:
     using ibrav=0 with symmetry is DISCOURAGED, use correct ibrav instead

     R & G space division:  proc/nbgrp/npool/nimage =       4
     Subspace diagonalization in iterative solution of the eigenvalue problem:
     a serial algorithm will be used


     Parallelization info
     --------------------
     sticks:   dense  smooth     PW     G-vecs:    dense   smooth      PW
     Min         937     467    133               105173    37183    5687
     Max         938     468    137               105182    37188    5688
     Sum        3749    1869    539               420701   148739   22749

     Using Slab Decomposition



     bravais-lattice index     =            0
     lattice parameter (alat)  =       7.2569  a.u.
     unit-cell volume          =    3114.5940 (a.u.)^3
     number of atoms/cell      =           20
     number of atomic types    =            3
     number of electrons       =       160.00
     number of Kohn-Sham states=           80
     kinetic-energy cutoff     =      50.0000  Ry
     charge density cutoff     =     400.0000  Ry
     scf convergence threshold =      1.0E-08
     mixing beta               =       0.3000
     number of iterations used =            8  plain     mixing
     Exchange-correlation= SLA  PW   PBE  PBE
                           (   1   4   3   4   0   0   0)

     celldm(1)=   7.256926  celldm(2)=   0.000000  celldm(3)=   0.000000
     celldm(4)=   0.000000  celldm(5)=   0.000000  celldm(6)=   0.000000

     crystal axes: (cart. coord. in units of alat)
               a(1) = (   1.000000   0.000000   0.000000 )  
               a(2) = (  -0.000000   2.236035   0.000000 )  
               a(3) = (   0.000000   0.000000   3.644724 )  

     reciprocal axes: (cart. coord. in units 2 pi/alat)
               b(1) = (  1.000000  0.000000 -0.000000 )  
               b(2) = (  0.000000  0.447220  0.000000 )  
               b(3) = (  0.000000 -0.000000  0.274369 )  


     PseudoPot. # 1 for S  read from file:
     /Users/kaede/scientific-tools/pseudopotentials/SSSP/1.3.0/PBE/precision/s_pbe_v1.4.uspp.F.UPF
     MD5 check sum: 88d86576ff6df21479756cfb9bdac1df
     Pseudo is Ultrasoft + core correction, Zval =  6.0
     Generated by new atomic code, or converted to UPF format
     Using radial grid of  907 points,  6 beta functions with: 
                l(1) =   0
                l(2) =   0
                l(3) =   1
                l(4) =   1
                l(5) =   2
                l(6) =   2
     Q(r) pseudized with  8 coefficients,  rinner =    1.300   1.300   1.300
                                                       1.300   1.300

     PseudoPot. # 2 for Sr read from file:
     /Users/kaede/scientific-tools/pseudopotentials/SSSP/1.3.0/PBE/precision/Sr_pbe_v1.uspp.F.UPF
     MD5 check sum: 6b418c05fbe9db5448babca5e47b7a5b
     Pseudo is Ultrasoft + core correction, Zval = 10.0
     Generated by new atomic code, or converted to UPF format
     Using radial grid of  883 points,  6 beta functions with: 
                l(1) =   0
                l(2) =   0
                l(3) =   1
                l(4) =   1
                l(5) =   2
                l(6) =   2
     Q(r) pseudized with  6 coefficients,  rinner =    1.400   1.400   1.400
                                                       1.400   1.400

     PseudoPot. # 3 for Zr read from file:
     /Users/kaede/scientific-tools/pseudopotentials/SSSP/1.3.0/PBE/precision/Zr_pbe_v1.uspp.F.UPF
     MD5 check sum: 5db81b1e868ab7776c4564c113de050b
     Pseudo is Ultrasoft + core correction, Zval = 12.0
     Generated by new atomic code, or converted to UPF format
     Using radial grid of  887 points,  6 beta functions with: 
                l(1) =   0
                l(2) =   0
                l(3) =   1
                l(4) =   1
                l(5) =   2
                l(6) =   2
     Q(r) pseudized with  6 coefficients,  rinner =    1.200   1.200   1.200
                                                       1.200   1.200

     atomic species   valence    mass     pseudopotential
     S                 6.00    32.06500     S ( 1.00)
     Sr               10.00    87.62000     Sr( 1.00)
     Zr               12.00    91.22400     Zr( 1.00)

      8 Sym. Ops., with inversion, found ( 6 have fractional translation)


                                    s                        frac. trans.

      isym =  1     identity                                     

 cryst.   s( 1) = (     1          0          0      )
                  (     0          1          0      )
                  (     0          0          1      )

 cart.    s( 1) = (  1.0000000  0.0000000  0.0000000 )
                  (  0.0000000  1.0000000  0.0000000 )
                  (  0.0000000  0.0000000  1.0000000 )


      isym =  2     180 deg rotation - cart. axis [0,0,1]        

 cryst.   s( 2) = (    -1          0          0      )    f =(  0.0000000 )
                  (     0         -1          0      )       ( -0.5000000 )
                  (     0          0          1      )       (  0.5000000 )

 cart.    s( 2) = ( -1.0000000  0.0000000  0.0000000 )    f =(  0.0000000 )
                  (  0.0000000 -1.0000000  0.0000000 )       ( -1.1180177 )
                  (  0.0000000  0.0000000  1.0000000 )       (  1.8223620 )


      isym =  3     180 deg rotation - cart. axis [0,1,0]        

 cryst.   s( 3) = (    -1          0          0      )    f =(  0.5000000 )
                  (     0          1          0      )       (  0.5000000 )
                  (     0          0         -1      )       (  0.5000000 )

 cart.    s( 3) = ( -1.0000000  0.0000000  0.0000000 )    f =(  0.5000000 )
                  (  0.0000000  1.0000000  0.0000000 )       (  1.1180177 )
                  (  0.0000000  0.0000000 -1.0000000 )       (  1.8223620 )


      isym =  4     180 deg rotation - cart. axis [1,0,0]        

 cryst.   s( 4) = (     1          0          0      )    f =( -0.5000000 )
                  (     0         -1          0      )       (  0.0000000 )
                  (     0          0         -1      )       (  0.0000000 )

 cart.    s( 4) = (  1.0000000  0.0000000  0.0000000 )    f =( -0.5000000 )
                  (  0.0000000 -1.0000000  0.0000000 )       (  0.0000000 )
                  (  0.0000000  0.0000000 -1.0000000 )       (  0.0000000 )


      isym =  5     inversion                                    

 cryst.   s( 5) = (    -1          0          0      )
                  (     0         -1          0      )
                  (     0          0         -1      )

 cart.    s( 5) = ( -1.0000000  0.0000000  0.0000000 )
                  (  0.0000000 -1.0000000  0.0000000 )
                  (  0.0000000  0.0000000 -1.0000000 )


      isym =  6     inv. 180 deg rotation - cart. axis [0,0,1]   

 cryst.   s( 6) = (     1          0          0      )    f =(  0.0000000 )
                  (     0          1          0      )       (  0.5000000 )
                  (     0          0         -1      )       (  0.5000000 )

 cart.    s( 6) = (  1.0000000  0.0000000  0.0000000 )    f =(  0.0000000 )
                  (  0.0000000  1.0000000  0.0000000 )       (  1.1180177 )
                  (  0.0000000  0.0000000 -1.0000000 )       (  1.8223620 )


      isym =  7     inv. 180 deg rotation - cart. axis [0,1,0]   

 cryst.   s( 7) = (     1          0          0      )    f =( -0.5000000 )
                  (     0         -1          0      )       ( -0.5000000 )
                  (     0          0          1      )       (  0.5000000 )

 cart.    s( 7) = (  1.0000000  0.0000000  0.0000000 )    f =( -0.5000000 )
                  (  0.0000000 -1.0000000  0.0000000 )       ( -1.1180177 )
                  (  0.0000000  0.0000000  1.0000000 )       (  1.8223620 )


      isym =  8     inv. 180 deg rotation - cart. axis [1,0,0]   

 cryst.   s( 8) = (    -1          0          0      )    f =(  0.5000000 )
                  (     0          1          0      )       (  0.0000000 )
                  (     0          0          1      )       (  0.0000000 )

 cart.    s( 8) = ( -1.0000000  0.0000000  0.0000000 )    f =(  0.5000000 )
                  (  0.0000000  1.0000000  0.0000000 )       (  0.0000000 )
                  (  0.0000000  0.0000000  1.0000000 )       (  0.0000000 )


   Cartesian axes

     site n.     atom                  positions (alat units)
         1        Sr     tau(   1) = (   0.2500000   0.1482894   2.9910901  )
         2        Sr     tau(   2) = (   0.7500000   2.0877460   0.6536339  )
         3        Sr     tau(   3) = (   0.7500000   0.9697283   1.1687281  )
         4        Sr     tau(   4) = (   0.2500000   1.2663071   2.4759958  )
         5        Zr     tau(   5) = (   0.2500000   0.7327533   0.2079279  )
         6        Zr     tau(   6) = (   0.7500000   1.5032821   3.4367961  )
         7        Zr     tau(   7) = (   0.7500000   0.3852644   2.0302898  )
         8        Zr     tau(   8) = (   0.2500000   1.8507709   1.6144341  )
         9        S      tau(   9) = (   0.2500000   0.4620834   0.7862872  )
        10        S      tau(  10) = (   0.7500000   1.7739519   2.8584367  )
        11        S      tau(  11) = (   0.7500000   0.6559343   2.6086492  )
        12        S      tau(  12) = (   0.2500000   1.5801011   1.0360747  )
        13        S      tau(  13) = (   0.2500000   0.7520860   1.7723564  )
        14        S      tau(  14) = (   0.7500000   1.4839493   1.8723676  )
        15        S      tau(  15) = (   0.7500000   0.3659317   3.5947184  )
        16        S      tau(  16) = (   0.2500000   1.8701037   0.0500056  )
        17        S      tau(  17) = (   0.2500000   1.0839137   3.2590575  )
        18        S      tau(  18) = (   0.7500000   1.1521217   0.3856665  )
        19        S      tau(  19) = (   0.7500000   0.0341040   1.4366955  )
        20        S      tau(  20) = (   0.2500000   2.2019314   2.2080285  )

   Crystallographic axes

     site n.     atom                  positions (cryst. coord.)
         1        Sr     tau(   1) = (  0.2500000  0.0663180  0.8206630  )
         2        Sr     tau(   2) = (  0.7500000  0.9336820  0.1793370  )
         3        Sr     tau(   3) = (  0.7500000  0.4336820  0.3206630  )
         4        Sr     tau(   4) = (  0.2500000  0.5663180  0.6793370  )
         5        Zr     tau(   5) = (  0.2500000  0.3277020  0.0570490  )
         6        Zr     tau(   6) = (  0.7500000  0.6722980  0.9429510  )
         7        Zr     tau(   7) = (  0.7500000  0.1722980  0.5570490  )
         8        Zr     tau(   8) = (  0.2500000  0.8277020  0.4429510  )
         9        S      tau(   9) = (  0.2500000  0.2066530  0.2157330  )
        10        S      tau(  10) = (  0.7500000  0.7933470  0.7842670  )
        11        S      tau(  11) = (  0.7500000  0.2933470  0.7157330  )
        12        S      tau(  12) = (  0.2500000  0.7066530  0.2842670  )
        13        S      tau(  13) = (  0.2500000  0.3363480  0.4862800  )
        14        S      tau(  14) = (  0.7500000  0.6636520  0.5137200  )
        15        S      tau(  15) = (  0.7500000  0.1636520  0.9862800  )
        16        S      tau(  16) = (  0.2500000  0.8363480  0.0137200  )
        17        S      tau(  17) = (  0.2500000  0.4847480  0.8941850  )
        18        S      tau(  18) = (  0.7500000  0.5152520  0.1058150  )
        19        S      tau(  19) = (  0.7500000  0.0152520  0.3941850  )
        20        S      tau(  20) = (  0.2500000  0.9847480  0.6058150  )

     number of k points=    30
                       cart. coord. in units 2pi/alat
        k(    1) = (   0.0000000   0.0000000   0.0000000), wk =   0.0312500
        k(    2) = (   0.0000000   0.0000000  -0.1371846), wk =   0.0312500
        k(    3) = (   0.0000000   0.1118050   0.0000000), wk =   0.0625000
        k(    4) = (   0.0000000   0.1118050  -0.1371846), wk =   0.0625000
        k(    5) = (   0.0000000  -0.2236101   0.0000000), wk =   0.0312500
        k(    6) = (   0.0000000  -0.2236101  -0.1371846), wk =   0.0312500
        k(    7) = (   0.1250000   0.0000000   0.0000000), wk =   0.0625000
        k(    8) = (   0.1250000   0.0000000  -0.1371846), wk =   0.0625000
        k(    9) = (   0.1250000   0.1118050   0.0000000), wk =   0.1250000
        k(   10) = (   0.1250000   0.1118050  -0.1371846), wk =   0.1250000
        k(   11) = (   0.1250000  -0.2236101   0.0000000), wk =   0.0625000
        k(   12) = (   0.1250000  -0.2236101  -0.1371846), wk =   0.0625000
        k(   13) = (   0.2500000   0.0000000   0.0000000), wk =   0.0625000
        k(   14) = (   0.2500000   0.0000000  -0.1371846), wk =   0.0625000
        k(   15) = (   0.2500000   0.1118050   0.0000000), wk =   0.1250000
        k(   16) = (   0.2500000   0.1118050  -0.1371846), wk =   0.1250000
        k(   17) = (   0.2500000  -0.2236101   0.0000000), wk =   0.0625000
        k(   18) = (   0.2500000  -0.2236101  -0.1371846), wk =   0.0625000
        k(   19) = (   0.3750000   0.0000000   0.0000000), wk =   0.0625000
        k(   20) = (   0.3750000   0.0000000  -0.1371846), wk =   0.0625000
        k(   21) = (   0.3750000   0.1118050   0.0000000), wk =   0.1250000
        k(   22) = (   0.3750000   0.1118050  -0.1371846), wk =   0.1250000
        k(   23) = (   0.3750000  -0.2236101   0.0000000), wk =   0.0625000
        k(   24) = (   0.3750000  -0.2236101  -0.1371846), wk =   0.0625000
        k(   25) = (  -0.5000000   0.0000000   0.0000000), wk =   0.0312500
        k(   26) = (  -0.5000000   0.0000000  -0.1371846), wk =   0.0312500
        k(   27) = (  -0.5000000   0.1118050   0.0000000), wk =   0.0625000
        k(   28) = (  -0.5000000   0.1118050  -0.1371846), wk =   0.0625000
        k(   29) = (  -0.5000000  -0.2236101   0.0000000), wk =   0.0312500
        k(   30) = (  -0.5000000  -0.2236101  -0.1371846), wk =   0.0312500

                       cryst. coord.
        k(    1) = (   0.0000000   0.0000000   0.0000000), wk =   0.0312500
        k(    2) = (   0.0000000   0.0000000  -0.5000000), wk =   0.0312500
        k(    3) = (   0.0000000   0.2500000   0.0000000), wk =   0.0625000
        k(    4) = (   0.0000000   0.2500000  -0.5000000), wk =   0.0625000
        k(    5) = (   0.0000000  -0.5000000   0.0000000), wk =   0.0312500
        k(    6) = (   0.0000000  -0.5000000  -0.5000000), wk =   0.0312500
        k(    7) = (   0.1250000   0.0000000   0.0000000), wk =   0.0625000
        k(    8) = (   0.1250000   0.0000000  -0.5000000), wk =   0.0625000
        k(    9) = (   0.1250000   0.2500000   0.0000000), wk =   0.1250000
        k(   10) = (   0.1250000   0.2500000  -0.5000000), wk =   0.1250000
        k(   11) = (   0.1250000  -0.5000000   0.0000000), wk =   0.0625000
        k(   12) = (   0.1250000  -0.5000000  -0.5000000), wk =   0.0625000
        k(   13) = (   0.2500000   0.0000000   0.0000000), wk =   0.0625000
        k(   14) = (   0.2500000   0.0000000  -0.5000000), wk =   0.0625000
        k(   15) = (   0.2500000   0.2500000   0.0000000), wk =   0.1250000
        k(   16) = (   0.2500000   0.2500000  -0.5000000), wk =   0.1250000
        k(   17) = (   0.2500000  -0.5000000   0.0000000), wk =   0.0625000
        k(   18) = (   0.2500000  -0.5000000  -0.5000000), wk =   0.0625000
        k(   19) = (   0.3750000   0.0000000   0.0000000), wk =   0.0625000
        k(   20) = (   0.3750000   0.0000000  -0.5000000), wk =   0.0625000
        k(   21) = (   0.3750000   0.2500000   0.0000000), wk =   0.1250000
        k(   22) = (   0.3750000   0.2500000  -0.5000000), wk =   0.1250000
        k(   23) = (   0.3750000  -0.5000000   0.0000000), wk =   0.0625000
        k(   24) = (   0.3750000  -0.5000000  -0.5000000), wk =   0.0625000
        k(   25) = (  -0.5000000   0.0000000   0.0000000), wk =   0.0312500
        k(   26) = (  -0.5000000   0.0000000  -0.5000000), wk =   0.0312500
        k(   27) = (  -0.5000000   0.2500000   0.0000000), wk =   0.0625000
        k(   28) = (  -0.5000000   0.2500000  -0.5000000), wk =   0.0625000
        k(   29) = (  -0.5000000  -0.5000000   0.0000000), wk =   0.0312500
        k(   30) = (  -0.5000000  -0.5000000  -0.5000000), wk =   0.0312500

     Dense  grid:   420701 G-vectors     FFT dimensions: (  48, 108, 180)

     Smooth grid:   148739 G-vectors     FFT dimensions: (  36,  80, 120)

     Dynamical RAM for                 wfc:       5.67 MB

     Dynamical RAM for     wfc (w. buffer):     175.89 MB

     Dynamical RAM for           str. fact:       4.81 MB

     Dynamical RAM for           local pot:       0.00 MB

     Dynamical RAM for          nlocal pot:      25.53 MB

     Dynamical RAM for                qrad:       4.82 MB

     Dynamical RAM for          rho,v,vnew:      10.15 MB

     Dynamical RAM for               rhoin:       3.38 MB

     Dynamical RAM for            rho*nmix:      25.68 MB

     Dynamical RAM for           G-vectors:       6.30 MB

     Dynamical RAM for          h,s,v(r/c):       1.17 MB

     Dynamical RAM for          <psi|beta>:       0.44 MB

     Dynamical RAM for                 psi:      11.35 MB

     Dynamical RAM for                hpsi:      11.35 MB

     Dynamical RAM for                spsi:      11.35 MB

     Dynamical RAM for      wfcinit/wfcrot:      11.49 MB

     Dynamical RAM for           addusdens:     317.78 MB

     Dynamical RAM for         addusstress:     322.59 MB

     Estimated static dynamical RAM per process >     246.21 MB

     Estimated max dynamical RAM per process >     594.49 MB

     Estimated total dynamical RAM >       2.32 GB

     Initial potential from superposition of free atoms

     starting charge     159.8564, renormalised to     160.0000

     negative rho (up, down):  4.974E-01 0.000E+00
     Starting wfcs are  152 randomized atomic wfcs

     total cpu time spent up to now is       10.6 secs

     Self-consistent Calculation

     iteration #  1     ecut=    50.00 Ry     beta= 0.30
     Davidson diagonalization with overlap

---- Real-time Memory Report at c_bands before calling an iterative solver
             0 MiB given to the printing process from OS
             0 MiB allocation reported by mallinfo(arena+hblkhd)
             0 MiB available memory on the node where the printing process lives
------------------
     ethr =  1.00E-02,  avg # of iterations =  1.0

     negative rho (up, down):  5.021E-01 0.000E+00

     total cpu time spent up to now is       24.1 secs

     total energy              =    -968.72091049 Ry
     estimated scf accuracy    <       1.80302541 Ry

     iteration #  2     ecut=    50.00 Ry     beta= 0.30
     Davidson diagonalization with overlap

---- Real-time Memory Report at c_bands before calling an iterative solver
             0 MiB given to the printing process from OS
             0 MiB allocation reported by mallinfo(arena+hblkhd)
             0 MiB available memory on the node where the printing process lives
------------------
     ethr =  1.13E-03,  avg # of iterations =  3.2

     negative rho (up, down):  5.078E-01 0.000E+00

     total cpu time spent up to now is       42.0 secs

     total energy              =    -968.97090629 Ry
     estimated scf accuracy    <       0.27817585 Ry

     iteration #  3     ecut=    50.00 Ry     beta= 0.30
     Davidson diagonalization with overlap

---- Real-time Memory Report at c_bands before calling an iterative solver
             0 MiB given to the printing process from OS
             0 MiB allocation reported by mallinfo(arena+hblkhd)
             0 MiB available memory on the node where the printing process lives
------------------
     ethr =  1.74E-04,  avg # of iterations =  4.4

     negative rho (up, down):  5.111E-01 0.000E+00

     total cpu time spent up to now is       62.6 secs

     total energy              =    -969.01958435 Ry
     estimated scf accuracy    <       0.08154196 Ry

     iteration #  4     ecut=    50.00 Ry     beta= 0.30
     Davidson diagonalization with overlap

---- Real-time Memory Report at c_bands before calling an iterative solver
             0 MiB given to the printing process from OS
             0 MiB allocation reported by mallinfo(arena+hblkhd)
             0 MiB available memory on the node where the printing process lives
------------------
     ethr =  5.10E-05,  avg # of iterations =  4.0

     negative rho (up, down):  5.141E-01 0.000E+00

     total cpu time spent up to now is       81.7 secs

     total energy              =    -969.03570415 Ry
     estimated scf accuracy    <       0.02897249 Ry

     iteration #  5     ecut=    50.00 Ry     beta= 0.30
     Davidson diagonalization with overlap

---- Real-time Memory Report at c_bands before calling an iterative solver
             0 MiB given to the printing process from OS
             0 MiB allocation reported by mallinfo(arena+hblkhd)
             0 MiB available memory on the node where the printing process lives
------------------
     ethr =  1.81E-05,  avg # of iterations =  3.1

     negative rho (up, down):  5.169E-01 0.000E+00

     total cpu time spent up to now is       99.2 secs

     total energy              =    -969.03867802 Ry
     estimated scf accuracy    <       0.00556838 Ry

     iteration #  6     ecut=    50.00 Ry     beta= 0.30
     Davidson diagonalization with overlap

---- Real-time Memory Report at c_bands before calling an iterative solver
             0 MiB given to the printing process from OS
             0 MiB allocation reported by mallinfo(arena+hblkhd)
             0 MiB available memory on the node where the printing process lives
------------------
     ethr =  3.48E-06,  avg # of iterations =  5.5

     negative rho (up, down):  5.171E-01 0.000E+00

     total cpu time spent up to now is      125.9 secs

     total energy              =    -969.03397435 Ry
     estimated scf accuracy    <       0.01973286 Ry

     iteration #  7     ecut=    50.00 Ry     beta= 0.30
     Davidson diagonalization with overlap

---- Real-time Memory Report at c_bands before calling an iterative solver
             0 MiB given to the printing process from OS
             0 MiB allocation reported by mallinfo(arena+hblkhd)
             0 MiB available memory on the node where the printing process lives
------------------
     ethr =  3.48E-06,  avg # of iterations =  5.7

     negative rho (up, down):  5.171E-01 0.000E+00

     total cpu time spent up to now is      152.3 secs

     total energy              =    -969.03983231 Ry
     estimated scf accuracy    <       0.00598860 Ry

     iteration #  8     ecut=    50.00 Ry     beta= 0.30
     Davidson diagonalization with overlap

---- Real-time Memory Report at c_bands before calling an iterative solver
             0 MiB given to the printing process from OS
             0 MiB allocation reported by mallinfo(arena+hblkhd)
             0 MiB available memory on the node where the printing process lives
------------------
     ethr =  3.48E-06,  avg # of iterations =  2.1

     negative rho (up, down):  5.171E-01 0.000E+00

     total cpu time spent up to now is      168.6 secs

     total energy              =    -969.03917305 Ry
     estimated scf accuracy    <       0.00180078 Ry

     iteration #  9     ecut=    50.00 Ry     beta= 0.30
     Davidson diagonalization with overlap

---- Real-time Memory Report at c_bands before calling an iterative solver
             0 MiB given to the printing process from OS
             0 MiB allocation reported by mallinfo(arena+hblkhd)
             0 MiB available memory on the node where the printing process lives
------------------
     ethr =  1.13E-06,  avg # of iterations =  5.3

     negative rho (up, down):  5.169E-01 0.000E+00

     total cpu time spent up to now is      192.2 secs

     total energy              =    -969.03992621 Ry
     estimated scf accuracy    <       0.00144032 Ry

     iteration # 10     ecut=    50.00 Ry     beta= 0.30
     Davidson diagonalization with overlap

---- Real-time Memory Report at c_bands before calling an iterative solver
             0 MiB given to the printing process from OS
             0 MiB allocation reported by mallinfo(arena+hblkhd)
             0 MiB available memory on the node where the printing process lives
------------------
     ethr =  9.00E-07,  avg # of iterations =  2.3

     negative rho (up, down):  5.168E-01 0.000E+00

     total cpu time spent up to now is      208.8 secs

     total energy              =    -969.04003708 Ry
     estimated scf accuracy    <       0.00021688 Ry

     iteration # 11     ecut=    50.00 Ry     beta= 0.30
     Davidson diagonalization with overlap

---- Real-time Memory Report at c_bands before calling an iterative solver
             0 MiB given to the printing process from OS
             0 MiB allocation reported by mallinfo(arena+hblkhd)
             0 MiB available memory on the node where the printing process lives
------------------
     ethr =  1.36E-07,  avg # of iterations =  4.1

     negative rho (up, down):  5.167E-01 0.000E+00

     total cpu time spent up to now is      226.0 secs

     total energy              =    -969.04003252 Ry
     estimated scf accuracy    <       0.00007776 Ry

     iteration # 12     ecut=    50.00 Ry     beta= 0.30
     Davidson diagonalization with overlap

---- Real-time Memory Report at c_bands before calling an iterative solver
             0 MiB given to the printing process from OS
             0 MiB allocation reported by mallinfo(arena+hblkhd)
             0 MiB available memory on the node where the printing process lives
------------------
     ethr =  4.86E-08,  avg # of iterations =  4.2

     negative rho (up, down):  5.167E-01 0.000E+00

     total cpu time spent up to now is      247.8 secs

     total energy              =    -969.04006213 Ry
     estimated scf accuracy    <       0.00001128 Ry

     iteration # 13     ecut=    50.00 Ry     beta= 0.30
     Davidson diagonalization with overlap

---- Real-time Memory Report at c_bands before calling an iterative solver
             0 MiB given to the printing process from OS
             0 MiB allocation reported by mallinfo(arena+hblkhd)
             0 MiB available memory on the node where the printing process lives
------------------
     ethr =  7.05E-09,  avg # of iterations =  2.2

     negative rho (up, down):  5.167E-01 0.000E+00

     total cpu time spent up to now is      264.4 secs

     total energy              =    -969.04006325 Ry
     estimated scf accuracy    <       0.00000146 Ry

     iteration # 14     ecut=    50.00 Ry     beta= 0.30
     Davidson diagonalization with overlap

---- Real-time Memory Report at c_bands before calling an iterative solver
             0 MiB given to the printing process from OS
             0 MiB allocation reported by mallinfo(arena+hblkhd)
             0 MiB available memory on the node where the printing process lives
------------------
     ethr =  9.13E-10,  avg # of iterations =  4.8

     negative rho (up, down):  5.167E-01 0.000E+00

     total cpu time spent up to now is      286.8 secs

     total energy              =    -969.04006371 Ry
     estimated scf accuracy    <       0.00000007 Ry

     iteration # 15     ecut=    50.00 Ry     beta= 0.30
     Davidson diagonalization with overlap

---- Real-time Memory Report at c_bands before calling an iterative solver
             0 MiB given to the printing process from OS
             0 MiB allocation reported by mallinfo(arena+hblkhd)
             0 MiB available memory on the node where the printing process lives
------------------
     ethr =  4.08E-11,  avg # of iterations =  6.7

     negative rho (up, down):  5.167E-01 0.000E+00

     total cpu time spent up to now is      319.9 secs

     End of self-consistent calculation

          k = 0.0000 0.0000 0.0000 ( 18571 PWs)   bands (ev):

   -41.3256 -41.3256 -41.3210 -41.3210 -26.5844 -26.5842 -26.5827 -26.5825
   -19.4172 -19.4172 -19.3837 -19.3836 -19.3378 -19.3378 -19.3097 -19.3096
   -19.2911 -19.2911 -19.2745 -19.2745  -8.6895  -8.6826  -8.6800  -8.6718
    -8.6583  -8.6335  -8.5791  -8.5786  -8.5198  -8.5190  -8.5132  -8.5123
    -4.8344  -4.6000  -4.0448  -3.9917  -3.7547  -3.6587  -3.6264  -3.6219
    -3.4876  -3.3915  -3.3397  -3.2628   3.6908   3.9253   3.9566   3.9893
     4.0265   4.2201   4.3374   4.5927   4.8031   4.8045   4.8332   4.8791
     4.9240   4.9542   4.9663   5.4833   5.7141   5.7286   5.7736   5.9698
     5.9811   6.0247   6.3381   6.3548   6.5536   6.6129   6.6891   6.7247
     6.8174   6.8875   7.0105   7.1768   7.5083   7.5354   7.7396   7.9443

     occupation numbers 
     1.0000   1.0000   1.0000   1.0000   1.0000   1.0000   1.0000   1.0000
     1.0000   1.0000   1.0000   1.0000   1.0000   1.0000   1.0000   1.0000
     1.0000   1.0000   1.0000   1.0000   1.0000   1.0000   1.0000   1.0000
     1.0000   1.0000   1.0000   1.0000   1.0000   1.0000   1.0000   1.0000
     1.0000   1.0000   1.0000   1.0000   1.0000   1.0000   1.0000   1.0000
     1.0000   1.0000   1.0000   1.0000   1.0000   1.0000   1.0000   1.0000
     1.0000   1.0000   1.0000   1.0000   1.0000   1.0000   1.0000   1.0000
     1.0000   1.0000   1.0000   1.0000   1.0000   1.0000   1.0000   1.0000
     1.0000   1.0000   1.0000   1.0000   1.0000   1.0000   1.0000   1.0000
     1.0000   1.0000   1.0000   1.0000   1.0000   1.0000   1.0000   1.0000

          k = 0.0000 0.0000-0.1372 ( 18560 PWs)   bands (ev):

   -41.3256 -41.3256 -41.3210 -41.3210 -26.5843 -26.5843 -26.5826 -26.5826
   -19.4172 -19.4172 -19.3837 -19.3837 -19.3378 -19.3378 -19.3097 -19.3097
   -19.2911 -19.2911 -19.2745 -19.2745  -8.6859  -8.6859  -8.6776  -8.6776
    -8.6444  -8.6444  -8.5788  -8.5788  -8.5194  -8.5194  -8.5127  -8.5127
    -4.7323  -4.7323  -4.0014  -4.0014  -3.7060  -3.7060  -3.6097  -3.6097
    -3.4699  -3.4699  -3.2880  -3.2880   3.7796   3.7796   3.9852   3.9852
     4.1118   4.1118   4.5635   4.5635   4.8177   4.8177   4.8800   4.8800
     4.9476   4.9476   4.9605   4.9605   5.5949   5.5949   5.9968   5.9968
     6.2223   6.2223   6.3520   6.3520   6.6807   6.6807   6.7449   6.7449
     6.7493   6.7493   7.1073   7.1073   7.3736   7.3736   7.8375   7.8375

     occupation numbers 
     1.0000   1.0000   1.0000   1.0000   1.0000   1.0000   1.0000   1.0000
     1.0000   1.0000   1.0000   1.0000   1.0000   1.0000   1.0000   1.0000
     1.0000   1.0000   1.0000   1.0000   1.0000   1.0000   1.0000   1.0000
     1.0000   1.0000   1.0000   1.0000   1.0000   1.0000   1.0000   1.0000
     1.0000   1.0000   1.0000   1.0000   1.0000   1.0000   1.0000   1.0000
     1.0000   1.0000   1.0000   1.0000   1.0000   1.0000   1.0000   1.0000
     1.0000   1.0000   1.0000   1.0000   1.0000   1.0000   1.0000   1.0000
     1.0000   1.0000   1.0000   1.0000   1.0000   1.0000   1.0000   1.0000
     1.0000   1.0000   1.0000   1.0000   1.0000   1.0000   1.0000   1.0000
     1.0000   1.0000   1.0000   1.0000   1.0000   1.0000   1.0000   1.0000

          k = 0.0000 0.1118 0.0000 ( 18603 PWs)   bands (ev):

   -41.3256 -41.3255 -41.3210 -41.3210 -26.5841 -26.5839 -26.5830 -26.5827
   -19.4171 -19.4170 -19.3838 -19.3838 -19.3378 -19.3378 -19.3097 -19.3097
   -19.2911 -19.2911 -19.2745 -19.2745  -8.6956  -8.6842  -8.6777  -8.6612
    -8.6526  -8.6257  -8.5924  -8.5857  -8.5189  -8.5180  -8.5142  -8.5133
    -4.7628  -4.5688  -4.1012  -4.0787  -3.8707  -3.8262  -3.5054  -3.4852
    -3.4370  -3.3762  -3.3064  -3.2836   3.5498   3.7398   3.8306   3.8470
     4.1192   4.2949   4.3107   4.7946   4.8148   4.8238   4.9373   4.9579
     4.9672   5.1046   5.2770   5.3063   5.6123   5.6891   5.7896   6.0873
     6.1193   6.1799   6.2085   6.2814   6.5749   6.6428   6.6882   6.7371
     6.8668   6.8759   7.0307   7.1448   7.3739   7.4091   7.5118   7.5881

     occupation numbers 
     1.0000   1.0000   1.0000   1.0000   1.0000   1.0000   1.0000   1.0000
     1.0000   1.0000   1.0000   1.0000   1.0000   1.0000   1.0000   1.0000
     1.0000   1.0000   1.0000   1.0000   1.0000   1.0000   1.0000   1.0000
     1.0000   1.0000   1.0000   1.0000   1.0000   1.0000   1.0000   1.0000
     1.0000   1.0000   1.0000   1.0000   1.0000   1.0000   1.0000   1.0000
     1.0000   1.0000   1.0000   1.0000   1.0000   1.0000   1.0000   1.0000
     1.0000   1.0000   1.0000   1.0000   1.0000   1.0000   1.0000   1.0000
     1.0000   1.0000   1.0000   1.0000   1.0000   1.0000   1.0000   1.0000
     1.0000   1.0000   1.0000   1.0000   1.0000   1.0000   1.0000   1.0000
     1.0000   1.0000   1.0000   1.0000   1.0000   1.0000   1.0000   1.0000

          k = 0.0000 0.1118-0.1372 ( 18592 PWs)   bands (ev):

   -41.3255 -41.3255 -41.3210 -41.3210 -26.5840 -26.5840 -26.5828 -26.5828
   -19.4170 -19.4170 -19.3838 -19.3838 -19.3378 -19.3378 -19.3097 -19.3097
   -19.2911 -19.2911 -19.2745 -19.2745  -8.6885  -8.6885  -8.6742  -8.6742
    -8.6363  -8.6363  -8.5886  -8.5886  -8.5185  -8.5185  -8.5137  -8.5137
    -4.6745  -4.6745  -4.0946  -4.0946  -3.8261  -3.8261  -3.5133  -3.5133
    -3.3813  -3.3813  -3.3114  -3.3114   3.6204   3.6204   3.8453   3.8453
     4.1939   4.1939   4.6684   4.6684   4.8093   4.8093   4.8663   4.8663
     4.9471   4.9471   5.3392   5.3392   5.5928   5.5928   6.0441   6.0441
     6.1034   6.1034   6.3627   6.3627   6.6124   6.6124   6.7719   6.7719
     6.7825   6.7825   7.1005   7.1005   7.2742   7.2742   7.5987   7.5987

     occupation numbers 
     1.0000   1.0000   1.0000   1.0000   1.0000   1.0000   1.0000   1.0000
     1.0000   1.0000   1.0000   1.0000   1.0000   1.0000   1.0000   1.0000
     1.0000   1.0000   1.0000   1.0000   1.0000   1.0000   1.0000   1.0000
     1.0000   1.0000   1.0000   1.0000   1.0000   1.0000   1.0000   1.0000
     1.0000   1.0000   1.0000   1.0000   1.0000   1.0000   1.0000   1.0000
     1.0000   1.0000   1.0000   1.0000   1.0000   1.0000   1.0000   1.0000
     1.0000   1.0000   1.0000   1.0000   1.0000   1.0000   1.0000   1.0000
     1.0000   1.0000   1.0000   1.0000   1.0000   1.0000   1.0000   1.0000
     1.0000   1.0000   1.0000   1.0000   1.0000   1.0000   1.0000   1.0000
     1.0000   1.0000   1.0000   1.0000   1.0000   1.0000   1.0000   1.0000

          k = 0.0000-0.2236 0.0000 ( 18556 PWs)   bands (ev):

   -41.3255 -41.3255 -41.3210 -41.3210 -26.5835 -26.5835 -26.5833 -26.5833
   -19.4169 -19.4169 -19.3840 -19.3840 -19.3377 -19.3377 -19.3097 -19.3097
   -19.2911 -19.2911 -19.2746 -19.2746  -8.6928  -8.6928  -8.6687  -8.6687
    -8.6210  -8.6210  -8.6059  -8.6059  -8.5165  -8.5165  -8.5156  -8.5156
    -4.6038  -4.6038  -4.1868  -4.1868  -3.8897  -3.8897  -3.4580  -3.4580
    -3.3869  -3.3869  -3.2699  -3.2699   3.5013   3.5013   3.7618   3.7618
     4.2185   4.2185   4.6745   4.6745   4.7972   4.7972   4.9403   4.9403
     5.2537   5.2537   5.3357   5.3357   5.5917   5.5917   5.8765   5.8765
     6.2467   6.2467   6.5229   6.5229   6.5865   6.5865   6.7880   6.7880
     6.8079   6.8079   7.0740   7.0740   7.1720   7.1720   7.2157   7.2157

     occupation numbers 
     1.0000   1.0000   1.0000   1.0000   1.0000   1.0000   1.0000   1.0000
     1.0000   1.0000   1.0000   1.0000   1.0000   1.0000   1.0000   1.0000
     1.0000   1.0000   1.0000   1.0000   1.0000   1.0000   1.0000   1.0000
     1.0000   1.0000   1.0000   1.0000   1.0000   1.0000   1.0000   1.0000
     1.0000   1.0000   1.0000   1.0000   1.0000   1.0000   1.0000   1.0000
     1.0000   1.0000   1.0000   1.0000   1.0000   1.0000   1.0000   1.0000
     1.0000   1.0000   1.0000   1.0000   1.0000   1.0000   1.0000   1.0000
     1.0000   1.0000   1.0000   1.0000   1.0000   1.0000   1.0000   1.0000
     1.0000   1.0000   1.0000   1.0000   1.0000   1.0000   1.0000   1.0000
     1.0000   1.0000   1.0000   1.0000   1.0000   1.0000   1.0000   1.0000

          k = 0.0000-0.2236-0.1372 ( 18576 PWs)   bands (ev):

   -41.3255 -41.3255 -41.3210 -41.3210 -26.5835 -26.5835 -26.5833 -26.5833
   -19.4169 -19.4169 -19.3840 -19.3840 -19.3377 -19.3377 -19.3097 -19.3097
   -19.2911 -19.2911 -19.2746 -19.2746  -8.6880  -8.6880  -8.6751  -8.6751
    -8.6179  -8.6179  -8.6075  -8.6075  -8.5165  -8.5165  -8.5156  -8.5156
    -4.5910  -4.5910  -4.2249  -4.2249  -3.8601  -3.8601  -3.4625  -3.4625
    -3.3651  -3.3651  -3.2915  -3.2915   3.5130   3.5130   3.7169   3.7169
     4.2844   4.2844   4.7204   4.7204   4.7992   4.7992   4.9377   4.9377
     5.0724   5.0724   5.2790   5.2790   5.7705   5.7705   5.9633   5.9633
     6.2468   6.2468   6.5115   6.5115   6.5233   6.5233   6.7140   6.7140
     6.8165   6.8165   6.9625   6.9625   7.1618   7.1618   7.3721   7.3721

     occupation numbers 
     1.0000   1.0000   1.0000   1.0000   1.0000   1.0000   1.0000   1.0000
     1.0000   1.0000   1.0000   1.0000   1.0000   1.0000   1.0000   1.0000
     1.0000   1.0000   1.0000   1.0000   1.0000   1.0000   1.0000   1.0000
     1.0000   1.0000   1.0000   1.0000   1.0000   1.0000   1.0000   1.0000
     1.0000   1.0000   1.0000   1.0000   1.0000   1.0000   1.0000   1.0000
     1.0000   1.0000   1.0000   1.0000   1.0000   1.0000   1.0000   1.0000
     1.0000   1.0000   1.0000   1.0000   1.0000   1.0000   1.0000   1.0000
     1.0000   1.0000   1.0000   1.0000   1.0000   1.0000   1.0000   1.0000
     1.0000   1.0000   1.0000   1.0000   1.0000   1.0000   1.0000   1.0000
     1.0000   1.0000   1.0000   1.0000   1.0000   1.0000   1.0000   1.0000

          k = 0.1250 0.0000 0.0000 ( 18563 PWs)   bands (ev):

   -41.3246 -41.3246 -41.3204 -41.3204 -26.5814 -26.5812 -26.5798 -26.5796
   -19.4125 -19.4125 -19.3805 -19.3804 -19.3370 -19.3369 -19.3179 -19.3179
   -19.3008 -19.3008 -19.2915 -19.2915  -8.6747  -8.6695  -8.6686  -8.6590
    -8.6487  -8.6251  -8.5778  -8.5775  -8.5712  -8.5707  -8.5639  -8.5626
    -4.7255  -4.5076  -3.9878  -3.9371  -3.7685  -3.6803  -3.6352  -3.6088
    -3.4712  -3.3542  -3.3388  -3.2745   3.7914   3.9290   4.0526   4.0779
     4.1028   4.2476   4.3656   4.3773   4.5069   4.5418   4.7060   5.0445
     5.0801   5.3327   5.3887   5.5060   5.6290   5.6650   5.6723   5.7454
     5.7967   5.9464   6.0240   6.3696   6.3971   6.4422   6.4655   6.5092
     6.5275   6.8235   6.8461   6.8986   7.1439   7.4278   7.6428   7.6549

     occupation numbers 
     1.0000   1.0000   1.0000   1.0000   1.0000   1.0000   1.0000   1.0000
     1.0000   1.0000   1.0000   1.0000   1.0000   1.0000   1.0000   1.0000
     1.0000   1.0000   1.0000   1.0000   1.0000   1.0000   1.0000   1.0000
     1.0000   1.0000   1.0000   1.0000   1.0000   1.0000   1.0000   1.0000
     1.0000   1.0000   1.0000   1.0000   1.0000   1.0000   1.0000   1.0000
     1.0000   1.0000   1.0000   1.0000   1.0000   1.0000   1.0000   1.0000
     1.0000   1.0000   1.0000   1.0000   1.0000   1.0000   1.0000   1.0000
     1.0000   1.0000   1.0000   1.0000   1.0000   1.0000   1.0000   1.0000
     1.0000   1.0000   1.0000   1.0000   1.0000   1.0000   1.0000   1.0000
     1.0000   1.0000   1.0000   1.0000   1.0000   1.0000   1.0000   1.0000

          k = 0.1250 0.0000-0.1372 ( 18582 PWs)   bands (ev):

   -41.3246 -41.3246 -41.3204 -41.3204 -26.5813 -26.5813 -26.5797 -26.5797
   -19.4125 -19.4125 -19.3804 -19.3804 -19.3369 -19.3369 -19.3179 -19.3179
   -19.3008 -19.3008 -19.2915 -19.2915  -8.6715  -8.6715  -8.6661  -8.6661
    -8.6354  -8.6354  -8.5768  -8.5768  -8.5719  -8.5719  -8.5630  -8.5630
    -4.6304  -4.6304  -3.9478  -3.9478  -3.7220  -3.7220  -3.6181  -3.6181
    -3.4331  -3.4331  -3.2935  -3.2935   3.8470   3.8470   4.0727   4.0727
     4.1366   4.1366   4.4320   4.4320   4.5943   4.5943   4.7946   4.7946
     5.1397   5.1397   5.4137   5.4137   5.5625   5.5625   5.7083   5.7083
     6.0014   6.0014   6.3130   6.3130   6.3931   6.3931   6.5433   6.5433
     6.6233   6.6233   6.8456   6.8456   7.2640   7.2640   7.6492   7.6492

     occupation numbers 
     1.0000   1.0000   1.0000   1.0000   1.0000   1.0000   1.0000   1.0000
     1.0000   1.0000   1.0000   1.0000   1.0000   1.0000   1.0000   1.0000
     1.0000   1.0000   1.0000   1.0000   1.0000   1.0000   1.0000   1.0000
     1.0000   1.0000   1.0000   1.0000   1.0000   1.0000   1.0000   1.0000
     1.0000   1.0000   1.0000   1.0000   1.0000   1.0000   1.0000   1.0000
     1.0000   1.0000   1.0000   1.0000   1.0000   1.0000   1.0000   1.0000
     1.0000   1.0000   1.0000   1.0000   1.0000   1.0000   1.0000   1.0000
     1.0000   1.0000   1.0000   1.0000   1.0000   1.0000   1.0000   1.0000
     1.0000   1.0000   1.0000   1.0000   1.0000   1.0000   1.0000   1.0000
     1.0000   1.0000   1.0000   1.0000   1.0000   1.0000   1.0000   1.0000

          k = 0.1250 0.1118 0.0000 ( 18542 PWs)   bands (ev):

   -41.3246 -41.3246 -41.3204 -41.3204 -26.5811 -26.5810 -26.5800 -26.5798
   -19.4124 -19.4124 -19.3806 -19.3806 -19.3369 -19.3369 -19.3180 -19.3179
   -19.3008 -19.3007 -19.2915 -19.2915  -8.6813  -8.6722  -8.6649  -8.6513
    -8.6419  -8.6174  -8.5890  -8.5806  -8.5724  -8.5701  -8.5653  -8.5640
    -4.6607  -4.4810  -4.0323  -4.0135  -3.8718  -3.8238  -3.5035  -3.4693
    -3.4621  -3.3702  -3.3068  -3.2872   3.6794   3.8381   3.9235   3.9505
     4.1610   4.3107   4.3365   4.5240   4.6182   4.6982   4.8139   5.0372
     5.1149   5.1538   5.3539   5.4988   5.5378   5.6463   5.7133   5.7937
     6.0244   6.0642   6.1894   6.1930   6.2239   6.2827   6.5033   6.5834
     6.7007   6.7419   6.8138   6.9975   7.1269   7.3895   7.5067   7.5788

     occupation numbers 
     1.0000   1.0000   1.0000   1.0000   1.0000   1.0000   1.0000   1.0000
     1.0000   1.0000   1.0000   1.0000   1.0000   1.0000   1.0000   1.0000
     1.0000   1.0000   1.0000   1.0000   1.0000   1.0000   1.0000   1.0000
     1.0000   1.0000   1.0000   1.0000   1.0000   1.0000   1.0000   1.0000
     1.0000   1.0000   1.0000   1.0000   1.0000   1.0000   1.0000   1.0000
     1.0000   1.0000   1.0000   1.0000   1.0000   1.0000   1.0000   1.0000
     1.0000   1.0000   1.0000   1.0000   1.0000   1.0000   1.0000   1.0000
     1.0000   1.0000   1.0000   1.0000   1.0000   1.0000   1.0000   1.0000
     1.0000   1.0000   1.0000   1.0000   1.0000   1.0000   1.0000   1.0000
     1.0000   1.0000   1.0000   1.0000   1.0000   1.0000   1.0000   1.0000

          k = 0.1250 0.1118-0.1372 ( 18562 PWs)   bands (ev):

   -41.3246 -41.3246 -41.3204 -41.3204 -26.5811 -26.5811 -26.5799 -26.5799
   -19.4124 -19.4124 -19.3806 -19.3806 -19.3369 -19.3369 -19.3179 -19.3179
   -19.3008 -19.3008 -19.2915 -19.2915  -8.6751  -8.6751  -8.6626  -8.6626
    -8.6275  -8.6275  -8.5843  -8.5843  -8.5713  -8.5713  -8.5645  -8.5645
    -4.5786  -4.5786  -4.0296  -4.0296  -3.8283  -3.8283  -3.5064  -3.5064
    -3.3855  -3.3855  -3.3128  -3.3128   3.7283   3.7283   3.9358   3.9358
     4.2457   4.2457   4.5538   4.5538   4.6541   4.6541   4.8284   4.8284
     5.0405   5.0405   5.4125   5.4125   5.6607   5.6607   5.7842   5.7842
     6.0708   6.0708   6.1321   6.1321   6.3530   6.3530   6.5254   6.5254
     6.6815   6.6815   6.9132   6.9132   7.2427   7.2427   7.5415   7.5415

     occupation numbers 
     1.0000   1.0000   1.0000   1.0000   1.0000   1.0000   1.0000   1.0000
     1.0000   1.0000   1.0000   1.0000   1.0000   1.0000   1.0000   1.0000
     1.0000   1.0000   1.0000   1.0000   1.0000   1.0000   1.0000   1.0000
     1.0000   1.0000   1.0000   1.0000   1.0000   1.0000   1.0000   1.0000
     1.0000   1.0000   1.0000   1.0000   1.0000   1.0000   1.0000   1.0000
     1.0000   1.0000   1.0000   1.0000   1.0000   1.0000   1.0000   1.0000
     1.0000   1.0000   1.0000   1.0000   1.0000   1.0000   1.0000   1.0000
     1.0000   1.0000   1.0000   1.0000   1.0000   1.0000   1.0000   1.0000
     1.0000   1.0000   1.0000   1.0000   1.0000   1.0000   1.0000   1.0000
     1.0000   1.0000   1.0000   1.0000   1.0000   1.0000   1.0000   1.0000

          k = 0.1250-0.2236 0.0000 ( 18620 PWs)   bands (ev):

   -41.3246 -41.3246 -41.3204 -41.3204 -26.5806 -26.5806 -26.5804 -26.5804
   -19.4123 -19.4123 -19.3807 -19.3807 -19.3368 -19.3368 -19.3180 -19.3180
   -19.3007 -19.3007 -19.2915 -19.2915  -8.6796  -8.6796  -8.6578  -8.6578
    -8.6137  -8.6137  -8.5987  -8.5987  -8.5689  -8.5689  -8.5672  -8.5672
    -4.5170  -4.5170  -4.1093  -4.1093  -3.8834  -3.8834  -3.4378  -3.4378
    -3.4057  -3.4057  -3.2841  -3.2841   3.6608   3.6608   3.8677   3.8677
     4.2246   4.2246   4.5682   4.5682   4.7278   4.7278   4.8888   4.8888
     5.2052   5.2052   5.4273   5.4273   5.6309   5.6309   5.7508   5.7508
     5.9381   5.9381   6.0240   6.0240   6.3628   6.3628   6.6274   6.6274
     6.9188   6.9188   6.9811   6.9811   7.1699   7.1699   7.3005   7.3005

     occupation numbers 
     1.0000   1.0000   1.0000   1.0000   1.0000   1.0000   1.0000   1.0000
     1.0000   1.0000   1.0000   1.0000   1.0000   1.0000   1.0000   1.0000
     1.0000   1.0000   1.0000   1.0000   1.0000   1.0000   1.0000   1.0000
     1.0000   1.0000   1.0000   1.0000   1.0000   1.0000   1.0000   1.0000
     1.0000   1.0000   1.0000   1.0000   1.0000   1.0000   1.0000   1.0000
     1.0000   1.0000   1.0000   1.0000   1.0000   1.0000   1.0000   1.0000
     1.0000   1.0000   1.0000   1.0000   1.0000   1.0000   1.0000   1.0000
     1.0000   1.0000   1.0000   1.0000   1.0000   1.0000   1.0000   1.0000
     1.0000   1.0000   1.0000   1.0000   1.0000   1.0000   1.0000   1.0000
     1.0000   1.0000   1.0000   1.0000   1.0000   1.0000   1.0000   1.0000

          k = 0.1250-0.2236-0.1372 ( 18600 PWs)   bands (ev):

   -41.3246 -41.3246 -41.3204 -41.3204 -26.5806 -26.5806 -26.5804 -26.5804
   -19.4123 -19.4123 -19.3807 -19.3807 -19.3368 -19.3368 -19.3180 -19.3180
   -19.3007 -19.3007 -19.2915 -19.2915  -8.6755  -8.6755  -8.6633  -8.6633
    -8.6106  -8.6106  -8.6006  -8.6006  -8.5685  -8.5685  -8.5675  -8.5675
    -4.5054  -4.5054  -4.1476  -4.1476  -3.8550  -3.8550  -3.4515  -3.4515
    -3.3605  -3.3605  -3.3174  -3.3174   3.6644   3.6644   3.8174   3.8174
     4.3148   4.3148   4.5796   4.5796   4.7883   4.7883   4.8130   4.8130
     5.1691   5.1691   5.3387   5.3387   5.6106   5.6106   5.7114   5.7114
     6.0426   6.0426   6.1819   6.1819   6.3441   6.3441   6.5548   6.5548
     6.9488   6.9488   6.9910   6.9910   7.0363   7.0363   7.3550   7.3550

     occupation numbers 
     1.0000   1.0000   1.0000   1.0000   1.0000   1.0000   1.0000   1.0000
     1.0000   1.0000   1.0000   1.0000   1.0000   1.0000   1.0000   1.0000
     1.0000   1.0000   1.0000   1.0000   1.0000   1.0000   1.0000   1.0000
     1.0000   1.0000   1.0000   1.0000   1.0000   1.0000   1.0000   1.0000
     1.0000   1.0000   1.0000   1.0000   1.0000   1.0000   1.0000   1.0000
     1.0000   1.0000   1.0000   1.0000   1.0000   1.0000   1.0000   1.0000
     1.0000   1.0000   1.0000   1.0000   1.0000   1.0000   1.0000   1.0000
     1.0000   1.0000   1.0000   1.0000   1.0000   1.0000   1.0000   1.0000
     1.0000   1.0000   1.0000   1.0000   1.0000   1.0000   1.0000   1.0000
     1.0000   1.0000   1.0000   1.0000   1.0000   1.0000   1.0000   1.0000

          k = 0.2500 0.0000 0.0000 ( 18594 PWs)   bands (ev):

   -41.3223 -41.3223 -41.3191 -41.3191 -26.5742 -26.5740 -26.5727 -26.5725
   -19.4020 -19.4020 -19.3751 -19.3751 -19.3528 -19.3528 -19.3448 -19.3447
   -19.3206 -19.3205 -19.3072 -19.3072  -8.7127  -8.7125  -8.6859  -8.6838
    -8.6403  -8.6387  -8.6382  -8.6225  -8.6225  -8.6040  -8.5545  -8.5538
    -4.4398  -4.2678  -3.8791  -3.8560  -3.7970  -3.7295  -3.6218  -3.6096
    -3.3833  -3.3365  -3.3001  -3.2698   3.8816   3.9478   3.9546   4.1410
     4.1516   4.2558   4.4421   4.4424   4.5195   4.5340   4.5748   4.9093
     5.1514   5.1914   5.2534   5.2607   5.4304   5.5250   5.5502   5.6795
     5.8487   5.8522   5.9402   5.9570   6.0433   6.0676   6.1864   6.4785
     6.4863   6.4947   6.5859   6.8044   6.8604   7.0189   7.1210   7.2669

     occupation numbers 
     1.0000   1.0000   1.0000   1.0000   1.0000   1.0000   1.0000   1.0000
     1.0000   1.0000   1.0000   1.0000   1.0000   1.0000   1.0000   1.0000
     1.0000   1.0000   1.0000   1.0000   1.0000   1.0000   1.0000   1.0000
     1.0000   1.0000   1.0000   1.0000   1.0000   1.0000   1.0000   1.0000
     1.0000   1.0000   1.0000   1.0000   1.0000   1.0000   1.0000   1.0000
     1.0000   1.0000   1.0000   1.0000   1.0000   1.0000   1.0000   1.0000
     1.0000   1.0000   1.0000   1.0000   1.0000   1.0000   1.0000   1.0000
     1.0000   1.0000   1.0000   1.0000   1.0000   1.0000   1.0000   1.0000
     1.0000   1.0000   1.0000   1.0000   1.0000   1.0000   1.0000   1.0000
     1.0000   1.0000   1.0000   1.0000   1.0000   1.0000   1.0000   1.0000

          k = 0.2500 0.0000-0.1372 ( 18588 PWs)   bands (ev):

   -41.3223 -41.3223 -41.3191 -41.3191 -26.5741 -26.5741 -26.5726 -26.5726
   -19.4020 -19.4020 -19.3751 -19.3751 -19.3528 -19.3528 -19.3448 -19.3448
   -19.3206 -19.3206 -19.3072 -19.3072  -8.7127  -8.7127  -8.6847  -8.6847
    -8.6386  -8.6386  -8.6344  -8.6344  -8.6100  -8.6100  -8.5542  -8.5542
    -4.3641  -4.3641  -3.8619  -3.8619  -3.7574  -3.7574  -3.6160  -3.6160
    -3.3537  -3.3537  -3.2921  -3.2921   3.9184   3.9184   4.0141   4.0141
     4.2005   4.2005   4.3717   4.3717   4.5650   4.5650   4.8783   4.8783
     5.0799   5.0799   5.3358   5.3358   5.5092   5.5092   5.5947   5.5947
     5.7670   5.7670   5.9787   5.9787   6.0695   6.0695   6.1977   6.1977
     6.4737   6.4737   6.6569   6.6569   7.0920   7.0920   7.2284   7.2284

     occupation numbers 
     1.0000   1.0000   1.0000   1.0000   1.0000   1.0000   1.0000   1.0000
     1.0000   1.0000   1.0000   1.0000   1.0000   1.0000   1.0000   1.0000
     1.0000   1.0000   1.0000   1.0000   1.0000   1.0000   1.0000   1.0000
     1.0000   1.0000   1.0000   1.0000   1.0000   1.0000   1.0000   1.0000
     1.0000   1.0000   1.0000   1.0000   1.0000   1.0000   1.0000   1.0000
     1.0000   1.0000   1.0000   1.0000   1.0000   1.0000   1.0000   1.0000
     1.0000   1.0000   1.0000   1.0000   1.0000   1.0000   1.0000   1.0000
     1.0000   1.0000   1.0000   1.0000   1.0000   1.0000   1.0000   1.0000
     1.0000   1.0000   1.0000   1.0000   1.0000   1.0000   1.0000   1.0000
     1.0000   1.0000   1.0000   1.0000   1.0000   1.0000   1.0000   1.0000

          k = 0.2500 0.1118 0.0000 ( 18581 PWs)   bands (ev):

   -41.3223 -41.3223 -41.3191 -41.3191 -26.5739 -26.5738 -26.5729 -26.5727
   -19.4020 -19.4020 -19.3753 -19.3753 -19.3528 -19.3528 -19.3447 -19.3447
   -19.3206 -19.3205 -19.3072 -19.3072  -8.7094  -8.7085  -8.6903  -8.6884
    -8.6471  -8.6427  -8.6335  -8.6246  -8.6075  -8.5952  -8.5629  -8.5599
    -4.3951  -4.2569  -3.8984  -3.8745  -3.8539  -3.8240  -3.5453  -3.5414
    -3.3835  -3.3559  -3.2919  -3.2694   3.9363   3.9932   4.0035   4.0671
     4.2143   4.3195   4.3378   4.4015   4.4051   4.5469   4.7934   4.8649
     5.0157   5.1137   5.1337   5.2970   5.3900   5.4496   5.4968   5.5892
     5.8132   5.8486   5.9326   5.9385   6.1884   6.1908   6.2991   6.3115
     6.4077   6.5886   6.7596   6.8513   7.0242   7.0887   7.1843   7.2814

     occupation numbers 
     1.0000   1.0000   1.0000   1.0000   1.0000   1.0000   1.0000   1.0000
     1.0000   1.0000   1.0000   1.0000   1.0000   1.0000   1.0000   1.0000
     1.0000   1.0000   1.0000   1.0000   1.0000   1.0000   1.0000   1.0000
     1.0000   1.0000   1.0000   1.0000   1.0000   1.0000   1.0000   1.0000
     1.0000   1.0000   1.0000   1.0000   1.0000   1.0000   1.0000   1.0000
     1.0000   1.0000   1.0000   1.0000   1.0000   1.0000   1.0000   1.0000
     1.0000   1.0000   1.0000   1.0000   1.0000   1.0000   1.0000   1.0000
     1.0000   1.0000   1.0000   1.0000   1.0000   1.0000   1.0000   1.0000
     1.0000   1.0000   1.0000   1.0000   1.0000   1.0000   1.0000   1.0000
     1.0000   1.0000   1.0000   1.0000   1.0000   1.0000   1.0000   1.0000

          k = 0.2500 0.1118-0.1372 ( 18598 PWs)   bands (ev):

   -41.3223 -41.3223 -41.3191 -41.3191 -26.5739 -26.5739 -26.5728 -26.5728
   -19.4020 -19.4020 -19.3753 -19.3753 -19.3528 -19.3528 -19.3447 -19.3447
   -19.3206 -19.3206 -19.3072 -19.3072  -8.7090  -8.7090  -8.6894  -8.6894
    -8.6434  -8.6434  -8.6315  -8.6315  -8.6004  -8.6004  -8.5613  -8.5613
    -4.3308  -4.3308  -3.9042  -3.9042  -3.8169  -3.8169  -3.5446  -3.5446
    -3.3490  -3.3490  -3.2997  -3.2997   3.9370   3.9370   4.0155   4.0155
     4.2691   4.2691   4.3596   4.3596   4.5555   4.5555   4.9240   4.9240
     5.0059   5.0059   5.1737   5.1737   5.4319   5.4319   5.4813   5.4813
     5.7712   5.7712   5.9967   5.9967   6.1486   6.1486   6.3883   6.3883
     6.4996   6.4996   6.7681   6.7681   7.0789   7.0789   7.2376   7.2376

     occupation numbers 
     1.0000   1.0000   1.0000   1.0000   1.0000   1.0000   1.0000   1.0000
     1.0000   1.0000   1.0000   1.0000   1.0000   1.0000   1.0000   1.0000
     1.0000   1.0000   1.0000   1.0000   1.0000   1.0000   1.0000   1.0000
     1.0000   1.0000   1.0000   1.0000   1.0000   1.0000   1.0000   1.0000
     1.0000   1.0000   1.0000   1.0000   1.0000   1.0000   1.0000   1.0000
     1.0000   1.0000   1.0000   1.0000   1.0000   1.0000   1.0000   1.0000
     1.0000   1.0000   1.0000   1.0000   1.0000   1.0000   1.0000   1.0000
     1.0000   1.0000   1.0000   1.0000   1.0000   1.0000   1.0000   1.0000
     1.0000   1.0000   1.0000   1.0000   1.0000   1.0000   1.0000   1.0000
     1.0000   1.0000   1.0000   1.0000   1.0000   1.0000   1.0000   1.0000

          k = 0.2500-0.2236 0.0000 ( 18640 PWs)   bands (ev):

   -41.3223 -41.3223 -41.3191 -41.3191 -26.5734 -26.5734 -26.5733 -26.5733
   -19.4019 -19.4019 -19.3754 -19.3754 -19.3528 -19.3528 -19.3446 -19.3446
   -19.3205 -19.3205 -19.3072 -19.3072  -8.7004  -8.7004  -8.6989  -8.6989
    -8.6472  -8.6472  -8.6293  -8.6293  -8.5831  -8.5831  -8.5765  -8.5765
    -4.2964  -4.2964  -3.9309  -3.9309  -3.8637  -3.8637  -3.4959  -3.4959
    -3.3803  -3.3803  -3.2780  -3.2780   4.0233   4.0233   4.0712   4.0712
     4.2111   4.2111   4.3174   4.3174   4.5590   4.5590   4.8209   4.8209
     4.9259   4.9259   5.1837   5.1837   5.4076   5.4076   5.5272   5.5272
     5.7447   5.7447   6.0310   6.0310   6.1246   6.1246   6.3498   6.3498
     6.5273   6.5273   6.9664   6.9664   7.1272   7.1272   7.2607   7.2607

     occupation numbers 
     1.0000   1.0000   1.0000   1.0000   1.0000   1.0000   1.0000   1.0000
     1.0000   1.0000   1.0000   1.0000   1.0000   1.0000   1.0000   1.0000
     1.0000   1.0000   1.0000   1.0000   1.0000   1.0000   1.0000   1.0000
     1.0000   1.0000   1.0000   1.0000   1.0000   1.0000   1.0000   1.0000
     1.0000   1.0000   1.0000   1.0000   1.0000   1.0000   1.0000   1.0000
     1.0000   1.0000   1.0000   1.0000   1.0000   1.0000   1.0000   1.0000
     1.0000   1.0000   1.0000   1.0000   1.0000   1.0000   1.0000   1.0000
     1.0000   1.0000   1.0000   1.0000   1.0000   1.0000   1.0000   1.0000
     1.0000   1.0000   1.0000   1.0000   1.0000   1.0000   1.0000   1.0000
     1.0000   1.0000   1.0000   1.0000   1.0000   1.0000   1.0000   1.0000

          k = 0.2500-0.2236-0.1372 ( 18576 PWs)   bands (ev):

   -41.3223 -41.3223 -41.3191 -41.3191 -26.5734 -26.5734 -26.5733 -26.5733
   -19.4019 -19.4019 -19.3754 -19.3754 -19.3528 -19.3528 -19.3446 -19.3446
   -19.3205 -19.3205 -19.3072 -19.3072  -8.6998  -8.6998  -8.6996  -8.6996
    -8.6448  -8.6448  -8.6319  -8.6319  -8.5816  -8.5816  -8.5775  -8.5775
    -4.2871  -4.2871  -3.9762  -3.9762  -3.8295  -3.8295  -3.4997  -3.4997
    -3.3429  -3.3429  -3.3097  -3.3097   3.9758   3.9758   3.9837   3.9837
     4.3634   4.3634   4.4292   4.4292   4.5018   4.5018   4.7972   4.7972
     4.9616   4.9616   5.1268   5.1268   5.4066   5.4066   5.4154   5.4154
     5.7780   5.7780   5.8975   5.8975   6.3000   6.3000   6.4322   6.4322
     6.5633   6.5633   6.9647   6.9647   7.0291   7.0291   7.2362   7.2362

     occupation numbers 
     1.0000   1.0000   1.0000   1.0000   1.0000   1.0000   1.0000   1.0000
     1.0000   1.0000   1.0000   1.0000   1.0000   1.0000   1.0000   1.0000
     1.0000   1.0000   1.0000   1.0000   1.0000   1.0000   1.0000   1.0000
     1.0000   1.0000   1.0000   1.0000   1.0000   1.0000   1.0000   1.0000
     1.0000   1.0000   1.0000   1.0000   1.0000   1.0000   1.0000   1.0000
     1.0000   1.0000   1.0000   1.0000   1.0000   1.0000   1.0000   1.0000
     1.0000   1.0000   1.0000   1.0000   1.0000   1.0000   1.0000   1.0000
     1.0000   1.0000   1.0000   1.0000   1.0000   1.0000   1.0000   1.0000
     1.0000   1.0000   1.0000   1.0000   1.0000   1.0000   1.0000   1.0000
     1.0000   1.0000   1.0000   1.0000   1.0000   1.0000   1.0000   1.0000

          k = 0.3750 0.0000 0.0000 ( 18638 PWs)   bands (ev):

   -41.3197 -41.3197 -41.3180 -41.3180 -26.5669 -26.5669 -26.5655 -26.5654
   -19.4035 -19.4035 -19.3992 -19.3992 -19.3660 -19.3660 -19.3618 -19.3618
   -19.3212 -19.3212 -19.3121 -19.3121  -8.8409  -8.8404  -8.7997  -8.7991
    -8.6102  -8.6101  -8.6063  -8.6003  -8.5863  -8.5803  -8.5369  -8.5363
    -4.1018  -4.0132  -3.8748  -3.8677  -3.7749  -3.7492  -3.5685  -3.5629
    -3.3334  -3.3223  -3.2887  -3.2052   3.5862   3.8192   3.9655   3.9833
     4.0253   4.2438   4.3221   4.4017   4.5521   4.6485   4.6805   4.8485
     4.8672   4.9548   5.0045   5.1831   5.3409   5.5173   5.5583   5.6010
     5.6504   5.6669   5.8225   5.8553   6.0308   6.2077   6.3072   6.3295
     6.4287   6.4804   6.5970   6.6766   6.6858   6.6969   6.9545   6.9806

     occupation numbers 
     1.0000   1.0000   1.0000   1.0000   1.0000   1.0000   1.0000   1.0000
     1.0000   1.0000   1.0000   1.0000   1.0000   1.0000   1.0000   1.0000
     1.0000   1.0000   1.0000   1.0000   1.0000   1.0000   1.0000   1.0000
     1.0000   1.0000   1.0000   1.0000   1.0000   1.0000   1.0000   1.0000
     1.0000   1.0000   1.0000   1.0000   1.0000   1.0000   1.0000   1.0000
     1.0000   1.0000   1.0000   1.0000   1.0000   1.0000   1.0000   1.0000
     1.0000   1.0000   1.0000   1.0000   1.0000   1.0000   1.0000   1.0000
     1.0000   1.0000   1.0000   1.0000   1.0000   1.0000   1.0000   1.0000
     1.0000   1.0000   1.0000   1.0000   1.0000   1.0000   1.0000   1.0000
     1.0000   1.0000   1.0000   1.0000   1.0000   1.0000   1.0000   1.0000

          k = 0.3750 0.0000-0.1372 ( 18596 PWs)   bands (ev):

   -41.3197 -41.3197 -41.3180 -41.3180 -26.5669 -26.5669 -26.5655 -26.5655
   -19.4035 -19.4035 -19.3992 -19.3992 -19.3660 -19.3660 -19.3618 -19.3618
   -19.3212 -19.3212 -19.3121 -19.3121  -8.8406  -8.8406  -8.7994  -8.7994
    -8.6099  -8.6099  -8.6038  -8.6038  -8.5829  -8.5829  -8.5366  -8.5366
    -4.0601  -4.0601  -3.8726  -3.8726  -3.7603  -3.7603  -3.5644  -3.5644
    -3.3329  -3.3329  -3.2409  -3.2409   3.7052   3.7052   3.8830   3.8830
     4.1852   4.1852   4.3583   4.3583   4.7151   4.7151   4.7417   4.7417
     4.8391   4.8391   5.1600   5.1600   5.3659   5.3659   5.6298   5.6298
     5.8032   5.8032   5.8226   5.8226   5.8829   5.8829   6.2270   6.2270
     6.5691   6.5691   6.6300   6.6300   6.7535   6.7535   6.9765   6.9765

     occupation numbers 
     1.0000   1.0000   1.0000   1.0000   1.0000   1.0000   1.0000   1.0000
     1.0000   1.0000   1.0000   1.0000   1.0000   1.0000   1.0000   1.0000
     1.0000   1.0000   1.0000   1.0000   1.0000   1.0000   1.0000   1.0000
     1.0000   1.0000   1.0000   1.0000   1.0000   1.0000   1.0000   1.0000
     1.0000   1.0000   1.0000   1.0000   1.0000   1.0000   1.0000   1.0000
     1.0000   1.0000   1.0000   1.0000   1.0000   1.0000   1.0000   1.0000
     1.0000   1.0000   1.0000   1.0000   1.0000   1.0000   1.0000   1.0000
     1.0000   1.0000   1.0000   1.0000   1.0000   1.0000   1.0000   1.0000
     1.0000   1.0000   1.0000   1.0000   1.0000   1.0000   1.0000   1.0000
     1.0000   1.0000   1.0000   1.0000   1.0000   1.0000   1.0000   1.0000

          k = 0.3750 0.1118 0.0000 ( 18609 PWs)   bands (ev):

   -41.3197 -41.3197 -41.3180 -41.3180 -26.5667 -26.5666 -26.5657 -26.5657
   -19.4036 -19.4036 -19.3993 -19.3993 -19.3659 -19.3659 -19.3618 -19.3618
   -19.3212 -19.3212 -19.3121 -19.3121  -8.8351  -8.8344  -8.8060  -8.8052
    -8.6135  -8.6117  -8.6060  -8.6018  -8.5768  -8.5720  -8.5430  -8.5416
    -4.0877  -4.0231  -3.8913  -3.8807  -3.7427  -3.7279  -3.5800  -3.5759
    -3.3382  -3.3009  -3.2957  -3.2187   3.6163   3.7127   3.8970   3.8976
     4.2764   4.2970   4.3858   4.4162   4.5106   4.5685   4.6849   4.8015
     4.8020   4.8985   5.1402   5.2774   5.3464   5.3694   5.5034   5.5202
     5.6976   5.7374   5.7844   5.9719   6.0240   6.0846   6.3051   6.3752
     6.4333   6.4384   6.5899   6.6140   6.7974   6.8697   6.9487   6.9602

     occupation numbers 
     1.0000   1.0000   1.0000   1.0000   1.0000   1.0000   1.0000   1.0000
     1.0000   1.0000   1.0000   1.0000   1.0000   1.0000   1.0000   1.0000
     1.0000   1.0000   1.0000   1.0000   1.0000   1.0000   1.0000   1.0000
     1.0000   1.0000   1.0000   1.0000   1.0000   1.0000   1.0000   1.0000
     1.0000   1.0000   1.0000   1.0000   1.0000   1.0000   1.0000   1.0000
     1.0000   1.0000   1.0000   1.0000   1.0000   1.0000   1.0000   1.0000
     1.0000   1.0000   1.0000   1.0000   1.0000   1.0000   1.0000   1.0000
     1.0000   1.0000   1.0000   1.0000   1.0000   1.0000   1.0000   1.0000
     1.0000   1.0000   1.0000   1.0000   1.0000   1.0000   1.0000   1.0000
     1.0000   1.0000   1.0000   1.0000   1.0000   1.0000   1.0000   1.0000

          k = 0.3750 0.1118-0.1372 ( 18618 PWs)   bands (ev):

   -41.3197 -41.3197 -41.3180 -41.3180 -26.5667 -26.5667 -26.5657 -26.5657
   -19.4036 -19.4036 -19.3993 -19.3993 -19.3659 -19.3659 -19.3618 -19.3618
   -19.3212 -19.3212 -19.3121 -19.3121  -8.8348  -8.8348  -8.8056  -8.8056
    -8.6120  -8.6120  -8.6046  -8.6046  -8.5742  -8.5742  -8.5423  -8.5423
    -4.0538  -4.0538  -3.8928  -3.8928  -3.7323  -3.7323  -3.5771  -3.5771
    -3.3240  -3.3240  -3.2513  -3.2513   3.6683   3.6683   3.8570   3.8570
     4.2906   4.2906   4.3859   4.3859   4.6040   4.6040   4.7322   4.7322
     4.8890   4.8890   5.2234   5.2234   5.4023   5.4023   5.4656   5.4656
     5.6907   5.6907   5.8164   5.8164   6.0309   6.0309   6.2520   6.2520
     6.5171   6.5171   6.6347   6.6347   6.8346   6.8346   6.9955   6.9955

     occupation numbers 
     1.0000   1.0000   1.0000   1.0000   1.0000   1.0000   1.0000   1.0000
     1.0000   1.0000   1.0000   1.0000   1.0000   1.0000   1.0000   1.0000
     1.0000   1.0000   1.0000   1.0000   1.0000   1.0000   1.0000   1.0000
     1.0000   1.0000   1.0000   1.0000   1.0000   1.0000   1.0000   1.0000
     1.0000   1.0000   1.0000   1.0000   1.0000   1.0000   1.0000   1.0000
     1.0000   1.0000   1.0000   1.0000   1.0000   1.0000   1.0000   1.0000
     1.0000   1.0000   1.0000   1.0000   1.0000   1.0000   1.0000   1.0000
     1.0000   1.0000   1.0000   1.0000   1.0000   1.0000   1.0000   1.0000
     1.0000   1.0000   1.0000   1.0000   1.0000   1.0000   1.0000   1.0000
     1.0000   1.0000   1.0000   1.0000   1.0000   1.0000   1.0000   1.0000

          k = 0.3750-0.2236 0.0000 ( 18618 PWs)   bands (ev):

   -41.3197 -41.3197 -41.3180 -41.3180 -26.5662 -26.5662 -26.5662 -26.5662
   -19.4036 -19.4036 -19.3993 -19.3993 -19.3658 -19.3658 -19.3618 -19.3618
   -19.3212 -19.3212 -19.3121 -19.3121  -8.8208  -8.8208  -8.8199  -8.8199
    -8.6141  -8.6141  -8.6047  -8.6047  -8.5586  -8.5586  -8.5557  -8.5557
    -4.0539  -4.0539  -3.8966  -3.8966  -3.7084  -3.7084  -3.5939  -3.5939
    -3.3248  -3.3248  -3.2539  -3.2539   3.7128   3.7128   3.7628   3.7628
     4.3715   4.3715   4.4491   4.4491   4.5723   4.5723   4.6585   4.6585
     4.9265   4.9265   5.1834   5.1834   5.2480   5.2480   5.5004   5.5004
     5.6970   5.6970   5.8861   5.8861   6.1542   6.1542   6.2310   6.2310
     6.4678   6.4678   6.7461   6.7461   6.8032   6.8032   6.9436   6.9436

     occupation numbers 
     1.0000   1.0000   1.0000   1.0000   1.0000   1.0000   1.0000   1.0000
     1.0000   1.0000   1.0000   1.0000   1.0000   1.0000   1.0000   1.0000
     1.0000   1.0000   1.0000   1.0000   1.0000   1.0000   1.0000   1.0000
     1.0000   1.0000   1.0000   1.0000   1.0000   1.0000   1.0000   1.0000
     1.0000   1.0000   1.0000   1.0000   1.0000   1.0000   1.0000   1.0000
     1.0000   1.0000   1.0000   1.0000   1.0000   1.0000   1.0000   1.0000
     1.0000   1.0000   1.0000   1.0000   1.0000   1.0000   1.0000   1.0000
     1.0000   1.0000   1.0000   1.0000   1.0000   1.0000   1.0000   1.0000
     1.0000   1.0000   1.0000   1.0000   1.0000   1.0000   1.0000   1.0000
     1.0000   1.0000   1.0000   1.0000   1.0000   1.0000   1.0000   1.0000

          k = 0.3750-0.2236-0.1372 ( 18584 PWs)   bands (ev):

   -41.3197 -41.3197 -41.3180 -41.3180 -26.5662 -26.5662 -26.5662 -26.5662
   -19.4036 -19.4036 -19.3993 -19.3993 -19.3658 -19.3658 -19.3618 -19.3618
   -19.3212 -19.3212 -19.3121 -19.3121  -8.8205  -8.8205  -8.8202  -8.8202
    -8.6132  -8.6132  -8.6057  -8.6057  -8.5578  -8.5578  -8.5563  -8.5563
    -4.0466  -4.0466  -3.9099  -3.9099  -3.7042  -3.7042  -3.5940  -3.5940
    -3.3110  -3.3110  -3.2657  -3.2657   3.7027   3.7027   3.7481   3.7481
     4.3454   4.3454   4.4331   4.4331   4.5980   4.5980   4.7885   4.7885
     4.9640   4.9640   5.1242   5.1242   5.3115   5.3115   5.3773   5.3773
     5.7363   5.7363   5.7366   5.7366   6.1498   6.1498   6.3626   6.3626
     6.5006   6.5006   6.5759   6.5759   6.8078   6.8078   7.0694   7.0694

     occupation numbers 
     1.0000   1.0000   1.0000   1.0000   1.0000   1.0000   1.0000   1.0000
     1.0000   1.0000   1.0000   1.0000   1.0000   1.0000   1.0000   1.0000
     1.0000   1.0000   1.0000   1.0000   1.0000   1.0000   1.0000   1.0000
     1.0000   1.0000   1.0000   1.0000   1.0000   1.0000   1.0000   1.0000
     1.0000   1.0000   1.0000   1.0000   1.0000   1.0000   1.0000   1.0000
     1.0000   1.0000   1.0000   1.0000   1.0000   1.0000   1.0000   1.0000
     1.0000   1.0000   1.0000   1.0000   1.0000   1.0000   1.0000   1.0000
     1.0000   1.0000   1.0000   1.0000   1.0000   1.0000   1.0000   1.0000
     1.0000   1.0000   1.0000   1.0000   1.0000   1.0000   1.0000   1.0000
     1.0000   1.0000   1.0000   1.0000   1.0000   1.0000   1.0000   1.0000

          k =-0.5000 0.0000 0.0000 ( 18628 PWs)   bands (ev):

   -41.3181 -41.3181 -41.3181 -41.3181 -26.5639 -26.5639 -26.5625 -26.5625
   -19.4149 -19.4149 -19.4149 -19.4149 -19.3625 -19.3625 -19.3625 -19.3625
   -19.3171 -19.3171 -19.3170 -19.3170  -8.8921  -8.8921  -8.8461  -8.8461
    -8.5964  -8.5964  -8.5942  -8.5942  -8.5695  -8.5695  -8.5293  -8.5293
    -3.9243  -3.9243  -3.9228  -3.9228  -3.6369  -3.6369  -3.6236  -3.6236
    -3.3300  -3.3300  -3.2170  -3.2170   3.5985   3.5985   3.7898   3.7898
     4.0898   4.0898   4.3533   4.3533   4.5700   4.5700   4.6585   4.6585
     5.1333   5.1333   5.2793   5.2793   5.3288   5.3288   5.3344   5.3344
     5.5465   5.5465   5.9422   5.9422   6.0335   6.0335   6.1145   6.1145
     6.6243   6.6243   6.6843   6.6843   6.7936   6.7936   6.8655   6.8655

     occupation numbers 
     1.0000   1.0000   1.0000   1.0000   1.0000   1.0000   1.0000   1.0000
     1.0000   1.0000   1.0000   1.0000   1.0000   1.0000   1.0000   1.0000
     1.0000   1.0000   1.0000   1.0000   1.0000   1.0000   1.0000   1.0000
     1.0000   1.0000   1.0000   1.0000   1.0000   1.0000   1.0000   1.0000
     1.0000   1.0000   1.0000   1.0000   1.0000   1.0000   1.0000   1.0000
     1.0000   1.0000   1.0000   1.0000   1.0000   1.0000   1.0000   1.0000
     1.0000   1.0000   1.0000   1.0000   1.0000   1.0000   1.0000   1.0000
     1.0000   1.0000   1.0000   1.0000   1.0000   1.0000   1.0000   1.0000
     1.0000   1.0000   1.0000   1.0000   1.0000   1.0000   1.0000   1.0000
     1.0000   1.0000   1.0000   1.0000   1.0000   1.0000   1.0000   1.0000

          k =-0.5000 0.0000-0.1372 ( 18652 PWs)   bands (ev):

   -41.3181 -41.3181 -41.3181 -41.3181 -26.5639 -26.5639 -26.5625 -26.5625
   -19.4149 -19.4149 -19.4149 -19.4149 -19.3625 -19.3625 -19.3625 -19.3625
   -19.3171 -19.3171 -19.3170 -19.3170  -8.8921  -8.8921  -8.8461  -8.8461
    -8.5963  -8.5963  -8.5942  -8.5942  -8.5696  -8.5696  -8.5293  -8.5293
    -3.9274  -3.9274  -3.9198  -3.9198  -3.6379  -3.6379  -3.6229  -3.6229
    -3.3300  -3.3300  -3.2166  -3.2166   3.5786   3.5786   3.8246   3.8246
     4.0794   4.0794   4.2953   4.2953   4.6122   4.6122   4.7515   4.7515
     5.0453   5.0453   5.1321   5.1321   5.3010   5.3010   5.4666   5.4666
     5.7378   5.7378   5.7552   5.7552   5.9599   5.9599   6.4443   6.4443
     6.5041   6.5041   6.5830   6.5830   6.7370   6.7370   6.9249   6.9249

     occupation numbers 
     1.0000   1.0000   1.0000   1.0000   1.0000   1.0000   1.0000   1.0000
     1.0000   1.0000   1.0000   1.0000   1.0000   1.0000   1.0000   1.0000
     1.0000   1.0000   1.0000   1.0000   1.0000   1.0000   1.0000   1.0000
     1.0000   1.0000   1.0000   1.0000   1.0000   1.0000   1.0000   1.0000
     1.0000   1.0000   1.0000   1.0000   1.0000   1.0000   1.0000   1.0000
     1.0000   1.0000   1.0000   1.0000   1.0000   1.0000   1.0000   1.0000
     1.0000   1.0000   1.0000   1.0000   1.0000   1.0000   1.0000   1.0000
     1.0000   1.0000   1.0000   1.0000   1.0000   1.0000   1.0000   1.0000
     1.0000   1.0000   1.0000   1.0000   1.0000   1.0000   1.0000   1.0000
     1.0000   1.0000   1.0000   1.0000   1.0000   1.0000   1.0000   1.0000

          k =-0.5000 0.1118 0.0000 ( 18610 PWs)   bands (ev):

   -41.3181 -41.3181 -41.3181 -41.3181 -26.5637 -26.5637 -26.5627 -26.5627
   -19.4150 -19.4150 -19.4150 -19.4150 -19.3624 -19.3624 -19.3624 -19.3624
   -19.3171 -19.3171 -19.3170 -19.3170  -8.8855  -8.8855  -8.8529  -8.8529
    -8.5976  -8.5976  -8.5954  -8.5954  -8.5621  -8.5621  -8.5343  -8.5343
    -3.9242  -3.9242  -3.9228  -3.9228  -3.6355  -3.6355  -3.6272  -3.6272
    -3.3113  -3.3113  -3.2322  -3.2322   3.5437   3.5437   3.6370   3.6370
     4.2521   4.2521   4.4264   4.4264   4.6379   4.6379   4.6685   4.6685
     5.0540   5.0540   5.1660   5.1660   5.3139   5.3139   5.4211   5.4211
     5.7156   5.7156   5.8641   5.8641   6.1604   6.1604   6.1738   6.1738
     6.5190   6.5190   6.5274   6.5274   6.7800   6.7800   6.7931   6.7931

     occupation numbers 
     1.0000   1.0000   1.0000   1.0000   1.0000   1.0000   1.0000   1.0000
     1.0000   1.0000   1.0000   1.0000   1.0000   1.0000   1.0000   1.0000
     1.0000   1.0000   1.0000   1.0000   1.0000   1.0000   1.0000   1.0000
     1.0000   1.0000   1.0000   1.0000   1.0000   1.0000   1.0000   1.0000
     1.0000   1.0000   1.0000   1.0000   1.0000   1.0000   1.0000   1.0000
     1.0000   1.0000   1.0000   1.0000   1.0000   1.0000   1.0000   1.0000
     1.0000   1.0000   1.0000   1.0000   1.0000   1.0000   1.0000   1.0000
     1.0000   1.0000   1.0000   1.0000   1.0000   1.0000   1.0000   1.0000
     1.0000   1.0000   1.0000   1.0000   1.0000   1.0000   1.0000   1.0000
     1.0000   1.0000   1.0000   1.0000   1.0000   1.0000   1.0000   1.0000

          k =-0.5000 0.1118-0.1372 ( 18620 PWs)   bands (ev):

   -41.3181 -41.3181 -41.3181 -41.3181 -26.5637 -26.5637 -26.5627 -26.5627
   -19.4150 -19.4150 -19.4150 -19.4150 -19.3624 -19.3624 -19.3624 -19.3624
   -19.3171 -19.3171 -19.3170 -19.3170  -8.8855  -8.8855  -8.8530  -8.8530
    -8.5976  -8.5976  -8.5954  -8.5954  -8.5621  -8.5621  -8.5343  -8.5343
    -3.9261  -3.9261  -3.9210  -3.9210  -3.6373  -3.6373  -3.6258  -3.6258
    -3.3113  -3.3113  -3.2317  -3.2317   3.5178   3.5178   3.6611   3.6611
     4.2278   4.2278   4.4281   4.4281   4.6288   4.6288   4.6940   4.6940
     5.0876   5.0876   5.2163   5.2163   5.3436   5.3436   5.3835   5.3835
     5.7441   5.7441   5.8043   5.8043   6.0110   6.0110   6.1931   6.1931
     6.5245   6.5245   6.5375   6.5375   6.8113   6.8113   6.8539   6.8539

     occupation numbers 
     1.0000   1.0000   1.0000   1.0000   1.0000   1.0000   1.0000   1.0000
     1.0000   1.0000   1.0000   1.0000   1.0000   1.0000   1.0000   1.0000
     1.0000   1.0000   1.0000   1.0000   1.0000   1.0000   1.0000   1.0000
     1.0000   1.0000   1.0000   1.0000   1.0000   1.0000   1.0000   1.0000
     1.0000   1.0000   1.0000   1.0000   1.0000   1.0000   1.0000   1.0000
     1.0000   1.0000   1.0000   1.0000   1.0000   1.0000   1.0000   1.0000
     1.0000   1.0000   1.0000   1.0000   1.0000   1.0000   1.0000   1.0000
     1.0000   1.0000   1.0000   1.0000   1.0000   1.0000   1.0000   1.0000
     1.0000   1.0000   1.0000   1.0000   1.0000   1.0000   1.0000   1.0000
     1.0000   1.0000   1.0000   1.0000   1.0000   1.0000   1.0000   1.0000

          k =-0.5000-0.2236 0.0000 ( 18572 PWs)   bands (ev):

   -41.3181 -41.3181 -41.3181 -41.3181 -26.5632 -26.5632 -26.5632 -26.5632
   -19.4150 -19.4150 -19.4150 -19.4150 -19.3624 -19.3624 -19.3624 -19.3624
   -19.3171 -19.3171 -19.3171 -19.3171  -8.8693  -8.8693  -8.8693  -8.8693
    -8.5975  -8.5975  -8.5975  -8.5975  -8.5473  -8.5473  -8.5473  -8.5473
    -3.9235  -3.9235  -3.9235  -3.9235  -3.6324  -3.6324  -3.6324  -3.6324
    -3.2701  -3.2701  -3.2701  -3.2701   3.5206   3.5206   3.5206   3.5206
     4.3893   4.3893   4.3893   4.3893   4.7397   4.7397   4.7397   4.7397
     5.0410   5.0410   5.0410   5.0410   5.4004   5.4004   5.4004   5.4004
     5.7955   5.7955   5.7955   5.7955   6.3124   6.3124   6.3124   6.3124
     6.4052   6.4052   6.4052   6.4052   6.6813   6.6813   6.6813   6.6813

     occupation numbers 
     1.0000   1.0000   1.0000   1.0000   1.0000   1.0000   1.0000   1.0000
     1.0000   1.0000   1.0000   1.0000   1.0000   1.0000   1.0000   1.0000
     1.0000   1.0000   1.0000   1.0000   1.0000   1.0000   1.0000   1.0000
     1.0000   1.0000   1.0000   1.0000   1.0000   1.0000   1.0000   1.0000
     1.0000   1.0000   1.0000   1.0000   1.0000   1.0000   1.0000   1.0000
     1.0000   1.0000   1.0000   1.0000   1.0000   1.0000   1.0000   1.0000
     1.0000   1.0000   1.0000   1.0000   1.0000   1.0000   1.0000   1.0000
     1.0000   1.0000   1.0000   1.0000   1.0000   1.0000   1.0000   1.0000
     1.0000   1.0000   1.0000   1.0000   1.0000   1.0000   1.0000   1.0000
     1.0000   1.0000   1.0000   1.0000   1.0000   1.0000   1.0000   1.0000

          k =-0.5000-0.2236-0.1372 ( 18624 PWs)   bands (ev):

   -41.3181 -41.3181 -41.3181 -41.3181 -26.5632 -26.5632 -26.5632 -26.5632
   -19.4150 -19.4150 -19.4150 -19.4150 -19.3624 -19.3624 -19.3624 -19.3624
   -19.3171 -19.3171 -19.3171 -19.3171  -8.8693  -8.8693  -8.8693  -8.8693
    -8.5975  -8.5975  -8.5975  -8.5975  -8.5473  -8.5473  -8.5473  -8.5473
    -3.9236  -3.9236  -3.9236  -3.9236  -3.6326  -3.6326  -3.6326  -3.6326
    -3.2698  -3.2698  -3.2698  -3.2698   3.5128   3.5128   3.5128   3.5128
     4.3991   4.3991   4.3991   4.3991   4.6896   4.6896   4.6896   4.6896
     5.1870   5.1870   5.1870   5.1870   5.3731   5.3731   5.3731   5.3731
     5.8343   5.8343   5.8343   5.8343   6.0002   6.0002   6.0002   6.0002
     6.4639   6.4639   6.4639   6.4639   6.8452   6.8452   6.8452   6.8452

     occupation numbers 
     1.0000   1.0000   1.0000   1.0000   1.0000   1.0000   1.0000   1.0000
     1.0000   1.0000   1.0000   1.0000   1.0000   1.0000   1.0000   1.0000
     1.0000   1.0000   1.0000   1.0000   1.0000   1.0000   1.0000   1.0000
     1.0000   1.0000   1.0000   1.0000   1.0000   1.0000   1.0000   1.0000
     1.0000   1.0000   1.0000   1.0000   1.0000   1.0000   1.0000   1.0000
     1.0000   1.0000   1.0000   1.0000   1.0000   1.0000   1.0000   1.0000
     1.0000   1.0000   1.0000   1.0000   1.0000   1.0000   1.0000   1.0000
     1.0000   1.0000   1.0000   1.0000   1.0000   1.0000   1.0000   1.0000
     1.0000   1.0000   1.0000   1.0000   1.0000   1.0000   1.0000   1.0000
     1.0000   1.0000   1.0000   1.0000   1.0000   1.0000   1.0000   1.0000

     highest occupied level (ev):     7.9443

!    total energy              =    -969.04006379 Ry
     estimated scf accuracy    <          2.3E-09 Ry

     The total energy is the sum of the following terms:
     one-electron contribution =    -192.67316129 Ry
     hartree contribution      =     157.19088270 Ry
     xc contribution           =    -246.09773026 Ry
     ewald contribution        =    -687.46005493 Ry

     convergence has been achieved in  15 iterations


     Computing stress (Cartesian axis) and pressure


     negative rho (up, down):  5.167E-01 0.000E+00
          total   stress  (Ry/bohr**3)                   (kbar)     P=        3.16
   0.00001309   0.00000000   0.00000000            1.93        0.00        0.00
   0.00000000   0.00002417   0.00000000            0.00        3.56        0.00
   0.00000000   0.00000000   0.00002709            0.00        0.00        3.99

     kinetic stress (kbar)   8980.19      0.00      0.00
                                0.00   9009.92      0.00
                                0.00      0.00   9030.03

     local   stress (kbar)  -7807.73      0.00     -0.00
                                0.00  -4280.53     -0.00
                               -0.00     -0.00  -4001.29

     nonloc. stress (kbar)   7415.11      0.00      0.00
                                0.00   7411.71      0.00
                                0.00      0.00   7417.22

     hartree stress (kbar)   3497.06      0.00     -0.00
                                0.00   2110.70     -0.00
                               -0.00     -0.00   1816.51

     exc-cor stress (kbar)   2585.96     -0.00     -0.00
                               -0.00   2583.79     -0.00
                               -0.00     -0.00   2586.48

     corecor stress (kbar)  -5291.90      0.00      0.00
                                0.00  -5291.84      0.00
                                0.00      0.00  -5292.58

     ewald   stress (kbar)  -9376.77     -0.00      0.00
                               -0.00 -11540.20      0.00
                                0.00      0.00 -11552.39

     hubbard stress (kbar)      0.00      0.00      0.00
                                0.00      0.00      0.00
                                0.00      0.00      0.00

     DFT-D   stress (kbar)      0.00      0.00      0.00
                                0.00      0.00      0.00
                                0.00      0.00      0.00

     XDM     stress (kbar)      0.00      0.00      0.00
                                0.00      0.00      0.00
                                0.00      0.00      0.00

     dft-nl  stress (kbar)      0.00      0.00      0.00
                                0.00      0.00      0.00
                                0.00      0.00      0.00

     TS-vdW  stress (kbar)      0.00      0.00      0.00
                                0.00      0.00      0.00
                                0.00      0.00      0.00

     MDB     stress (kbar)      0.00      0.00      0.00
                                0.00      0.00      0.00
                                0.00      0.00      0.00

     3D-RISM stress (kbar)      0.00      0.00      0.00
                                0.00      0.00      0.00
                                0.00      0.00      0.00


     Writing all to output data dir ./tmp/k_8x4x2/SrZrS3_k_8x4x2.save/ :
     XML data file, charge density, pseudopotentials, collected wavefunctions

     init_run     :     10.31s CPU     10.48s WALL (       1 calls)
     electrons    :    305.40s CPU    309.32s WALL (       1 calls)
     stress       :     13.68s CPU     13.82s WALL (       1 calls)

     Called by init_run:
     wfcinit      :      9.80s CPU      9.94s WALL (       1 calls)
     wfcinit:atom :      0.03s CPU      0.03s WALL (      30 calls)
     wfcinit:wfcr :      9.32s CPU      9.44s WALL (      30 calls)
     potinit      :      0.05s CPU      0.05s WALL (       1 calls)
     hinit0       :      0.09s CPU      0.09s WALL (       1 calls)

     Called by electrons:
     c_bands      :    268.76s CPU    272.10s WALL (      15 calls)
     sum_band     :     31.43s CPU     31.95s WALL (      15 calls)
     v_of_rho     :      0.68s CPU      0.70s WALL (      16 calls)
     v_h          :      0.04s CPU      0.04s WALL (      16 calls)
     v_xc         :      0.68s CPU      0.70s WALL (      17 calls)
     newd         :      4.71s CPU      4.76s WALL (      16 calls)
     mix_rho      :      0.10s CPU      0.10s WALL (      15 calls)

     Called by c_bands:
     init_us_2    :      1.77s CPU      1.80s WALL (     960 calls)
     cegterg      :    256.71s CPU    259.90s WALL (     450 calls)

     Called by sum_band:
     sum_band:wei :      0.00s CPU      0.00s WALL (      15 calls)
     sum_band:loo :     26.25s CPU     26.61s WALL (      15 calls)
     sum_band:buf :      0.13s CPU      0.13s WALL (     450 calls)
     sum_band:ini :      0.85s CPU      0.86s WALL (     450 calls)
     sum_band:cal :     11.95s CPU     12.08s WALL (     450 calls)
     sum_band:bec :      0.05s CPU      0.05s WALL (     450 calls)
     addusdens    :      4.93s CPU      5.09s WALL (      15 calls)
                                        0.00s GPU  (      15 calls)
     addusd:skk   :      0.03s CPU      0.03s WALL (      45 calls)
                                        0.00s GPU  (      45 calls)

     Called by *egterg:
     cdiaghg      :      8.30s CPU      8.39s WALL (    2206 calls)
     cegterg:over :     20.01s CPU     20.23s WALL (    1756 calls)
     cegterg:upda :     11.62s CPU     11.74s WALL (    1756 calls)
     cegterg:last :     27.13s CPU     27.41s WALL (    1122 calls)
     h_psi        :    151.93s CPU    154.02s WALL (    2236 calls)
     s_psi        :     38.53s CPU     38.94s WALL (    2236 calls)
     g_psi        :      0.27s CPU      0.28s WALL (    1756 calls)

     Called by h_psi:
     h_psi:calbec :     38.65s CPU     39.08s WALL (    2236 calls)
     vloc_psi     :     73.98s CPU     75.21s WALL (    2236 calls)
                                        0.00s GPU  (    2236 calls)
     add_vuspsi   :     39.00s CPU     39.42s WALL (    2236 calls)

     General routines
     calbec       :     60.63s CPU     61.29s WALL (    3076 calls)
     fft          :      0.52s CPU      0.53s WALL (     220 calls)
     ffts         :      0.02s CPU      0.02s WALL (      31 calls)
     fftw         :     78.65s CPU     79.89s WALL (  255912 calls)
     interpolate  :      0.05s CPU      0.05s WALL (      16 calls)

     Parallel routines

     PWSCF        :   5m29.62s CPU   5m33.95s WALL


   This run was terminated on:   2:37: 3   2Jul2026            

=------------------------------------------------------------------------------=
   JOB DONE.
=------------------------------------------------------------------------------=
