
     Program PWSCF v.7.3.1 starts on 21Aug2026 at  3: 8: 3 

     This program is part of the open-source Quantum ESPRESSO suite
     for quantum simulation of materials; please cite
         "P. Giannozzi et al., J. Phys.:Condens. Matter 21 395502 (2009);
         "P. Giannozzi et al., J. Phys.:Condens. Matter 29 465901 (2017);
         "P. Giannozzi et al., J. Chem. Phys. 152 154105 (2020);
          URL http://www.quantum-espresso.org", 
     in publications or presentations arising from this work. More details at
     http://www.quantum-espresso.org/quote

     Parallel version (MPI & OpenMP), running on      32 processor cores
     Number of MPI processes:                32
     Threads/MPI process:                     1

     MPI processes distributed on     1 nodes
     57292 MiB available memory on the printing compute node when the environment starts

     Reading input from scf.in

     Current dimensions of program PWSCF are:
     Max number of different atomic species (ntypx) = 10
     Max number of k-points (npk) =  40000
     Max angular momentum in pseudopotentials (lmaxx) =  4
     file Cu.paw.z_11.ld1.psl.v1.0.0-low.upf: wavefunction(s)  4S 3D renormalized

     K-points division:     npool     =       2
     R & G space division:  proc/nbgrp/npool/nimage =      16
     Subspace diagonalization in iterative solution of the eigenvalue problem:
     one sub-group per band group will be used
     scalapack distributed-memory algorithm (size of sub-group:  4*  4 procs)


     Parallelization info
     --------------------
     sticks:   dense  smooth     PW     G-vecs:    dense   smooth      PW
     Min        1193     597    157               163743    57882    7779
     Max        1194     599    158               163747    57885    7784
     Sum       19099    9565   2515              2619931   926125  124485

     Using Slab Decomposition



     bravais-lattice index     =            0
     lattice parameter (alat)  =      24.0273  a.u.
     unit-cell volume          =   14752.0463 (a.u.)^3
     number of atoms/cell      =           96
     number of atomic types    =            4
     number of electrons       =       840.00
     number of Kohn-Sham states=          420
     kinetic-energy cutoff     =      60.0000  Ry
     charge density cutoff     =     480.0000  Ry
     scf convergence threshold =      1.0E-09
     mixing beta               =       0.3000
     number of iterations used =            8  plain     mixing
     Exchange-correlation=  SLA  PW   PBX  PBC
                           (   1   4   3   4   0   0   0)

     celldm(1)=  24.027274  celldm(2)=   0.000000  celldm(3)=   0.000000
     celldm(4)=   0.000000  celldm(5)=   0.000000  celldm(6)=   0.000000

     crystal axes: (cart. coord. in units of alat)
               a(1) = (   1.000000   0.000000   0.000000 )  
               a(2) = (  -0.500000   0.866025   0.000000 )  
               a(3) = (   0.000000   0.000000   1.228028 )  

     reciprocal axes: (cart. coord. in units 2 pi/alat)
               b(1) = (  1.000000  0.577351 -0.000000 )  
               b(2) = (  0.000000  1.154701  0.000000 )  
               b(3) = (  0.000000 -0.000000  0.814314 )  


     PseudoPot. # 1 for Sr read from file:
     /home/yuhansun/pseudos/SSSP-1.3.0-PBE-precision/Sr_pbe_v1.uspp.F.UPF
     MD5 check sum: 6b418c05fbe9db5448babca5e47b7a5b
     Pseudo is Ultrasoft + core correction, Zval = 10.0
     Generated by new atomic code, or converted to UPF format
     Using radial grid of  883 points,  6 beta functions with: 
                l(1) =   0
                l(2) =   0
                l(3) =   1
                l(4) =   1
                l(5) =   2
                l(6) =   2
     Q(r) pseudized with  6 coefficients,  rinner =    1.400   1.400   1.400
                                                       1.400   1.400

     PseudoPot. # 2 for Cu read from file:
     /home/yuhansun/pseudos/SSSP-1.3.0-PBE-precision/Cu.paw.z_11.ld1.psl.v1.0.0-low.upf
     MD5 check sum: 619f40885d92a09a85a8b37550532d0c
     Pseudo is Projector augmented-wave + core cor, Zval = 11.0
     Generated using &quot;atomic&quot; code by A. Dal Corso  v.6.3MaX
     Shape of augmentation charge: PSQ
     Using radial grid of 1199 points,  6 beta functions with: 
                l(1) =   0
                l(2) =   0
                l(3) =   1
                l(4) =   1
                l(5) =   2
                l(6) =   2
     Q(r) pseudized with 0 coefficients 


     PseudoPot. # 3 for Sn read from file:
     /home/yuhansun/pseudos/SSSP-1.3.0-PBE-precision/Sn_pbe_v1.uspp.F.UPF
     MD5 check sum: 4cf58ce39ec5d5d420df3dd08604eb00
     Pseudo is Ultrasoft + core correction, Zval = 14.0
     Generated by new atomic code, or converted to UPF format
     Using radial grid of  891 points,  6 beta functions with: 
                l(1) =   0
                l(2) =   0
                l(3) =   1
                l(4) =   1
                l(5) =   2
                l(6) =   2
     Q(r) pseudized with  6 coefficients,  rinner =    1.200   1.200   1.200
                                                       1.200   1.200

     PseudoPot. # 4 for S  read from file:
     /home/yuhansun/pseudos/SSSP-1.3.0-PBE-precision/s_pbe_v1.4.uspp.F.UPF
     MD5 check sum: 88d86576ff6df21479756cfb9bdac1df
     Pseudo is Ultrasoft + core correction, Zval =  6.0
     Generated by new atomic code, or converted to UPF format
     Using radial grid of  907 points,  6 beta functions with: 
                l(1) =   0
                l(2) =   0
                l(3) =   1
                l(4) =   1
                l(5) =   2
                l(6) =   2
     Q(r) pseudized with  8 coefficients,  rinner =    1.300   1.300   1.300
                                                       1.300   1.300

     atomic species   valence    mass     pseudopotential
     Sr               10.00    87.62000     Sr( 1.00)
     Cu               11.00    63.54600     Cu( 1.00)
     Sn               14.00   118.71000     Sn( 1.00)
     S                 6.00    32.06500     S ( 1.00)

     No symmetry found



   Cartesian axes

     site n.     atom                  positions (alat units)
         1        Sr     tau(   1) = (  -0.1405753   0.2434834   0.2046717  )
         2        Sr     tau(   2) = (   0.3594247   0.2434834   0.2046717  )
         3        Sr     tau(   3) = (  -0.3905753   0.6764960   0.2046717  )
         4        Sr     tau(   4) = (   0.1094247   0.6764960   0.2046717  )
         5        Sr     tau(   5) = (   0.1094247   0.1895292   0.6140139  )
         6        Sr     tau(   6) = (   0.6094247   0.1895292   0.6140139  )
         7        Sr     tau(   7) = (  -0.1405753   0.6225418   0.6140139  )
         8        Sr     tau(   8) = (   0.3594247   0.6225418   0.6140139  )
         9        Sr     tau(   9) = (   0.2811505   0.0000000   1.0233574  )
        10        Sr     tau(  10) = (   0.7811505   0.0000000   1.0233574  )
        11        Sr     tau(  11) = (   0.0311505   0.4330126   1.0233574  )
        12        Sr     tau(  12) = (   0.5311505   0.4330126   1.0233574  )
        13        Cu     tau(  13) = (  -0.1226788   0.2753211   0.5061747  )
        14        Cu     tau(  14) = (   0.3773212   0.2753211   0.5061747  )
        15        Cu     tau(  15) = (  -0.3726788   0.7083337   0.5061747  )
        16        Cu     tau(  16) = (   0.1273212   0.7083337   0.5061747  )
        17        Cu     tau(  17) = (   0.0729045   0.1891087   0.9155169  )
        18        Cu     tau(  18) = (   0.5729045   0.1891087   0.9155169  )
        19        Cu     tau(  19) = (  -0.1770956   0.6221213   0.9155169  )
        20        Cu     tau(  20) = (   0.3229044   0.6221213   0.9155169  )
        21        Cu     tau(  21) = (   0.0497750   0.4015949   0.0968325  )
        22        Cu     tau(  22) = (   0.5497750   0.4015949   0.0968325  )
        23        Cu     tau(  23) = (  -0.2002251   0.8346075   0.0968325  )
        24        Cu     tau(  24) = (   0.2997749   0.8346075   0.0968325  )
        25        Cu     tau(  25) = (   0.2997745   0.0314177   0.7218532  )
        26        Cu     tau(  26) = (   0.7997745   0.0314177   0.7218532  )
        27        Cu     tau(  27) = (   0.0497745   0.4644302   0.7218532  )
        28        Cu     tau(  28) = (   0.5497745   0.4644302   0.7218532  )
        29        Cu     tau(  29) = (   0.1273207   0.1576915   0.3125110  )
        30        Cu     tau(  30) = (   0.6273207   0.1576915   0.3125110  )
        31        Cu     tau(  31) = (  -0.1226793   0.5907041   0.3125110  )
        32        Cu     tau(  32) = (   0.3773207   0.5907041   0.3125110  )
        33        Cu     tau(  33) = (   0.3229040   0.2439039   1.1311954  )
        34        Cu     tau(  34) = (   0.8229040   0.2439039   1.1311954  )
        35        Cu     tau(  35) = (   0.0729039   0.6769164   1.1311954  )
        36        Cu     tau(  36) = (   0.5729039   0.6769164   1.1311954  )
        37        Sn     tau(  37) = (  -0.1750094   0.3031251   0.8211828  )
        38        Sn     tau(  38) = (   0.3237420   0.3052877   0.8186857  )
        39        Sn     tau(  39) = (  -0.4262581   0.7383003   0.8186857  )
        40        Sn     tau(  40) = (   0.0737419   0.7383003   0.8186857  )
        41        Sn     tau(  41) = (   0.0737420   0.1277249   0.0000000  )
        42        Sn     tau(  42) = (   0.5737420   0.1277249   0.0000000  )
        43        Sn     tau(  43) = (  -0.1762581   0.5607374   0.0000000  )
        44        Sn     tau(  44) = (   0.3237419   0.5607374   0.0000000  )
        45        Sn     tau(  45) = (   0.3525160   0.0000000   0.4093422  )
        46        Sn     tau(  46) = (   0.8525160   0.0000000   0.4093422  )
        47        Sn     tau(  47) = (   0.1025160   0.4330126   0.4093422  )
        48        Sn     tau(  48) = (   0.6025160   0.4330126   0.4093422  )
        49        S      tau(  49) = (  -0.0988203   0.2103164   0.9671149  )
        50        S      tau(  50) = (   0.4011797   0.2103164   0.9671149  )
        51        S      tau(  51) = (  -0.3488203   0.6433290   0.9671149  )
        52        S      tau(  52) = (   0.1511797   0.6433290   0.9671149  )
        53        S      tau(  53) = (   0.1172707   0.2422736   0.1484293  )
        54        S      tau(  54) = (   0.6172707   0.2422736   0.1484293  )
        55        S      tau(  55) = (  -0.1327293   0.6752862   0.1484293  )
        56        S      tau(  56) = (   0.3672707   0.6752862   0.1484293  )
        57        S      tau(  57) = (  -0.0184505   0.4134352   0.5577727  )
        58        S      tau(  58) = (   0.4815495   0.4134352   0.5577727  )
        59        S      tau(  59) = (  -0.2684506   0.8464478   0.5577727  )
        60        S      tau(  60) = (   0.2315494   0.8464478   0.5577727  )
        61        S      tau(  61) = (   0.2315495   0.0195774   0.2609129  )
        62        S      tau(  62) = (   0.7315495   0.0195774   0.2609129  )
        63        S      tau(  63) = (  -0.0184505   0.4525899   0.2609129  )
        64        S      tau(  64) = (   0.4815495   0.4525899   0.2609129  )
        65        S      tau(  65) = (   0.1511797   0.2226962   1.0795986  )
        66        S      tau(  66) = (   0.6511797   0.2226962   1.0795986  )
        67        S      tau(  67) = (  -0.0988203   0.6557088   1.0795986  )
        68        S      tau(  68) = (   0.4011797   0.6557088   1.0795986  )
        69        S      tau(  69) = (   0.3672707   0.1907390   0.6702552  )
        70        S      tau(  70) = (   0.8672707   0.1907390   0.6702552  )
        71        S      tau(  71) = (   0.1172707   0.6237516   0.6702552  )
        72        S      tau(  72) = (   0.6172707   0.6237516   0.6702552  )
        73        S      tau(  73) = (  -0.0296498   0.1532012   0.4035914  )
        74        S      tau(  74) = (   0.4703502   0.1532012   0.4035914  )
        75        S      tau(  75) = (  -0.2796498   0.5862137   0.4035914  )
        76        S      tau(  76) = (   0.2203502   0.5862137   0.4035914  )
        77        S      tau(  77) = (   0.1321490   0.3307341   0.8129336  )
        78        S      tau(  78) = (   0.6321490   0.3307341   0.8129336  )
        79        S      tau(  79) = (  -0.1178511   0.7637467   0.8129336  )
        80        S      tau(  80) = (   0.3821489   0.7637467   0.8129336  )
        81        S      tau(  81) = (  -0.1024985   0.3820894   1.2222770  )
        82        S      tau(  82) = (   0.3975015   0.3820894   1.2222770  )
        83        S      tau(  83) = (  -0.3524986   0.8151020   1.2222770  )
        84        S      tau(  84) = (   0.1475014   0.8151020   1.2222770  )
        85        S      tau(  85) = (   0.1475010   0.0509231   0.8244365  )
        86        S      tau(  86) = (   0.6475010   0.0509231   0.8244365  )
        87        S      tau(  87) = (  -0.1024990   0.4839357   0.8244365  )
        88        S      tau(  88) = (   0.3975010   0.4839357   0.8244365  )
        89        S      tau(  89) = (   0.2203497   0.2798114   0.4150943  )
        90        S      tau(  90) = (   0.7203497   0.2798114   0.4150943  )
        91        S      tau(  91) = (  -0.0296503   0.7128240   0.4150943  )
        92        S      tau(  92) = (   0.4703497   0.7128240   0.4150943  )
        93        S      tau(  93) = (   0.3821485   0.1022784   0.0057509  )
        94        S      tau(  94) = (   0.8821485   0.1022784   0.0057509  )
        95        S      tau(  95) = (   0.1321485   0.5352910   0.0057509  )
        96        S      tau(  96) = (   0.6321485   0.5352910   0.0057509  )

     number of k points=    14
                       cart. coord. in units 2pi/alat
        k(    1) = (   0.0000000   0.0000000   0.0000000), wk =   0.0740741
        k(    2) = (   0.0000000   0.0000000   0.2714379), wk =   0.1481481
        k(    3) = (   0.0000000   0.3849003   0.0000000), wk =   0.1481481
        k(    4) = (   0.0000000   0.3849003   0.2714379), wk =   0.1481481
        k(    5) = (   0.3333333   0.5773505   0.0000000), wk =   0.1481481
        k(    6) = (   0.3333333   0.5773505   0.2714379), wk =   0.1481481
        k(    7) = (  -0.3333333   0.1924501   0.0000000), wk =   0.1481481
        k(    8) = (   0.3333333   0.1924502   0.0000000), wk =   0.1481481
        k(    9) = (   0.0000000  -0.3849003   0.2714379), wk =   0.1481481
        k(   10) = (  -0.3333333   0.1924501   0.2714379), wk =   0.1481481
        k(   11) = (   0.3333333   0.1924502   0.2714379), wk =   0.1481481
        k(   12) = (  -0.3333333  -0.1924502   0.2714379), wk =   0.1481481
        k(   13) = (   0.3333333  -0.1924501   0.2714379), wk =   0.1481481
        k(   14) = (  -0.3333333  -0.5773505   0.2714379), wk =   0.1481481

     Dense  grid:  2619931 G-vectors     FFT dimensions: ( 180, 180, 216)

     Smooth grid:   926125 G-vectors     FFT dimensions: ( 120, 120, 150)

     Estimated max dynamical RAM per process >       1.07 GB

     Estimated total dynamical RAM >      33.54 GB

     Initial potential from superposition of free atoms

     starting charge     827.5884, renormalised to     840.0000

     negative rho (up, down):  7.777E-01 0.000E+00
     Starting wfcs are  672 randomized atomic wfcs
     Checking if some PAW data can be deallocated... 

     total cpu time spent up to now is       49.8 secs

     Self-consistent Calculation

     iteration #  1     ecut=    60.00 Ry     beta= 0.30
     Davidson diagonalization with overlap
     ethr =  1.00E-02,  avg # of iterations =  2.0

     negative rho (up, down):  7.747E-01 0.000E+00

     total cpu time spent up to now is      152.9 secs

     total energy              =   -9070.28995472 Ry
     estimated scf accuracy    <      21.97950895 Ry

     iteration #  2     ecut=    60.00 Ry     beta= 0.30
     Davidson diagonalization with overlap
     ethr =  2.62E-03,  avg # of iterations =  4.8

     negative rho (up, down):  7.752E-01 0.000E+00

     total cpu time spent up to now is      280.6 secs

     total energy              =   -9076.61504504 Ry
     estimated scf accuracy    <       8.18284077 Ry

     iteration #  3     ecut=    60.00 Ry     beta= 0.30
     Davidson diagonalization with overlap
     ethr =  9.74E-04,  avg # of iterations =  2.7

     negative rho (up, down):  7.804E-01 0.000E+00

     total cpu time spent up to now is      384.2 secs

     total energy              =   -9076.49064382 Ry
     estimated scf accuracy    <       1.63695291 Ry

     iteration #  4     ecut=    60.00 Ry     beta= 0.30
     Davidson diagonalization with overlap
     ethr =  1.95E-04,  avg # of iterations =  5.6

     negative rho (up, down):  7.829E-01 0.000E+00

     total cpu time spent up to now is      519.1 secs

     total energy              =   -9076.71142609 Ry
     estimated scf accuracy    <       2.09918454 Ry

     iteration #  5     ecut=    60.00 Ry     beta= 0.30
     Davidson diagonalization with overlap
     ethr =  1.95E-04,  avg # of iterations =  5.3

     negative rho (up, down):  7.879E-01 0.000E+00

     total cpu time spent up to now is      642.4 secs

     total energy              =   -9077.15160481 Ry
     estimated scf accuracy    <       0.13090762 Ry

     iteration #  6     ecut=    60.00 Ry     beta= 0.30
     Davidson diagonalization with overlap
     ethr =  1.56E-05,  avg # of iterations =  5.6

     negative rho (up, down):  7.900E-01 0.000E+00

     total cpu time spent up to now is      771.6 secs

     total energy              =   -9077.18361168 Ry
     estimated scf accuracy    <       0.02127658 Ry

     iteration #  7     ecut=    60.00 Ry     beta= 0.30
     Davidson diagonalization with overlap
     ethr =  2.53E-06,  avg # of iterations =  4.1

     negative rho (up, down):  7.911E-01 0.000E+00

     total cpu time spent up to now is      885.4 secs

     total energy              =   -9077.18813129 Ry
     estimated scf accuracy    <       0.00542958 Ry

     iteration #  8     ecut=    60.00 Ry     beta= 0.30
     Davidson diagonalization with overlap
     ethr =  6.46E-07,  avg # of iterations =  7.3

     negative rho (up, down):  7.912E-01 0.000E+00

     total cpu time spent up to now is     1058.2 secs

     total energy              =   -9077.17720655 Ry
     estimated scf accuracy    <       0.05645831 Ry

     iteration #  9     ecut=    60.00 Ry     beta= 0.30
     Davidson diagonalization with overlap
     ethr =  6.46E-07,  avg # of iterations =  8.6

     negative rho (up, down):  7.911E-01 0.000E+00

     total cpu time spent up to now is     1225.4 secs

     total energy              =   -9077.18692773 Ry
     estimated scf accuracy    <       0.00158663 Ry

     iteration # 10     ecut=    60.00 Ry     beta= 0.30
     Davidson diagonalization with overlap
     ethr =  1.89E-07,  avg # of iterations =  3.0

     negative rho (up, down):  7.908E-01 0.000E+00

     total cpu time spent up to now is     1327.7 secs

     total energy              =   -9077.18685879 Ry
     estimated scf accuracy    <       0.00054959 Ry

     iteration # 11     ecut=    60.00 Ry     beta= 0.30
     Davidson diagonalization with overlap
     ethr =  6.54E-08,  avg # of iterations =  6.0

     negative rho (up, down):  7.906E-01 0.000E+00

     total cpu time spent up to now is     1451.1 secs

     total energy              =   -9077.18692171 Ry
     estimated scf accuracy    <       0.00030721 Ry

     iteration # 12     ecut=    60.00 Ry     beta= 0.30
     Davidson diagonalization with overlap
     ethr =  3.66E-08,  avg # of iterations =  5.3

     negative rho (up, down):  7.904E-01 0.000E+00

     total cpu time spent up to now is     1557.9 secs

     total energy              =   -9077.18696171 Ry
     estimated scf accuracy    <       0.00004577 Ry

     iteration # 13     ecut=    60.00 Ry     beta= 0.30
     Davidson diagonalization with overlap
     ethr =  5.45E-09,  avg # of iterations =  7.9

     negative rho (up, down):  7.904E-01 0.000E+00

     total cpu time spent up to now is     1717.0 secs

     total energy              =   -9077.18696489 Ry
     estimated scf accuracy    <       0.00011868 Ry

     iteration # 14     ecut=    60.00 Ry     beta= 0.30
     Davidson diagonalization with overlap
     ethr =  5.45E-09,  avg # of iterations =  6.3

     negative rho (up, down):  7.903E-01 0.000E+00

     total cpu time spent up to now is     1837.5 secs

     total energy              =   -9077.18697901 Ry
     estimated scf accuracy    <       0.00000774 Ry

     iteration # 15     ecut=    60.00 Ry     beta= 0.30
     Davidson diagonalization with overlap
     ethr =  9.22E-10,  avg # of iterations =  4.9

     negative rho (up, down):  7.902E-01 0.000E+00

     total cpu time spent up to now is     1954.9 secs

     total energy              =   -9077.18697945 Ry
     estimated scf accuracy    <       0.00000850 Ry

     iteration # 16     ecut=    60.00 Ry     beta= 0.30
     Davidson diagonalization with overlap
     ethr =  9.22E-10,  avg # of iterations =  5.7

     negative rho (up, down):  7.902E-01 0.000E+00

     total cpu time spent up to now is     2060.5 secs

     total energy              =   -9077.18698086 Ry
     estimated scf accuracy    <       0.00000031 Ry

     iteration # 17     ecut=    60.00 Ry     beta= 0.30
     Davidson diagonalization with overlap
     ethr =  3.67E-11,  avg # of iterations = 10.1

     negative rho (up, down):  7.902E-01 0.000E+00

     total cpu time spent up to now is     2252.5 secs

     total energy              =   -9077.18698095 Ry
     estimated scf accuracy    <       0.00000505 Ry

     iteration # 18     ecut=    60.00 Ry     beta= 0.30
     Davidson diagonalization with overlap
     ethr =  3.67E-11,  avg # of iterations =  9.6

     negative rho (up, down):  7.902E-01 0.000E+00

     total cpu time spent up to now is     2380.3 secs

     total energy              =   -9077.18698092 Ry
     estimated scf accuracy    <       0.00000111 Ry

     iteration # 19     ecut=    60.00 Ry     beta= 0.30
     Davidson diagonalization with overlap
     ethr =  3.67E-11,  avg # of iterations =  6.6

     negative rho (up, down):  7.902E-01 0.000E+00

     total cpu time spent up to now is     2503.9 secs

     total energy              =   -9077.18698107 Ry
     estimated scf accuracy    <       0.00000001 Ry

     iteration # 20     ecut=    60.00 Ry     beta= 0.30
     Davidson diagonalization with overlap
     ethr =  1.70E-12,  avg # of iterations = 11.6

     negative rho (up, down):  7.902E-01 0.000E+00

     total cpu time spent up to now is     2668.6 secs

     total energy              =   -9077.18698108 Ry
     estimated scf accuracy    <       0.00000003 Ry

     iteration # 21     ecut=    60.00 Ry     beta= 0.30
     Davidson diagonalization with overlap
     ethr =  1.70E-12,  avg # of iterations =  6.5

     negative rho (up, down):  7.902E-01 0.000E+00

     total cpu time spent up to now is     2779.1 secs

     total energy              =   -9077.18698109 Ry
     estimated scf accuracy    <          1.7E-09 Ry

     iteration # 22     ecut=    60.00 Ry     beta= 0.30
     Davidson diagonalization with overlap
     ethr =  2.07E-13,  avg # of iterations =  5.0

     negative rho (up, down):  7.902E-01 0.000E+00

     total cpu time spent up to now is     2897.6 secs

     total energy              =   -9077.18698109 Ry
     estimated scf accuracy    <          3.9E-09 Ry

     iteration # 23     ecut=    60.00 Ry     beta= 0.30
     Davidson diagonalization with overlap
     ethr =  2.07E-13,  avg # of iterations =  2.1

     negative rho (up, down):  7.902E-01 0.000E+00

     total cpu time spent up to now is     2978.8 secs

     total energy              =   -9077.18698109 Ry
     estimated scf accuracy    <          1.7E-09 Ry

     iteration # 24     ecut=    60.00 Ry     beta= 0.30
     Davidson diagonalization with overlap
     ethr =  2.00E-13,  avg # of iterations =  7.2

     negative rho (up, down):  7.902E-01 0.000E+00

     total cpu time spent up to now is     3088.4 secs

     End of self-consistent calculation

          k = 0.0000 0.0000 0.0000 (115723 PWs)   bands (ev):

   -28.2883 -28.2796 -28.2779 -28.2762 -28.2760 -28.2760 -28.2757 -28.2736
   -28.2719 -28.2703 -28.2701 -28.2666 -14.9276 -14.9266 -14.9260 -14.9251
   -14.9238 -14.9225 -14.9221 -14.9218 -14.9217 -14.9214 -14.9211 -14.9205
   -14.9201 -14.9196 -14.9190 -14.9180 -14.9166 -14.9162 -14.9158 -14.9157
   -14.9155 -14.9153 -14.9146 -14.9138 -14.9097 -14.9081 -14.9071 -14.9059
   -14.9045 -14.9041 -14.9037 -14.9035 -14.9033 -14.9026 -14.9018 -14.9007
   -14.8695 -14.8680 -14.8669 -14.8657 -14.8643 -14.8639 -14.8635 -14.8633
   -14.8630 -14.8627 -14.8624 -14.8615 -14.8243 -14.8226 -14.8216 -14.8205
   -14.8191 -14.8188 -14.8183 -14.8182 -14.8181 -14.8180 -14.8172 -14.8164
   -10.3482 -10.3406 -10.3389 -10.3375 -10.3370 -10.3358 -10.3343 -10.3323
   -10.3310 -10.3296 -10.3278 -10.3212 -10.3148 -10.3097 -10.3090 -10.3050
   -10.3030 -10.3019 -10.3004 -10.2981 -10.2943 -10.2913 -10.2884 -10.2810
   -10.2777 -10.2714 -10.2690 -10.2661 -10.2652 -10.2641 -10.2635 -10.2608
   -10.2588 -10.2571 -10.2564 -10.2511  -6.8639  -6.5572  -6.5530  -6.4246
    -6.4172  -6.4149  -6.3022  -6.2990  -6.2973  -6.2240  -6.2193  -6.2170
    -5.9925  -5.9887  -5.9826  -5.8526  -5.8477  -5.8441  -5.8012  -5.7953
    -5.7926  -5.7422  -5.7339  -5.6342  -5.6188  -5.6177  -5.6142  -5.6128
    -5.6054  -5.5991  -5.5614  -5.5588  -5.5526  -5.5461  -5.5458  -5.5359
    -5.5241  -5.5139  -5.4364  -5.4305  -5.4267  -5.4256  -5.3743  -5.3631
    -5.3539  -5.3459  -5.3418  -5.2520  -0.6138  -0.6115  -0.6102  -0.3900
    -0.3893  -0.3873  -0.3507  -0.3170  -0.3152  -0.3144  -0.3027  -0.2984
     1.3808   1.3857   1.3873   1.5901   1.5952   1.6569   1.7140   1.7180
     1.7190   1.8023   1.8044   1.8079   2.0182   2.0385   2.0424   2.0810
     2.0869   2.0900   2.2433   2.2454   2.2493   2.3065   2.3104   2.3974
     2.4035   2.4105   2.4572   2.4610   2.4641   2.5459   2.5544   2.6588
     2.6617   2.6667   2.7792   2.7852   2.7878   2.8691   2.8741   2.9217
     2.9258   2.9264   2.9483   2.9545   2.9547   3.0239   3.0281   3.0315
     3.0456   3.0461   3.0494   3.1658   3.2116   3.2147   3.2156   3.2269
     3.2296   3.2535   3.2579   3.2604   3.3754   3.3769   3.3798   3.3899
     3.3934   3.4241   3.4263   3.4285   3.4358   3.4371   3.4383   3.4701
     3.4765   3.4786   3.4924   3.4939   3.4957   3.4963   3.5145   3.5213
     3.5838   3.5847   3.5886   3.6260   3.6265   3.6355   3.6879   3.6895
     3.6897   3.6917   3.6993   3.7078   3.7905   3.7973   3.8232   3.8255
     3.8278   3.9619   4.0184   4.0202   4.0241   4.0336   4.0355   4.0371
     4.1200   4.1247   4.1255   4.1294   4.1697   4.1731   4.1760   4.2013
     4.2084   4.2104   4.2129   4.2407   4.2445   4.2458   4.2786   4.2836
     4.4230   4.4239   4.4294   4.5152   4.5175   4.5214   4.5342   4.5376
     4.6191   4.6209   4.6234   4.8568   5.1243   5.1536   5.1547   5.1564
     5.1726   5.1738   5.1748   5.1772   5.1800   5.2216   5.2259   5.2265
     5.2279   5.2290   5.2313   5.2510   5.2519   5.2526   5.2646   5.2665
     5.2681   5.2779   5.2786   5.2798   5.3072   5.3106   5.3124   5.3128
     5.3139   5.3246   5.3361   5.3376   5.3393   5.3738   5.3750   5.3778
     5.4383   5.4390   5.4700   5.4705   5.4712   5.4747   5.4765   5.4777
     5.4782   5.4990   5.4994   5.6001   5.6012   5.6022   5.6175   5.6180
     5.6191   5.6271   5.6465   5.6476   5.6484   5.6568   5.6606   5.6620
     5.7241   5.7264   5.7451   5.7823   5.7832   5.7839   5.8199   5.8215
     5.8231   5.9006   5.9028   5.9057   5.9251   5.9273   5.9294   5.9944
     5.9969   6.0260   6.0266   6.0268   6.1472   6.1496   6.1521   6.1534
     6.2594   6.2605   6.2620   6.2636   6.2637   6.2650   6.2880   6.2924
     6.3334   6.3346   6.3357   6.3618   6.3632   6.3649   6.3879   6.3894
     6.3907   6.5530   6.5675   6.5719   6.5738   6.6356   6.6384   6.6413
     6.7442   6.7464   6.7495   6.7645   6.7658   6.7786   6.7812   6.7834
     6.8083   6.9639   7.1797   7.1819

          k = 0.0000 0.0000 0.2714 (115879 PWs)   bands (ev):

   -28.2883 -28.2796 -28.2779 -28.2762 -28.2760 -28.2760 -28.2757 -28.2736
   -28.2719 -28.2703 -28.2701 -28.2666 -14.9276 -14.9266 -14.9260 -14.9251
   -14.9238 -14.9225 -14.9221 -14.9218 -14.9217 -14.9214 -14.9211 -14.9205
   -14.9201 -14.9196 -14.9190 -14.9180 -14.9166 -14.9162 -14.9158 -14.9157
   -14.9155 -14.9153 -14.9146 -14.9138 -14.9097 -14.9081 -14.9071 -14.9059
   -14.9045 -14.9041 -14.9037 -14.9035 -14.9033 -14.9026 -14.9018 -14.9007
   -14.8695 -14.8680 -14.8669 -14.8657 -14.8643 -14.8639 -14.8635 -14.8633
   -14.8630 -14.8627 -14.8624 -14.8615 -14.8243 -14.8226 -14.8216 -14.8205
   -14.8191 -14.8188 -14.8183 -14.8182 -14.8181 -14.8180 -14.8172 -14.8164
   -10.3484 -10.3413 -10.3394 -10.3378 -10.3367 -10.3366 -10.3335 -10.3320
   -10.3310 -10.3289 -10.3272 -10.3217 -10.3151 -10.3115 -10.3082 -10.3057
   -10.3023 -10.3014 -10.2996 -10.2964 -10.2929 -10.2915 -10.2895 -10.2831
   -10.2773 -10.2709 -10.2690 -10.2658 -10.2654 -10.2645 -10.2636 -10.2605
   -10.2586 -10.2570 -10.2567 -10.2517  -6.8247  -6.7138  -6.4171  -6.4093
    -6.4072  -6.4059  -6.3063  -6.3037  -6.3022  -6.2368  -6.2321  -6.2287
    -5.9935  -5.9889  -5.9851  -5.8580  -5.8365  -5.8327  -5.8275  -5.7799
    -5.7733  -5.7693  -5.6707  -5.6563  -5.6544  -5.6502  -5.6140  -5.6128
    -5.6117  -5.6044  -5.5603  -5.5543  -5.5504  -5.5490  -5.5451  -5.5431
    -5.5358  -5.4571  -5.4401  -5.4356  -5.4323  -5.4283  -5.3715  -5.3483
    -5.3415  -5.3377  -5.3342  -5.2818  -0.6063  -0.6035  -0.6023  -0.4140
    -0.4131  -0.4097  -0.3481  -0.3322  -0.3019  -0.3008  -0.3002  -0.2734
     1.4055   1.4092   1.4121   1.5706   1.6129   1.6163   1.6197   1.6221
     1.6592   1.9319   1.9342   1.9382   2.0024   2.0438   2.0512   2.0540
     2.0569   2.0687   2.2713   2.2734   2.2777   2.3045   2.3841   2.3885
     2.3913   2.3918   2.4125   2.4158   2.4217   2.4547   2.6198   2.6220
     2.6261   2.6691   2.7169   2.7911   2.7947   2.7981   2.8020   2.8691
     2.8716   2.8758   2.9741   2.9756   2.9794   3.0423   3.0459   3.0494
     3.1034   3.1066   3.1108   3.1766   3.1996   3.2024   3.2040   3.2069
     3.2706   3.2742   3.2756   3.2843   3.3734   3.3826   3.3834   3.3849
     3.4174   3.4204   3.4215   3.4376   3.4411   3.4430   3.4472   3.4501
     3.4516   3.4763   3.4983   3.5163   3.5180   3.5209   3.5380   3.5434
     3.5490   3.5506   3.5551   3.6346   3.6438   3.6457   3.6488   3.6534
     3.6791   3.6813   3.6893   3.7717   3.8290   3.8722   3.8758   3.8787
     3.9084   3.9205   3.9932   3.9947   3.9994   4.0525   4.0555   4.0574
     4.0750   4.1157   4.1173   4.1224   4.1445   4.1487   4.1510   4.1659
     4.1698   4.1722   4.1741   4.2106   4.2480   4.2507   4.2542   4.2670
     4.4204   4.4210   4.4265   4.4820   4.5568   4.5598   4.5627   4.6040
     4.6058   4.6080   4.6769   4.8071   5.1353   5.1464   5.1530   5.1538
     5.1547   5.1644   5.1858   5.1869   5.1882   5.2144   5.2162   5.2171
     5.2185   5.2468   5.2478   5.2487   5.2570   5.2592   5.2605   5.2613
     5.2754   5.2766   5.2772   5.2788   5.3277   5.3294   5.3300   5.3322
     5.3335   5.3352   5.3413   5.3420   5.3437   5.3656   5.3732   5.3737
     5.3760   5.3896   5.4024   5.4192   5.4201   5.4215   5.5258   5.5318
     5.5328   5.5333   5.5819   5.5872   5.5883   5.5892   5.5905   5.6190
     5.6200   5.6213   5.6499   5.6522   5.6555   5.6611   5.6808   5.6820
     5.6828   5.7546   5.7557   5.7565   5.7903   5.7995   5.8156   5.8177
     5.8199   5.8701   5.8804   5.8834   5.8858   5.9871   5.9890   5.9905
     6.0414   6.0429   6.0436   6.0960   6.0990   6.0994   6.1745   6.1893
     6.1919   6.1924   6.2354   6.2673   6.2679   6.2711   6.3238   6.3263
     6.3279   6.3571   6.3615   6.3699   6.3702   6.3729   6.3957   6.4274
     6.4302   6.4306   6.4803   6.6373   6.6403   6.6416   6.6431   6.6449
     6.6471   6.6698   6.7060   6.7081   6.7117   6.7505   6.7525   6.7546
     6.9413   7.0053   7.0947   7.1702

          k = 0.0000 0.3849 0.0000 (115797 PWs)   bands (ev):

   -28.2883 -28.2796 -28.2779 -28.2762 -28.2760 -28.2760 -28.2757 -28.2736
   -28.2719 -28.2703 -28.2701 -28.2666 -14.9276 -14.9266 -14.9260 -14.9251
   -14.9238 -14.9224 -14.9221 -14.9218 -14.9216 -14.9214 -14.9211 -14.9205
   -14.9201 -14.9196 -14.9190 -14.9180 -14.9165 -14.9162 -14.9158 -14.9157
   -14.9156 -14.9154 -14.9146 -14.9138 -14.9097 -14.9081 -14.9071 -14.9059
   -14.9045 -14.9041 -14.9037 -14.9035 -14.9033 -14.9026 -14.9018 -14.9007
   -14.8695 -14.8680 -14.8669 -14.8657 -14.8643 -14.8639 -14.8635 -14.8633
   -14.8630 -14.8627 -14.8624 -14.8615 -14.8243 -14.8226 -14.8216 -14.8205
   -14.8191 -14.8188 -14.8183 -14.8182 -14.8182 -14.8180 -14.8172 -14.8164
   -10.3474 -10.3400 -10.3380 -10.3368 -10.3362 -10.3349 -10.3337 -10.3323
   -10.3311 -10.3293 -10.3276 -10.3231 -10.3135 -10.3087 -10.3066 -10.3038
   -10.3029 -10.3021 -10.3003 -10.2989 -10.2952 -10.2924 -10.2885 -10.2838
   -10.2774 -10.2703 -10.2692 -10.2668 -10.2651 -10.2644 -10.2634 -10.2610
   -10.2605 -10.2586 -10.2565 -10.2526  -6.7889  -6.5920  -6.5001  -6.4976
    -6.4393  -6.4373  -6.3649  -6.3499  -6.2875  -6.2845  -6.2520  -6.2481
    -5.9167  -5.9068  -5.8215  -5.8179  -5.8125  -5.7841  -5.7693  -5.7663
    -5.7341  -5.7245  -5.7196  -5.6915  -5.6877  -5.6494  -5.6393  -5.6344
    -5.6288  -5.5934  -5.5856  -5.5809  -5.5652  -5.5306  -5.5236  -5.5177
    -5.5135  -5.5009  -5.4631  -5.4530  -5.4386  -5.4357  -5.4212  -5.4079
    -5.3483  -5.3460  -5.3180  -5.2721  -0.5733  -0.5706  -0.5613  -0.4350
    -0.4055  -0.4028  -0.3778  -0.3379  -0.3370  -0.3364  -0.3128  -0.3029
     1.4170   1.4867   1.4912   1.5006   1.6415   1.6534   1.6886   1.7221
     1.7255   1.8279   1.8730   1.8754   1.9519   1.9546   1.9585   2.0263
     2.1148   2.2070   2.2272   2.2289   2.3349   2.3619   2.3868   2.3882
     2.3931   2.4064   2.4478   2.5364   2.5419   2.6110   2.6144   2.6174
     2.6588   2.7366   2.8130   2.8152   2.8233   2.8384   2.8449   2.8459
     2.8531   2.8857   2.9047   2.9068   2.9161   2.9599   2.9654   3.0045
     3.0505   3.0553   3.0597   3.1238   3.1493   3.1764   3.2030   3.2106
     3.2144   3.2359   3.2576   3.2593   3.2695   3.3228   3.3289   3.3310
     3.3394   3.3704   3.3900   3.3966   3.4337   3.4386   3.4422   3.4506
     3.4952   3.4977   3.5000   3.5086   3.5121   3.5145   3.5241   3.5391
     3.5603   3.6042   3.6077   3.6132   3.6358   3.6476   3.6780   3.6828
     3.6948   3.7022   3.7066   3.7123   3.7768   3.7788   3.8489   3.8613
     3.8975   3.9725   3.9756   3.9782   3.9809   4.0312   4.0379   4.0413
     4.0929   4.1102   4.1194   4.1207   4.1257   4.1585   4.1628   4.1786
     4.2488   4.2674   4.2692   4.2822   4.3019   4.3207   4.3239   4.3691
     4.3783   4.4163   4.4209   4.4848   4.5111   4.5264   4.5277   4.5305
     4.5889   4.5940   4.6282   4.7494   5.1426   5.1433   5.1465   5.1547
     5.1596   5.1609   5.1694   5.1740   5.2135   5.2187   5.2197   5.2219
     5.2281   5.2375   5.2481   5.2492   5.2504   5.2608   5.2654   5.2718
     5.2722   5.2889   5.3042   5.3045   5.3127   5.3181   5.3274   5.3276
     5.3367   5.3501   5.3525   5.3531   5.3573   5.3655   5.4125   5.4149
     5.4341   5.4506   5.4604   5.4611   5.4857   5.4936   5.4996   5.5004
     5.5034   5.5129   5.5283   5.5440   5.5558   5.5575   5.5611   5.6026
     5.6038   5.6294   5.6304   5.6323   5.6685   5.6791   5.6949   5.6959
     5.6977   5.7172   5.7297   5.7560   5.7736   5.7764   5.8087   5.8195
     5.8199   5.8625   5.8755   5.8764   5.9498   5.9517   5.9642   5.9653
     5.9891   6.0065   6.0077   6.0206   6.1378   6.1388   6.1455   6.1600
     6.2249   6.2276   6.2292   6.2503   6.2714   6.2869   6.2898   6.2998
     6.3610   6.3618   6.3778   6.3895   6.3901   6.4416   6.4857   6.4868
     6.5248   6.5367   6.5387   6.5757   6.6046   6.6511   6.6833   6.6907
     6.6955   6.7296   6.7369   6.7391   6.7614   6.7763   6.7936   6.8115
     6.8144   6.9023   6.9090   7.0802

          k = 0.0000 0.3849 0.2714 (115773 PWs)   bands (ev):

   -28.2883 -28.2796 -28.2779 -28.2762 -28.2760 -28.2760 -28.2757 -28.2736
   -28.2719 -28.2703 -28.2701 -28.2666 -14.9276 -14.9266 -14.9260 -14.9251
   -14.9238 -14.9224 -14.9221 -14.9218 -14.9216 -14.9214 -14.9211 -14.9205
   -14.9201 -14.9196 -14.9190 -14.9180 -14.9165 -14.9162 -14.9158 -14.9157
   -14.9156 -14.9154 -14.9146 -14.9138 -14.9097 -14.9081 -14.9071 -14.9059
   -14.9045 -14.9041 -14.9037 -14.9035 -14.9033 -14.9026 -14.9018 -14.9007
   -14.8695 -14.8680 -14.8669 -14.8657 -14.8643 -14.8639 -14.8635 -14.8633
   -14.8630 -14.8627 -14.8624 -14.8615 -14.8243 -14.8226 -14.8216 -14.8205
   -14.8191 -14.8188 -14.8183 -14.8182 -14.8182 -14.8180 -14.8172 -14.8164
   -10.3476 -10.3406 -10.3383 -10.3372 -10.3366 -10.3349 -10.3336 -10.3318
   -10.3310 -10.3285 -10.3274 -10.3232 -10.3140 -10.3097 -10.3063 -10.3055
   -10.3029 -10.2999 -10.2988 -10.2979 -10.2944 -10.2922 -10.2886 -10.2859
   -10.2776 -10.2702 -10.2692 -10.2665 -10.2649 -10.2642 -10.2635 -10.2614
   -10.2603 -10.2585 -10.2568 -10.2532  -6.7520  -6.6471  -6.5628  -6.4724
    -6.4233  -6.4211  -6.3634  -6.3328  -6.3281  -6.2580  -6.2277  -6.2245
    -5.9093  -5.9010  -5.8275  -5.8213  -5.8098  -5.8014  -5.7950  -5.7641
    -5.7583  -5.7304  -5.7134  -5.7086  -5.6722  -5.6338  -5.6289  -5.6273
    -5.6252  -5.6083  -5.6000  -5.5955  -5.5667  -5.5319  -5.5254  -5.5213
    -5.5142  -5.4960  -5.4674  -5.4353  -5.4302  -5.4225  -5.4198  -5.3642
    -5.3482  -5.3455  -5.3274  -5.3009  -0.5615  -0.5588  -0.5579  -0.4372
    -0.4336  -0.4242  -0.3947  -0.3738  -0.3189  -0.3182  -0.2992  -0.2784
     1.4315   1.4846   1.4866   1.4901   1.6268   1.6428   1.7731   1.7756
     1.7823   1.7904   1.7962   1.7995   1.9127   1.9906   1.9965   2.0753
     2.1536   2.2012   2.2119   2.2464   2.2479   2.3541   2.3913   2.3932
     2.3957   2.4501   2.5098   2.5161   2.5452   2.5893   2.5935   2.6087
     2.6434   2.7103   2.7613   2.7664   2.7726   2.7889   2.8088   2.8107
     2.8386   2.8765   2.9139   2.9160   2.9212   2.9811   3.0219   3.0255
     3.0691   3.1040   3.1083   3.1339   3.1711   3.1919   3.1942   3.1949
     3.2014   3.2329   3.2599   3.2651   3.2778   3.3167   3.3192   3.3221
     3.3252   3.3855   3.3895   3.4110   3.4438   3.4469   3.4658   3.4685
     3.4710   3.4747   3.4763   3.4787   3.5299   3.5366   3.5383   3.5922
     3.6086   3.6113   3.6154   3.6321   3.6373   3.6494   3.6580   3.6625
     3.6685   3.7105   3.7115   3.7197   3.8326   3.8359   3.8812   3.8898
     3.9060   3.9476   3.9516   3.9725   3.9835   4.0211   4.0462   4.0498
     4.0520   4.0660   4.1057   4.1106   4.1201   4.1310   4.1348   4.1493
     4.1921   4.2556   4.2663   4.2682   4.2876   4.2904   4.2936   4.3862
     4.3976   4.4367   4.4421   4.4664   4.5232   4.5258   4.5328   4.5945
     4.6094   4.6135   4.6236   4.7224   5.1493   5.1496   5.1536   5.1570
     5.1719   5.1762   5.1765   5.1828   5.1899   5.1975   5.2008   5.2068
     5.2081   5.2333   5.2347   5.2357   5.2542   5.2643   5.2650   5.2668
     5.2777   5.2970   5.3070   5.3129   5.3137   5.3286   5.3361   5.3375
     5.3577   5.3585   5.3602   5.3637   5.3796   5.3925   5.4059   5.4067
     5.4138   5.4316   5.4336   5.4443   5.4454   5.4923   5.5018   5.5025
     5.5095   5.5160   5.5531   5.5601   5.5741   5.5751   5.6033   5.6102
     5.6119   5.6199   5.6236   5.6250   5.6433   5.6702   5.6819   5.7127
     5.7153   5.7181   5.7327   5.7708   5.7728   5.7743   5.8024   5.8033
     5.8099   5.8579   5.8752   5.8757   5.8778   5.9140   5.9590   5.9598
     6.0327   6.0351   6.0359   6.0589   6.0780   6.0799   6.1724   6.2048
     6.2108   6.2128   6.2638   6.2664   6.2703   6.2776   6.2863   6.3478
     6.3497   6.3658   6.3731   6.4155   6.4225   6.4245   6.4287   6.4712
     6.4976   6.4995   6.5453   6.5590   6.5949   6.5959   6.6654   6.6680
     6.6766   6.7184   6.7359   6.7382   6.7484   6.8131   6.8148   6.8452
     6.8670   6.9276   6.9369   7.0516

          k = 0.3333 0.5774 0.0000 (115752 PWs)   bands (ev):

   -28.2883 -28.2796 -28.2779 -28.2762 -28.2760 -28.2760 -28.2757 -28.2736
   -28.2719 -28.2703 -28.2701 -28.2666 -14.9276 -14.9266 -14.9260 -14.9250
   -14.9239 -14.9224 -14.9221 -14.9218 -14.9216 -14.9214 -14.9211 -14.9205
   -14.9201 -14.9196 -14.9190 -14.9180 -14.9166 -14.9162 -14.9158 -14.9156
   -14.9156 -14.9154 -14.9146 -14.9138 -14.9097 -14.9081 -14.9071 -14.9059
   -14.9045 -14.9041 -14.9037 -14.9035 -14.9033 -14.9026 -14.9018 -14.9007
   -14.8695 -14.8680 -14.8669 -14.8657 -14.8643 -14.8639 -14.8635 -14.8633
   -14.8630 -14.8627 -14.8624 -14.8615 -14.8243 -14.8226 -14.8216 -14.8205
   -14.8191 -14.8188 -14.8183 -14.8182 -14.8181 -14.8180 -14.8172 -14.8164
   -10.3473 -10.3397 -10.3379 -10.3361 -10.3353 -10.3346 -10.3339 -10.3329
   -10.3305 -10.3287 -10.3273 -10.3244 -10.3132 -10.3082 -10.3048 -10.3040
   -10.3032 -10.3016 -10.3004 -10.2985 -10.2966 -10.2904 -10.2888 -10.2866
   -10.2774 -10.2695 -10.2679 -10.2674 -10.2663 -10.2640 -10.2632 -10.2627
   -10.2611 -10.2583 -10.2568 -10.2538  -6.6563  -6.6494  -6.6484  -6.4069
    -6.4003  -6.3990  -6.3982  -6.3967  -6.3924  -6.2968  -6.2919  -6.1936
    -5.8664  -5.8499  -5.8459  -5.7633  -5.7487  -5.7454  -5.7383  -5.7312
    -5.7283  -5.7115  -5.7056  -5.7000  -5.6922  -5.6914  -5.6850  -5.6819
    -5.6803  -5.6443  -5.5431  -5.5410  -5.5363  -5.5311  -5.5292  -5.5212
    -5.5118  -5.4791  -5.4721  -5.4692  -5.4660  -5.4643  -5.4573  -5.4007
    -5.3947  -5.3077  -5.3011  -5.3002  -0.5445  -0.5156  -0.5147  -0.5130
    -0.3975  -0.3960  -0.3912  -0.3902  -0.3882  -0.3122  -0.3089  -0.3071
     1.4800   1.4854   1.4877   1.6692   1.6748   1.6774   1.6838   1.6860
     1.6901   1.7317   1.7368   1.8003   2.0720   2.0811   2.0826   2.0844
     2.0869   2.1424   2.1452   2.1473   2.2556   2.3940   2.3970   2.3977
     2.4906   2.4942   2.4949   2.5596   2.5647   2.5661   2.5961   2.6007
     2.7713   2.7755   2.7774   2.8341   2.8360   2.8413   2.8439   2.8468
     2.8498   2.8517   2.8545   2.8582   2.8686   3.0068   3.0103   3.0133
     3.0213   3.0265   3.0286   3.0621   3.1294   3.1335   3.1374   3.1959
     3.1970   3.1993   3.2582   3.2598   3.2624   3.2691   3.2736   3.3608
     3.3676   3.3711   3.3729   3.3769   3.4218   3.4248   3.4268   3.4844
     3.4864   3.4979   3.5033   3.5057   3.5258   3.5303   3.5331   3.5481
     3.5495   3.5780   3.5792   3.5836   3.6471   3.6515   3.6557   3.7172
     3.7205   3.7224   3.7284   3.7327   3.7564   3.7981   3.8019   3.8030
     3.9534   3.9591   3.9632   3.9869   3.9887   4.0284   4.0315   4.0324
     4.0816   4.0854   4.0876   4.1412   4.1483   4.1521   4.1551   4.2808
     4.2860   4.2943   4.3165   4.3172   4.3197   4.3212   4.3228   4.3263
     4.3819   4.3868   4.3891   4.4957   4.5125   4.5165   4.5186   4.5217
     4.5234   4.6519   4.6561   4.6583   5.1370   5.1432   5.1436   5.1448
     5.1728   5.1732   5.1862   5.1881   5.1892   5.1951   5.1975   5.1979
     5.2454   5.2472   5.2486   5.2646   5.2657   5.2667   5.2963   5.2985
     5.2995   5.3004   5.3023   5.3035   5.3135   5.3170   5.3189   5.3202
     5.3384   5.3406   5.3417   5.4015   5.4027   5.4049   5.4080   5.4085
     5.4535   5.4548   5.4568   5.4582   5.4821   5.4834   5.4846   5.4887
     5.4892   5.5342   5.5358   5.5365   5.5631   5.5647   5.5651   5.5700
     5.5710   5.5727   5.6412   5.6708   5.6731   5.6939   5.6947   5.6969
     5.7068   5.7071   5.7090   5.7795   5.7804   5.7812   5.7975   5.7999
     5.8015   5.8232   5.8253   5.8442   5.9300   5.9313   5.9333   6.0431
     6.0465   6.0472   6.0481   6.0500   6.1374   6.1385   6.1394   6.1583
     6.2180   6.2188   6.2200   6.2585   6.2600   6.2618   6.2830   6.2855
     6.3739   6.4071   6.4099   6.4115   6.4159   6.4178   6.4232   6.4508
     6.4520   6.4555   6.6131   6.6147   6.6171   6.6732   6.6760   6.6778
     6.7251   6.7400   6.7418   6.8021   6.8058   6.8080   6.8093   6.8110
     6.8130   6.9377   6.9393   6.9419

          k = 0.3333 0.5774 0.2714 (115827 PWs)   bands (ev):

   -28.2883 -28.2796 -28.2779 -28.2762 -28.2760 -28.2760 -28.2757 -28.2736
   -28.2719 -28.2703 -28.2701 -28.2666 -14.9276 -14.9266 -14.9260 -14.9250
   -14.9239 -14.9224 -14.9221 -14.9218 -14.9216 -14.9214 -14.9211 -14.9205
   -14.9201 -14.9196 -14.9190 -14.9180 -14.9166 -14.9162 -14.9158 -14.9156
   -14.9156 -14.9154 -14.9146 -14.9138 -14.9097 -14.9081 -14.9071 -14.9059
   -14.9045 -14.9041 -14.9037 -14.9035 -14.9033 -14.9026 -14.9018 -14.9007
   -14.8695 -14.8680 -14.8669 -14.8657 -14.8643 -14.8639 -14.8635 -14.8633
   -14.8630 -14.8627 -14.8624 -14.8615 -14.8243 -14.8226 -14.8216 -14.8205
   -14.8191 -14.8188 -14.8183 -14.8182 -14.8181 -14.8180 -14.8172 -14.8164
   -10.3475 -10.3401 -10.3382 -10.3367 -10.3357 -10.3348 -10.3337 -10.3319
   -10.3299 -10.3288 -10.3272 -10.3243 -10.3135 -10.3092 -10.3066 -10.3044
   -10.3030 -10.2998 -10.2981 -10.2972 -10.2944 -10.2915 -10.2902 -10.2879
   -10.2774 -10.2698 -10.2682 -10.2669 -10.2658 -10.2641 -10.2637 -10.2619
   -10.2603 -10.2590 -10.2575 -10.2542  -6.6242  -6.6173  -6.6164  -6.5286
    -6.5238  -6.5232  -6.3110  -6.2909  -6.2884  -6.2862  -6.2599  -6.2149
    -5.8736  -5.8576  -5.8420  -5.7943  -5.7785  -5.7779  -5.7481  -5.7409
    -5.7383  -5.7146  -5.6942  -5.6861  -5.6851  -5.6753  -5.6717  -5.6701
    -5.6648  -5.6446  -5.5580  -5.5539  -5.5521  -5.5273  -5.5247  -5.5203
    -5.5057  -5.5031  -5.5012  -5.4890  -5.4617  -5.4037  -5.3968  -5.3958
    -5.3590  -5.3277  -5.3219  -5.3212  -0.5204  -0.5069  -0.5057  -0.5042
    -0.4616  -0.4176  -0.4167  -0.4159  -0.3551  -0.2945  -0.2924  -0.2903
     1.4779   1.4834   1.4862   1.6333   1.6390   1.6416   1.6890   1.7694
     1.7756   1.7784   1.7802   1.7948   1.9776   1.9818   1.9850   2.0546
     2.1688   2.1901   2.1943   2.1964   2.2469   2.3918   2.3972   2.3990
     2.4849   2.4897   2.4902   2.5564   2.5845   2.5880   2.5893   2.5934
     2.6812   2.7344   2.7370   2.7422   2.8213   2.8221   2.8250   2.8289
     2.8996   2.9040   2.9072   2.9230   2.9337   2.9529   2.9562   2.9569
     3.0579   3.0620   3.0634   3.0830   3.0882   3.0924   3.1257   3.1816
     3.2400   3.2452   3.2469   3.2694   3.2716   3.2742   3.3210   3.3251
     3.3274   3.3317   3.3739   3.4070   3.4206   3.4606   3.4657   3.4679
     3.4923   3.4974   3.5001   3.5021   3.5342   3.5375   3.5392   3.5414
     3.5612   3.6130   3.6158   3.6204   3.6518   3.6557   3.6581   3.6936
     3.6977   3.7011   3.7201   3.7438   3.8219   3.8367   3.8408   3.8436
     3.9364   3.9391   3.9417   3.9448   4.0276   4.0306   4.0323   4.0413
     4.0646   4.0682   4.0711   4.1090   4.1132   4.1149   4.1190   4.1671
     4.2705   4.2731   4.2756   4.2905   4.3138   4.3597   4.3611   4.3646
     4.4118   4.4177   4.4205   4.4876   4.4937   4.4958   4.5080   4.5129
     4.5651   4.6645   4.6686   4.6707   5.1479   5.1556   5.1566   5.1573
     5.1593   5.1811   5.1826   5.1840   5.1967   5.1985   5.1990   5.2105
     5.2234   5.2255   5.2261   5.2496   5.2522   5.2534   5.2569   5.2684
     5.2994   5.3013   5.3034   5.3093   5.3275   5.3291   5.3307   5.3666
     5.3687   5.3690   5.3743   5.3928   5.3957   5.4079   5.4094   5.4101
     5.4329   5.4333   5.4346   5.4383   5.4835   5.4842   5.4863   5.4911
     5.5374   5.5392   5.5404   5.5438   5.5653   5.5664   5.5676   5.6051
     5.6056   5.6071   5.6376   5.6394   5.6709   5.6728   5.6745   5.7026
     5.7035   5.7052   5.7166   5.7576   5.7592   5.7621   5.8013   5.8078
     5.8206   5.8225   5.8237   5.8270   5.8893   5.8912   5.8929   6.0559
     6.0595   6.0605   6.0616   6.0760   6.1188   6.1203   6.1218   6.1350
     6.1956   6.2367   6.2385   6.2397   6.2838   6.3003   6.3020   6.3040
     6.3069   6.3824   6.3860   6.3872   6.4496   6.4651   6.4672   6.4705
     6.4912   6.4928   6.5570   6.5594   6.5615   6.6457   6.6818   6.6853
     6.6872   6.7600   6.7745   6.7789   6.7810   6.7927   6.8521   6.8549
     6.8573   6.9338   6.9368   6.9388

          k =-0.3333 0.1925 0.0000 (115797 PWs)   bands (ev):

   -28.2883 -28.2796 -28.2779 -28.2762 -28.2760 -28.2760 -28.2757 -28.2736
   -28.2719 -28.2703 -28.2701 -28.2666 -14.9276 -14.9266 -14.9260 -14.9250
   -14.9239 -14.9224 -14.9221 -14.9218 -14.9217 -14.9214 -14.9211 -14.9205
   -14.9201 -14.9196 -14.9190 -14.9180 -14.9166 -14.9162 -14.9158 -14.9156
   -14.9156 -14.9154 -14.9146 -14.9138 -14.9097 -14.9081 -14.9071 -14.9059
   -14.9045 -14.9041 -14.9037 -14.9035 -14.9033 -14.9026 -14.9018 -14.9007
   -14.8695 -14.8680 -14.8669 -14.8657 -14.8643 -14.8639 -14.8635 -14.8633
   -14.8630 -14.8627 -14.8624 -14.8615 -14.8243 -14.8226 -14.8216 -14.8205
   -14.8191 -14.8188 -14.8183 -14.8182 -14.8181 -14.8180 -14.8172 -14.8164
   -10.3479 -10.3396 -10.3386 -10.3373 -10.3360 -10.3355 -10.3333 -10.3323
   -10.3304 -10.3291 -10.3276 -10.3230 -10.3138 -10.3088 -10.3068 -10.3042
   -10.3031 -10.3021 -10.3007 -10.2977 -10.2937 -10.2916 -10.2901 -10.2840
   -10.2775 -10.2703 -10.2682 -10.2669 -10.2658 -10.2653 -10.2619 -10.2609
   -10.2604 -10.2582 -10.2568 -10.2537  -6.7887  -6.5906  -6.5013  -6.4965
    -6.4432  -6.4381  -6.3658  -6.3494  -6.2885  -6.2836  -6.2496  -6.2474
    -5.9095  -5.9050  -5.8257  -5.8193  -5.8132  -5.7749  -5.7679  -5.7668
    -5.7391  -5.7275  -5.7189  -5.6921  -5.6904  -5.6562  -5.6384  -5.6348
    -5.6288  -5.6018  -5.5837  -5.5792  -5.5628  -5.5268  -5.5205  -5.5175
    -5.5145  -5.5020  -5.4584  -5.4526  -5.4392  -5.4343  -5.4227  -5.4077
    -5.3554  -5.3482  -5.3123  -5.2710  -0.5708  -0.5700  -0.5641  -0.4367
    -0.4046  -0.4023  -0.3758  -0.3403  -0.3392  -0.3366  -0.3113  -0.3013
     1.4212   1.4829   1.4870   1.5042   1.6376   1.6524   1.6842   1.7203
     1.7266   1.8256   1.8757   1.8793   1.9525   1.9572   1.9607   2.0294
     2.1158   2.2052   2.2288   2.2334   2.3398   2.3626   2.3812   2.3860
     2.3943   2.4089   2.4507   2.5317   2.5365   2.6097   2.6148   2.6186
     2.6604   2.7315   2.8103   2.8134   2.8225   2.8387   2.8427   2.8454
     2.8546   2.8860   2.9048   2.9087   2.9153   2.9608   2.9650   3.0046
     3.0483   3.0545   3.0611   3.1212   3.1457   3.1750   3.2062   3.2116
     3.2148   3.2317   3.2588   3.2631   3.2701   3.3228   3.3294   3.3325
     3.3370   3.3701   3.3961   3.4010   3.4324   3.4414   3.4420   3.4511
     3.4949   3.4987   3.5000   3.5060   3.5117   3.5160   3.5208   3.5468
     3.5645   3.6030   3.6101   3.6124   3.6348   3.6455   3.6786   3.6818
     3.6956   3.7015   3.7025   3.7112   3.7750   3.7802   3.8497   3.8601
     3.8918   3.9707   3.9756   3.9788   3.9833   4.0282   4.0372   4.0401
     4.0916   4.1108   4.1208   4.1225   4.1292   4.1639   4.1649   4.1782
     4.2471   4.2604   4.2679   4.2805   4.3043   4.3233   4.3246   4.3669
     4.3815   4.4154   4.4165   4.4821   4.5196   4.5259   4.5275   4.5316
     4.5930   4.5947   4.6238   4.7477   5.1424   5.1453   5.1462   5.1526
     5.1592   5.1612   5.1693   5.1755   5.2152   5.2189   5.2197   5.2211
     5.2270   5.2365   5.2477   5.2494   5.2499   5.2611   5.2688   5.2711
     5.2730   5.2892   5.3023   5.3041   5.3144   5.3189   5.3254   5.3275
     5.3367   5.3484   5.3511   5.3533   5.3568   5.3642   5.4135   5.4157
     5.4329   5.4511   5.4595   5.4629   5.4855   5.4934   5.4996   5.5023
     5.5025   5.5118   5.5255   5.5439   5.5561   5.5574   5.5617   5.6024
     5.6039   5.6298   5.6320   5.6335   5.6681   5.6785   5.6951   5.6964
     5.6975   5.7172   5.7300   5.7555   5.7758   5.7766   5.8096   5.8175
     5.8192   5.8656   5.8736   5.8756   5.9501   5.9536   5.9636   5.9654
     5.9911   6.0047   6.0084   6.0198   6.1368   6.1399   6.1446   6.1605
     6.2251   6.2296   6.2316   6.2523   6.2698   6.2888   6.2915   6.2975
     6.3603   6.3617   6.3761   6.3883   6.3914   6.4403   6.4817   6.4876
     6.5248   6.5378   6.5392   6.5749   6.6046   6.6491   6.6822   6.6929
     6.6946   6.7288   6.7361   6.7387   6.7622   6.7783   6.7911   6.8099
     6.8138   6.9050   6.9089   7.0821

          k = 0.3333 0.1925 0.0000 (115797 PWs)   bands (ev):

   -28.2883 -28.2796 -28.2779 -28.2762 -28.2760 -28.2760 -28.2757 -28.2736
   -28.2719 -28.2703 -28.2701 -28.2666 -14.9276 -14.9266 -14.9261 -14.9250
   -14.9238 -14.9224 -14.9221 -14.9218 -14.9217 -14.9214 -14.9211 -14.9205
   -14.9201 -14.9196 -14.9190 -14.9180 -14.9166 -14.9162 -14.9158 -14.9156
   -14.9155 -14.9154 -14.9146 -14.9138 -14.9097 -14.9081 -14.9071 -14.9059
   -14.9045 -14.9041 -14.9037 -14.9035 -14.9033 -14.9026 -14.9018 -14.9007
   -14.8695 -14.8680 -14.8669 -14.8657 -14.8643 -14.8639 -14.8635 -14.8633
   -14.8630 -14.8627 -14.8624 -14.8615 -14.8243 -14.8226 -14.8216 -14.8205
   -14.8191 -14.8188 -14.8183 -14.8182 -14.8181 -14.8180 -14.8172 -14.8164
   -10.3476 -10.3403 -10.3376 -10.3367 -10.3361 -10.3349 -10.3332 -10.3325
   -10.3317 -10.3292 -10.3277 -10.3231 -10.3136 -10.3088 -10.3062 -10.3043
   -10.3025 -10.3020 -10.3006 -10.2983 -10.2955 -10.2928 -10.2881 -10.2836
   -10.2775 -10.2698 -10.2695 -10.2665 -10.2656 -10.2636 -10.2631 -10.2623
   -10.2610 -10.2582 -10.2563 -10.2527  -6.7887  -6.5909  -6.5016  -6.4965
    -6.4447  -6.4354  -6.3668  -6.3486  -6.2858  -6.2843  -6.2498  -6.2474
    -5.9144  -5.9100  -5.8254  -5.8176  -5.8152  -5.7820  -5.7693  -5.7594
    -5.7350  -5.7240  -5.7223  -5.6937  -5.6847  -5.6454  -5.6385  -5.6366
    -5.6273  -5.5968  -5.5858  -5.5825  -5.5689  -5.5312  -5.5215  -5.5161
    -5.5144  -5.5007  -5.4636  -5.4510  -5.4384  -5.4358  -5.4184  -5.4099
    -5.3535  -5.3463  -5.3142  -5.2714  -0.5729  -0.5705  -0.5615  -0.4345
    -0.4055  -0.4032  -0.3778  -0.3392  -0.3377  -0.3334  -0.3132  -0.3039
     1.4173   1.4839   1.4914   1.5001   1.6378   1.6497   1.6912   1.7214
     1.7273   1.8288   1.8750   1.8779   1.9523   1.9558   1.9582   2.0266
     2.1148   2.2081   2.2277   2.2313   2.3378   2.3630   2.3813   2.3896
     2.3942   2.4069   2.4476   2.5339   2.5414   2.6127   2.6149   2.6200
     2.6553   2.7382   2.8111   2.8134   2.8226   2.8387   2.8403   2.8475
     2.8539   2.8831   2.9075   2.9085   2.9145   2.9605   2.9625   3.0041
     3.0471   3.0561   3.0587   3.1275   3.1508   3.1754   3.2030   3.2102
     3.2131   3.2361   3.2603   3.2618   3.2689   3.3215   3.3293   3.3328
     3.3408   3.3729   3.3936   3.3952   3.4323   3.4373   3.4415   3.4493
     3.4923   3.4984   3.5010   3.5103   3.5120   3.5139   3.5238   3.5429
     3.5612   3.6039   3.6054   3.6114   3.6338   3.6503   3.6783   3.6823
     3.6933   3.7007   3.7069   3.7091   3.7782   3.7827   3.8473   3.8570
     3.8967   3.9725   3.9740   3.9782   3.9812   4.0290   4.0382   4.0421
     4.0935   4.1102   4.1211   4.1226   4.1256   4.1620   4.1631   4.1788
     4.2479   4.2661   4.2701   4.2839   4.3013   4.3199   4.3248   4.3671
     4.3772   4.4159   4.4207   4.4822   4.5167   4.5251   4.5277   4.5305
     4.5891   4.5920   4.6300   4.7498   5.1427   5.1434   5.1471   5.1550
     5.1594   5.1609   5.1694   5.1738   5.2139   5.2182   5.2194   5.2219
     5.2283   5.2372   5.2482   5.2492   5.2501   5.2608   5.2670   5.2711
     5.2721   5.2889   5.3037   5.3051   5.3134   5.3187   5.3254   5.3284
     5.3359   5.3492   5.3526   5.3530   5.3579   5.3664   5.4120   5.4149
     5.4337   5.4511   5.4607   5.4618   5.4851   5.4926   5.4988   5.5003
     5.5024   5.5127   5.5282   5.5433   5.5563   5.5571   5.5608   5.6029
     5.6036   5.6293   5.6313   5.6324   5.6680   5.6778   5.6931   5.6966
     5.6974   5.7183   5.7298   5.7563   5.7744   5.7761   5.8091   5.8188
     5.8210   5.8628   5.8764   5.8780   5.9498   5.9510   5.9645   5.9665
     5.9895   6.0053   6.0071   6.0206   6.1383   6.1409   6.1447   6.1600
     6.2249   6.2277   6.2312   6.2505   6.2695   6.2886   6.2896   6.3000
     6.3615   6.3629   6.3769   6.3885   6.3913   6.4410   6.4854   6.4878
     6.5237   6.5363   6.5384   6.5749   6.6041   6.6508   6.6854   6.6902
     6.6939   6.7287   6.7354   6.7390   6.7626   6.7773   6.7936   6.8104
     6.8137   6.9038   6.9085   7.0806

          k = 0.0000-0.3849 0.2714 (115773 PWs)   bands (ev):

   -28.2883 -28.2796 -28.2779 -28.2762 -28.2760 -28.2760 -28.2757 -28.2736
   -28.2719 -28.2703 -28.2701 -28.2666 -14.9276 -14.9266 -14.9260 -14.9251
   -14.9238 -14.9224 -14.9221 -14.9218 -14.9216 -14.9214 -14.9211 -14.9205
   -14.9201 -14.9196 -14.9190 -14.9180 -14.9165 -14.9162 -14.9158 -14.9157
   -14.9156 -14.9154 -14.9146 -14.9138 -14.9097 -14.9081 -14.9071 -14.9059
   -14.9045 -14.9041 -14.9037 -14.9035 -14.9033 -14.9026 -14.9018 -14.9007
   -14.8695 -14.8680 -14.8669 -14.8657 -14.8643 -14.8639 -14.8635 -14.8633
   -14.8630 -14.8627 -14.8624 -14.8615 -14.8243 -14.8226 -14.8216 -14.8205
   -14.8191 -14.8188 -14.8183 -14.8182 -14.8182 -14.8180 -14.8172 -14.8164
   -10.3476 -10.3406 -10.3382 -10.3370 -10.3366 -10.3351 -10.3339 -10.3316
   -10.3309 -10.3283 -10.3276 -10.3233 -10.3140 -10.3100 -10.3061 -10.3054
   -10.3020 -10.3008 -10.2985 -10.2981 -10.2941 -10.2919 -10.2905 -10.2850
   -10.2772 -10.2701 -10.2693 -10.2664 -10.2654 -10.2643 -10.2631 -10.2611
   -10.2602 -10.2587 -10.2570 -10.2530  -6.7520  -6.6472  -6.5640  -6.4683
    -6.4191  -6.4185  -6.3628  -6.3444  -6.3401  -6.2654  -6.2137  -6.2108
    -5.9185  -5.9094  -5.8312  -5.8200  -5.8188  -5.8122  -5.7716  -5.7618
    -5.7529  -5.7342  -5.6865  -5.6814  -5.6779  -5.6633  -5.6428  -5.6413
    -5.6363  -5.6061  -5.5862  -5.5820  -5.5699  -5.5329  -5.5284  -5.5253
    -5.5122  -5.4862  -5.4659  -5.4414  -5.4385  -5.4313  -5.3982  -5.3687
    -5.3447  -5.3430  -5.3368  -5.2976  -0.5647  -0.5619  -0.5505  -0.4327
    -0.4300  -0.4269  -0.4121  -0.3607  -0.3222  -0.3215  -0.2903  -0.2828
     1.4038   1.4935   1.4983   1.5149   1.6133   1.7101   1.7115   1.7248
     1.7383   1.7718   1.8415   1.8472   1.9676   1.9836   2.0173   2.0223
     2.1291   2.1990   2.2082   2.2096   2.2831   2.3286   2.3921   2.4257
     2.4300   2.5164   2.5282   2.5300   2.5563   2.5583   2.5603   2.5630
     2.5976   2.6791   2.7617   2.7682   2.8236   2.8245   2.8260   2.8309
     2.8502   2.8550   2.8939   2.8970   2.9076   3.0088   3.0162   3.0195
     3.0772   3.0790   3.1173   3.1196   3.1351   3.1789   3.1829   3.1893
     3.2150   3.2469   3.2662   3.2816   3.2827   3.2948   3.3293   3.3330
     3.3733   3.3744   3.3777   3.3797   3.4457   3.4475   3.4497   3.4772
     3.4790   3.4832   3.5066   3.5131   3.5319   3.5342   3.5371   3.5586
     3.5860   3.5899   3.6117   3.6315   3.6402   3.6448   3.6819   3.6844
     3.6880   3.6951   3.7026   3.7119   3.8333   3.8367   3.8797   3.8810
     3.9409   3.9449   3.9471   3.9498   3.9739   4.0327   4.0518   4.0565
     4.0605   4.0630   4.0969   4.1011   4.1181   4.1225   4.1310   4.1352
     4.2244   4.2418   4.2673   4.2713   4.2905   4.2920   4.3126   4.3664
     4.3929   4.4339   4.4376   4.4779   4.5167   4.5446   4.5465   4.5844
     4.5945   4.5990   4.6325   4.7308   5.1465   5.1467   5.1535   5.1637
     5.1676   5.1683   5.1696   5.1733   5.1992   5.2046   5.2119   5.2174
     5.2189   5.2280   5.2405   5.2419   5.2600   5.2642   5.2650   5.2657
     5.2659   5.2724   5.3096   5.3106   5.3182   5.3330   5.3461   5.3472
     5.3597   5.3628   5.3630   5.3682   5.3695   5.3798   5.3878   5.3897
     5.4103   5.4332   5.4474   5.4499   5.4516   5.4692   5.4961   5.4993
     5.5176   5.5249   5.5557   5.5573   5.5682   5.5687   5.6016   5.6024
     5.6081   5.6209   5.6312   5.6489   5.6503   5.6615   5.6748   5.7072
     5.7096   5.7387   5.7595   5.7603   5.7715   5.7844   5.8050   5.8059
     5.8135   5.8397   5.8675   5.8684   5.8748   5.8933   5.9687   5.9697
     6.0176   6.0250   6.0261   6.1011   6.1020   6.1123   6.1593   6.1875
     6.1999   6.2024   6.2050   6.2600   6.2621   6.2880   6.3174   6.3422
     6.3555   6.3675   6.3701   6.4127   6.4193   6.4199   6.4522   6.4811
     6.4828   6.5068   6.5572   6.5672   6.6052   6.6088   6.6466   6.6664
     6.6685   6.7355   6.7392   6.7406   6.7473   6.8028   6.8069   6.8514
     6.8648   6.9182   6.9458   7.0377

          k =-0.3333 0.1925 0.2714 (115773 PWs)   bands (ev):

   -28.2883 -28.2796 -28.2779 -28.2762 -28.2760 -28.2760 -28.2757 -28.2736
   -28.2719 -28.2703 -28.2701 -28.2666 -14.9276 -14.9266 -14.9260 -14.9250
   -14.9239 -14.9224 -14.9221 -14.9218 -14.9217 -14.9214 -14.9211 -14.9205
   -14.9201 -14.9196 -14.9190 -14.9180 -14.9166 -14.9162 -14.9158 -14.9156
   -14.9156 -14.9154 -14.9146 -14.9138 -14.9097 -14.9081 -14.9071 -14.9059
   -14.9045 -14.9041 -14.9037 -14.9035 -14.9033 -14.9026 -14.9018 -14.9007
   -14.8695 -14.8680 -14.8669 -14.8657 -14.8643 -14.8639 -14.8635 -14.8633
   -14.8630 -14.8627 -14.8624 -14.8615 -14.8243 -14.8226 -14.8216 -14.8205
   -14.8191 -14.8188 -14.8183 -14.8182 -14.8181 -14.8180 -14.8172 -14.8164
   -10.3480 -10.3401 -10.3391 -10.3377 -10.3365 -10.3354 -10.3329 -10.3317
   -10.3302 -10.3284 -10.3273 -10.3234 -10.3140 -10.3099 -10.3069 -10.3057
   -10.3030 -10.3010 -10.2975 -10.2953 -10.2942 -10.2921 -10.2905 -10.2860
   -10.2775 -10.2700 -10.2684 -10.2672 -10.2658 -10.2647 -10.2621 -10.2607
   -10.2601 -10.2581 -10.2571 -10.2546  -6.7518  -6.6471  -6.5611  -6.4710
    -6.4246  -6.4196  -6.3630  -6.3428  -6.3386  -6.2644  -6.2121  -6.2099
    -5.9118  -5.9084  -5.8311  -5.8229  -5.8192  -5.8136  -5.7659  -5.7635
    -5.7498  -5.7407  -5.6885  -5.6823  -5.6806  -5.6602  -5.6431  -5.6414
    -5.6389  -5.6127  -5.5865  -5.5812  -5.5683  -5.5304  -5.5288  -5.5241
    -5.5109  -5.4827  -5.4659  -5.4436  -5.4358  -5.4308  -5.4031  -5.3685
    -5.3500  -5.3441  -5.3291  -5.2969  -0.5617  -0.5609  -0.5543  -0.4348
    -0.4301  -0.4281  -0.4087  -0.3598  -0.3237  -0.3226  -0.2894  -0.2819
     1.4073   1.4902   1.4927   1.5187   1.6111   1.7072   1.7137   1.7217
     1.7351   1.7723   1.8451   1.8496   1.9640   1.9844   2.0213   2.0261
     2.1315   2.1970   2.2062   2.2107   2.2862   2.3358   2.3984   2.4232
     2.4269   2.5142   2.5269   2.5299   2.5537   2.5571   2.5581   2.5612
     2.6025   2.6803   2.7633   2.7661   2.8189   2.8237   2.8251   2.8286
     2.8483   2.8520   2.8922   2.8989   2.9079   3.0077   3.0151   3.0210
     3.0728   3.0768   3.1172   3.1223   3.1332   3.1804   3.1840   3.1897
     3.2112   3.2464   3.2661   3.2839   3.2878   3.2940   3.3285   3.3313
     3.3733   3.3782   3.3797   3.3862   3.4452   3.4477   3.4508   3.4743
     3.4797   3.4817   3.5058   3.5234   3.5319   3.5360   3.5386   3.5587
     3.5847   3.5910   3.6123   3.6284   3.6376   3.6442   3.6818   3.6830
     3.6886   3.6969   3.7035   3.7080   3.8312   3.8373   3.8780   3.8811
     3.9372   3.9445   3.9471   3.9514   3.9693   4.0326   4.0520   4.0574
     4.0600   4.0621   4.1011   4.1032   4.1233   4.1246   4.1322   4.1357
     4.2197   4.2363   4.2655   4.2693   4.2885   4.2921   4.3153   4.3710
     4.3922   4.4332   4.4353   4.4805   4.5224   4.5410   4.5447   4.5872
     4.5986   4.6001   4.6290   4.7281   5.1468   5.1491   5.1514   5.1633
     5.1678   5.1687   5.1703   5.1718   5.1990   5.2042   5.2127   5.2177
     5.2204   5.2299   5.2401   5.2411   5.2594   5.2626   5.2639   5.2647
     5.2652   5.2741   5.3083   5.3114   5.3185   5.3348   5.3454   5.3467
     5.3600   5.3624   5.3633   5.3673   5.3688   5.3805   5.3884   5.3899
     5.4099   5.4321   5.4472   5.4510   5.4528   5.4692   5.4954   5.4983
     5.5164   5.5228   5.5558   5.5573   5.5681   5.5704   5.6024   5.6030
     5.6067   5.6201   5.6320   5.6499   5.6510   5.6600   5.6750   5.7088
     5.7098   5.7403   5.7600   5.7609   5.7701   5.7839   5.8041   5.8046
     5.8160   5.8397   5.8660   5.8665   5.8754   5.8977   5.9678   5.9704
     6.0195   6.0236   6.0264   6.0988   6.1027   6.1115   6.1600   6.1865
     6.2017   6.2038   6.2051   6.2625   6.2638   6.2854   6.3188   6.3400
     6.3546   6.3697   6.3728   6.4125   6.4174   6.4192   6.4519   6.4785
     6.4832   6.5068   6.5572   6.5647   6.6059   6.6077   6.6460   6.6645
     6.6677   6.7373   6.7397   6.7406   6.7477   6.8028   6.8053   6.8502
     6.8674   6.9170   6.9450   7.0409

          k = 0.3333 0.1925 0.2714 (115773 PWs)   bands (ev):

   -28.2883 -28.2796 -28.2779 -28.2762 -28.2760 -28.2760 -28.2757 -28.2736
   -28.2719 -28.2703 -28.2701 -28.2666 -14.9276 -14.9266 -14.9261 -14.9250
   -14.9238 -14.9224 -14.9221 -14.9218 -14.9217 -14.9214 -14.9211 -14.9205
   -14.9201 -14.9196 -14.9190 -14.9180 -14.9166 -14.9162 -14.9158 -14.9156
   -14.9155 -14.9154 -14.9146 -14.9138 -14.9097 -14.9081 -14.9071 -14.9059
   -14.9045 -14.9041 -14.9037 -14.9035 -14.9033 -14.9026 -14.9018 -14.9007
   -14.8695 -14.8680 -14.8669 -14.8657 -14.8643 -14.8639 -14.8635 -14.8633
   -14.8630 -14.8627 -14.8624 -14.8615 -14.8243 -14.8226 -14.8216 -14.8205
   -14.8191 -14.8188 -14.8183 -14.8182 -14.8181 -14.8180 -14.8172 -14.8164
   -10.3477 -10.3409 -10.3380 -10.3371 -10.3364 -10.3347 -10.3332 -10.3319
   -10.3313 -10.3287 -10.3274 -10.3233 -10.3139 -10.3100 -10.3067 -10.3050
   -10.3023 -10.3011 -10.2977 -10.2971 -10.2944 -10.2932 -10.2899 -10.2849
   -10.2773 -10.2699 -10.2691 -10.2664 -10.2658 -10.2634 -10.2629 -10.2624
   -10.2609 -10.2584 -10.2567 -10.2532  -6.7518  -6.6472  -6.5626  -6.4695
    -6.4262  -6.4159  -6.3628  -6.3419  -6.3396  -6.2660  -6.2113  -6.2098
    -5.9162  -5.9119  -5.8348  -5.8205  -5.8170  -5.8127  -5.7688  -5.7617
    -5.7509  -5.7357  -5.6900  -5.6813  -5.6789  -5.6642  -5.6433  -5.6391
    -5.6293  -5.6072  -5.5883  -5.5858  -5.5734  -5.5326  -5.5255  -5.5207
    -5.5160  -5.4878  -5.4609  -5.4392  -5.4370  -5.4352  -5.3981  -5.3728
    -5.3496  -5.3423  -5.3323  -5.2956  -0.5643  -0.5616  -0.5508  -0.4325
    -0.4301  -0.4274  -0.4120  -0.3610  -0.3233  -0.3190  -0.2908  -0.2836
     1.4033   1.4906   1.4985   1.5141   1.6132   1.7084   1.7144   1.7224
     1.7382   1.7722   1.8427   1.8472   1.9672   1.9861   2.0201   2.0224
     2.1277   2.1985   2.2054   2.2131   2.2836   2.3329   2.3973   2.4233
     2.4298   2.5165   2.5260   2.5306   2.5525   2.5569   2.5603   2.5635
     2.6017   2.6772   2.7627   2.7668   2.8205   2.8243   2.8296   2.8314
     2.8485   2.8549   2.8938   2.8962   2.9050   3.0064   3.0170   3.0190
     3.0759   3.0809   3.1166   3.1218   3.1348   3.1790   3.1809   3.1890
     3.2140   3.2469   3.2664   3.2838   3.2853   3.2947   3.3299   3.3337
     3.3749   3.3766   3.3778   3.3794   3.4421   3.4483   3.4502   3.4754
     3.4799   3.4824   3.5054   3.5184   3.5329   3.5353   3.5368   3.5592
     3.5850   3.5884   3.6102   3.6322   3.6366   3.6480   3.6776   3.6855
     3.6873   3.6949   3.7051   3.7064   3.8363   3.8403   3.8738   3.8797
     3.9401   3.9453   3.9458   3.9491   3.9723   4.0328   4.0530   4.0554
     4.0604   4.0640   4.1007   4.1027   4.1208   4.1238   4.1292   4.1347
     4.2240   4.2406   4.2679   4.2723   4.2896   4.2925   4.3118   4.3659
     4.3902   4.4337   4.4375   4.4795   4.5209   4.5432   4.5469   4.5840
     4.5944   4.5965   4.6340   4.7313   5.1466   5.1473   5.1539   5.1641
     5.1669   5.1683   5.1699   5.1734   5.1996   5.2046   5.2113   5.2171
     5.2192   5.2286   5.2400   5.2413   5.2595   5.2627   5.2649   5.2662
     5.2672   5.2730   5.3090   5.3104   5.3186   5.3332   5.3455   5.3474
     5.3599   5.3623   5.3633   5.3681   5.3703   5.3805   5.3881   5.3898
     5.4094   5.4330   5.4472   5.4505   5.4521   5.4688   5.4956   5.4984
     5.5168   5.5245   5.5558   5.5568   5.5683   5.5690   5.6018   5.6023
     5.6072   5.6205   5.6300   5.6498   5.6508   5.6616   5.6742   5.7066
     5.7098   5.7385   5.7602   5.7608   5.7708   5.7843   5.8040   5.8070
     5.8147   5.8395   5.8671   5.8695   5.8753   5.8939   5.9685   5.9705
     6.0181   6.0248   6.0252   6.1013   6.1019   6.1112   6.1584   6.1871
     6.2007   6.2040   6.2057   6.2623   6.2640   6.2875   6.3178   6.3427
     6.3540   6.3672   6.3693   6.4115   6.4204   6.4220   6.4518   6.4816
     6.4819   6.5066   6.5573   6.5662   6.6052   6.6082   6.6474   6.6648
     6.6687   6.7345   6.7383   6.7408   6.7488   6.8011   6.8059   6.8506
     6.8658   6.9185   6.9465   7.0382

          k =-0.3333-0.1925 0.2714 (115773 PWs)   bands (ev):

   -28.2883 -28.2796 -28.2779 -28.2762 -28.2760 -28.2760 -28.2757 -28.2736
   -28.2719 -28.2703 -28.2701 -28.2666 -14.9276 -14.9266 -14.9261 -14.9250
   -14.9238 -14.9224 -14.9221 -14.9218 -14.9217 -14.9214 -14.9211 -14.9205
   -14.9201 -14.9196 -14.9190 -14.9180 -14.9166 -14.9162 -14.9158 -14.9156
   -14.9155 -14.9154 -14.9146 -14.9138 -14.9097 -14.9081 -14.9071 -14.9059
   -14.9045 -14.9041 -14.9037 -14.9035 -14.9033 -14.9026 -14.9018 -14.9007
   -14.8695 -14.8680 -14.8669 -14.8657 -14.8643 -14.8639 -14.8635 -14.8633
   -14.8630 -14.8627 -14.8624 -14.8615 -14.8243 -14.8226 -14.8216 -14.8205
   -14.8191 -14.8188 -14.8183 -14.8182 -14.8181 -14.8180 -14.8172 -14.8164
   -10.3478 -10.3409 -10.3379 -10.3371 -10.3365 -10.3349 -10.3332 -10.3319
   -10.3312 -10.3287 -10.3275 -10.3232 -10.3140 -10.3101 -10.3063 -10.3050
   -10.3020 -10.3003 -10.2993 -10.2977 -10.2946 -10.2926 -10.2886 -10.2856
   -10.2773 -10.2700 -10.2691 -10.2668 -10.2655 -10.2637 -10.2627 -10.2623
   -10.2608 -10.2582 -10.2566 -10.2533  -6.7517  -6.6472  -6.5615  -6.4735
    -6.4292  -6.4193  -6.3633  -6.3312  -6.3275  -6.2586  -6.2247  -6.2239
    -5.9066  -5.9028  -5.8342  -5.8185  -5.8091  -5.8049  -5.7934  -5.7621
    -5.7540  -5.7337  -5.7164  -5.7062  -5.6723  -5.6345  -5.6288  -5.6276
    -5.6244  -5.6078  -5.6008  -5.5974  -5.5679  -5.5287  -5.5222  -5.5213
    -5.5158  -5.4914  -5.4684  -5.4336  -5.4324  -5.4281  -5.4224  -5.3609
    -5.3525  -5.3456  -5.3220  -5.3011  -0.5613  -0.5588  -0.5578  -0.4380
    -0.4339  -0.4234  -0.3943  -0.3742  -0.3201  -0.3157  -0.2999  -0.2791
     1.4318   1.4807   1.4868   1.4895   1.6230   1.6432   1.7675   1.7764
     1.7856   1.7917   1.8002   1.8018   1.9122   1.9947   1.9959   2.0767
     2.1534   2.1985   2.2123   2.2439   2.2511   2.3586   2.3893   2.3942
     2.3996   2.4466   2.5096   2.5148   2.5461   2.5894   2.5939   2.6073
     2.6409   2.7122   2.7630   2.7672   2.7698   2.7896   2.8082   2.8102
     2.8383   2.8747   2.9139   2.9161   2.9182   2.9828   3.0218   3.0249
     3.0696   3.1042   3.1075   3.1355   3.1698   3.1902   3.1936   3.1956
     3.2011   3.2316   3.2640   3.2660   3.2782   3.3162   3.3217   3.3228
     3.3242   3.3881   3.3893   3.4095   3.4424   3.4459   3.4639   3.4703
     3.4726   3.4738   3.4755   3.4800   3.5325   3.5356   3.5373   3.5911
     3.6097   3.6114   3.6159   3.6322   3.6424   3.6512   3.6582   3.6610
     3.6668   3.7044   3.7124   3.7131   3.8355   3.8394   3.8756   3.8875
     3.9050   3.9493   3.9512   3.9733   3.9829   4.0205   4.0475   4.0498
     4.0523   4.0649   4.1108   4.1118   4.1194   4.1330   4.1348   4.1478
     4.1914   4.2543   4.2644   4.2690   4.2876   4.2906   4.2962   4.3857
     4.3961   4.4363   4.4415   4.4664   4.5230   4.5264   4.5349   4.5954
     4.6087   4.6113   4.6255   4.7225   5.1494   5.1502   5.1539   5.1570
     5.1715   5.1753   5.1770   5.1832   5.1904   5.1975   5.2004   5.2070
     5.2077   5.2335   5.2349   5.2355   5.2545   5.2631   5.2652   5.2672
     5.2793   5.2975   5.3067   5.3119   5.3134   5.3280   5.3359   5.3384
     5.3574   5.3583   5.3605   5.3632   5.3800   5.3932   5.4062   5.4066
     5.4127   5.4314   5.4333   5.4438   5.4454   5.4923   5.5011   5.5024
     5.5097   5.5161   5.5533   5.5591   5.5741   5.5752   5.6014   5.6105
     5.6114   5.6186   5.6244   5.6255   5.6434   5.6693   5.6819   5.7132
     5.7155   5.7183   5.7333   5.7713   5.7730   5.7742   5.8015   5.8039
     5.8098   5.8582   5.8752   5.8776   5.8790   5.9140   5.9588   5.9601
     6.0311   6.0350   6.0357   6.0585   6.0779   6.0806   6.1727   6.2051
     6.2126   6.2146   6.2650   6.2671   6.2703   6.2777   6.2862   6.3484
     6.3500   6.3666   6.3725   6.4136   6.4233   6.4255   6.4269   6.4694
     6.4978   6.4989   6.5449   6.5592   6.5950   6.5957   6.6645   6.6677
     6.6769   6.7193   6.7326   6.7374   6.7497   6.8119   6.8144   6.8451
     6.8682   6.9281   6.9372   7.0523

          k = 0.3333-0.1925 0.2714 (115773 PWs)   bands (ev):

   -28.2883 -28.2796 -28.2779 -28.2762 -28.2760 -28.2760 -28.2757 -28.2736
   -28.2719 -28.2703 -28.2701 -28.2666 -14.9276 -14.9266 -14.9260 -14.9250
   -14.9239 -14.9224 -14.9221 -14.9218 -14.9217 -14.9214 -14.9211 -14.9205
   -14.9201 -14.9196 -14.9190 -14.9180 -14.9166 -14.9162 -14.9158 -14.9156
   -14.9156 -14.9154 -14.9146 -14.9138 -14.9097 -14.9081 -14.9071 -14.9059
   -14.9045 -14.9041 -14.9037 -14.9035 -14.9033 -14.9026 -14.9018 -14.9007
   -14.8695 -14.8680 -14.8669 -14.8657 -14.8643 -14.8639 -14.8635 -14.8633
   -14.8630 -14.8627 -14.8624 -14.8615 -14.8243 -14.8226 -14.8216 -14.8205
   -14.8191 -14.8188 -14.8183 -14.8182 -14.8181 -14.8180 -14.8172 -14.8164
   -10.3481 -10.3401 -10.3391 -10.3377 -10.3365 -10.3351 -10.3333 -10.3313
   -10.3303 -10.3282 -10.3278 -10.3233 -10.3141 -10.3102 -10.3068 -10.3058
   -10.3021 -10.2997 -10.2990 -10.2951 -10.2949 -10.2921 -10.2906 -10.2856
   -10.2774 -10.2701 -10.2682 -10.2670 -10.2657 -10.2645 -10.2626 -10.2608
   -10.2603 -10.2581 -10.2573 -10.2542  -6.7514  -6.6477  -6.5609  -6.4734
    -6.4279  -6.4228  -6.3628  -6.3306  -6.3271  -6.2588  -6.2268  -6.2232
    -5.9035  -5.9000  -5.8309  -5.8235  -5.8087  -5.8009  -5.7893  -5.7616
    -5.7592  -5.7340  -5.7138  -5.7106  -5.6708  -5.6473  -5.6296  -5.6269
    -5.6251  -5.6105  -5.5986  -5.5945  -5.5661  -5.5296  -5.5233  -5.5189
    -5.5134  -5.4994  -5.4621  -5.4358  -5.4277  -5.4239  -5.4198  -5.3676
    -5.3535  -5.3479  -5.3211  -5.2988  -0.5617  -0.5581  -0.5574  -0.4369
    -0.4358  -0.4272  -0.3920  -0.3715  -0.3206  -0.3191  -0.2982  -0.2777
     1.4364   1.4808   1.4849   1.4910   1.6240   1.6394   1.7646   1.7737
     1.7819   1.7882   1.8004   1.8044   1.9140   1.9976   2.0008   2.0773
     2.1566   2.1994   2.2090   2.2460   2.2505   2.3628   2.3862   2.3926
     2.4005   2.4475   2.5077   2.5113   2.5487   2.5882   2.5922   2.6080
     2.6414   2.7089   2.7595   2.7667   2.7707   2.7903   2.8057   2.8091
     2.8396   2.8741   2.9133   2.9176   2.9210   2.9836   3.0218   3.0255
     3.0644   3.1051   3.1109   3.1293   3.1727   3.1920   3.1925   3.1941
     3.1983   3.2337   3.2622   3.2666   3.2753   3.3154   3.3209   3.3230
     3.3257   3.3901   3.3957   3.4096   3.4454   3.4477   3.4648   3.4707
     3.4721   3.4734   3.4774   3.4801   3.5323   3.5344   3.5372   3.5899
     3.6098   3.6129   3.6161   3.6331   3.6423   3.6461   3.6571   3.6630
     3.6721   3.7091   3.7112   3.7132   3.8312   3.8375   3.8792   3.8863
     3.9011   3.9496   3.9540   3.9758   3.9802   4.0167   4.0454   4.0488
     4.0512   4.0675   4.1120   4.1127   4.1225   4.1331   4.1349   4.1497
     4.1882   4.2517   4.2634   4.2685   4.2879   4.2892   4.2960   4.3897
     4.3980   4.4370   4.4387   4.4664   4.5216   4.5247   4.5374   4.5983
     4.6125   4.6139   4.6195   4.7198   5.1504   5.1525   5.1541   5.1555
     5.1705   5.1743   5.1752   5.1834   5.1903   5.1976   5.2015   5.2081
     5.2089   5.2327   5.2354   5.2362   5.2544   5.2618   5.2654   5.2657
     5.2795   5.2985   5.3078   5.3115   5.3130   5.3283   5.3349   5.3359
     5.3576   5.3578   5.3602   5.3630   5.3799   5.3914   5.4069   5.4085
     5.4124   5.4314   5.4333   5.4442   5.4460   5.4921   5.5015   5.5030
     5.5081   5.5155   5.5538   5.5607   5.5733   5.5758   5.6025   5.6108
     5.6123   5.6178   5.6252   5.6259   5.6428   5.6703   5.6821   5.7138
     5.7153   5.7168   5.7355   5.7703   5.7733   5.7745   5.8007   5.8020
     5.8123   5.8580   5.8734   5.8748   5.8811   5.9156   5.9578   5.9598
     6.0328   6.0343   6.0370   6.0609   6.0766   6.0792   6.1728   6.2082
     6.2126   6.2140   6.2653   6.2673   6.2687   6.2765   6.2845   6.3476
     6.3494   6.3638   6.3709   6.4153   6.4236   6.4255   6.4283   6.4714
     6.4948   6.4994   6.5455   6.5584   6.5948   6.5977   6.6657   6.6683
     6.6755   6.7194   6.7342   6.7383   6.7452   6.8108   6.8154   6.8435
     6.8710   6.9292   6.9359   7.0534

          k =-0.3333-0.5774 0.2714 (115827 PWs)   bands (ev):

   -28.2883 -28.2796 -28.2779 -28.2762 -28.2760 -28.2760 -28.2757 -28.2736
   -28.2719 -28.2703 -28.2701 -28.2666 -14.9276 -14.9266 -14.9260 -14.9250
   -14.9239 -14.9224 -14.9221 -14.9218 -14.9216 -14.9214 -14.9211 -14.9205
   -14.9201 -14.9196 -14.9190 -14.9180 -14.9166 -14.9162 -14.9158 -14.9156
   -14.9156 -14.9154 -14.9146 -14.9138 -14.9097 -14.9081 -14.9071 -14.9059
   -14.9045 -14.9041 -14.9037 -14.9035 -14.9033 -14.9026 -14.9018 -14.9007
   -14.8695 -14.8680 -14.8669 -14.8657 -14.8643 -14.8639 -14.8635 -14.8633
   -14.8630 -14.8627 -14.8624 -14.8615 -14.8243 -14.8226 -14.8216 -14.8205
   -14.8191 -14.8188 -14.8183 -14.8182 -14.8181 -14.8180 -14.8172 -14.8164
   -10.3475 -10.3401 -10.3383 -10.3367 -10.3359 -10.3343 -10.3336 -10.3319
   -10.3305 -10.3283 -10.3272 -10.3243 -10.3135 -10.3092 -10.3065 -10.3049
   -10.3032 -10.2986 -10.2979 -10.2975 -10.2951 -10.2915 -10.2898 -10.2881
   -10.2774 -10.2697 -10.2682 -10.2666 -10.2664 -10.2641 -10.2630 -10.2619
   -10.2613 -10.2586 -10.2575 -10.2542  -6.6245  -6.6173  -6.6160  -6.5296
    -6.5237  -6.5224  -6.3110  -6.2904  -6.2884  -6.2867  -6.2586  -6.2162
    -5.8738  -5.8559  -5.8429  -5.7957  -5.7788  -5.7777  -5.7461  -5.7415
    -5.7382  -5.7136  -5.6959  -5.6873  -5.6844  -5.6768  -5.6718  -5.6679
    -5.6666  -5.6413  -5.5579  -5.5545  -5.5511  -5.5282  -5.5238  -5.5194
    -5.5100  -5.5031  -5.5025  -5.4902  -5.4571  -5.4033  -5.3969  -5.3953
    -5.3598  -5.3288  -5.3217  -5.3203  -0.5209  -0.5070  -0.5058  -0.5038
    -0.4608  -0.4176  -0.4168  -0.4161  -0.3555  -0.2945  -0.2923  -0.2901
     1.4775   1.4845   1.4853   1.6354   1.6383   1.6423   1.6896   1.7701
     1.7725   1.7780   1.7788   1.7953   1.9796   1.9828   1.9844   2.0541
     2.1689   2.1891   2.1939   2.1942   2.2479   2.3946   2.3973   2.3994
     2.4865   2.4882   2.4910   2.5570   2.5824   2.5879   2.5904   2.5955
     2.6768   2.7356   2.7377   2.7388   2.8209   2.8222   2.8260   2.8300
     2.8997   2.9023   2.9051   2.9220   2.9365   2.9527   2.9576   2.9588
     3.0552   3.0596   3.0625   3.0872   3.0892   3.0924   3.1286   3.1798
     3.2432   3.2443   3.2459   3.2681   3.2715   3.2737   3.3215   3.3252
     3.3293   3.3315   3.3732   3.4075   3.4195   3.4613   3.4659   3.4667
     3.4924   3.4973   3.4989   3.5021   3.5330   3.5364   3.5402   3.5417
     3.5609   3.6142   3.6168   3.6183   3.6513   3.6543   3.6603   3.6935
     3.6980   3.7017   3.7196   3.7437   3.8230   3.8380   3.8419   3.8442
     3.9334   3.9388   3.9413   3.9447   4.0255   4.0302   4.0321   4.0423
     4.0662   4.0680   4.0728   4.1093   4.1122   4.1163   4.1173   4.1672
     4.2707   4.2725   4.2759   4.2899   4.3144   4.3611   4.3619   4.3632
     4.4123   4.4174   4.4193   4.4885   4.4936   4.4953   4.5078   4.5130
     4.5653   4.6646   4.6686   4.6706   5.1484   5.1555   5.1562   5.1573
     5.1589   5.1808   5.1832   5.1838   5.1968   5.1979   5.1991   5.2107
     5.2239   5.2248   5.2261   5.2507   5.2521   5.2531   5.2567   5.2686
     5.3000   5.3017   5.3028   5.3089   5.3275   5.3292   5.3308   5.3668
     5.3682   5.3695   5.3746   5.3937   5.3951   5.4074   5.4095   5.4100
     5.4325   5.4332   5.4342   5.4383   5.4831   5.4848   5.4860   5.4909
     5.5381   5.5387   5.5403   5.5441   5.5651   5.5671   5.5678   5.6042
     5.6059   5.6070   5.6376   5.6396   5.6713   5.6729   5.6739   5.7031
     5.7036   5.7048   5.7173   5.7575   5.7593   5.7615   5.8004   5.8080
     5.8201   5.8233   5.8243   5.8270   5.8902   5.8907   5.8924   6.0560
     6.0591   6.0603   6.0621   6.0768   6.1179   6.1208   6.1215   6.1344
     6.1950   6.2370   6.2378   6.2397   6.2844   6.3000   6.3028   6.3032
     6.3064   6.3828   6.3860   6.3871   6.4505   6.4658   6.4679   6.4702
     6.4913   6.4927   6.5561   6.5601   6.5611   6.6454   6.6829   6.6847
     6.6872   6.7605   6.7755   6.7785   6.7793   6.7929   6.8510   6.8562
     6.8570   6.9354   6.9361   6.9380

     highest occupied level (ev):     7.1819

!    total energy              =   -9077.18698109 Ry
     estimated scf accuracy    <          1.4E-10 Ry

     The total energy is the sum of the following terms:
     one-electron contribution =   -2776.96625998 Ry
     hartree contribution      =    2020.23474572 Ry
     xc contribution           =   -2269.38905371 Ry
     ewald contribution        =   -3895.27012112 Ry
     one-center paw contrib.   =   -2155.79629201 Ry

     convergence has been achieved in  24 iterations

     negative rho (up, down):  7.902E-01 0.000E+00

     Forces acting on atoms (cartesian axes, Ry/au):

     atom    1 type  1   force =    -0.00017525    0.00029780    0.00018325
     atom    2 type  1   force =    -0.00013702    0.00028738    0.00007706
     atom    3 type  1   force =    -0.00015822    0.00024112    0.00007388
     atom    4 type  1   force =    -0.00015919    0.00024666    0.00006558
     atom    5 type  1   force =    -0.00031217   -0.00028304   -0.00004034
     atom    6 type  1   force =     0.00018166    0.00013469    0.00052417
     atom    7 type  1   force =    -0.00019262   -0.00063741    0.00024871
     atom    8 type  1   force =    -0.00018138   -0.00025738   -0.00000638
     atom    9 type  1   force =     0.00043301   -0.00011301   -0.00007590
     atom   10 type  1   force =    -0.00020812   -0.00085216    0.00018162
     atom   11 type  1   force =     0.00064831    0.00106175   -0.00017608
     atom   12 type  1   force =     0.00046897   -0.00014175   -0.00047707
     atom   13 type  2   force =     0.00023754   -0.00024977    0.00026045
     atom   14 type  2   force =     0.00020914   -0.00037246    0.00020424
     atom   15 type  2   force =     0.00019632   -0.00039338    0.00021703
     atom   16 type  2   force =     0.00022056   -0.00036227    0.00020740
     atom   17 type  2   force =     0.00116603    0.00031461    0.00002232
     atom   18 type  2   force =     0.00026480    0.00075232   -0.00017643
     atom   19 type  2   force =     0.00038230    0.00011482    0.00001868
     atom   20 type  2   force =     0.00023587    0.00037561    0.00016235
     atom   21 type  2   force =    -0.00036961    0.00003034    0.00023376
     atom   22 type  2   force =    -0.00042945    0.00002139    0.00020089
     atom   23 type  2   force =    -0.00043541    0.00000260    0.00019998
     atom   24 type  2   force =    -0.00051360   -0.00002475    0.00020101
     atom   25 type  2   force =    -0.00034022   -0.00000107   -0.00021916
     atom   26 type  2   force =    -0.00028568   -0.00001942   -0.00034991
     atom   27 type  2   force =    -0.00083327    0.00008782    0.00005555
     atom   28 type  2   force =    -0.00020787   -0.00014662   -0.00001970
     atom   29 type  2   force =     0.00021096    0.00039698   -0.00015590
     atom   30 type  2   force =     0.00020496    0.00040249   -0.00016463
     atom   31 type  2   force =     0.00019876    0.00039979   -0.00016930
     atom   32 type  2   force =     0.00020136    0.00038797   -0.00017063
     atom   33 type  2   force =     0.00037639   -0.00034735   -0.00026654
     atom   34 type  2   force =    -0.00031282   -0.00024520    0.00068163
     atom   35 type  2   force =     0.00019545   -0.00038152   -0.00021175
     atom   36 type  2   force =     0.00024670   -0.00036531   -0.00024224
     atom   37 type  3   force =    -0.01005794    0.01297164   -0.01575626
     atom   38 type  3   force =     0.00060458   -0.00059767    0.00008923
     atom   39 type  3   force =     0.00026617   -0.00071093    0.00001368
     atom   40 type  3   force =     0.00027017   -0.00062384   -0.00005411
     atom   41 type  3   force =     0.00046126    0.00038139    0.00026945
     atom   42 type  3   force =     0.00032048    0.00037807    0.00019796
     atom   43 type  3   force =     0.00021942    0.00078917   -0.00019027
     atom   44 type  3   force =     0.00027302    0.00047902   -0.00000769
     atom   45 type  3   force =    -0.00049066    0.00000086    0.00005977
     atom   46 type  3   force =    -0.00055746   -0.00002615    0.00013854
     atom   47 type  3   force =    -0.00063142   -0.00002707    0.00021022
     atom   48 type  3   force =    -0.00052288   -0.00001030    0.00008745
     atom   49 type  4   force =     0.00630230   -0.00748239    0.01123033
     atom   50 type  4   force =     0.00009968   -0.00028816    0.00023976
     atom   51 type  4   force =     0.00035027    0.00003849    0.00002313
     atom   52 type  4   force =     0.00043209   -0.00007350    0.00011749
     atom   53 type  4   force =    -0.00014035    0.00032210   -0.00007676
     atom   54 type  4   force =    -0.00009082    0.00035561   -0.00001348
     atom   55 type  4   force =    -0.00010592    0.00027647    0.00002230
     atom   56 type  4   force =    -0.00008744    0.00037463   -0.00000855
     atom   57 type  4   force =    -0.00009186   -0.00028280   -0.00009042
     atom   58 type  4   force =    -0.00025635   -0.00022954    0.00001023
     atom   59 type  4   force =    -0.00027430   -0.00025372   -0.00001160
     atom   60 type  4   force =    -0.00030512   -0.00036662   -0.00011658
     atom   61 type  4   force =    -0.00028363    0.00024501   -0.00006035
     atom   62 type  4   force =    -0.00025609    0.00027325   -0.00009605
     atom   63 type  4   force =    -0.00031161    0.00024584   -0.00012721
     atom   64 type  4   force =    -0.00028618    0.00025309   -0.00005821
     atom   65 type  4   force =    -0.00004950    0.00013456   -0.00018469
     atom   66 type  4   force =     0.00042345    0.00008402   -0.00015605
     atom   67 type  4   force =     0.00034564    0.00010665    0.00025002
     atom   68 type  4   force =     0.00033164    0.00016135    0.00001378
     atom   69 type  4   force =    -0.00018251   -0.00032596   -0.00002243
     atom   70 type  4   force =     0.00012949   -0.00015401    0.00166632
     atom   71 type  4   force =    -0.00002075   -0.00034954   -0.00006845
     atom   72 type  4   force =    -0.00020889   -0.00017307    0.00000910
     atom   73 type  4   force =    -0.00008367    0.00019985   -0.00021126
     atom   74 type  4   force =    -0.00000464    0.00014692   -0.00030348
     atom   75 type  4   force =    -0.00001151    0.00016089   -0.00029545
     atom   76 type  4   force =    -0.00000786    0.00013783   -0.00028612
     atom   77 type  4   force =    -0.00030888    0.00006879   -0.00022385
     atom   78 type  4   force =     0.00488850   -0.00135347    0.00086697
     atom   79 type  4   force =    -0.00019286   -0.00005473   -0.00020417
     atom   80 type  4   force =    -0.00018153    0.00001127   -0.00009782
     atom   81 type  4   force =     0.00017755   -0.00031605   -0.00039800
     atom   82 type  4   force =     0.00007360   -0.00010543   -0.00021942
     atom   83 type  4   force =     0.00009096   -0.00001190   -0.00026577
     atom   84 type  4   force =     0.00015605   -0.00007138   -0.00031599
     atom   85 type  4   force =     0.00001155    0.00006894    0.00028833
     atom   86 type  4   force =     0.00013199    0.00009867    0.00040538
     atom   87 type  4   force =    -0.00109123   -0.00492661    0.00101141
     atom   88 type  4   force =     0.00008505    0.00006697    0.00017843
     atom   89 type  4   force =     0.00005034   -0.00017292    0.00016892
     atom   90 type  4   force =     0.00006681   -0.00018918    0.00017013
     atom   91 type  4   force =     0.00002022   -0.00015104    0.00020291
     atom   92 type  4   force =     0.00002479   -0.00015856    0.00020741
     atom   93 type  4   force =    -0.00013084    0.00008319    0.00021664
     atom   94 type  4   force =    -0.00016371    0.00010207   -0.00006949
     atom   95 type  4   force =    -0.00014308    0.00005267    0.00024678
     atom   96 type  4   force =    -0.00010277    0.00005498    0.00028033

     Total force =     0.028597     Total SCF correction =     0.000049
     Message from routine punch:
     Nothing written, as per user request (disk_io='none')

     init_run     :     45.74s CPU     49.36s WALL (       1 calls)
     electrons    :   2866.88s CPU   3038.72s WALL (       1 calls)
     forces       :     20.46s CPU     21.56s WALL (       1 calls)

     Called by init_run:
     wfcinit      :     41.21s CPU     44.05s WALL (       1 calls)
     potinit      :      1.23s CPU      1.30s WALL (       1 calls)
     hinit0       :      1.11s CPU      1.17s WALL (       1 calls)

     Called by electrons:
     c_bands      :   2525.89s CPU   2654.53s WALL (      24 calls)
     sum_band     :    308.98s CPU    336.60s WALL (      24 calls)
     v_of_rho     :      5.57s CPU      6.39s WALL (      25 calls)
     newd         :     19.28s CPU     34.31s WALL (      25 calls)
     PAW_pot      :      6.71s CPU      6.74s WALL (      25 calls)
     mix_rho      :      1.14s CPU      1.29s WALL (      24 calls)

     Called by c_bands:
     init_us_2    :     32.79s CPU     34.74s WALL (     350 calls)
     cegterg      :   2453.19s CPU   2579.22s WALL (     168 calls)

     Called by *egterg:
     cdiaghg      :    119.75s CPU    123.92s WALL (    1193 calls)
     h_psi        :   1339.13s CPU   1425.72s WALL (    1200 calls)
     s_psi        :    288.46s CPU    290.45s WALL (    1200 calls)
     g_psi        :      4.17s CPU      4.20s WALL (    1025 calls)

     Called by h_psi:
     h_psi:calbec :    297.68s CPU    305.20s WALL (    1200 calls)
     vloc_psi     :    746.59s CPU    815.40s WALL (    1200 calls)
     add_vuspsi   :    289.71s CPU    292.19s WALL (    1200 calls)

     General routines
     calbec       :    402.74s CPU    411.82s WALL (    1396 calls)
     fft          :      5.04s CPU      5.67s WALL (     334 calls)
     ffts         :      0.83s CPU      0.88s WALL (      49 calls)
     fftw         :    572.65s CPU    637.85s WALL (  505658 calls)
     interpolate  :      1.04s CPU      1.11s WALL (      25 calls)

     Parallel routines

     PWSCF        :  48m53.37s CPU  51m50.47s WALL


   This run was terminated on:   3:59:53  21Aug2026            

=------------------------------------------------------------------------------=
   JOB DONE.
=------------------------------------------------------------------------------=
