
     Program PWSCF v.7.3.1 starts on 21Aug2026 at 16:56:24 

     This program is part of the open-source Quantum ESPRESSO suite
     for quantum simulation of materials; please cite
         "P. Giannozzi et al., J. Phys.:Condens. Matter 21 395502 (2009);
         "P. Giannozzi et al., J. Phys.:Condens. Matter 29 465901 (2017);
         "P. Giannozzi et al., J. Chem. Phys. 152 154105 (2020);
          URL http://www.quantum-espresso.org", 
     in publications or presentations arising from this work. More details at
     http://www.quantum-espresso.org/quote

     Parallel version (MPI & OpenMP), running on      32 processor cores
     Number of MPI processes:                32
     Threads/MPI process:                     1

     MPI processes distributed on     1 nodes
     254627 MiB available memory on the printing compute node when the environment starts

     Reading input from scf.in

     Current dimensions of program PWSCF are:
     Max number of different atomic species (ntypx) = 10
     Max number of k-points (npk) =  40000
     Max angular momentum in pseudopotentials (lmaxx) =  4
     file Cu.paw.z_11.ld1.psl.v1.0.0-low.upf: wavefunction(s)  4S 3D renormalized
     Found identity + ( -0.5000  0.0000  0.0000) symmetry
     This is a supercell, fractional translations are disabled

     K-points division:     npool     =       2
     R & G space division:  proc/nbgrp/npool/nimage =      16
     Subspace diagonalization in iterative solution of the eigenvalue problem:
     one sub-group per band group will be used
     scalapack distributed-memory algorithm (size of sub-group:  4*  4 procs)


     Parallelization info
     --------------------
     sticks:   dense  smooth     PW     G-vecs:    dense   smooth      PW
     Min        1193     597    157               163743    57882    7779
     Max        1194     599    158               163747    57885    7784
     Sum       19099    9565   2515              2619931   926125  124485

     Using Slab Decomposition



     bravais-lattice index     =            0
     lattice parameter (alat)  =      24.0273  a.u.
     unit-cell volume          =   14752.0463 (a.u.)^3
     number of atoms/cell      =           96
     number of atomic types    =            4
     number of electrons       =       840.00
     number of Kohn-Sham states=          420
     kinetic-energy cutoff     =      60.0000  Ry
     charge density cutoff     =     480.0000  Ry
     scf convergence threshold =      1.0E-09
     mixing beta               =       0.3000
     number of iterations used =            8  plain     mixing
     Exchange-correlation=  SLA  PW   PBX  PBC
                           (   1   4   3   4   0   0   0)

     celldm(1)=  24.027274  celldm(2)=   0.000000  celldm(3)=   0.000000
     celldm(4)=   0.000000  celldm(5)=   0.000000  celldm(6)=   0.000000

     crystal axes: (cart. coord. in units of alat)
               a(1) = (   1.000000   0.000000   0.000000 )  
               a(2) = (  -0.500000   0.866025   0.000000 )  
               a(3) = (   0.000000   0.000000   1.228028 )  

     reciprocal axes: (cart. coord. in units 2 pi/alat)
               b(1) = (  1.000000  0.577351 -0.000000 )  
               b(2) = (  0.000000  1.154701  0.000000 )  
               b(3) = (  0.000000 -0.000000  0.814314 )  


     PseudoPot. # 1 for Sr read from file:
     /home/yuhansun/pseudos/SSSP-1.3.0-PBE-precision/Sr_pbe_v1.uspp.F.UPF
     MD5 check sum: 6b418c05fbe9db5448babca5e47b7a5b
     Pseudo is Ultrasoft + core correction, Zval = 10.0
     Generated by new atomic code, or converted to UPF format
     Using radial grid of  883 points,  6 beta functions with: 
                l(1) =   0
                l(2) =   0
                l(3) =   1
                l(4) =   1
                l(5) =   2
                l(6) =   2
     Q(r) pseudized with  6 coefficients,  rinner =    1.400   1.400   1.400
                                                       1.400   1.400

     PseudoPot. # 2 for Cu read from file:
     /home/yuhansun/pseudos/SSSP-1.3.0-PBE-precision/Cu.paw.z_11.ld1.psl.v1.0.0-low.upf
     MD5 check sum: 619f40885d92a09a85a8b37550532d0c
     Pseudo is Projector augmented-wave + core cor, Zval = 11.0
     Generated using &quot;atomic&quot; code by A. Dal Corso  v.6.3MaX
     Shape of augmentation charge: PSQ
     Using radial grid of 1199 points,  6 beta functions with: 
                l(1) =   0
                l(2) =   0
                l(3) =   1
                l(4) =   1
                l(5) =   2
                l(6) =   2
     Q(r) pseudized with 0 coefficients 


     PseudoPot. # 3 for Sn read from file:
     /home/yuhansun/pseudos/SSSP-1.3.0-PBE-precision/Sn_pbe_v1.uspp.F.UPF
     MD5 check sum: 4cf58ce39ec5d5d420df3dd08604eb00
     Pseudo is Ultrasoft + core correction, Zval = 14.0
     Generated by new atomic code, or converted to UPF format
     Using radial grid of  891 points,  6 beta functions with: 
                l(1) =   0
                l(2) =   0
                l(3) =   1
                l(4) =   1
                l(5) =   2
                l(6) =   2
     Q(r) pseudized with  6 coefficients,  rinner =    1.200   1.200   1.200
                                                       1.200   1.200

     PseudoPot. # 4 for S  read from file:
     /home/yuhansun/pseudos/SSSP-1.3.0-PBE-precision/s_pbe_v1.4.uspp.F.UPF
     MD5 check sum: 88d86576ff6df21479756cfb9bdac1df
     Pseudo is Ultrasoft + core correction, Zval =  6.0
     Generated by new atomic code, or converted to UPF format
     Using radial grid of  907 points,  6 beta functions with: 
                l(1) =   0
                l(2) =   0
                l(3) =   1
                l(4) =   1
                l(5) =   2
                l(6) =   2
     Q(r) pseudized with  8 coefficients,  rinner =    1.300   1.300   1.300
                                                       1.300   1.300

     atomic species   valence    mass     pseudopotential
     Sr               10.00    87.62000     Sr( 1.00)
     Cu               11.00    63.54600     Cu( 1.00)
     Sn               14.00   118.71000     Sn( 1.00)
     S                 6.00    32.06500     S ( 1.00)

     No symmetry found



   Cartesian axes

     site n.     atom                  positions (alat units)
         1        Sr     tau(   1) = (  -0.1405753   0.2434834   0.2046717  )
         2        Sr     tau(   2) = (   0.3594247   0.2434834   0.2046717  )
         3        Sr     tau(   3) = (  -0.3905753   0.6764960   0.2046717  )
         4        Sr     tau(   4) = (   0.1094247   0.6764960   0.2046717  )
         5        Sr     tau(   5) = (   0.1094247   0.1895292   0.6140139  )
         6        Sr     tau(   6) = (   0.6094247   0.1895292   0.6140139  )
         7        Sr     tau(   7) = (  -0.1405753   0.6225418   0.6140139  )
         8        Sr     tau(   8) = (   0.3594247   0.6225418   0.6140139  )
         9        Sr     tau(   9) = (   0.2811505   0.0000000   1.0233574  )
        10        Sr     tau(  10) = (   0.7811505   0.0000000   1.0233574  )
        11        Sr     tau(  11) = (   0.0311505   0.4330126   1.0233574  )
        12        Sr     tau(  12) = (   0.5311505   0.4330126   1.0233574  )
        13        Cu     tau(  13) = (  -0.1226788   0.2753211   0.5061747  )
        14        Cu     tau(  14) = (   0.3773212   0.2753211   0.5061747  )
        15        Cu     tau(  15) = (  -0.3726788   0.7083337   0.5061747  )
        16        Cu     tau(  16) = (   0.1273212   0.7083337   0.5061747  )
        17        Cu     tau(  17) = (   0.0729045   0.1891087   0.9155169  )
        18        Cu     tau(  18) = (   0.5729045   0.1891087   0.9155169  )
        19        Cu     tau(  19) = (  -0.1770956   0.6221213   0.9155169  )
        20        Cu     tau(  20) = (   0.3229044   0.6221213   0.9155169  )
        21        Cu     tau(  21) = (   0.0497750   0.4015949   0.0968325  )
        22        Cu     tau(  22) = (   0.5497750   0.4015949   0.0968325  )
        23        Cu     tau(  23) = (  -0.2002251   0.8346075   0.0968325  )
        24        Cu     tau(  24) = (   0.2997749   0.8346075   0.0968325  )
        25        Cu     tau(  25) = (   0.2997745   0.0314177   0.7218532  )
        26        Cu     tau(  26) = (   0.7997745   0.0314177   0.7218532  )
        27        Cu     tau(  27) = (   0.0497745   0.4644302   0.7218532  )
        28        Cu     tau(  28) = (   0.5497745   0.4644302   0.7218532  )
        29        Cu     tau(  29) = (   0.1273207   0.1576915   0.3125110  )
        30        Cu     tau(  30) = (   0.6273207   0.1576915   0.3125110  )
        31        Cu     tau(  31) = (  -0.1226793   0.5907041   0.3125110  )
        32        Cu     tau(  32) = (   0.3773207   0.5907041   0.3125110  )
        33        Cu     tau(  33) = (   0.3229040   0.2439039   1.1311954  )
        34        Cu     tau(  34) = (   0.8229040   0.2439039   1.1311954  )
        35        Cu     tau(  35) = (   0.0729039   0.6769164   1.1311954  )
        36        Cu     tau(  36) = (   0.5729039   0.6769164   1.1311954  )
        37        Sn     tau(  37) = (  -0.1762580   0.3052877   0.8186857  )
        38        Sn     tau(  38) = (   0.3237420   0.3052877   0.8186857  )
        39        Sn     tau(  39) = (  -0.4262581   0.7383003   0.8186857  )
        40        Sn     tau(  40) = (   0.0737419   0.7383003   0.8186857  )
        41        Sn     tau(  41) = (   0.0737420   0.1277249   0.0000000  )
        42        Sn     tau(  42) = (   0.5737420   0.1277249   0.0000000  )
        43        Sn     tau(  43) = (  -0.1762581   0.5607374   0.0000000  )
        44        Sn     tau(  44) = (   0.3237419   0.5607374   0.0000000  )
        45        Sn     tau(  45) = (   0.3525160   0.0000000   0.4093422  )
        46        Sn     tau(  46) = (   0.8525160   0.0000000   0.4093422  )
        47        Sn     tau(  47) = (   0.1025160   0.4330126   0.4093422  )
        48        Sn     tau(  48) = (   0.6025160   0.4330126   0.4093422  )
        49        S      tau(  49) = (  -0.0988203   0.2103164   0.9671149  )
        50        S      tau(  50) = (   0.4011797   0.2103164   0.9671149  )
        51        S      tau(  51) = (  -0.3488203   0.6433290   0.9671149  )
        52        S      tau(  52) = (   0.1511797   0.6433290   0.9671149  )
        53        S      tau(  53) = (   0.1172707   0.2422736   0.1484293  )
        54        S      tau(  54) = (   0.6172707   0.2422736   0.1484293  )
        55        S      tau(  55) = (  -0.1327293   0.6752862   0.1484293  )
        56        S      tau(  56) = (   0.3672707   0.6752862   0.1484293  )
        57        S      tau(  57) = (  -0.0184505   0.4134352   0.5577727  )
        58        S      tau(  58) = (   0.4815495   0.4134352   0.5577727  )
        59        S      tau(  59) = (  -0.2684506   0.8464478   0.5577727  )
        60        S      tau(  60) = (   0.2315494   0.8464478   0.5577727  )
        61        S      tau(  61) = (   0.2315495   0.0195774   0.2609129  )
        62        S      tau(  62) = (   0.7315495   0.0195774   0.2609129  )
        63        S      tau(  63) = (  -0.0184505   0.4525899   0.2609129  )
        64        S      tau(  64) = (   0.4815495   0.4525899   0.2609129  )
        65        S      tau(  65) = (   0.1511797   0.2226962   1.0795986  )
        66        S      tau(  66) = (   0.6511797   0.2226962   1.0795986  )
        67        S      tau(  67) = (  -0.0988203   0.6557088   1.0795986  )
        68        S      tau(  68) = (   0.4011797   0.6557088   1.0795986  )
        69        S      tau(  69) = (   0.3672707   0.1907390   0.6702552  )
        70        S      tau(  70) = (   0.8672707   0.1907390   0.6702552  )
        71        S      tau(  71) = (   0.1172707   0.6237516   0.6702552  )
        72        S      tau(  72) = (   0.6172707   0.6237516   0.6702552  )
        73        S      tau(  73) = (  -0.0296498   0.1532012   0.4035914  )
        74        S      tau(  74) = (   0.4703502   0.1532012   0.4035914  )
        75        S      tau(  75) = (  -0.2796498   0.5862137   0.4035914  )
        76        S      tau(  76) = (   0.2203502   0.5862137   0.4035914  )
        77        S      tau(  77) = (   0.1321490   0.3307341   0.8129336  )
        78        S      tau(  78) = (   0.6321490   0.3307341   0.8129336  )
        79        S      tau(  79) = (  -0.1178511   0.7637467   0.8129336  )
        80        S      tau(  80) = (   0.3821489   0.7637467   0.8129336  )
        81        S      tau(  81) = (  -0.1024985   0.3820894   1.2222770  )
        82        S      tau(  82) = (   0.3975015   0.3820894   1.2222770  )
        83        S      tau(  83) = (  -0.3524986   0.8151020   1.2222770  )
        84        S      tau(  84) = (   0.1475014   0.8151020   1.2222770  )
        85        S      tau(  85) = (   0.1475010   0.0509231   0.8244365  )
        86        S      tau(  86) = (   0.6475010   0.0509231   0.8244365  )
        87        S      tau(  87) = (  -0.1024990   0.4839357   0.8244365  )
        88        S      tau(  88) = (   0.3975010   0.4839357   0.8244365  )
        89        S      tau(  89) = (   0.2203497   0.2798114   0.4150943  )
        90        S      tau(  90) = (   0.7203497   0.2798114   0.4150943  )
        91        S      tau(  91) = (  -0.0296503   0.7128240   0.4150943  )
        92        S      tau(  92) = (   0.4703497   0.7128240   0.4150943  )
        93        S      tau(  93) = (   0.3821485   0.1022784   0.0057509  )
        94        S      tau(  94) = (   0.8821485   0.1022784   0.0057509  )
        95        S      tau(  95) = (   0.1321485   0.5352910   0.0057509  )
        96        S      tau(  96) = (   0.6321485   0.5352910   0.0057509  )

     number of k points=    27
                       cart. coord. in units 2pi/alat
        k(    1) = (   0.0000000   0.0000000   0.0000000), wk =   0.0740741
        k(    2) = (   0.0000000   0.0000000   0.2714379), wk =   0.0740741
        k(    3) = (   0.0000000   0.0000000  -0.2714379), wk =   0.0740741
        k(    4) = (   0.0000000   0.3849003   0.0000000), wk =   0.0740741
        k(    5) = (   0.0000000   0.3849003   0.2714379), wk =   0.0740741
        k(    6) = (   0.0000000   0.3849003  -0.2714379), wk =   0.0740741
        k(    7) = (   0.0000000  -0.3849003   0.0000000), wk =   0.0740741
        k(    8) = (   0.0000000  -0.3849003   0.2714379), wk =   0.0740741
        k(    9) = (   0.0000000  -0.3849003  -0.2714379), wk =   0.0740741
        k(   10) = (   0.3333333   0.1924502   0.0000000), wk =   0.0740741
        k(   11) = (   0.3333333   0.1924502   0.2714379), wk =   0.0740741
        k(   12) = (   0.3333333   0.1924502  -0.2714379), wk =   0.0740741
        k(   13) = (   0.3333333   0.5773505   0.0000000), wk =   0.0740741
        k(   14) = (   0.3333333   0.5773505   0.2714379), wk =   0.0740741
        k(   15) = (   0.3333333   0.5773505  -0.2714379), wk =   0.0740741
        k(   16) = (   0.3333333  -0.1924501   0.0000000), wk =   0.0740741
        k(   17) = (   0.3333333  -0.1924501   0.2714379), wk =   0.0740741
        k(   18) = (   0.3333333  -0.1924501  -0.2714379), wk =   0.0740741
        k(   19) = (  -0.3333333  -0.1924502   0.0000000), wk =   0.0740741
        k(   20) = (  -0.3333333  -0.1924502   0.2714379), wk =   0.0740741
        k(   21) = (  -0.3333333  -0.1924502  -0.2714379), wk =   0.0740741
        k(   22) = (  -0.3333333   0.1924501   0.0000000), wk =   0.0740741
        k(   23) = (  -0.3333333   0.1924501   0.2714379), wk =   0.0740741
        k(   24) = (  -0.3333333   0.1924501  -0.2714379), wk =   0.0740741
        k(   25) = (  -0.3333333  -0.5773505   0.0000000), wk =   0.0740741
        k(   26) = (  -0.3333333  -0.5773505   0.2714379), wk =   0.0740741
        k(   27) = (  -0.3333333  -0.5773505  -0.2714379), wk =   0.0740741

     Dense  grid:  2619931 G-vectors     FFT dimensions: ( 180, 180, 216)

     Smooth grid:   926125 G-vectors     FFT dimensions: ( 120, 120, 150)

     Estimated max dynamical RAM per process >       1.38 GB

     Estimated total dynamical RAM >      43.69 GB

     Initial potential from superposition of free atoms

     starting charge     827.5884, renormalised to     840.0000

     negative rho (up, down):  7.777E-01 0.000E+00
     Starting wfcs are  672 randomized atomic wfcs
     Checking if some PAW data can be deallocated... 

     total cpu time spent up to now is       88.8 secs

     Self-consistent Calculation

     iteration #  1     ecut=    60.00 Ry     beta= 0.30
     Davidson diagonalization with overlap
     ethr =  1.00E-02,  avg # of iterations =  2.0

     negative rho (up, down):  7.747E-01 0.000E+00

     total cpu time spent up to now is      258.2 secs

     total energy              =   -9070.29112448 Ry
     estimated scf accuracy    <      21.97892227 Ry

     iteration #  2     ecut=    60.00 Ry     beta= 0.30
     Davidson diagonalization with overlap
     ethr =  2.62E-03,  avg # of iterations =  4.8

     negative rho (up, down):  7.752E-01 0.000E+00

     total cpu time spent up to now is      470.0 secs

     total energy              =   -9076.61336352 Ry
     estimated scf accuracy    <       8.24131071 Ry

     iteration #  3     ecut=    60.00 Ry     beta= 0.30
     Davidson diagonalization with overlap
     ethr =  9.81E-04,  avg # of iterations =  2.0

     negative rho (up, down):  7.804E-01 0.000E+00

     total cpu time spent up to now is      638.8 secs

     total energy              =   -9076.48801542 Ry
     estimated scf accuracy    <       1.62576595 Ry

     iteration #  4     ecut=    60.00 Ry     beta= 0.30
     Davidson diagonalization with overlap
     ethr =  1.94E-04,  avg # of iterations =  5.8

     negative rho (up, down):  7.829E-01 0.000E+00

     total cpu time spent up to now is      882.1 secs

     total energy              =   -9076.70138561 Ry
     estimated scf accuracy    <       2.07177725 Ry

     iteration #  5     ecut=    60.00 Ry     beta= 0.30
     Davidson diagonalization with overlap
     ethr =  1.94E-04,  avg # of iterations =  5.6

     negative rho (up, down):  7.883E-01 0.000E+00

     total cpu time spent up to now is     1082.1 secs

     total energy              =   -9077.14433717 Ry
     estimated scf accuracy    <       0.15294737 Ry

     iteration #  6     ecut=    60.00 Ry     beta= 0.30
     Davidson diagonalization with overlap
     ethr =  1.82E-05,  avg # of iterations =  5.2

     negative rho (up, down):  7.903E-01 0.000E+00

     total cpu time spent up to now is     1280.1 secs

     total energy              =   -9077.18406344 Ry
     estimated scf accuracy    <       0.01191248 Ry

     iteration #  7     ecut=    60.00 Ry     beta= 0.30
     Davidson diagonalization with overlap
     ethr =  1.42E-06,  avg # of iterations =  5.3

     negative rho (up, down):  7.907E-01 0.000E+00

     total cpu time spent up to now is     1523.8 secs

     total energy              =   -9077.18829971 Ry
     estimated scf accuracy    <       0.00514001 Ry

     iteration #  8     ecut=    60.00 Ry     beta= 0.30
     Davidson diagonalization with overlap
     ethr =  6.12E-07,  avg # of iterations =  6.6

     negative rho (up, down):  7.911E-01 0.000E+00

     total cpu time spent up to now is     1806.3 secs

     total energy              =   -9077.18013905 Ry
     estimated scf accuracy    <       0.04464729 Ry

     iteration #  9     ecut=    60.00 Ry     beta= 0.30
     Davidson diagonalization with overlap
     ethr =  6.12E-07,  avg # of iterations =  7.4

     negative rho (up, down):  7.910E-01 0.000E+00

     total cpu time spent up to now is     2091.7 secs

     total energy              =   -9077.18778651 Ry
     estimated scf accuracy    <       0.00158686 Ry

     iteration # 10     ecut=    60.00 Ry     beta= 0.30
     Davidson diagonalization with overlap
     ethr =  1.89E-07,  avg # of iterations =  2.6

     negative rho (up, down):  7.907E-01 0.000E+00

     total cpu time spent up to now is     2264.8 secs

     total energy              =   -9077.18772459 Ry
     estimated scf accuracy    <       0.00039981 Ry

     iteration # 11     ecut=    60.00 Ry     beta= 0.30
     Davidson diagonalization with overlap
     ethr =  4.76E-08,  avg # of iterations =  6.3

     negative rho (up, down):  7.905E-01 0.000E+00

     total cpu time spent up to now is     2506.3 secs

     total energy              =   -9077.18788012 Ry
     estimated scf accuracy    <       0.00017589 Ry

     iteration # 12     ecut=    60.00 Ry     beta= 0.30
     Davidson diagonalization with overlap
     ethr =  2.09E-08,  avg # of iterations =  3.0

     negative rho (up, down):  7.904E-01 0.000E+00

     total cpu time spent up to now is     2699.8 secs

     total energy              =   -9077.18789248 Ry
     estimated scf accuracy    <       0.00005440 Ry

     iteration # 13     ecut=    60.00 Ry     beta= 0.30
     Davidson diagonalization with overlap
     ethr =  6.48E-09,  avg # of iterations =  5.6

     negative rho (up, down):  7.903E-01 0.000E+00

     total cpu time spent up to now is     2905.8 secs

     total energy              =   -9077.18790199 Ry
     estimated scf accuracy    <       0.00000877 Ry

     iteration # 14     ecut=    60.00 Ry     beta= 0.30
     Davidson diagonalization with overlap
     ethr =  1.04E-09,  avg # of iterations =  4.5

     negative rho (up, down):  7.902E-01 0.000E+00

     total cpu time spent up to now is     3099.4 secs

     total energy              =   -9077.18790372 Ry
     estimated scf accuracy    <       0.00000101 Ry

     iteration # 15     ecut=    60.00 Ry     beta= 0.30
     Davidson diagonalization with overlap
     ethr =  1.20E-10,  avg # of iterations =  6.1

     negative rho (up, down):  7.902E-01 0.000E+00

     total cpu time spent up to now is     3345.0 secs

     total energy              =   -9077.18790431 Ry
     estimated scf accuracy    <       0.00000015 Ry

     iteration # 16     ecut=    60.00 Ry     beta= 0.30
     Davidson diagonalization with overlap
     ethr =  1.84E-11,  avg # of iterations =  5.1

     negative rho (up, down):  7.902E-01 0.000E+00

     total cpu time spent up to now is     3584.2 secs

     total energy              =   -9077.18790442 Ry
     estimated scf accuracy    <       0.00000003 Ry

     iteration # 17     ecut=    60.00 Ry     beta= 0.30
     Davidson diagonalization with overlap
     ethr =  3.93E-12,  avg # of iterations =  7.6

     negative rho (up, down):  7.902E-01 0.000E+00

     total cpu time spent up to now is     3843.2 secs

     total energy              =   -9077.18790445 Ry
     estimated scf accuracy    <       0.00000001 Ry

     iteration # 18     ecut=    60.00 Ry     beta= 0.30
     Davidson diagonalization with overlap
     ethr =  1.41E-12,  avg # of iterations =  5.0

     negative rho (up, down):  7.902E-01 0.000E+00

     total cpu time spent up to now is     4080.5 secs

     total energy              =   -9077.18790447 Ry
     estimated scf accuracy    <          7.6E-09 Ry

     iteration # 19     ecut=    60.00 Ry     beta= 0.30
     Davidson diagonalization with overlap
     ethr =  9.01E-13,  avg # of iterations =  5.6

     negative rho (up, down):  7.902E-01 0.000E+00

     total cpu time spent up to now is     4279.8 secs

     total energy              =   -9077.18790447 Ry
     estimated scf accuracy    <          8.2E-09 Ry

     iteration # 20     ecut=    60.00 Ry     beta= 0.30
     Davidson diagonalization with overlap
     ethr =  9.01E-13,  avg # of iterations =  2.1

     negative rho (up, down):  7.902E-01 0.000E+00

     total cpu time spent up to now is     4460.2 secs

     End of self-consistent calculation

          k = 0.0000 0.0000 0.0000 (115723 PWs)   bands (ev):

   -28.2754 -28.2754 -28.2754 -28.2754 -28.2754 -28.2753 -28.2753 -28.2753
   -28.2753 -28.2753 -28.2753 -28.2753 -14.9228 -14.9228 -14.9228 -14.9225
   -14.9225 -14.9225 -14.9225 -14.9225 -14.9225 -14.9222 -14.9222 -14.9222
   -14.9168 -14.9168 -14.9168 -14.9168 -14.9168 -14.9167 -14.9166 -14.9166
   -14.9166 -14.9164 -14.9164 -14.9164 -14.9047 -14.9047 -14.9047 -14.9046
   -14.9046 -14.9046 -14.9046 -14.9046 -14.9045 -14.9044 -14.9044 -14.9044
   -14.8644 -14.8644 -14.8644 -14.8644 -14.8644 -14.8644 -14.8644 -14.8644
   -14.8643 -14.8643 -14.8643 -14.8643 -14.8193 -14.8193 -14.8193 -14.8192
   -14.8192 -14.8192 -14.8192 -14.8192 -14.8192 -14.8192 -14.8191 -14.8191
   -10.3382 -10.3382 -10.3382 -10.3365 -10.3365 -10.3364 -10.3354 -10.3354
   -10.3354 -10.3308 -10.3307 -10.3242 -10.3090 -10.3090 -10.3089 -10.3042
   -10.3041 -10.3013 -10.3013 -10.3013 -10.2924 -10.2924 -10.2924 -10.2822
   -10.2704 -10.2704 -10.2704 -10.2648 -10.2648 -10.2648 -10.2624 -10.2624
   -10.2624 -10.2583 -10.2582 -10.2543  -6.8630  -6.5548  -6.5548  -6.4167
    -6.4167  -6.4167  -6.2991  -6.2991  -6.2991  -6.2179  -6.2179  -6.2179
    -5.9896  -5.9896  -5.9896  -5.8493  -5.8493  -5.8493  -5.7960  -5.7960
    -5.7959  -5.7368  -5.7368  -5.6184  -5.6184  -5.6184  -5.6133  -5.6133
    -5.6133  -5.6006  -5.5586  -5.5586  -5.5585  -5.5448  -5.5448  -5.5448
    -5.5168  -5.5167  -5.4323  -5.4285  -5.4285  -5.4285  -5.3726  -5.3726
    -5.3452  -5.3452  -5.3452  -5.2509  -0.6113  -0.6113  -0.6113  -0.3886
    -0.3886  -0.3886  -0.3507  -0.3154  -0.3154  -0.3154  -0.3010  -0.3010
     1.3851   1.3851   1.3851   1.5924   1.5924   1.6562   1.7171   1.7171
     1.7171   1.8060   1.8060   1.8060   2.0198   2.0411   2.0411   2.0851
     2.0851   2.0851   2.2480   2.2480   2.2480   2.3087   2.3108   2.4046
     2.4046   2.4046   2.4611   2.4611   2.4611   2.5495   2.5495   2.6631
     2.6631   2.6631   2.7843   2.7843   2.7843   2.8718   2.8718   2.9253
     2.9253   2.9253   2.9538   2.9538   2.9538   3.0276   3.0276   3.0276
     3.0462   3.0462   3.0462   3.1647   3.2149   3.2149   3.2149   3.2277
     3.2277   3.2577   3.2578   3.2578   3.3779   3.3779   3.3779   3.3933
     3.3933   3.4273   3.4273   3.4273   3.4362   3.4362   3.4362   3.4763
     3.4763   3.4763   3.4935   3.4952   3.4952   3.4952   3.5172   3.5172
     3.5852   3.5852   3.5852   3.6272   3.6272   3.6272   3.6903   3.6903
     3.6903   3.6910   3.6910   3.7061   3.7954   3.7954   3.8258   3.8258
     3.8258   3.9630   4.0211   4.0211   4.0211   4.0362   4.0362   4.0362
     4.1249   4.1254   4.1254   4.1254   4.1736   4.1736   4.1736   4.2013
     4.2097   4.2097   4.2097   4.2445   4.2445   4.2445   4.2814   4.2814
     4.4248   4.4248   4.4248   4.5186   4.5186   4.5187   4.5359   4.5359
     4.6208   4.6208   4.6208   4.8566   5.1249   5.1557   5.1557   5.1557
     5.1746   5.1746   5.1746   5.1785   5.1785   5.2225   5.2278   5.2278
     5.2278   5.2295   5.2295   5.2523   5.2523   5.2523   5.2670   5.2670
     5.2670   5.2788   5.2788   5.2788   5.3115   5.3115   5.3115   5.3128
     5.3128   5.3247   5.3378   5.3378   5.3378   5.3758   5.3758   5.3758
     5.4390   5.4390   5.4717   5.4717   5.4717   5.4745   5.4775   5.4775
     5.4775   5.4991   5.4991   5.6015   5.6016   5.6016   5.6188   5.6188
     5.6188   5.6266   5.6474   5.6474   5.6474   5.6598   5.6598   5.6598
     5.7254   5.7254   5.7444   5.7831   5.7831   5.7831   5.8214   5.8214
     5.8214   5.9038   5.9038   5.9038   5.9278   5.9278   5.9278   5.9965
     5.9965   6.0268   6.0268   6.0268   6.1497   6.1514   6.1514   6.1514
     6.2630   6.2631   6.2631   6.2631   6.2631   6.2631   6.2904   6.2904
     6.3351   6.3351   6.3351   6.3637   6.3637   6.3637   6.3896   6.3896
     6.3896   6.5525   6.5716   6.5716   6.5716   6.6381   6.6381   6.6381
     6.7477   6.7477   6.7477   6.7652   6.7652   6.7817   6.7817   6.7817
     6.8084   6.9646   7.1807   7.1807

          k = 0.0000 0.0000 0.2714 (115879 PWs)   bands (ev):

   -28.2754 -28.2754 -28.2754 -28.2754 -28.2754 -28.2753 -28.2753 -28.2753
   -28.2753 -28.2753 -28.2753 -28.2753 -14.9228 -14.9228 -14.9228 -14.9225
   -14.9225 -14.9225 -14.9225 -14.9225 -14.9225 -14.9222 -14.9222 -14.9222
   -14.9169 -14.9168 -14.9168 -14.9168 -14.9167 -14.9167 -14.9166 -14.9166
   -14.9166 -14.9164 -14.9164 -14.9164 -14.9047 -14.9047 -14.9047 -14.9046
   -14.9046 -14.9046 -14.9046 -14.9046 -14.9045 -14.9044 -14.9044 -14.9044
   -14.8644 -14.8644 -14.8644 -14.8644 -14.8644 -14.8644 -14.8644 -14.8644
   -14.8643 -14.8643 -14.8643 -14.8643 -14.8193 -14.8193 -14.8193 -14.8192
   -14.8192 -14.8192 -14.8192 -14.8192 -14.8192 -14.8192 -14.8191 -14.8191
   -10.3392 -10.3392 -10.3392 -10.3371 -10.3371 -10.3371 -10.3339 -10.3339
   -10.3338 -10.3323 -10.3280 -10.3253 -10.3121 -10.3075 -10.3075 -10.3075
   -10.3018 -10.3018 -10.3018 -10.2936 -10.2936 -10.2936 -10.2929 -10.2847
   -10.2698 -10.2698 -10.2698 -10.2655 -10.2655 -10.2655 -10.2620 -10.2619
   -10.2619 -10.2580 -10.2578 -10.2558  -6.8238  -6.7132  -6.4086  -6.4086
    -6.4086  -6.4075  -6.3037  -6.3037  -6.3037  -6.2302  -6.2302  -6.2302
    -5.9914  -5.9914  -5.9914  -5.8535  -5.8345  -5.8345  -5.8345  -5.7731
    -5.7731  -5.7731  -5.6559  -5.6558  -5.6558  -5.6519  -5.6128  -5.6118
    -5.6118  -5.6118  -5.5561  -5.5518  -5.5518  -5.5518  -5.5446  -5.5446
    -5.5446  -5.4539  -5.4343  -5.4343  -5.4343  -5.4337  -5.3751  -5.3457
    -5.3373  -5.3373  -5.3373  -5.2814  -0.6034  -0.6034  -0.6034  -0.4122
    -0.4122  -0.4122  -0.3481  -0.3324  -0.3008  -0.3008  -0.3007  -0.2740
     1.4094   1.4094   1.4094   1.5705   1.6149   1.6189   1.6189   1.6189
     1.6578   1.9356   1.9356   1.9356   2.0042   2.0467   2.0533   2.0533
     2.0533   2.0684   2.2765   2.2765   2.2765   2.3053   2.3897   2.3897
     2.3897   2.3908   2.4167   2.4167   2.4167   2.4559   2.6229   2.6230
     2.6230   2.6677   2.7184   2.7914   2.7985   2.7985   2.7985   2.8725
     2.8725   2.8725   2.9759   2.9759   2.9760   3.0462   3.0462   3.0462
     3.1070   3.1070   3.1070   3.1758   3.1990   3.2048   3.2048   3.2049
     3.2744   3.2744   3.2744   3.2841   3.3750   3.3843   3.3843   3.3843
     3.4201   3.4201   3.4201   3.4404   3.4404   3.4404   3.4495   3.4495
     3.4495   3.4771   3.4989   3.5189   3.5189   3.5189   3.5379   3.5441
     3.5504   3.5504   3.5504   3.6388   3.6452   3.6452   3.6452   3.6508
     3.6808   3.6808   3.6808   3.7732   3.8300   3.8764   3.8764   3.8764
     3.9081   3.9214   3.9955   3.9955   3.9955   4.0561   4.0561   4.0561
     4.0751   4.1177   4.1177   4.1177   4.1488   4.1488   4.1488   4.1653
     4.1722   4.1722   4.1722   4.2114   4.2512   4.2512   4.2512   4.2677
     4.4221   4.4221   4.4221   4.4836   4.5600   4.5600   4.5600   4.6058
     4.6058   4.6058   4.6768   4.8069   5.1362   5.1475   5.1545   5.1545
     5.1545   5.1645   5.1874   5.1874   5.1874   5.2165   5.2172   5.2172
     5.2172   5.2485   5.2485   5.2485   5.2596   5.2596   5.2596   5.2599
     5.2765   5.2776   5.2776   5.2776   5.3298   5.3298   5.3298   5.3326
     5.3340   5.3353   5.3424   5.3424   5.3424   5.3658   5.3747   5.3747
     5.3747   5.3898   5.4028   5.4207   5.4207   5.4207   5.5262   5.5329
     5.5329   5.5329   5.5823   5.5886   5.5891   5.5891   5.5891   5.6204
     5.6204   5.6204   5.6522   5.6522   5.6522   5.6609   5.6823   5.6823
     5.6823   5.7555   5.7555   5.7555   5.7908   5.7988   5.8179   5.8179
     5.8179   5.8710   5.8838   5.8838   5.8839   5.9890   5.9890   5.9890
     6.0430   6.0430   6.0430   6.0983   6.0983   6.0983   6.1753   6.1923
     6.1923   6.1923   6.2363   6.2692   6.2692   6.2692   6.3263   6.3263
     6.3263   6.3594   6.3603   6.3715   6.3715   6.3715   6.3952   6.4299
     6.4299   6.4299   6.4804   6.6418   6.6418   6.6418   6.6434   6.6434
     6.6434   6.6706   6.7093   6.7093   6.7093   6.7531   6.7531   6.7531
     6.9414   7.0053   7.0946   7.1701

          k = 0.0000 0.0000-0.2714 (115879 PWs)   bands (ev):

   -28.2754 -28.2754 -28.2754 -28.2754 -28.2754 -28.2753 -28.2753 -28.2753
   -28.2753 -28.2753 -28.2753 -28.2753 -14.9228 -14.9228 -14.9228 -14.9225
   -14.9225 -14.9225 -14.9225 -14.9225 -14.9225 -14.9222 -14.9222 -14.9222
   -14.9169 -14.9168 -14.9168 -14.9168 -14.9167 -14.9167 -14.9166 -14.9166
   -14.9166 -14.9164 -14.9164 -14.9164 -14.9047 -14.9047 -14.9047 -14.9046
   -14.9046 -14.9046 -14.9046 -14.9046 -14.9045 -14.9044 -14.9044 -14.9044
   -14.8644 -14.8644 -14.8644 -14.8644 -14.8644 -14.8644 -14.8644 -14.8644
   -14.8643 -14.8643 -14.8643 -14.8643 -14.8193 -14.8193 -14.8193 -14.8192
   -14.8192 -14.8192 -14.8192 -14.8192 -14.8192 -14.8192 -14.8191 -14.8191
   -10.3392 -10.3392 -10.3392 -10.3371 -10.3371 -10.3371 -10.3339 -10.3339
   -10.3338 -10.3323 -10.3280 -10.3253 -10.3121 -10.3075 -10.3075 -10.3075
   -10.3018 -10.3018 -10.3018 -10.2936 -10.2936 -10.2936 -10.2929 -10.2847
   -10.2698 -10.2698 -10.2698 -10.2655 -10.2655 -10.2655 -10.2620 -10.2619
   -10.2619 -10.2580 -10.2578 -10.2558  -6.8238  -6.7132  -6.4086  -6.4086
    -6.4086  -6.4075  -6.3037  -6.3037  -6.3037  -6.2302  -6.2302  -6.2302
    -5.9914  -5.9914  -5.9914  -5.8535  -5.8345  -5.8345  -5.8345  -5.7731
    -5.7731  -5.7731  -5.6559  -5.6558  -5.6558  -5.6519  -5.6128  -5.6118
    -5.6118  -5.6118  -5.5561  -5.5518  -5.5518  -5.5518  -5.5446  -5.5446
    -5.5446  -5.4539  -5.4343  -5.4343  -5.4343  -5.4337  -5.3751  -5.3457
    -5.3373  -5.3373  -5.3373  -5.2814  -0.6034  -0.6034  -0.6034  -0.4122
    -0.4122  -0.4122  -0.3481  -0.3324  -0.3008  -0.3008  -0.3007  -0.2740
     1.4094   1.4094   1.4094   1.5705   1.6149   1.6189   1.6189   1.6189
     1.6578   1.9356   1.9356   1.9356   2.0042   2.0467   2.0533   2.0533
     2.0533   2.0684   2.2765   2.2765   2.2765   2.3053   2.3897   2.3897
     2.3897   2.3908   2.4167   2.4167   2.4167   2.4559   2.6229   2.6230
     2.6230   2.6677   2.7184   2.7914   2.7985   2.7985   2.7985   2.8725
     2.8725   2.8725   2.9759   2.9759   2.9760   3.0462   3.0462   3.0462
     3.1070   3.1070   3.1070   3.1758   3.1990   3.2048   3.2048   3.2049
     3.2744   3.2744   3.2744   3.2841   3.3750   3.3843   3.3843   3.3843
     3.4201   3.4201   3.4201   3.4404   3.4404   3.4404   3.4495   3.4495
     3.4495   3.4771   3.4989   3.5189   3.5189   3.5189   3.5379   3.5441
     3.5504   3.5504   3.5504   3.6388   3.6452   3.6452   3.6452   3.6508
     3.6808   3.6808   3.6808   3.7732   3.8300   3.8764   3.8764   3.8764
     3.9081   3.9214   3.9955   3.9955   3.9955   4.0561   4.0561   4.0561
     4.0751   4.1177   4.1177   4.1177   4.1488   4.1488   4.1488   4.1653
     4.1722   4.1722   4.1722   4.2114   4.2512   4.2512   4.2512   4.2677
     4.4221   4.4221   4.4221   4.4836   4.5600   4.5600   4.5600   4.6058
     4.6058   4.6058   4.6768   4.8069   5.1362   5.1475   5.1545   5.1545
     5.1545   5.1645   5.1874   5.1874   5.1874   5.2165   5.2172   5.2172
     5.2172   5.2485   5.2485   5.2485   5.2596   5.2596   5.2596   5.2599
     5.2765   5.2776   5.2776   5.2776   5.3298   5.3298   5.3298   5.3326
     5.3340   5.3353   5.3424   5.3424   5.3424   5.3658   5.3747   5.3747
     5.3747   5.3898   5.4028   5.4207   5.4207   5.4207   5.5262   5.5329
     5.5329   5.5329   5.5823   5.5886   5.5891   5.5891   5.5891   5.6204
     5.6204   5.6204   5.6522   5.6522   5.6522   5.6609   5.6823   5.6823
     5.6823   5.7555   5.7555   5.7555   5.7908   5.7988   5.8179   5.8179
     5.8179   5.8710   5.8838   5.8838   5.8839   5.9890   5.9890   5.9890
     6.0430   6.0430   6.0430   6.0983   6.0983   6.0983   6.1753   6.1923
     6.1923   6.1923   6.2363   6.2692   6.2692   6.2692   6.3263   6.3263
     6.3263   6.3594   6.3603   6.3715   6.3715   6.3715   6.3952   6.4299
     6.4299   6.4299   6.4804   6.6418   6.6418   6.6418   6.6434   6.6434
     6.6434   6.6706   6.7093   6.7093   6.7093   6.7531   6.7531   6.7531
     6.9414   7.0053   7.0946   7.1701

          k = 0.0000 0.3849 0.0000 (115797 PWs)   bands (ev):

   -28.2754 -28.2754 -28.2754 -28.2754 -28.2753 -28.2753 -28.2753 -28.2753
   -28.2753 -28.2753 -28.2753 -28.2753 -14.9227 -14.9227 -14.9226 -14.9226
   -14.9226 -14.9225 -14.9225 -14.9224 -14.9224 -14.9223 -14.9223 -14.9223
   -14.9168 -14.9168 -14.9168 -14.9168 -14.9167 -14.9166 -14.9166 -14.9166
   -14.9166 -14.9165 -14.9165 -14.9165 -14.9047 -14.9046 -14.9046 -14.9046
   -14.9046 -14.9046 -14.9046 -14.9045 -14.9045 -14.9045 -14.9045 -14.9044
   -14.8644 -14.8644 -14.8644 -14.8644 -14.8644 -14.8644 -14.8644 -14.8644
   -14.8643 -14.8643 -14.8643 -14.8643 -14.8193 -14.8192 -14.8192 -14.8192
   -14.8192 -14.8192 -14.8192 -14.8192 -14.8192 -14.8192 -14.8192 -14.8192
   -10.3379 -10.3379 -10.3364 -10.3364 -10.3361 -10.3356 -10.3343 -10.3343
   -10.3325 -10.3324 -10.3319 -10.3265 -10.3072 -10.3072 -10.3062 -10.3042
   -10.3030 -10.3017 -10.3017 -10.3016 -10.2945 -10.2945 -10.2906 -10.2852
   -10.2694 -10.2694 -10.2690 -10.2666 -10.2665 -10.2637 -10.2627 -10.2624
   -10.2624 -10.2603 -10.2600 -10.2562  -6.7877  -6.5897  -6.4992  -6.4978
    -6.4379  -6.4379  -6.3654  -6.3487  -6.2846  -6.2846  -6.2480  -6.2480
    -5.9108  -5.9108  -5.8196  -5.8183  -5.8183  -5.7771  -5.7676  -5.7676
    -5.7317  -5.7239  -5.7225  -5.6899  -5.6899  -5.6474  -5.6378  -5.6378
    -5.6292  -5.5950  -5.5841  -5.5841  -5.5680  -5.5275  -5.5186  -5.5186
    -5.5162  -5.5043  -5.4622  -5.4513  -5.4363  -5.4363  -5.4220  -5.4149
    -5.3479  -5.3479  -5.3131  -5.2703  -0.5708  -0.5708  -0.5619  -0.4352
    -0.4037  -0.4037  -0.3770  -0.3376  -0.3376  -0.3371  -0.3124  -0.3031
     1.4188   1.4878   1.4878   1.5011   1.6400   1.6518   1.6884   1.7242
     1.7242   1.8282   1.8771   1.8771   1.9549   1.9560   1.9560   2.0277
     2.1157   2.2069   2.2300   2.2300   2.3390   2.3638   2.3866   2.3866
     2.3936   2.4087   2.4498   2.5380   2.5380   2.6132   2.6132   2.6170
     2.6575   2.7348   2.8134   2.8134   2.8220   2.8416   2.8416   2.8443
     2.8540   2.8848   2.9086   2.9086   2.9149   2.9626   2.9626   3.0043
     3.0504   3.0569   3.0570   3.1242   3.1483   3.1757   3.2045   3.2122
     3.2122   3.2342   3.2611   3.2611   3.2690   3.3238   3.3309   3.3309
     3.3388   3.3722   3.3954   3.3954   3.4338   3.4411   3.4411   3.4498
     3.4982   3.4982   3.5003   3.5111   3.5111   3.5139   3.5224   3.5430
     3.5616   3.6055   3.6055   3.6110   3.6349   3.6464   3.6799   3.6799
     3.6943   3.7033   3.7033   3.7085   3.7793   3.7793   3.8493   3.8598
     3.8962   3.9747   3.9747   3.9783   3.9804   4.0301   4.0390   4.0390
     4.0929   4.1117   4.1212   4.1212   4.1259   4.1630   4.1630   4.1777
     4.2482   4.2673   4.2673   4.2825   4.3030   4.3232   4.3232   4.3683
     4.3785   4.4170   4.4170   4.4836   4.5179   4.5281   4.5281   4.5288
     4.5913   4.5913   4.6267   4.7486   5.1442   5.1442   5.1471   5.1547
     5.1607   5.1607   5.1697   5.1747   5.2150   5.2197   5.2197   5.2219
     5.2280   5.2376   5.2492   5.2493   5.2501   5.2612   5.2678   5.2722
     5.2722   5.2893   5.3045   5.3046   5.3141   5.3189   5.3276   5.3276
     5.3369   5.3499   5.3529   5.3529   5.3574   5.3656   5.4141   5.4142
     5.4338   5.4512   5.4614   5.4614   5.4858   5.4935   5.5005   5.5005
     5.5027   5.5128   5.5278   5.5439   5.5569   5.5570   5.5613   5.6035
     5.6035   5.6307   5.6317   5.6317   5.6682   5.6784   5.6958   5.6964
     5.6964   5.7178   5.7297   5.7564   5.7756   5.7756   5.8089   5.8195
     5.8195   5.8639   5.8761   5.8761   5.9508   5.9516   5.9653   5.9653
     5.9905   6.0072   6.0072   6.0207   6.1394   6.1394   6.1450   6.1606
     6.2256   6.2300   6.2300   6.2514   6.2709   6.2896   6.2896   6.2993
     6.3620   6.3620   6.3775   6.3902   6.3902   6.4412   6.4865   6.4865
     6.5243   6.5383   6.5383   6.5758   6.6048   6.6511   6.6839   6.6929
     6.6929   6.7299   6.7378   6.7378   6.7627   6.7780   6.7930   6.8124
     6.8124   6.9044   6.9091   7.0808

          k = 0.0000 0.3849 0.2714 (115773 PWs)   bands (ev):

   -28.2754 -28.2754 -28.2754 -28.2754 -28.2754 -28.2753 -28.2753 -28.2753
   -28.2753 -28.2753 -28.2753 -28.2753 -14.9227 -14.9227 -14.9226 -14.9226
   -14.9226 -14.9225 -14.9225 -14.9224 -14.9224 -14.9223 -14.9223 -14.9223
   -14.9168 -14.9168 -14.9167 -14.9167 -14.9167 -14.9166 -14.9166 -14.9166
   -14.9166 -14.9165 -14.9165 -14.9165 -14.9047 -14.9046 -14.9046 -14.9046
   -14.9046 -14.9046 -14.9046 -14.9045 -14.9045 -14.9045 -14.9045 -14.9044
   -14.8644 -14.8644 -14.8644 -14.8644 -14.8644 -14.8644 -14.8644 -14.8644
   -14.8643 -14.8643 -14.8643 -14.8643 -14.8193 -14.8192 -14.8192 -14.8192
   -14.8192 -14.8192 -14.8192 -14.8192 -14.8192 -14.8192 -14.8192 -14.8192
   -10.3387 -10.3387 -10.3378 -10.3370 -10.3370 -10.3342 -10.3339 -10.3330
   -10.3330 -10.3320 -10.3298 -10.3273 -10.3104 -10.3066 -10.3066 -10.3060
   -10.3013 -10.3006 -10.3006 -10.2963 -10.2963 -10.2940 -10.2911 -10.2876
   -10.2695 -10.2695 -10.2681 -10.2666 -10.2666 -10.2640 -10.2625 -10.2621
   -10.2621 -10.2604 -10.2594 -10.2578  -6.7507  -6.6465  -6.5604  -6.4718
    -6.4222  -6.4221  -6.3638  -6.3284  -6.3284  -6.2587  -6.2242  -6.2242
    -5.9047  -5.9047  -5.8229  -5.8215  -5.8077  -5.8077  -5.7920  -5.7598
    -5.7598  -5.7317  -5.7102  -5.7102  -5.6716  -5.6350  -5.6286  -5.6273
    -5.6273  -5.6079  -5.5996  -5.5996  -5.5691  -5.5282  -5.5221  -5.5221
    -5.5204  -5.4964  -5.4676  -5.4325  -5.4283  -5.4283  -5.4224  -5.3634
    -5.3475  -5.3475  -5.3220  -5.2996  -0.5592  -0.5585  -0.5585  -0.4356
    -0.4356  -0.4249  -0.3936  -0.3732  -0.3186  -0.3186  -0.2991  -0.2788
     1.4336   1.4859   1.4859   1.4872   1.6256   1.6416   1.7731   1.7731
     1.7823   1.7902   1.8004   1.8004   1.9145   1.9962   1.9962   2.0773
     2.1553   2.2001   2.2107   2.2481   2.2481   2.3602   2.3934   2.3934
     2.3984   2.4487   2.5122   2.5122   2.5471   2.5908   2.5908   2.6079
     2.6429   2.7111   2.7616   2.7687   2.7687   2.7890   2.8094   2.8094
     2.8389   2.8745   2.9160   2.9160   2.9186   2.9816   3.0242   3.0243
     3.0679   3.1069   3.1069   3.1325   3.1708   3.1933   3.1933   3.1940
     3.2002   3.2322   3.2647   3.2647   3.2768   3.3183   3.3220   3.3220
     3.3239   3.3896   3.3896   3.4109   3.4458   3.4458   3.4695   3.4695
     3.4721   3.4734   3.4759   3.4771   3.5338   3.5365   3.5366   3.5913
     3.6109   3.6128   3.6128   3.6332   3.6423   3.6479   3.6594   3.6594
     3.6676   3.7111   3.7111   3.7121   3.8359   3.8359   3.8799   3.8886
     3.9044   3.9502   3.9502   3.9747   3.9821   4.0200   4.0479   4.0494
     4.0494   4.0658   4.1111   4.1111   4.1198   4.1333   4.1333   4.1476
     4.1909   4.2556   4.2672   4.2673   4.2893   4.2893   4.2942   4.3873
     4.3977   4.4382   4.4382   4.4679   4.5249   4.5249   4.5357   4.5963
     4.6110   4.6110   4.6221   4.7212   5.1511   5.1511   5.1548   5.1569
     5.1721   5.1762   5.1762   5.1836   5.1907   5.1980   5.2014   5.2080
     5.2080   5.2350   5.2350   5.2352   5.2548   5.2642   5.2659   5.2659
     5.2793   5.2982   5.3076   5.3132   5.3132   5.3289   5.3368   5.3368
     5.3585   5.3585   5.3601   5.3636   5.3802   5.3928   5.4072   5.4072
     5.4132   5.4320   5.4333   5.4452   5.4452   5.4928   5.5023   5.5023
     5.5094   5.5159   5.5538   5.5599   5.5748   5.5748   5.6027   5.6113
     5.6113   5.6190   5.6252   5.6252   5.6430   5.6703   5.6822   5.7147
     5.7147   5.7173   5.7342   5.7728   5.7732   5.7732   5.8026   5.8026
     5.8101   5.8586   5.8757   5.8757   5.8785   5.9148   5.9594   5.9594
     6.0349   6.0349   6.0351   6.0597   6.0792   6.0792   6.1732   6.2066
     6.2133   6.2133   6.2668   6.2668   6.2698   6.2773   6.2856   6.3493
     6.3493   6.3657   6.3722   6.4154   6.4249   6.4249   6.4273   6.4712
     6.4986   6.4986   6.5459   6.5594   6.5959   6.5959   6.6672   6.6672
     6.6771   6.7198   6.7366   6.7366   6.7475   6.8137   6.8137   6.8447
     6.8691   6.9284   6.9371   7.0523

          k = 0.0000 0.3849-0.2714 (115773 PWs)   bands (ev):

   -28.2754 -28.2754 -28.2754 -28.2754 -28.2754 -28.2753 -28.2753 -28.2753
   -28.2753 -28.2753 -28.2753 -28.2753 -14.9227 -14.9227 -14.9226 -14.9226
   -14.9226 -14.9225 -14.9225 -14.9224 -14.9224 -14.9223 -14.9223 -14.9223
   -14.9168 -14.9168 -14.9167 -14.9167 -14.9167 -14.9166 -14.9166 -14.9166
   -14.9166 -14.9165 -14.9165 -14.9165 -14.9047 -14.9046 -14.9046 -14.9046
   -14.9046 -14.9046 -14.9046 -14.9045 -14.9045 -14.9045 -14.9045 -14.9044
   -14.8644 -14.8644 -14.8644 -14.8644 -14.8644 -14.8644 -14.8644 -14.8644
   -14.8643 -14.8643 -14.8643 -14.8643 -14.8193 -14.8192 -14.8192 -14.8192
   -14.8192 -14.8192 -14.8192 -14.8192 -14.8192 -14.8192 -14.8192 -14.8192
   -10.3388 -10.3388 -10.3376 -10.3368 -10.3368 -10.3345 -10.3342 -10.3331
   -10.3331 -10.3315 -10.3297 -10.3275 -10.3101 -10.3080 -10.3052 -10.3051
   -10.3029 -10.3029 -10.2977 -10.2954 -10.2954 -10.2947 -10.2930 -10.2870
   -10.2690 -10.2690 -10.2686 -10.2673 -10.2673 -10.2629 -10.2621 -10.2620
   -10.2620 -10.2610 -10.2602 -10.2574  -6.7508  -6.6464  -6.5612  -6.4684
    -6.4189  -6.4189  -6.3634  -6.3401  -6.3401  -6.2654  -6.2104  -6.2104
    -5.9134  -5.9134  -5.8245  -5.8215  -5.8177  -5.8177  -5.7645  -5.7645
    -5.7532  -5.7334  -5.6822  -5.6822  -5.6818  -5.6632  -5.6416  -5.6416
    -5.6376  -5.6072  -5.5854  -5.5854  -5.5727  -5.5301  -5.5270  -5.5270
    -5.5163  -5.4860  -5.4652  -5.4394  -5.4370  -5.4370  -5.3991  -5.3702
    -5.3438  -5.3438  -5.3315  -5.2960  -0.5620  -0.5620  -0.5514  -0.4329
    -0.4286  -0.4286  -0.4109  -0.3605  -0.3218  -0.3218  -0.2901  -0.2833
     1.4051   1.4946   1.4946   1.5154   1.6124   1.7121   1.7121   1.7225
     1.7370   1.7729   1.8457   1.8457   1.9665   1.9858   2.0219   2.0219
     2.1294   2.1993   2.2094   2.2094   2.2854   2.3341   2.3967   2.4272
     2.4272   2.5184   2.5296   2.5296   2.5579   2.5583   2.5589   2.5589
     2.5996   2.6784   2.7645   2.7645   2.8245   2.8245   2.8254   2.8295
     2.8504   2.8528   2.8958   2.8958   2.9059   3.0083   3.0186   3.0186
     3.0767   3.0783   3.1185   3.1185   3.1339   3.1811   3.1811   3.1884
     3.2136   3.2462   3.2663   3.2855   3.2855   3.2952   3.3311   3.3311
     3.3756   3.3771   3.3791   3.3791   3.4475   3.4475   3.4501   3.4772
     3.4803   3.4803   3.5061   3.5194   3.5347   3.5347   3.5365   3.5582
     3.5868   3.5869   3.6108   3.6314   3.6402   3.6444   3.6836   3.6836
     3.6867   3.6960   3.7044   3.7044   3.8366   3.8366   3.8786   3.8802
     3.9419   3.9459   3.9459   3.9482   3.9720   4.0324   4.0541   4.0565
     4.0607   4.0607   4.1008   4.1008   4.1226   4.1226   4.1300   4.1333
     4.2238   4.2403   4.2691   4.2691   4.2914   4.2914   4.3136   4.3672
     4.3921   4.4348   4.4348   4.4809   4.5213   4.5448   4.5448   4.5857
     4.5964   4.5964   4.6313   4.7297   5.1481   5.1481   5.1535   5.1648
     5.1689   5.1689   5.1695   5.1729   5.1998   5.2049   5.2127   5.2187
     5.2188   5.2293   5.2414   5.2414   5.2606   5.2649   5.2649   5.2649
     5.2659   5.2734   5.3105   5.3105   5.3187   5.3341   5.3470   5.3470
     5.3601   5.3632   5.3632   5.3683   5.3696   5.3807   5.3890   5.3890
     5.4101   5.4333   5.4478   5.4518   5.4518   5.4692   5.4974   5.4974
     5.5170   5.5243   5.5563   5.5574   5.5690   5.5690   5.6024   5.6024
     5.6076   5.6204   5.6313   5.6503   5.6503   5.6609   5.6749   5.7091
     5.7091   5.7393   5.7604   5.7604   5.7707   5.7845   5.8055   5.8055
     5.8146   5.8398   5.8677   5.8677   5.8753   5.8948   5.9693   5.9693
     6.0193   6.0256   6.0256   6.1018   6.1018   6.1119   6.1597   6.1874
     6.2036   6.2036   6.2037   6.2630   6.2630   6.2875   6.3184   6.3423
     6.3550   6.3695   6.3695   6.4133   6.4199   6.4199   6.4523   6.4819
     6.4819   6.5071   6.5580   6.5665   6.6074   6.6074   6.6475   6.6673
     6.6673   6.7379   6.7379   6.7399   6.7485   6.8047   6.8047   6.8511
     6.8663   6.9183   6.9458   7.0388

          k = 0.0000-0.3849 0.0000 (115797 PWs)   bands (ev):

   -28.2754 -28.2754 -28.2754 -28.2754 -28.2753 -28.2753 -28.2753 -28.2753
   -28.2753 -28.2753 -28.2753 -28.2753 -14.9227 -14.9227 -14.9226 -14.9226
   -14.9226 -14.9225 -14.9225 -14.9224 -14.9224 -14.9223 -14.9223 -14.9223
   -14.9168 -14.9168 -14.9168 -14.9168 -14.9167 -14.9166 -14.9166 -14.9166
   -14.9166 -14.9165 -14.9165 -14.9165 -14.9047 -14.9046 -14.9046 -14.9046
   -14.9046 -14.9046 -14.9046 -14.9045 -14.9045 -14.9045 -14.9045 -14.9044
   -14.8644 -14.8644 -14.8644 -14.8644 -14.8644 -14.8644 -14.8644 -14.8644
   -14.8643 -14.8643 -14.8643 -14.8643 -14.8193 -14.8192 -14.8192 -14.8192
   -14.8192 -14.8192 -14.8192 -14.8192 -14.8192 -14.8192 -14.8192 -14.8192
   -10.3379 -10.3379 -10.3364 -10.3364 -10.3361 -10.3356 -10.3343 -10.3343
   -10.3325 -10.3324 -10.3319 -10.3265 -10.3072 -10.3072 -10.3062 -10.3042
   -10.3030 -10.3017 -10.3017 -10.3016 -10.2945 -10.2945 -10.2906 -10.2852
   -10.2694 -10.2694 -10.2690 -10.2666 -10.2665 -10.2637 -10.2627 -10.2624
   -10.2624 -10.2603 -10.2600 -10.2562  -6.7877  -6.5897  -6.4992  -6.4978
    -6.4379  -6.4379  -6.3654  -6.3487  -6.2846  -6.2846  -6.2480  -6.2480
    -5.9108  -5.9108  -5.8196  -5.8183  -5.8183  -5.7771  -5.7676  -5.7676
    -5.7317  -5.7239  -5.7225  -5.6899  -5.6899  -5.6474  -5.6378  -5.6378
    -5.6292  -5.5950  -5.5841  -5.5841  -5.5680  -5.5275  -5.5186  -5.5186
    -5.5162  -5.5043  -5.4622  -5.4513  -5.4363  -5.4363  -5.4220  -5.4149
    -5.3479  -5.3479  -5.3131  -5.2703  -0.5708  -0.5708  -0.5619  -0.4352
    -0.4037  -0.4037  -0.3770  -0.3376  -0.3376  -0.3371  -0.3124  -0.3031
     1.4188   1.4878   1.4878   1.5011   1.6400   1.6518   1.6884   1.7242
     1.7242   1.8282   1.8771   1.8771   1.9549   1.9560   1.9560   2.0277
     2.1157   2.2069   2.2300   2.2300   2.3390   2.3638   2.3866   2.3866
     2.3936   2.4087   2.4498   2.5380   2.5380   2.6132   2.6132   2.6170
     2.6575   2.7348   2.8134   2.8134   2.8220   2.8416   2.8416   2.8443
     2.8540   2.8848   2.9086   2.9086   2.9149   2.9626   2.9626   3.0043
     3.0504   3.0569   3.0570   3.1242   3.1483   3.1757   3.2045   3.2122
     3.2122   3.2342   3.2611   3.2611   3.2690   3.3238   3.3309   3.3309
     3.3388   3.3722   3.3954   3.3954   3.4338   3.4411   3.4411   3.4498
     3.4982   3.4982   3.5003   3.5111   3.5111   3.5139   3.5224   3.5430
     3.5616   3.6055   3.6055   3.6110   3.6349   3.6464   3.6799   3.6799
     3.6943   3.7033   3.7033   3.7085   3.7793   3.7793   3.8493   3.8598
     3.8962   3.9747   3.9747   3.9783   3.9804   4.0301   4.0390   4.0390
     4.0929   4.1117   4.1212   4.1212   4.1259   4.1630   4.1630   4.1777
     4.2482   4.2673   4.2673   4.2825   4.3030   4.3232   4.3232   4.3683
     4.3785   4.4170   4.4170   4.4836   4.5179   4.5281   4.5281   4.5288
     4.5913   4.5913   4.6267   4.7486   5.1442   5.1442   5.1471   5.1547
     5.1607   5.1607   5.1697   5.1747   5.2150   5.2197   5.2197   5.2219
     5.2280   5.2376   5.2492   5.2493   5.2501   5.2612   5.2678   5.2722
     5.2722   5.2893   5.3045   5.3046   5.3141   5.3189   5.3276   5.3276
     5.3369   5.3499   5.3529   5.3529   5.3574   5.3656   5.4141   5.4142
     5.4338   5.4512   5.4614   5.4614   5.4858   5.4935   5.5005   5.5005
     5.5027   5.5128   5.5278   5.5439   5.5569   5.5570   5.5613   5.6035
     5.6035   5.6307   5.6317   5.6317   5.6682   5.6784   5.6958   5.6964
     5.6964   5.7178   5.7297   5.7564   5.7756   5.7756   5.8089   5.8195
     5.8195   5.8639   5.8761   5.8761   5.9508   5.9516   5.9653   5.9653
     5.9905   6.0072   6.0072   6.0207   6.1394   6.1394   6.1450   6.1606
     6.2256   6.2300   6.2300   6.2514   6.2709   6.2896   6.2896   6.2993
     6.3620   6.3620   6.3775   6.3902   6.3902   6.4412   6.4865   6.4865
     6.5243   6.5383   6.5383   6.5758   6.6048   6.6511   6.6839   6.6929
     6.6929   6.7299   6.7378   6.7378   6.7627   6.7780   6.7930   6.8124
     6.8124   6.9044   6.9091   7.0808

          k = 0.0000-0.3849 0.2714 (115773 PWs)   bands (ev):

   -28.2754 -28.2754 -28.2754 -28.2754 -28.2754 -28.2753 -28.2753 -28.2753
   -28.2753 -28.2753 -28.2753 -28.2753 -14.9227 -14.9227 -14.9226 -14.9226
   -14.9226 -14.9225 -14.9225 -14.9224 -14.9224 -14.9223 -14.9223 -14.9223
   -14.9168 -14.9168 -14.9167 -14.9167 -14.9167 -14.9166 -14.9166 -14.9166
   -14.9166 -14.9165 -14.9165 -14.9165 -14.9047 -14.9046 -14.9046 -14.9046
   -14.9046 -14.9046 -14.9046 -14.9045 -14.9045 -14.9045 -14.9045 -14.9044
   -14.8644 -14.8644 -14.8644 -14.8644 -14.8644 -14.8644 -14.8644 -14.8644
   -14.8643 -14.8643 -14.8643 -14.8643 -14.8193 -14.8192 -14.8192 -14.8192
   -14.8192 -14.8192 -14.8192 -14.8192 -14.8192 -14.8192 -14.8192 -14.8192
   -10.3388 -10.3388 -10.3376 -10.3368 -10.3368 -10.3345 -10.3342 -10.3331
   -10.3331 -10.3315 -10.3297 -10.3275 -10.3101 -10.3080 -10.3052 -10.3051
   -10.3029 -10.3029 -10.2977 -10.2954 -10.2954 -10.2947 -10.2930 -10.2870
   -10.2690 -10.2690 -10.2686 -10.2673 -10.2673 -10.2629 -10.2621 -10.2620
   -10.2620 -10.2610 -10.2602 -10.2574  -6.7508  -6.6464  -6.5612  -6.4684
    -6.4189  -6.4189  -6.3634  -6.3401  -6.3401  -6.2654  -6.2104  -6.2104
    -5.9134  -5.9134  -5.8245  -5.8215  -5.8177  -5.8177  -5.7645  -5.7645
    -5.7532  -5.7334  -5.6822  -5.6822  -5.6818  -5.6632  -5.6416  -5.6416
    -5.6376  -5.6072  -5.5854  -5.5854  -5.5727  -5.5301  -5.5270  -5.5270
    -5.5163  -5.4860  -5.4652  -5.4394  -5.4370  -5.4370  -5.3991  -5.3702
    -5.3438  -5.3438  -5.3315  -5.2960  -0.5620  -0.5620  -0.5514  -0.4329
    -0.4286  -0.4286  -0.4109  -0.3605  -0.3218  -0.3218  -0.2901  -0.2833
     1.4051   1.4946   1.4946   1.5154   1.6124   1.7121   1.7121   1.7225
     1.7370   1.7729   1.8457   1.8457   1.9665   1.9858   2.0219   2.0219
     2.1294   2.1993   2.2094   2.2094   2.2854   2.3341   2.3967   2.4272
     2.4272   2.5184   2.5296   2.5296   2.5579   2.5583   2.5589   2.5589
     2.5996   2.6784   2.7645   2.7645   2.8245   2.8245   2.8254   2.8295
     2.8504   2.8528   2.8958   2.8958   2.9059   3.0083   3.0186   3.0186
     3.0767   3.0783   3.1185   3.1185   3.1339   3.1811   3.1811   3.1884
     3.2136   3.2462   3.2663   3.2855   3.2855   3.2952   3.3311   3.3311
     3.3756   3.3771   3.3791   3.3791   3.4475   3.4475   3.4501   3.4772
     3.4803   3.4803   3.5061   3.5194   3.5347   3.5347   3.5365   3.5582
     3.5868   3.5869   3.6108   3.6314   3.6402   3.6444   3.6836   3.6836
     3.6867   3.6960   3.7044   3.7044   3.8366   3.8366   3.8786   3.8802
     3.9419   3.9459   3.9459   3.9482   3.9720   4.0324   4.0541   4.0565
     4.0607   4.0607   4.1008   4.1008   4.1226   4.1226   4.1300   4.1333
     4.2238   4.2403   4.2691   4.2691   4.2914   4.2914   4.3136   4.3672
     4.3921   4.4348   4.4348   4.4809   4.5213   4.5448   4.5448   4.5857
     4.5964   4.5964   4.6313   4.7297   5.1481   5.1481   5.1535   5.1648
     5.1689   5.1689   5.1695   5.1729   5.1998   5.2049   5.2127   5.2187
     5.2188   5.2293   5.2414   5.2414   5.2606   5.2649   5.2649   5.2649
     5.2659   5.2734   5.3105   5.3105   5.3187   5.3341   5.3470   5.3470
     5.3601   5.3632   5.3632   5.3683   5.3696   5.3807   5.3890   5.3890
     5.4101   5.4333   5.4478   5.4518   5.4518   5.4692   5.4974   5.4974
     5.5170   5.5243   5.5563   5.5574   5.5690   5.5690   5.6024   5.6024
     5.6076   5.6204   5.6313   5.6503   5.6503   5.6609   5.6749   5.7091
     5.7091   5.7393   5.7604   5.7604   5.7707   5.7845   5.8055   5.8055
     5.8146   5.8398   5.8677   5.8677   5.8753   5.8948   5.9693   5.9693
     6.0193   6.0256   6.0256   6.1018   6.1018   6.1119   6.1597   6.1874
     6.2036   6.2036   6.2037   6.2630   6.2630   6.2875   6.3184   6.3423
     6.3550   6.3695   6.3695   6.4133   6.4199   6.4199   6.4523   6.4819
     6.4819   6.5071   6.5580   6.5665   6.6074   6.6074   6.6475   6.6673
     6.6673   6.7379   6.7379   6.7399   6.7485   6.8047   6.8047   6.8511
     6.8663   6.9183   6.9458   7.0388

          k = 0.0000-0.3849-0.2714 (115773 PWs)   bands (ev):

   -28.2754 -28.2754 -28.2754 -28.2754 -28.2754 -28.2753 -28.2753 -28.2753
   -28.2753 -28.2753 -28.2753 -28.2753 -14.9227 -14.9227 -14.9226 -14.9226
   -14.9226 -14.9225 -14.9225 -14.9224 -14.9224 -14.9223 -14.9223 -14.9223
   -14.9168 -14.9168 -14.9167 -14.9167 -14.9167 -14.9166 -14.9166 -14.9166
   -14.9166 -14.9165 -14.9165 -14.9165 -14.9047 -14.9046 -14.9046 -14.9046
   -14.9046 -14.9046 -14.9046 -14.9045 -14.9045 -14.9045 -14.9045 -14.9044
   -14.8644 -14.8644 -14.8644 -14.8644 -14.8644 -14.8644 -14.8644 -14.8644
   -14.8643 -14.8643 -14.8643 -14.8643 -14.8193 -14.8192 -14.8192 -14.8192
   -14.8192 -14.8192 -14.8192 -14.8192 -14.8192 -14.8192 -14.8192 -14.8192
   -10.3387 -10.3387 -10.3378 -10.3370 -10.3370 -10.3342 -10.3339 -10.3330
   -10.3330 -10.3320 -10.3298 -10.3273 -10.3104 -10.3066 -10.3066 -10.3060
   -10.3013 -10.3006 -10.3006 -10.2963 -10.2963 -10.2940 -10.2911 -10.2876
   -10.2695 -10.2695 -10.2681 -10.2666 -10.2666 -10.2640 -10.2625 -10.2621
   -10.2621 -10.2604 -10.2594 -10.2578  -6.7507  -6.6465  -6.5604  -6.4718
    -6.4222  -6.4221  -6.3638  -6.3284  -6.3284  -6.2587  -6.2242  -6.2242
    -5.9047  -5.9047  -5.8229  -5.8215  -5.8077  -5.8077  -5.7920  -5.7598
    -5.7598  -5.7317  -5.7102  -5.7102  -5.6716  -5.6350  -5.6286  -5.6273
    -5.6273  -5.6079  -5.5996  -5.5996  -5.5691  -5.5282  -5.5221  -5.5221
    -5.5204  -5.4964  -5.4676  -5.4325  -5.4283  -5.4283  -5.4224  -5.3634
    -5.3475  -5.3475  -5.3220  -5.2996  -0.5592  -0.5585  -0.5585  -0.4356
    -0.4356  -0.4249  -0.3936  -0.3732  -0.3186  -0.3186  -0.2991  -0.2788
     1.4336   1.4859   1.4859   1.4872   1.6256   1.6416   1.7731   1.7731
     1.7823   1.7902   1.8004   1.8004   1.9145   1.9962   1.9962   2.0773
     2.1553   2.2001   2.2107   2.2481   2.2481   2.3602   2.3934   2.3934
     2.3984   2.4487   2.5122   2.5122   2.5471   2.5908   2.5908   2.6079
     2.6429   2.7111   2.7616   2.7687   2.7687   2.7890   2.8094   2.8094
     2.8389   2.8745   2.9160   2.9160   2.9186   2.9816   3.0242   3.0243
     3.0679   3.1069   3.1069   3.1325   3.1708   3.1933   3.1933   3.1940
     3.2002   3.2322   3.2647   3.2647   3.2768   3.3183   3.3220   3.3220
     3.3239   3.3896   3.3896   3.4109   3.4458   3.4458   3.4695   3.4695
     3.4721   3.4734   3.4759   3.4771   3.5338   3.5365   3.5366   3.5913
     3.6109   3.6128   3.6128   3.6332   3.6423   3.6479   3.6594   3.6594
     3.6676   3.7111   3.7111   3.7121   3.8359   3.8359   3.8799   3.8886
     3.9044   3.9502   3.9502   3.9747   3.9821   4.0200   4.0479   4.0494
     4.0494   4.0658   4.1111   4.1111   4.1198   4.1333   4.1333   4.1476
     4.1909   4.2556   4.2672   4.2673   4.2893   4.2893   4.2942   4.3873
     4.3977   4.4382   4.4382   4.4679   4.5249   4.5249   4.5357   4.5963
     4.6110   4.6110   4.6221   4.7212   5.1511   5.1511   5.1548   5.1569
     5.1721   5.1762   5.1762   5.1836   5.1907   5.1980   5.2014   5.2080
     5.2080   5.2350   5.2350   5.2352   5.2548   5.2642   5.2659   5.2659
     5.2793   5.2982   5.3076   5.3132   5.3132   5.3289   5.3368   5.3368
     5.3585   5.3585   5.3601   5.3636   5.3802   5.3928   5.4072   5.4072
     5.4132   5.4320   5.4333   5.4452   5.4452   5.4928   5.5023   5.5023
     5.5094   5.5159   5.5538   5.5599   5.5748   5.5748   5.6027   5.6113
     5.6113   5.6190   5.6252   5.6252   5.6430   5.6703   5.6822   5.7147
     5.7147   5.7173   5.7342   5.7728   5.7732   5.7732   5.8026   5.8026
     5.8101   5.8586   5.8757   5.8757   5.8785   5.9148   5.9594   5.9594
     6.0349   6.0349   6.0351   6.0597   6.0792   6.0792   6.1732   6.2066
     6.2133   6.2133   6.2668   6.2668   6.2698   6.2773   6.2856   6.3493
     6.3493   6.3657   6.3722   6.4154   6.4249   6.4249   6.4273   6.4712
     6.4986   6.4986   6.5459   6.5594   6.5959   6.5959   6.6672   6.6672
     6.6771   6.7198   6.7366   6.7366   6.7475   6.8137   6.8137   6.8447
     6.8691   6.9284   6.9371   7.0523

          k = 0.3333 0.1925 0.0000 (115797 PWs)   bands (ev):

   -28.2754 -28.2754 -28.2754 -28.2754 -28.2754 -28.2753 -28.2753 -28.2753
   -28.2753 -28.2753 -28.2753 -28.2753 -14.9227 -14.9227 -14.9226 -14.9226
   -14.9226 -14.9225 -14.9225 -14.9224 -14.9224 -14.9223 -14.9223 -14.9223
   -14.9168 -14.9168 -14.9168 -14.9167 -14.9167 -14.9166 -14.9166 -14.9166
   -14.9166 -14.9165 -14.9165 -14.9165 -14.9047 -14.9046 -14.9046 -14.9046
   -14.9046 -14.9046 -14.9046 -14.9045 -14.9045 -14.9045 -14.9045 -14.9045
   -14.8644 -14.8644 -14.8644 -14.8644 -14.8644 -14.8644 -14.8644 -14.8644
   -14.8643 -14.8643 -14.8643 -14.8643 -14.8192 -14.8192 -14.8192 -14.8192
   -14.8192 -14.8192 -14.8192 -14.8192 -14.8192 -14.8192 -14.8191 -14.8191
   -10.3379 -10.3379 -10.3364 -10.3364 -10.3361 -10.3356 -10.3343 -10.3343
   -10.3325 -10.3324 -10.3319 -10.3265 -10.3072 -10.3072 -10.3062 -10.3042
   -10.3030 -10.3017 -10.3017 -10.3016 -10.2945 -10.2945 -10.2906 -10.2852
   -10.2694 -10.2694 -10.2690 -10.2666 -10.2665 -10.2636 -10.2627 -10.2624
   -10.2624 -10.2603 -10.2600 -10.2562  -6.7877  -6.5897  -6.4992  -6.4978
    -6.4379  -6.4379  -6.3654  -6.3487  -6.2846  -6.2846  -6.2480  -6.2480
    -5.9108  -5.9108  -5.8196  -5.8183  -5.8183  -5.7771  -5.7676  -5.7676
    -5.7317  -5.7239  -5.7225  -5.6899  -5.6899  -5.6474  -5.6378  -5.6378
    -5.6292  -5.5950  -5.5841  -5.5841  -5.5680  -5.5275  -5.5186  -5.5186
    -5.5162  -5.5043  -5.4623  -5.4513  -5.4363  -5.4363  -5.4220  -5.4149
    -5.3479  -5.3479  -5.3131  -5.2703  -0.5708  -0.5708  -0.5619  -0.4352
    -0.4037  -0.4037  -0.3770  -0.3376  -0.3376  -0.3371  -0.3124  -0.3031
     1.4188   1.4878   1.4878   1.5011   1.6400   1.6518   1.6884   1.7242
     1.7242   1.8282   1.8771   1.8771   1.9549   1.9560   1.9560   2.0277
     2.1157   2.2069   2.2300   2.2300   2.3390   2.3638   2.3866   2.3866
     2.3936   2.4087   2.4498   2.5380   2.5380   2.6132   2.6132   2.6171
     2.6575   2.7348   2.8134   2.8134   2.8220   2.8416   2.8416   2.8443
     2.8540   2.8848   2.9086   2.9086   2.9149   2.9625   2.9626   3.0043
     3.0504   3.0569   3.0570   3.1242   3.1483   3.1757   3.2045   3.2122
     3.2122   3.2342   3.2611   3.2611   3.2690   3.3238   3.3309   3.3309
     3.3388   3.3722   3.3954   3.3954   3.4338   3.4411   3.4411   3.4498
     3.4982   3.4982   3.5003   3.5111   3.5111   3.5139   3.5224   3.5430
     3.5616   3.6055   3.6055   3.6110   3.6349   3.6464   3.6799   3.6799
     3.6943   3.7033   3.7033   3.7085   3.7793   3.7793   3.8493   3.8598
     3.8962   3.9747   3.9747   3.9783   3.9804   4.0301   4.0390   4.0390
     4.0929   4.1117   4.1212   4.1212   4.1259   4.1630   4.1630   4.1777
     4.2482   4.2673   4.2673   4.2825   4.3030   4.3232   4.3232   4.3683
     4.3785   4.4170   4.4170   4.4836   4.5179   4.5281   4.5281   4.5288
     4.5913   4.5913   4.6267   4.7486   5.1442   5.1442   5.1471   5.1547
     5.1607   5.1607   5.1697   5.1747   5.2150   5.2197   5.2197   5.2219
     5.2280   5.2376   5.2492   5.2493   5.2501   5.2612   5.2678   5.2722
     5.2722   5.2893   5.3046   5.3046   5.3141   5.3189   5.3276   5.3276
     5.3369   5.3499   5.3529   5.3529   5.3574   5.3656   5.4141   5.4141
     5.4338   5.4512   5.4614   5.4614   5.4858   5.4935   5.5005   5.5005
     5.5027   5.5128   5.5278   5.5439   5.5570   5.5570   5.5613   5.6035
     5.6035   5.6307   5.6317   5.6317   5.6682   5.6784   5.6958   5.6964
     5.6964   5.7178   5.7297   5.7564   5.7756   5.7756   5.8089   5.8195
     5.8195   5.8639   5.8761   5.8761   5.9508   5.9516   5.9653   5.9653
     5.9905   6.0072   6.0072   6.0207   6.1394   6.1394   6.1450   6.1606
     6.2256   6.2300   6.2300   6.2514   6.2709   6.2896   6.2896   6.2993
     6.3620   6.3620   6.3775   6.3902   6.3902   6.4412   6.4865   6.4865
     6.5243   6.5383   6.5383   6.5758   6.6048   6.6511   6.6839   6.6929
     6.6929   6.7299   6.7378   6.7378   6.7627   6.7780   6.7930   6.8124
     6.8124   6.9044   6.9091   7.0808

          k = 0.3333 0.1925 0.2714 (115773 PWs)   bands (ev):

   -28.2754 -28.2754 -28.2754 -28.2754 -28.2754 -28.2753 -28.2753 -28.2753
   -28.2753 -28.2753 -28.2753 -28.2753 -14.9227 -14.9227 -14.9226 -14.9226
   -14.9226 -14.9225 -14.9225 -14.9224 -14.9224 -14.9223 -14.9223 -14.9223
   -14.9168 -14.9168 -14.9167 -14.9167 -14.9167 -14.9166 -14.9166 -14.9166
   -14.9166 -14.9165 -14.9165 -14.9165 -14.9047 -14.9046 -14.9046 -14.9046
   -14.9046 -14.9046 -14.9046 -14.9045 -14.9045 -14.9045 -14.9045 -14.9045
   -14.8644 -14.8644 -14.8644 -14.8644 -14.8644 -14.8644 -14.8644 -14.8644
   -14.8643 -14.8643 -14.8643 -14.8643 -14.8192 -14.8192 -14.8192 -14.8192
   -14.8192 -14.8192 -14.8192 -14.8192 -14.8192 -14.8192 -14.8191 -14.8191
   -10.3388 -10.3388 -10.3376 -10.3368 -10.3368 -10.3345 -10.3342 -10.3331
   -10.3331 -10.3315 -10.3297 -10.3275 -10.3101 -10.3080 -10.3052 -10.3051
   -10.3029 -10.3029 -10.2977 -10.2954 -10.2954 -10.2947 -10.2930 -10.2870
   -10.2690 -10.2690 -10.2686 -10.2673 -10.2673 -10.2629 -10.2621 -10.2620
   -10.2620 -10.2610 -10.2602 -10.2574  -6.7508  -6.6464  -6.5612  -6.4684
    -6.4189  -6.4189  -6.3634  -6.3401  -6.3401  -6.2654  -6.2104  -6.2104
    -5.9134  -5.9134  -5.8245  -5.8215  -5.8177  -5.8177  -5.7645  -5.7645
    -5.7532  -5.7334  -5.6822  -5.6822  -5.6818  -5.6632  -5.6416  -5.6416
    -5.6376  -5.6072  -5.5854  -5.5854  -5.5727  -5.5301  -5.5270  -5.5270
    -5.5163  -5.4860  -5.4652  -5.4394  -5.4370  -5.4370  -5.3991  -5.3702
    -5.3438  -5.3438  -5.3315  -5.2960  -0.5620  -0.5620  -0.5514  -0.4329
    -0.4286  -0.4286  -0.4109  -0.3605  -0.3218  -0.3218  -0.2901  -0.2833
     1.4051   1.4946   1.4946   1.5154   1.6124   1.7121   1.7121   1.7225
     1.7370   1.7729   1.8457   1.8457   1.9665   1.9858   2.0219   2.0219
     2.1294   2.1993   2.2094   2.2094   2.2854   2.3341   2.3967   2.4272
     2.4272   2.5184   2.5296   2.5296   2.5579   2.5583   2.5589   2.5589
     2.5996   2.6784   2.7645   2.7645   2.8245   2.8245   2.8254   2.8295
     2.8504   2.8528   2.8958   2.8958   2.9059   3.0083   3.0186   3.0186
     3.0767   3.0783   3.1185   3.1186   3.1339   3.1811   3.1811   3.1884
     3.2136   3.2462   3.2663   3.2855   3.2855   3.2952   3.3311   3.3311
     3.3756   3.3771   3.3791   3.3791   3.4475   3.4475   3.4501   3.4772
     3.4803   3.4803   3.5061   3.5194   3.5347   3.5347   3.5365   3.5582
     3.5868   3.5868   3.6108   3.6314   3.6402   3.6444   3.6836   3.6836
     3.6867   3.6960   3.7044   3.7044   3.8366   3.8366   3.8786   3.8802
     3.9420   3.9459   3.9459   3.9482   3.9720   4.0324   4.0541   4.0565
     4.0607   4.0607   4.1008   4.1008   4.1226   4.1226   4.1300   4.1333
     4.2238   4.2403   4.2691   4.2691   4.2914   4.2914   4.3136   4.3672
     4.3921   4.4348   4.4348   4.4809   4.5213   4.5448   4.5448   4.5857
     4.5964   4.5964   4.6313   4.7297   5.1481   5.1481   5.1535   5.1648
     5.1689   5.1689   5.1694   5.1729   5.1998   5.2050   5.2127   5.2187
     5.2187   5.2293   5.2414   5.2414   5.2606   5.2649   5.2649   5.2649
     5.2659   5.2734   5.3105   5.3105   5.3187   5.3341   5.3470   5.3470
     5.3601   5.3632   5.3632   5.3683   5.3696   5.3807   5.3890   5.3890
     5.4101   5.4333   5.4478   5.4518   5.4518   5.4692   5.4974   5.4974
     5.5170   5.5243   5.5563   5.5574   5.5690   5.5690   5.6024   5.6024
     5.6076   5.6204   5.6313   5.6503   5.6503   5.6609   5.6749   5.7091
     5.7091   5.7393   5.7604   5.7604   5.7707   5.7845   5.8055   5.8055
     5.8146   5.8398   5.8677   5.8677   5.8753   5.8948   5.9693   5.9693
     6.0193   6.0256   6.0256   6.1018   6.1018   6.1119   6.1597   6.1874
     6.2036   6.2036   6.2037   6.2630   6.2630   6.2875   6.3184   6.3423
     6.3550   6.3695   6.3695   6.4133   6.4199   6.4199   6.4523   6.4819
     6.4819   6.5071   6.5580   6.5665   6.6074   6.6074   6.6475   6.6673
     6.6673   6.7379   6.7379   6.7399   6.7485   6.8047   6.8047   6.8511
     6.8663   6.9183   6.9458   7.0388

          k = 0.3333 0.1925-0.2714 (115773 PWs)   bands (ev):

   -28.2754 -28.2754 -28.2754 -28.2754 -28.2754 -28.2753 -28.2753 -28.2753
   -28.2753 -28.2753 -28.2753 -28.2753 -14.9227 -14.9227 -14.9226 -14.9226
   -14.9226 -14.9225 -14.9225 -14.9224 -14.9224 -14.9223 -14.9223 -14.9223
   -14.9168 -14.9168 -14.9167 -14.9167 -14.9167 -14.9166 -14.9166 -14.9166
   -14.9166 -14.9165 -14.9165 -14.9165 -14.9047 -14.9046 -14.9046 -14.9046
   -14.9046 -14.9046 -14.9046 -14.9045 -14.9045 -14.9045 -14.9045 -14.9045
   -14.8644 -14.8644 -14.8644 -14.8644 -14.8644 -14.8644 -14.8644 -14.8644
   -14.8643 -14.8643 -14.8643 -14.8643 -14.8192 -14.8192 -14.8192 -14.8192
   -14.8192 -14.8192 -14.8192 -14.8192 -14.8192 -14.8192 -14.8191 -14.8191
   -10.3387 -10.3387 -10.3378 -10.3370 -10.3370 -10.3342 -10.3339 -10.3330
   -10.3330 -10.3320 -10.3298 -10.3273 -10.3104 -10.3066 -10.3066 -10.3060
   -10.3013 -10.3006 -10.3006 -10.2963 -10.2963 -10.2940 -10.2911 -10.2876
   -10.2695 -10.2695 -10.2681 -10.2666 -10.2666 -10.2640 -10.2625 -10.2621
   -10.2621 -10.2604 -10.2594 -10.2578  -6.7507  -6.6465  -6.5604  -6.4718
    -6.4222  -6.4221  -6.3638  -6.3284  -6.3284  -6.2587  -6.2242  -6.2242
    -5.9047  -5.9047  -5.8228  -5.8215  -5.8077  -5.8077  -5.7920  -5.7598
    -5.7598  -5.7317  -5.7102  -5.7101  -5.6716  -5.6350  -5.6286  -5.6273
    -5.6273  -5.6079  -5.5996  -5.5996  -5.5691  -5.5282  -5.5221  -5.5221
    -5.5204  -5.4964  -5.4676  -5.4325  -5.4283  -5.4283  -5.4224  -5.3634
    -5.3475  -5.3475  -5.3220  -5.2996  -0.5592  -0.5585  -0.5585  -0.4356
    -0.4356  -0.4249  -0.3936  -0.3732  -0.3186  -0.3186  -0.2991  -0.2788
     1.4336   1.4859   1.4859   1.4872   1.6256   1.6416   1.7731   1.7731
     1.7823   1.7902   1.8004   1.8004   1.9145   1.9962   1.9962   2.0773
     2.1553   2.2001   2.2107   2.2481   2.2481   2.3602   2.3934   2.3935
     2.3984   2.4487   2.5122   2.5122   2.5471   2.5908   2.5908   2.6079
     2.6429   2.7111   2.7616   2.7687   2.7687   2.7890   2.8094   2.8094
     2.8389   2.8745   2.9160   2.9160   2.9186   2.9816   3.0242   3.0242
     3.0679   3.1069   3.1069   3.1325   3.1708   3.1933   3.1933   3.1940
     3.2002   3.2322   3.2647   3.2647   3.2768   3.3183   3.3220   3.3220
     3.3239   3.3896   3.3896   3.4109   3.4458   3.4458   3.4695   3.4695
     3.4721   3.4734   3.4759   3.4771   3.5338   3.5366   3.5366   3.5913
     3.6109   3.6128   3.6128   3.6332   3.6423   3.6479   3.6594   3.6594
     3.6675   3.7111   3.7111   3.7121   3.8359   3.8359   3.8799   3.8886
     3.9044   3.9502   3.9502   3.9747   3.9821   4.0200   4.0479   4.0494
     4.0494   4.0658   4.1111   4.1111   4.1198   4.1333   4.1333   4.1476
     4.1909   4.2556   4.2672   4.2673   4.2893   4.2893   4.2942   4.3873
     4.3977   4.4382   4.4382   4.4679   4.5249   4.5249   4.5357   4.5963
     4.6110   4.6110   4.6221   4.7212   5.1511   5.1511   5.1548   5.1569
     5.1721   5.1762   5.1762   5.1836   5.1907   5.1980   5.2014   5.2080
     5.2080   5.2350   5.2350   5.2352   5.2548   5.2642   5.2659   5.2659
     5.2793   5.2982   5.3076   5.3132   5.3132   5.3289   5.3368   5.3368
     5.3585   5.3585   5.3601   5.3636   5.3802   5.3928   5.4072   5.4072
     5.4132   5.4320   5.4333   5.4452   5.4452   5.4928   5.5023   5.5023
     5.5094   5.5159   5.5538   5.5599   5.5748   5.5748   5.6027   5.6113
     5.6113   5.6190   5.6252   5.6252   5.6430   5.6703   5.6822   5.7147
     5.7147   5.7173   5.7342   5.7728   5.7732   5.7732   5.8026   5.8026
     5.8101   5.8586   5.8757   5.8757   5.8785   5.9148   5.9594   5.9594
     6.0349   6.0349   6.0351   6.0597   6.0792   6.0792   6.1732   6.2066
     6.2133   6.2133   6.2668   6.2668   6.2698   6.2773   6.2856   6.3493
     6.3493   6.3657   6.3722   6.4154   6.4249   6.4249   6.4273   6.4712
     6.4986   6.4986   6.5459   6.5594   6.5959   6.5959   6.6672   6.6672
     6.6771   6.7198   6.7366   6.7366   6.7475   6.8137   6.8137   6.8447
     6.8691   6.9284   6.9371   7.0523

          k = 0.3333 0.5774 0.0000 (115752 PWs)   bands (ev):

   -28.2754 -28.2754 -28.2754 -28.2754 -28.2753 -28.2753 -28.2753 -28.2753
   -28.2753 -28.2753 -28.2753 -28.2753 -14.9226 -14.9226 -14.9226 -14.9225
   -14.9225 -14.9225 -14.9225 -14.9225 -14.9225 -14.9224 -14.9224 -14.9223
   -14.9168 -14.9168 -14.9168 -14.9167 -14.9166 -14.9166 -14.9166 -14.9166
   -14.9165 -14.9165 -14.9165 -14.9165 -14.9046 -14.9046 -14.9046 -14.9046
   -14.9046 -14.9046 -14.9045 -14.9045 -14.9045 -14.9045 -14.9045 -14.9045
   -14.8644 -14.8644 -14.8644 -14.8644 -14.8644 -14.8644 -14.8644 -14.8644
   -14.8644 -14.8643 -14.8643 -14.8643 -14.8192 -14.8192 -14.8192 -14.8192
   -14.8192 -14.8192 -14.8192 -14.8192 -14.8192 -14.8192 -14.8192 -14.8192
   -10.3387 -10.3356 -10.3356 -10.3350 -10.3350 -10.3350 -10.3349 -10.3349
   -10.3349 -10.3302 -10.3302 -10.3302 -10.3072 -10.3048 -10.3048 -10.3048
   -10.3021 -10.3021 -10.3021 -10.3000 -10.3000 -10.2899 -10.2899 -10.2899
   -10.2695 -10.2671 -10.2671 -10.2670 -10.2659 -10.2658 -10.2641 -10.2641
   -10.2641 -10.2588 -10.2588 -10.2588  -6.6501  -6.6501  -6.6501  -6.3985
    -6.3985  -6.3985  -6.3985  -6.3985  -6.3985  -6.2922  -6.2922  -6.1926
    -5.8650  -5.8507  -5.8507  -5.7484  -5.7484  -5.7484  -5.7317  -5.7317
    -5.7317  -5.7077  -5.7077  -5.6940  -5.6940  -5.6940  -5.6845  -5.6845
    -5.6845  -5.6449  -5.5408  -5.5408  -5.5408  -5.5290  -5.5290  -5.5289
    -5.5118  -5.4714  -5.4714  -5.4714  -5.4663  -5.4662  -5.4662  -5.3967
    -5.3966  -5.3015  -5.3015  -5.3015  -0.5440  -0.5141  -0.5141  -0.5141
    -0.3958  -0.3958  -0.3900  -0.3900  -0.3900  -0.3095  -0.3095  -0.3095
     1.4845   1.4845   1.4845   1.6755   1.6755   1.6755   1.6866   1.6866
     1.6866   1.7343   1.7343   1.7995   2.0818   2.0818   2.0827   2.0827
     2.0827   2.1446   2.1446   2.1446   2.2554   2.3973   2.3973   2.3973
     2.4947   2.4947   2.4947   2.5638   2.5638   2.5638   2.5975   2.5975
     2.7746   2.7746   2.7746   2.8373   2.8373   2.8445   2.8445   2.8445
     2.8496   2.8530   2.8530   2.8530   2.8683   3.0105   3.0105   3.0105
     3.0257   3.0257   3.0257   3.0622   3.1344   3.1344   3.1344   3.1975
     3.1975   3.1975   3.2599   3.2599   3.2599   3.2711   3.2711   3.3617
     3.3704   3.3724   3.3725   3.3725   3.4257   3.4257   3.4257   3.4873
     3.4873   3.5029   3.5029   3.5029   3.5301   3.5301   3.5301   3.5478
     3.5478   3.5801   3.5801   3.5801   3.6508   3.6508   3.6508   3.7210
     3.7210   3.7210   3.7284   3.7284   3.7565   3.8018   3.8018   3.8018
     3.9596   3.9596   3.9597   3.9871   3.9871   4.0304   4.0304   4.0304
     4.0849   4.0849   4.0849   4.1408   4.1514   4.1514   4.1514   4.2851
     4.2851   4.2940   4.3196   4.3196   4.3196   4.3212   4.3212   4.3212
     4.3866   4.3866   4.3866   4.4964   4.5152   4.5152   4.5209   4.5209
     4.5209   4.6550   4.6550   4.6550   5.1379   5.1444   5.1444   5.1444
     5.1736   5.1736   5.1885   5.1885   5.1885   5.1970   5.1970   5.1970
     5.2475   5.2475   5.2475   5.2662   5.2662   5.2662   5.2988   5.2988
     5.2988   5.3011   5.3030   5.3030   5.3140   5.3192   5.3192   5.3192
     5.3406   5.3406   5.3406   5.4033   5.4033   5.4033   5.4083   5.4083
     5.4558   5.4558   5.4558   5.4579   5.4839   5.4839   5.4839   5.4887
     5.4887   5.5358   5.5358   5.5358   5.5648   5.5648   5.5648   5.5712
     5.5712   5.5712   5.6413   5.6725   5.6725   5.6952   5.6952   5.6952
     5.7075   5.7075   5.7075   5.7807   5.7807   5.7807   5.7998   5.7998
     5.7998   5.8244   5.8244   5.8443   5.9312   5.9312   5.9312   6.0472
     6.0472   6.0472   6.0484   6.0484   6.1389   6.1389   6.1389   6.1585
     6.2194   6.2194   6.2194   6.2604   6.2604   6.2604   6.2843   6.2843
     6.3750   6.4108   6.4108   6.4108   6.4170   6.4170   6.4231   6.4524
     6.4524   6.4524   6.6155   6.6155   6.6155   6.6767   6.6767   6.6767
     6.7255   6.7411   6.7411   6.8067   6.8067   6.8067   6.8106   6.8106
     6.8106   6.9394   6.9395   6.9395

          k = 0.3333 0.5774 0.2714 (115827 PWs)   bands (ev):

   -28.2754 -28.2754 -28.2754 -28.2754 -28.2754 -28.2754 -28.2753 -28.2753
   -28.2753 -28.2753 -28.2753 -28.2753 -14.9226 -14.9226 -14.9226 -14.9225
   -14.9225 -14.9225 -14.9225 -14.9225 -14.9225 -14.9224 -14.9223 -14.9223
   -14.9168 -14.9168 -14.9168 -14.9167 -14.9166 -14.9166 -14.9166 -14.9166
   -14.9166 -14.9166 -14.9166 -14.9165 -14.9046 -14.9046 -14.9046 -14.9046
   -14.9046 -14.9046 -14.9045 -14.9045 -14.9045 -14.9045 -14.9045 -14.9045
   -14.8644 -14.8644 -14.8644 -14.8644 -14.8644 -14.8644 -14.8644 -14.8644
   -14.8644 -14.8643 -14.8643 -14.8643 -14.8192 -14.8192 -14.8192 -14.8192
   -14.8192 -14.8192 -14.8192 -14.8192 -14.8192 -14.8192 -14.8192 -14.8192
   -10.3388 -10.3379 -10.3367 -10.3367 -10.3367 -10.3333 -10.3331 -10.3331
   -10.3331 -10.3303 -10.3303 -10.3303 -10.3077 -10.3077 -10.3077 -10.3049
   -10.3011 -10.3009 -10.2974 -10.2973 -10.2973 -10.2917 -10.2917 -10.2917
   -10.2696 -10.2687 -10.2665 -10.2665 -10.2665 -10.2639 -10.2639 -10.2639
   -10.2631 -10.2596 -10.2596 -10.2596  -6.6179  -6.6179  -6.6179  -6.5245
    -6.5245  -6.5245  -6.3080  -6.2889  -6.2889  -6.2889  -6.2575  -6.2143
    -5.8746  -5.8576  -5.8448  -5.7792  -5.7792  -5.7792  -5.7417  -5.7417
    -5.7417  -5.7151  -5.6876  -5.6876  -5.6876  -5.6724  -5.6714  -5.6714
    -5.6714  -5.6433  -5.5560  -5.5560  -5.5560  -5.5244  -5.5244  -5.5244
    -5.5047  -5.5027  -5.5027  -5.5027  -5.4586  -5.3976  -5.3976  -5.3976
    -5.3578  -5.3224  -5.3224  -5.3224  -0.5201  -0.5052  -0.5052  -0.5052
    -0.4608  -0.4167  -0.4167  -0.4167  -0.3549  -0.2925  -0.2925  -0.2925
     1.4826   1.4826   1.4826   1.6387   1.6387   1.6387   1.6902   1.7759
     1.7766   1.7766   1.7766   1.7937   1.9817   1.9817   1.9817   2.0553
     2.1707   2.1933   2.1933   2.1933   2.2474   2.3976   2.3976   2.3976
     2.4893   2.4893   2.4893   2.5572   2.5882   2.5882   2.5882   2.5924
     2.6790   2.7373   2.7373   2.7373   2.8234   2.8234   2.8234   2.8276
     2.9028   2.9028   2.9028   2.9243   2.9366   2.9557   2.9557   2.9557
     3.0604   3.0604   3.0605   3.0887   3.0887   3.0887   3.1268   3.1810
     3.2450   3.2450   3.2450   3.2713   3.2713   3.2713   3.3216   3.3279
     3.3279   3.3279   3.3741   3.4074   3.4208   3.4658   3.4658   3.4658
     3.4929   3.4996   3.4996   3.4996   3.5374   3.5374   3.5374   3.5400
     3.5612   3.6165   3.6165   3.6165   3.6551   3.6551   3.6551   3.6981
     3.6981   3.6982   3.7199   3.7440   3.8216   3.8415   3.8415   3.8415
     3.9384   3.9411   3.9411   3.9411   4.0302   4.0302   4.0302   4.0402
     4.0681   4.0681   4.0681   4.1089   4.1144   4.1144   4.1144   4.1682
     4.2736   4.2736   4.2736   4.2898   4.3148   4.3618   4.3618   4.3618
     4.4172   4.4172   4.4172   4.4936   4.4936   4.4936   4.5075   4.5117
     4.5646   4.6676   4.6676   4.6676   5.1492   5.1576   5.1577   5.1577
     5.1577   5.1831   5.1831   5.1831   5.1984   5.1984   5.1984   5.2111
     5.2253   5.2253   5.2253   5.2525   5.2525   5.2525   5.2568   5.2687
     5.3021   5.3021   5.3021   5.3094   5.3295   5.3295   5.3295   5.3685
     5.3685   5.3685   5.3748   5.3940   5.3954   5.4094   5.4094   5.4094
     5.4334   5.4334   5.4334   5.4386   5.4850   5.4850   5.4850   5.4912
     5.5396   5.5396   5.5396   5.5437   5.5667   5.5667   5.5667   5.6061
     5.6061   5.6061   5.6384   5.6391   5.6728   5.6728   5.6728   5.7040
     5.7040   5.7040   5.7175   5.7597   5.7597   5.7597   5.8016   5.8080
     5.8210   5.8244   5.8244   5.8244   5.8909   5.8909   5.8909   6.0572
     6.0608   6.0608   6.0608   6.0773   6.1206   6.1206   6.1206   6.1351
     6.1957   6.2384   6.2384   6.2384   6.2843   6.3026   6.3026   6.3026
     6.3065   6.3858   6.3858   6.3858   6.4503   6.4682   6.4682   6.4682
     6.4920   6.4926   6.5598   6.5598   6.5598   6.6459   6.6856   6.6856
     6.6856   6.7608   6.7785   6.7785   6.7786   6.7929   6.8551   6.8551
     6.8551   6.9363   6.9363   6.9363

          k = 0.3333 0.5774-0.2714 (115827 PWs)   bands (ev):

   -28.2754 -28.2754 -28.2754 -28.2754 -28.2754 -28.2754 -28.2753 -28.2753
   -28.2753 -28.2753 -28.2753 -28.2753 -14.9226 -14.9226 -14.9226 -14.9225
   -14.9225 -14.9225 -14.9225 -14.9225 -14.9225 -14.9224 -14.9223 -14.9223
   -14.9168 -14.9168 -14.9168 -14.9167 -14.9166 -14.9166 -14.9166 -14.9166
   -14.9166 -14.9166 -14.9166 -14.9165 -14.9046 -14.9046 -14.9046 -14.9046
   -14.9046 -14.9046 -14.9045 -14.9045 -14.9045 -14.9045 -14.9045 -14.9045
   -14.8644 -14.8644 -14.8644 -14.8644 -14.8644 -14.8644 -14.8644 -14.8644
   -14.8644 -14.8643 -14.8643 -14.8643 -14.8192 -14.8192 -14.8192 -14.8192
   -14.8192 -14.8192 -14.8192 -14.8192 -14.8192 -14.8192 -14.8192 -14.8192
   -10.3388 -10.3379 -10.3367 -10.3367 -10.3367 -10.3333 -10.3331 -10.3331
   -10.3331 -10.3303 -10.3303 -10.3303 -10.3077 -10.3077 -10.3077 -10.3049
   -10.3011 -10.3009 -10.2974 -10.2974 -10.2973 -10.2917 -10.2917 -10.2917
   -10.2696 -10.2687 -10.2665 -10.2665 -10.2665 -10.2639 -10.2639 -10.2639
   -10.2631 -10.2596 -10.2596 -10.2596  -6.6179  -6.6179  -6.6179  -6.5245
    -6.5245  -6.5245  -6.3080  -6.2889  -6.2889  -6.2889  -6.2575  -6.2143
    -5.8746  -5.8576  -5.8448  -5.7792  -5.7792  -5.7792  -5.7417  -5.7417
    -5.7417  -5.7151  -5.6876  -5.6876  -5.6876  -5.6724  -5.6714  -5.6714
    -5.6714  -5.6433  -5.5560  -5.5560  -5.5560  -5.5244  -5.5244  -5.5244
    -5.5047  -5.5027  -5.5027  -5.5027  -5.4586  -5.3976  -5.3976  -5.3976
    -5.3578  -5.3224  -5.3224  -5.3224  -0.5201  -0.5052  -0.5052  -0.5052
    -0.4608  -0.4167  -0.4167  -0.4167  -0.3549  -0.2925  -0.2925  -0.2925
     1.4826   1.4826   1.4826   1.6387   1.6387   1.6387   1.6902   1.7759
     1.7766   1.7766   1.7766   1.7937   1.9817   1.9817   1.9817   2.0553
     2.1707   2.1933   2.1933   2.1933   2.2474   2.3976   2.3976   2.3976
     2.4893   2.4893   2.4893   2.5572   2.5882   2.5882   2.5882   2.5924
     2.6790   2.7373   2.7373   2.7373   2.8234   2.8234   2.8234   2.8276
     2.9028   2.9028   2.9028   2.9243   2.9366   2.9557   2.9557   2.9557
     3.0604   3.0604   3.0605   3.0887   3.0887   3.0887   3.1268   3.1810
     3.2450   3.2450   3.2450   3.2713   3.2713   3.2713   3.3216   3.3279
     3.3279   3.3279   3.3741   3.4074   3.4208   3.4658   3.4658   3.4658
     3.4929   3.4996   3.4996   3.4996   3.5374   3.5374   3.5374   3.5400
     3.5612   3.6165   3.6165   3.6165   3.6551   3.6551   3.6551   3.6981
     3.6981   3.6982   3.7199   3.7440   3.8216   3.8415   3.8415   3.8415
     3.9384   3.9411   3.9411   3.9411   4.0302   4.0302   4.0302   4.0402
     4.0681   4.0681   4.0681   4.1089   4.1144   4.1144   4.1144   4.1682
     4.2736   4.2736   4.2736   4.2898   4.3148   4.3618   4.3618   4.3618
     4.4172   4.4172   4.4172   4.4936   4.4936   4.4936   4.5075   4.5117
     4.5646   4.6676   4.6676   4.6676   5.1492   5.1576   5.1577   5.1577
     5.1577   5.1831   5.1831   5.1831   5.1984   5.1984   5.1984   5.2111
     5.2253   5.2253   5.2253   5.2525   5.2525   5.2525   5.2568   5.2687
     5.3021   5.3021   5.3021   5.3094   5.3295   5.3295   5.3295   5.3685
     5.3685   5.3685   5.3748   5.3940   5.3954   5.4094   5.4094   5.4094
     5.4334   5.4334   5.4334   5.4386   5.4850   5.4850   5.4850   5.4912
     5.5396   5.5396   5.5396   5.5437   5.5667   5.5667   5.5667   5.6061
     5.6061   5.6061   5.6384   5.6391   5.6728   5.6728   5.6728   5.7040
     5.7040   5.7040   5.7175   5.7597   5.7597   5.7597   5.8016   5.8080
     5.8210   5.8244   5.8244   5.8244   5.8909   5.8909   5.8909   6.0572
     6.0608   6.0608   6.0608   6.0773   6.1206   6.1206   6.1206   6.1351
     6.1957   6.2384   6.2384   6.2384   6.2843   6.3026   6.3026   6.3026
     6.3065   6.3858   6.3858   6.3858   6.4503   6.4682   6.4682   6.4682
     6.4920   6.4926   6.5598   6.5598   6.5598   6.6459   6.6856   6.6856
     6.6856   6.7608   6.7785   6.7786   6.7786   6.7929   6.8551   6.8551
     6.8551   6.9363   6.9363   6.9363

          k = 0.3333-0.1925 0.0000 (115797 PWs)   bands (ev):

   -28.2754 -28.2754 -28.2754 -28.2754 -28.2753 -28.2753 -28.2753 -28.2753
   -28.2753 -28.2753 -28.2753 -28.2753 -14.9227 -14.9227 -14.9226 -14.9226
   -14.9226 -14.9225 -14.9225 -14.9224 -14.9224 -14.9223 -14.9223 -14.9223
   -14.9168 -14.9168 -14.9168 -14.9168 -14.9167 -14.9166 -14.9166 -14.9166
   -14.9166 -14.9165 -14.9165 -14.9165 -14.9047 -14.9046 -14.9046 -14.9046
   -14.9046 -14.9046 -14.9046 -14.9045 -14.9045 -14.9045 -14.9045 -14.9044
   -14.8644 -14.8644 -14.8644 -14.8644 -14.8644 -14.8644 -14.8644 -14.8644
   -14.8643 -14.8643 -14.8643 -14.8643 -14.8193 -14.8192 -14.8192 -14.8192
   -14.8192 -14.8192 -14.8192 -14.8192 -14.8192 -14.8192 -14.8192 -14.8192
   -10.3379 -10.3379 -10.3364 -10.3364 -10.3361 -10.3356 -10.3343 -10.3343
   -10.3325 -10.3324 -10.3319 -10.3265 -10.3072 -10.3072 -10.3062 -10.3042
   -10.3030 -10.3017 -10.3017 -10.3016 -10.2945 -10.2945 -10.2906 -10.2852
   -10.2694 -10.2694 -10.2690 -10.2666 -10.2666 -10.2637 -10.2627 -10.2624
   -10.2624 -10.2603 -10.2600 -10.2562  -6.7877  -6.5897  -6.4992  -6.4978
    -6.4379  -6.4379  -6.3654  -6.3487  -6.2846  -6.2846  -6.2480  -6.2480
    -5.9108  -5.9108  -5.8196  -5.8183  -5.8183  -5.7771  -5.7676  -5.7676
    -5.7317  -5.7239  -5.7225  -5.6899  -5.6899  -5.6474  -5.6378  -5.6378
    -5.6292  -5.5950  -5.5841  -5.5841  -5.5680  -5.5275  -5.5186  -5.5186
    -5.5162  -5.5043  -5.4623  -5.4513  -5.4363  -5.4363  -5.4220  -5.4149
    -5.3479  -5.3479  -5.3131  -5.2703  -0.5708  -0.5708  -0.5619  -0.4352
    -0.4037  -0.4037  -0.3770  -0.3376  -0.3376  -0.3371  -0.3124  -0.3031
     1.4188   1.4878   1.4878   1.5011   1.6400   1.6518   1.6884   1.7242
     1.7242   1.8282   1.8771   1.8771   1.9549   1.9560   1.9560   2.0277
     2.1157   2.2069   2.2301   2.2301   2.3390   2.3638   2.3866   2.3866
     2.3936   2.4087   2.4498   2.5380   2.5380   2.6132   2.6132   2.6171
     2.6575   2.7348   2.8134   2.8134   2.8219   2.8416   2.8416   2.8443
     2.8540   2.8848   2.9086   2.9086   2.9149   2.9626   2.9626   3.0043
     3.0504   3.0570   3.0570   3.1242   3.1483   3.1757   3.2045   3.2122
     3.2122   3.2342   3.2611   3.2611   3.2690   3.3238   3.3309   3.3309
     3.3388   3.3722   3.3954   3.3954   3.4338   3.4411   3.4411   3.4498
     3.4982   3.4982   3.5003   3.5111   3.5111   3.5139   3.5224   3.5430
     3.5616   3.6055   3.6055   3.6110   3.6349   3.6464   3.6799   3.6799
     3.6943   3.7033   3.7033   3.7085   3.7793   3.7793   3.8494   3.8598
     3.8962   3.9747   3.9747   3.9783   3.9804   4.0301   4.0390   4.0390
     4.0929   4.1117   4.1212   4.1212   4.1259   4.1630   4.1630   4.1777
     4.2482   4.2673   4.2673   4.2825   4.3030   4.3232   4.3232   4.3683
     4.3785   4.4170   4.4170   4.4836   4.5179   4.5281   4.5281   4.5288
     4.5913   4.5913   4.6267   4.7486   5.1442   5.1442   5.1471   5.1547
     5.1607   5.1607   5.1697   5.1747   5.2150   5.2197   5.2197   5.2219
     5.2280   5.2376   5.2492   5.2493   5.2501   5.2612   5.2678   5.2722
     5.2722   5.2893   5.3045   5.3046   5.3141   5.3189   5.3276   5.3276
     5.3369   5.3499   5.3529   5.3529   5.3574   5.3656   5.4141   5.4142
     5.4338   5.4512   5.4614   5.4614   5.4858   5.4935   5.5005   5.5005
     5.5027   5.5128   5.5278   5.5439   5.5570   5.5570   5.5613   5.6035
     5.6035   5.6307   5.6317   5.6317   5.6682   5.6784   5.6958   5.6964
     5.6964   5.7178   5.7297   5.7564   5.7756   5.7756   5.8089   5.8195
     5.8195   5.8639   5.8761   5.8761   5.9508   5.9516   5.9653   5.9653
     5.9905   6.0072   6.0072   6.0207   6.1394   6.1394   6.1450   6.1606
     6.2256   6.2300   6.2300   6.2514   6.2709   6.2896   6.2896   6.2993
     6.3620   6.3620   6.3775   6.3902   6.3902   6.4412   6.4865   6.4865
     6.5243   6.5383   6.5383   6.5758   6.6048   6.6511   6.6839   6.6929
     6.6929   6.7299   6.7378   6.7378   6.7627   6.7780   6.7930   6.8124
     6.8124   6.9044   6.9091   7.0808

          k = 0.3333-0.1925 0.2714 (115773 PWs)   bands (ev):

   -28.2754 -28.2754 -28.2754 -28.2754 -28.2754 -28.2753 -28.2753 -28.2753
   -28.2753 -28.2753 -28.2753 -28.2753 -14.9227 -14.9227 -14.9226 -14.9226
   -14.9226 -14.9225 -14.9225 -14.9224 -14.9224 -14.9223 -14.9223 -14.9223
   -14.9168 -14.9168 -14.9167 -14.9167 -14.9167 -14.9166 -14.9166 -14.9166
   -14.9166 -14.9165 -14.9165 -14.9165 -14.9047 -14.9046 -14.9046 -14.9046
   -14.9046 -14.9046 -14.9046 -14.9045 -14.9045 -14.9045 -14.9045 -14.9044
   -14.8644 -14.8644 -14.8644 -14.8644 -14.8644 -14.8644 -14.8644 -14.8644
   -14.8643 -14.8643 -14.8643 -14.8643 -14.8193 -14.8192 -14.8192 -14.8192
   -14.8192 -14.8192 -14.8192 -14.8192 -14.8192 -14.8192 -14.8192 -14.8192
   -10.3387 -10.3387 -10.3378 -10.3370 -10.3370 -10.3342 -10.3339 -10.3330
   -10.3330 -10.3320 -10.3298 -10.3273 -10.3104 -10.3066 -10.3066 -10.3060
   -10.3013 -10.3006 -10.3006 -10.2963 -10.2963 -10.2940 -10.2911 -10.2876
   -10.2695 -10.2695 -10.2681 -10.2666 -10.2666 -10.2640 -10.2625 -10.2621
   -10.2621 -10.2604 -10.2594 -10.2578  -6.7507  -6.6465  -6.5604  -6.4718
    -6.4222  -6.4222  -6.3638  -6.3284  -6.3284  -6.2587  -6.2242  -6.2242
    -5.9047  -5.9047  -5.8229  -5.8215  -5.8077  -5.8077  -5.7920  -5.7598
    -5.7598  -5.7317  -5.7102  -5.7102  -5.6716  -5.6350  -5.6286  -5.6273
    -5.6273  -5.6079  -5.5996  -5.5996  -5.5691  -5.5282  -5.5221  -5.5220
    -5.5204  -5.4964  -5.4676  -5.4325  -5.4283  -5.4283  -5.4224  -5.3634
    -5.3475  -5.3475  -5.3220  -5.2996  -0.5592  -0.5585  -0.5585  -0.4356
    -0.4356  -0.4249  -0.3936  -0.3732  -0.3186  -0.3186  -0.2991  -0.2788
     1.4336   1.4859   1.4859   1.4872   1.6256   1.6416   1.7731   1.7731
     1.7823   1.7902   1.8004   1.8004   1.9145   1.9962   1.9962   2.0773
     2.1553   2.2001   2.2107   2.2481   2.2481   2.3602   2.3934   2.3934
     2.3984   2.4487   2.5122   2.5122   2.5472   2.5908   2.5908   2.6079
     2.6429   2.7111   2.7616   2.7687   2.7687   2.7890   2.8094   2.8094
     2.8389   2.8745   2.9160   2.9160   2.9186   2.9816   3.0242   3.0242
     3.0679   3.1069   3.1069   3.1325   3.1708   3.1933   3.1933   3.1940
     3.2001   3.2322   3.2647   3.2647   3.2768   3.3183   3.3220   3.3220
     3.3239   3.3896   3.3896   3.4109   3.4458   3.4458   3.4695   3.4695
     3.4721   3.4734   3.4759   3.4771   3.5338   3.5365   3.5366   3.5913
     3.6109   3.6128   3.6128   3.6332   3.6423   3.6479   3.6593   3.6594
     3.6676   3.7111   3.7111   3.7121   3.8359   3.8359   3.8799   3.8886
     3.9044   3.9502   3.9502   3.9747   3.9821   4.0200   4.0479   4.0494
     4.0494   4.0658   4.1111   4.1111   4.1198   4.1333   4.1333   4.1476
     4.1909   4.2556   4.2672   4.2672   4.2893   4.2893   4.2942   4.3873
     4.3977   4.4382   4.4382   4.4679   4.5249   4.5249   4.5357   4.5963
     4.6110   4.6110   4.6221   4.7212   5.1511   5.1511   5.1548   5.1569
     5.1721   5.1762   5.1762   5.1836   5.1907   5.1980   5.2014   5.2080
     5.2080   5.2350   5.2350   5.2352   5.2548   5.2642   5.2659   5.2659
     5.2793   5.2982   5.3076   5.3132   5.3132   5.3289   5.3368   5.3368
     5.3585   5.3585   5.3601   5.3636   5.3802   5.3928   5.4072   5.4072
     5.4132   5.4320   5.4333   5.4452   5.4452   5.4928   5.5023   5.5023
     5.5094   5.5159   5.5538   5.5599   5.5748   5.5748   5.6027   5.6113
     5.6113   5.6190   5.6252   5.6252   5.6430   5.6703   5.6822   5.7147
     5.7147   5.7173   5.7342   5.7728   5.7732   5.7732   5.8026   5.8026
     5.8101   5.8586   5.8757   5.8757   5.8785   5.9148   5.9594   5.9594
     6.0349   6.0349   6.0351   6.0597   6.0792   6.0792   6.1732   6.2066
     6.2133   6.2133   6.2668   6.2668   6.2698   6.2773   6.2856   6.3493
     6.3493   6.3657   6.3722   6.4154   6.4249   6.4249   6.4273   6.4712
     6.4986   6.4986   6.5459   6.5594   6.5959   6.5959   6.6672   6.6672
     6.6771   6.7198   6.7366   6.7366   6.7475   6.8137   6.8137   6.8447
     6.8691   6.9284   6.9371   7.0523

          k = 0.3333-0.1925-0.2714 (115773 PWs)   bands (ev):

   -28.2754 -28.2754 -28.2754 -28.2754 -28.2754 -28.2753 -28.2753 -28.2753
   -28.2753 -28.2753 -28.2753 -28.2753 -14.9227 -14.9227 -14.9226 -14.9226
   -14.9226 -14.9225 -14.9225 -14.9224 -14.9224 -14.9223 -14.9223 -14.9223
   -14.9168 -14.9168 -14.9167 -14.9167 -14.9167 -14.9166 -14.9166 -14.9166
   -14.9166 -14.9165 -14.9165 -14.9165 -14.9047 -14.9046 -14.9046 -14.9046
   -14.9046 -14.9046 -14.9046 -14.9045 -14.9045 -14.9045 -14.9045 -14.9044
   -14.8644 -14.8644 -14.8644 -14.8644 -14.8644 -14.8644 -14.8644 -14.8644
   -14.8643 -14.8643 -14.8643 -14.8643 -14.8193 -14.8192 -14.8192 -14.8192
   -14.8192 -14.8192 -14.8192 -14.8192 -14.8192 -14.8192 -14.8192 -14.8192
   -10.3388 -10.3388 -10.3376 -10.3368 -10.3368 -10.3345 -10.3342 -10.3331
   -10.3331 -10.3315 -10.3297 -10.3275 -10.3101 -10.3080 -10.3052 -10.3052
   -10.3029 -10.3029 -10.2977 -10.2954 -10.2954 -10.2947 -10.2930 -10.2870
   -10.2690 -10.2690 -10.2686 -10.2673 -10.2673 -10.2629 -10.2621 -10.2620
   -10.2620 -10.2610 -10.2602 -10.2574  -6.7508  -6.6464  -6.5612  -6.4684
    -6.4189  -6.4189  -6.3634  -6.3401  -6.3401  -6.2654  -6.2104  -6.2104
    -5.9134  -5.9133  -5.8245  -5.8215  -5.8177  -5.8177  -5.7645  -5.7645
    -5.7532  -5.7334  -5.6822  -5.6822  -5.6818  -5.6632  -5.6416  -5.6416
    -5.6376  -5.6072  -5.5854  -5.5854  -5.5727  -5.5301  -5.5270  -5.5270
    -5.5163  -5.4860  -5.4652  -5.4394  -5.4370  -5.4370  -5.3991  -5.3702
    -5.3438  -5.3438  -5.3315  -5.2960  -0.5620  -0.5620  -0.5514  -0.4329
    -0.4286  -0.4286  -0.4109  -0.3605  -0.3218  -0.3218  -0.2901  -0.2833
     1.4051   1.4946   1.4946   1.5154   1.6124   1.7121   1.7121   1.7225
     1.7370   1.7729   1.8457   1.8457   1.9665   1.9858   2.0219   2.0219
     2.1294   2.1993   2.2094   2.2094   2.2854   2.3341   2.3967   2.4272
     2.4272   2.5184   2.5296   2.5296   2.5579   2.5582   2.5589   2.5589
     2.5996   2.6784   2.7645   2.7645   2.8245   2.8245   2.8254   2.8295
     2.8504   2.8528   2.8958   2.8958   2.9059   3.0083   3.0186   3.0186
     3.0767   3.0783   3.1185   3.1186   3.1339   3.1811   3.1811   3.1884
     3.2136   3.2462   3.2663   3.2855   3.2855   3.2952   3.3311   3.3311
     3.3756   3.3771   3.3791   3.3791   3.4475   3.4475   3.4501   3.4772
     3.4803   3.4803   3.5061   3.5194   3.5347   3.5347   3.5365   3.5582
     3.5868   3.5869   3.6108   3.6314   3.6402   3.6444   3.6836   3.6836
     3.6867   3.6960   3.7044   3.7044   3.8366   3.8366   3.8786   3.8802
     3.9419   3.9459   3.9459   3.9482   3.9720   4.0324   4.0541   4.0565
     4.0607   4.0607   4.1008   4.1008   4.1226   4.1226   4.1300   4.1333
     4.2238   4.2403   4.2691   4.2691   4.2914   4.2914   4.3136   4.3672
     4.3921   4.4348   4.4348   4.4809   4.5214   4.5448   4.5448   4.5857
     4.5964   4.5964   4.6313   4.7297   5.1481   5.1481   5.1535   5.1648
     5.1689   5.1689   5.1695   5.1729   5.1998   5.2049   5.2127   5.2187
     5.2188   5.2293   5.2414   5.2414   5.2606   5.2649   5.2649   5.2649
     5.2659   5.2734   5.3105   5.3105   5.3187   5.3341   5.3470   5.3470
     5.3601   5.3632   5.3632   5.3683   5.3696   5.3807   5.3890   5.3890
     5.4101   5.4333   5.4478   5.4518   5.4518   5.4692   5.4974   5.4974
     5.5170   5.5243   5.5563   5.5574   5.5690   5.5690   5.6024   5.6024
     5.6076   5.6204   5.6313   5.6503   5.6503   5.6609   5.6749   5.7091
     5.7091   5.7393   5.7604   5.7604   5.7707   5.7845   5.8055   5.8055
     5.8146   5.8398   5.8676   5.8677   5.8753   5.8948   5.9693   5.9693
     6.0193   6.0256   6.0256   6.1018   6.1018   6.1119   6.1597   6.1874
     6.2036   6.2036   6.2037   6.2630   6.2630   6.2875   6.3184   6.3423
     6.3550   6.3695   6.3695   6.4133   6.4199   6.4199   6.4523   6.4819
     6.4819   6.5071   6.5580   6.5665   6.6074   6.6074   6.6475   6.6673
     6.6673   6.7379   6.7379   6.7399   6.7485   6.8047   6.8047   6.8511
     6.8663   6.9183   6.9458   7.0388

          k =-0.3333-0.1925 0.0000 (115797 PWs)   bands (ev):

   -28.2754 -28.2754 -28.2754 -28.2754 -28.2754 -28.2753 -28.2753 -28.2753
   -28.2753 -28.2753 -28.2753 -28.2753 -14.9227 -14.9227 -14.9226 -14.9226
   -14.9226 -14.9225 -14.9225 -14.9224 -14.9224 -14.9223 -14.9223 -14.9223
   -14.9168 -14.9168 -14.9168 -14.9167 -14.9167 -14.9166 -14.9166 -14.9166
   -14.9166 -14.9165 -14.9165 -14.9165 -14.9047 -14.9046 -14.9046 -14.9046
   -14.9046 -14.9046 -14.9046 -14.9045 -14.9045 -14.9045 -14.9045 -14.9045
   -14.8644 -14.8644 -14.8644 -14.8644 -14.8644 -14.8644 -14.8644 -14.8644
   -14.8643 -14.8643 -14.8643 -14.8643 -14.8192 -14.8192 -14.8192 -14.8192
   -14.8192 -14.8192 -14.8192 -14.8192 -14.8192 -14.8192 -14.8191 -14.8191
   -10.3379 -10.3379 -10.3364 -10.3364 -10.3361 -10.3356 -10.3343 -10.3343
   -10.3325 -10.3324 -10.3319 -10.3265 -10.3072 -10.3072 -10.3062 -10.3042
   -10.3030 -10.3017 -10.3017 -10.3016 -10.2945 -10.2945 -10.2906 -10.2852
   -10.2694 -10.2694 -10.2690 -10.2666 -10.2665 -10.2636 -10.2627 -10.2624
   -10.2624 -10.2603 -10.2600 -10.2562  -6.7877  -6.5897  -6.4992  -6.4978
    -6.4379  -6.4379  -6.3654  -6.3487  -6.2846  -6.2846  -6.2480  -6.2480
    -5.9108  -5.9108  -5.8196  -5.8183  -5.8183  -5.7771  -5.7676  -5.7676
    -5.7317  -5.7239  -5.7225  -5.6899  -5.6899  -5.6474  -5.6378  -5.6378
    -5.6292  -5.5950  -5.5841  -5.5841  -5.5680  -5.5275  -5.5186  -5.5186
    -5.5162  -5.5043  -5.4623  -5.4513  -5.4363  -5.4363  -5.4220  -5.4149
    -5.3479  -5.3479  -5.3131  -5.2703  -0.5708  -0.5708  -0.5619  -0.4352
    -0.4037  -0.4037  -0.3770  -0.3376  -0.3376  -0.3371  -0.3124  -0.3031
     1.4188   1.4878   1.4878   1.5011   1.6400   1.6518   1.6884   1.7242
     1.7242   1.8282   1.8771   1.8771   1.9549   1.9560   1.9560   2.0277
     2.1157   2.2069   2.2300   2.2300   2.3390   2.3638   2.3866   2.3866
     2.3936   2.4087   2.4498   2.5380   2.5380   2.6132   2.6132   2.6171
     2.6575   2.7348   2.8134   2.8134   2.8220   2.8416   2.8416   2.8443
     2.8540   2.8848   2.9086   2.9086   2.9149   2.9625   2.9626   3.0043
     3.0504   3.0569   3.0570   3.1242   3.1483   3.1757   3.2045   3.2122
     3.2122   3.2342   3.2611   3.2611   3.2690   3.3238   3.3309   3.3309
     3.3388   3.3722   3.3954   3.3954   3.4338   3.4411   3.4411   3.4498
     3.4982   3.4982   3.5003   3.5111   3.5111   3.5139   3.5224   3.5430
     3.5616   3.6055   3.6055   3.6110   3.6349   3.6464   3.6799   3.6799
     3.6943   3.7033   3.7033   3.7085   3.7793   3.7793   3.8493   3.8598
     3.8962   3.9747   3.9747   3.9783   3.9804   4.0301   4.0390   4.0390
     4.0929   4.1117   4.1212   4.1212   4.1259   4.1630   4.1630   4.1777
     4.2482   4.2673   4.2673   4.2825   4.3030   4.3232   4.3232   4.3683
     4.3785   4.4170   4.4170   4.4836   4.5179   4.5281   4.5281   4.5288
     4.5913   4.5913   4.6267   4.7486   5.1442   5.1442   5.1471   5.1547
     5.1607   5.1607   5.1697   5.1747   5.2150   5.2197   5.2197   5.2219
     5.2280   5.2376   5.2492   5.2493   5.2501   5.2612   5.2678   5.2722
     5.2722   5.2893   5.3046   5.3046   5.3141   5.3189   5.3276   5.3276
     5.3369   5.3499   5.3529   5.3529   5.3574   5.3656   5.4141   5.4141
     5.4338   5.4512   5.4614   5.4614   5.4858   5.4935   5.5005   5.5005
     5.5027   5.5128   5.5278   5.5439   5.5570   5.5570   5.5613   5.6035
     5.6035   5.6307   5.6317   5.6317   5.6682   5.6784   5.6958   5.6964
     5.6964   5.7178   5.7297   5.7564   5.7756   5.7756   5.8089   5.8195
     5.8195   5.8639   5.8761   5.8761   5.9508   5.9516   5.9653   5.9653
     5.9905   6.0072   6.0072   6.0207   6.1394   6.1394   6.1450   6.1606
     6.2256   6.2300   6.2300   6.2514   6.2709   6.2896   6.2896   6.2993
     6.3620   6.3620   6.3775   6.3902   6.3902   6.4412   6.4865   6.4865
     6.5243   6.5383   6.5383   6.5758   6.6048   6.6511   6.6839   6.6929
     6.6929   6.7299   6.7378   6.7378   6.7627   6.7780   6.7930   6.8124
     6.8124   6.9044   6.9091   7.0808

          k =-0.3333-0.1925 0.2714 (115773 PWs)   bands (ev):

   -28.2754 -28.2754 -28.2754 -28.2754 -28.2754 -28.2753 -28.2753 -28.2753
   -28.2753 -28.2753 -28.2753 -28.2753 -14.9227 -14.9227 -14.9226 -14.9226
   -14.9226 -14.9225 -14.9225 -14.9224 -14.9224 -14.9223 -14.9223 -14.9223
   -14.9168 -14.9168 -14.9167 -14.9167 -14.9167 -14.9166 -14.9166 -14.9166
   -14.9166 -14.9165 -14.9165 -14.9165 -14.9047 -14.9046 -14.9046 -14.9046
   -14.9046 -14.9046 -14.9046 -14.9045 -14.9045 -14.9045 -14.9045 -14.9045
   -14.8644 -14.8644 -14.8644 -14.8644 -14.8644 -14.8644 -14.8644 -14.8644
   -14.8643 -14.8643 -14.8643 -14.8643 -14.8192 -14.8192 -14.8192 -14.8192
   -14.8192 -14.8192 -14.8192 -14.8192 -14.8192 -14.8192 -14.8191 -14.8191
   -10.3387 -10.3387 -10.3378 -10.3370 -10.3370 -10.3342 -10.3339 -10.3330
   -10.3330 -10.3320 -10.3298 -10.3273 -10.3104 -10.3066 -10.3066 -10.3060
   -10.3013 -10.3006 -10.3006 -10.2963 -10.2963 -10.2940 -10.2911 -10.2876
   -10.2695 -10.2695 -10.2681 -10.2666 -10.2666 -10.2640 -10.2625 -10.2621
   -10.2621 -10.2604 -10.2594 -10.2578  -6.7507  -6.6465  -6.5604  -6.4718
    -6.4222  -6.4221  -6.3638  -6.3284  -6.3284  -6.2587  -6.2242  -6.2242
    -5.9047  -5.9047  -5.8228  -5.8215  -5.8077  -5.8077  -5.7920  -5.7598
    -5.7598  -5.7317  -5.7102  -5.7101  -5.6716  -5.6350  -5.6286  -5.6273
    -5.6273  -5.6079  -5.5996  -5.5996  -5.5691  -5.5282  -5.5221  -5.5221
    -5.5204  -5.4964  -5.4676  -5.4325  -5.4283  -5.4283  -5.4224  -5.3634
    -5.3475  -5.3475  -5.3220  -5.2996  -0.5592  -0.5585  -0.5585  -0.4356
    -0.4356  -0.4249  -0.3936  -0.3732  -0.3186  -0.3186  -0.2991  -0.2788
     1.4336   1.4859   1.4859   1.4872   1.6256   1.6416   1.7731   1.7731
     1.7823   1.7902   1.8004   1.8004   1.9145   1.9962   1.9962   2.0773
     2.1553   2.2001   2.2107   2.2481   2.2481   2.3602   2.3934   2.3935
     2.3984   2.4487   2.5122   2.5122   2.5471   2.5908   2.5908   2.6079
     2.6429   2.7111   2.7616   2.7687   2.7687   2.7890   2.8094   2.8094
     2.8389   2.8745   2.9160   2.9160   2.9186   2.9816   3.0242   3.0242
     3.0679   3.1069   3.1069   3.1325   3.1708   3.1933   3.1933   3.1940
     3.2002   3.2322   3.2647   3.2647   3.2768   3.3183   3.3220   3.3220
     3.3239   3.3896   3.3896   3.4109   3.4458   3.4458   3.4695   3.4695
     3.4721   3.4734   3.4759   3.4771   3.5338   3.5366   3.5366   3.5913
     3.6109   3.6128   3.6128   3.6332   3.6423   3.6479   3.6594   3.6594
     3.6675   3.7111   3.7111   3.7121   3.8359   3.8359   3.8799   3.8886
     3.9044   3.9502   3.9502   3.9747   3.9821   4.0200   4.0479   4.0494
     4.0494   4.0658   4.1111   4.1111   4.1198   4.1333   4.1333   4.1476
     4.1909   4.2556   4.2672   4.2673   4.2893   4.2893   4.2942   4.3873
     4.3977   4.4382   4.4382   4.4679   4.5249   4.5249   4.5357   4.5963
     4.6110   4.6110   4.6221   4.7212   5.1511   5.1511   5.1548   5.1569
     5.1721   5.1762   5.1762   5.1836   5.1907   5.1980   5.2014   5.2080
     5.2080   5.2350   5.2350   5.2352   5.2548   5.2642   5.2659   5.2659
     5.2793   5.2982   5.3076   5.3132   5.3132   5.3289   5.3368   5.3368
     5.3585   5.3585   5.3601   5.3636   5.3802   5.3928   5.4072   5.4072
     5.4132   5.4320   5.4333   5.4452   5.4452   5.4928   5.5023   5.5023
     5.5094   5.5159   5.5538   5.5599   5.5748   5.5748   5.6027   5.6113
     5.6113   5.6190   5.6252   5.6252   5.6430   5.6703   5.6822   5.7147
     5.7147   5.7173   5.7342   5.7728   5.7732   5.7732   5.8026   5.8026
     5.8101   5.8586   5.8757   5.8757   5.8785   5.9148   5.9594   5.9594
     6.0349   6.0349   6.0351   6.0597   6.0792   6.0792   6.1732   6.2066
     6.2133   6.2133   6.2668   6.2668   6.2698   6.2773   6.2856   6.3493
     6.3493   6.3657   6.3722   6.4154   6.4249   6.4249   6.4273   6.4712
     6.4986   6.4986   6.5459   6.5594   6.5959   6.5959   6.6672   6.6672
     6.6771   6.7198   6.7366   6.7366   6.7475   6.8137   6.8137   6.8447
     6.8691   6.9284   6.9371   7.0523

          k =-0.3333-0.1925-0.2714 (115773 PWs)   bands (ev):

   -28.2754 -28.2754 -28.2754 -28.2754 -28.2754 -28.2753 -28.2753 -28.2753
   -28.2753 -28.2753 -28.2753 -28.2753 -14.9227 -14.9227 -14.9226 -14.9226
   -14.9226 -14.9225 -14.9225 -14.9224 -14.9224 -14.9223 -14.9223 -14.9223
   -14.9168 -14.9168 -14.9167 -14.9167 -14.9167 -14.9166 -14.9166 -14.9166
   -14.9166 -14.9165 -14.9165 -14.9165 -14.9047 -14.9046 -14.9046 -14.9046
   -14.9046 -14.9046 -14.9046 -14.9045 -14.9045 -14.9045 -14.9045 -14.9045
   -14.8644 -14.8644 -14.8644 -14.8644 -14.8644 -14.8644 -14.8644 -14.8644
   -14.8643 -14.8643 -14.8643 -14.8643 -14.8192 -14.8192 -14.8192 -14.8192
   -14.8192 -14.8192 -14.8192 -14.8192 -14.8192 -14.8192 -14.8191 -14.8191
   -10.3388 -10.3388 -10.3376 -10.3368 -10.3368 -10.3345 -10.3342 -10.3331
   -10.3331 -10.3315 -10.3297 -10.3275 -10.3101 -10.3080 -10.3052 -10.3051
   -10.3029 -10.3029 -10.2977 -10.2954 -10.2954 -10.2947 -10.2930 -10.2870
   -10.2690 -10.2690 -10.2686 -10.2673 -10.2673 -10.2629 -10.2621 -10.2620
   -10.2620 -10.2610 -10.2602 -10.2574  -6.7508  -6.6464  -6.5612  -6.4684
    -6.4189  -6.4189  -6.3634  -6.3401  -6.3401  -6.2654  -6.2104  -6.2104
    -5.9134  -5.9134  -5.8245  -5.8215  -5.8177  -5.8177  -5.7645  -5.7645
    -5.7532  -5.7334  -5.6822  -5.6822  -5.6818  -5.6632  -5.6416  -5.6416
    -5.6376  -5.6072  -5.5854  -5.5854  -5.5727  -5.5301  -5.5270  -5.5270
    -5.5163  -5.4860  -5.4652  -5.4394  -5.4370  -5.4370  -5.3991  -5.3702
    -5.3438  -5.3438  -5.3315  -5.2960  -0.5620  -0.5620  -0.5514  -0.4329
    -0.4286  -0.4286  -0.4109  -0.3605  -0.3218  -0.3218  -0.2901  -0.2833
     1.4051   1.4946   1.4946   1.5154   1.6124   1.7121   1.7121   1.7225
     1.7370   1.7729   1.8457   1.8457   1.9665   1.9858   2.0219   2.0219
     2.1294   2.1993   2.2094   2.2094   2.2854   2.3341   2.3967   2.4272
     2.4272   2.5184   2.5296   2.5296   2.5579   2.5583   2.5589   2.5589
     2.5996   2.6784   2.7645   2.7645   2.8245   2.8245   2.8254   2.8295
     2.8504   2.8528   2.8958   2.8958   2.9059   3.0083   3.0186   3.0186
     3.0767   3.0783   3.1185   3.1186   3.1339   3.1811   3.1811   3.1884
     3.2136   3.2462   3.2663   3.2855   3.2855   3.2952   3.3311   3.3311
     3.3756   3.3771   3.3791   3.3791   3.4475   3.4475   3.4501   3.4772
     3.4803   3.4803   3.5061   3.5194   3.5347   3.5347   3.5365   3.5582
     3.5868   3.5868   3.6108   3.6314   3.6402   3.6444   3.6836   3.6836
     3.6867   3.6960   3.7044   3.7044   3.8366   3.8366   3.8786   3.8802
     3.9420   3.9459   3.9459   3.9482   3.9720   4.0324   4.0541   4.0565
     4.0607   4.0607   4.1008   4.1008   4.1226   4.1226   4.1300   4.1333
     4.2238   4.2403   4.2691   4.2691   4.2914   4.2914   4.3136   4.3672
     4.3921   4.4348   4.4348   4.4809   4.5213   4.5448   4.5448   4.5857
     4.5964   4.5964   4.6313   4.7297   5.1481   5.1481   5.1535   5.1648
     5.1689   5.1689   5.1694   5.1729   5.1998   5.2050   5.2127   5.2187
     5.2187   5.2293   5.2414   5.2414   5.2606   5.2649   5.2649   5.2649
     5.2659   5.2734   5.3105   5.3105   5.3187   5.3341   5.3470   5.3470
     5.3601   5.3632   5.3632   5.3683   5.3696   5.3807   5.3890   5.3890
     5.4101   5.4333   5.4478   5.4518   5.4518   5.4692   5.4974   5.4974
     5.5170   5.5243   5.5563   5.5574   5.5690   5.5690   5.6024   5.6024
     5.6076   5.6204   5.6313   5.6503   5.6503   5.6609   5.6749   5.7091
     5.7091   5.7393   5.7604   5.7604   5.7707   5.7845   5.8055   5.8055
     5.8146   5.8398   5.8677   5.8677   5.8753   5.8948   5.9693   5.9693
     6.0193   6.0256   6.0256   6.1018   6.1018   6.1119   6.1597   6.1874
     6.2036   6.2036   6.2037   6.2630   6.2630   6.2875   6.3184   6.3423
     6.3550   6.3695   6.3695   6.4133   6.4199   6.4199   6.4523   6.4819
     6.4819   6.5071   6.5580   6.5665   6.6074   6.6074   6.6475   6.6673
     6.6673   6.7379   6.7379   6.7399   6.7485   6.8047   6.8047   6.8511
     6.8663   6.9183   6.9458   7.0388

          k =-0.3333 0.1925 0.0000 (115797 PWs)   bands (ev):

   -28.2754 -28.2754 -28.2754 -28.2754 -28.2753 -28.2753 -28.2753 -28.2753
   -28.2753 -28.2753 -28.2753 -28.2753 -14.9227 -14.9227 -14.9226 -14.9226
   -14.9226 -14.9225 -14.9225 -14.9224 -14.9224 -14.9223 -14.9223 -14.9223
   -14.9168 -14.9168 -14.9168 -14.9168 -14.9167 -14.9166 -14.9166 -14.9166
   -14.9166 -14.9165 -14.9165 -14.9165 -14.9047 -14.9046 -14.9046 -14.9046
   -14.9046 -14.9046 -14.9046 -14.9045 -14.9045 -14.9045 -14.9045 -14.9044
   -14.8644 -14.8644 -14.8644 -14.8644 -14.8644 -14.8644 -14.8644 -14.8644
   -14.8643 -14.8643 -14.8643 -14.8643 -14.8193 -14.8192 -14.8192 -14.8192
   -14.8192 -14.8192 -14.8192 -14.8192 -14.8192 -14.8192 -14.8192 -14.8192
   -10.3379 -10.3379 -10.3364 -10.3364 -10.3361 -10.3356 -10.3343 -10.3343
   -10.3325 -10.3324 -10.3319 -10.3265 -10.3072 -10.3072 -10.3062 -10.3042
   -10.3030 -10.3017 -10.3017 -10.3016 -10.2945 -10.2945 -10.2906 -10.2852
   -10.2694 -10.2694 -10.2690 -10.2666 -10.2666 -10.2637 -10.2627 -10.2624
   -10.2624 -10.2603 -10.2600 -10.2562  -6.7877  -6.5897  -6.4992  -6.4978
    -6.4379  -6.4379  -6.3654  -6.3487  -6.2846  -6.2846  -6.2480  -6.2480
    -5.9108  -5.9108  -5.8196  -5.8183  -5.8183  -5.7771  -5.7676  -5.7676
    -5.7317  -5.7239  -5.7225  -5.6899  -5.6899  -5.6474  -5.6378  -5.6378
    -5.6292  -5.5950  -5.5841  -5.5841  -5.5680  -5.5275  -5.5186  -5.5186
    -5.5162  -5.5043  -5.4623  -5.4513  -5.4363  -5.4363  -5.4220  -5.4149
    -5.3479  -5.3479  -5.3131  -5.2703  -0.5708  -0.5708  -0.5619  -0.4352
    -0.4037  -0.4037  -0.3770  -0.3376  -0.3376  -0.3371  -0.3124  -0.3031
     1.4188   1.4878   1.4878   1.5011   1.6400   1.6518   1.6884   1.7242
     1.7242   1.8282   1.8771   1.8771   1.9549   1.9560   1.9560   2.0277
     2.1157   2.2069   2.2301   2.2301   2.3390   2.3638   2.3866   2.3866
     2.3936   2.4087   2.4498   2.5380   2.5380   2.6132   2.6132   2.6171
     2.6575   2.7348   2.8134   2.8134   2.8219   2.8416   2.8416   2.8443
     2.8540   2.8848   2.9086   2.9086   2.9149   2.9626   2.9626   3.0043
     3.0504   3.0570   3.0570   3.1242   3.1483   3.1757   3.2045   3.2122
     3.2122   3.2342   3.2611   3.2611   3.2690   3.3238   3.3309   3.3309
     3.3388   3.3722   3.3954   3.3954   3.4338   3.4411   3.4411   3.4498
     3.4982   3.4982   3.5003   3.5111   3.5111   3.5139   3.5224   3.5430
     3.5616   3.6055   3.6055   3.6110   3.6349   3.6464   3.6799   3.6799
     3.6943   3.7033   3.7033   3.7085   3.7793   3.7793   3.8494   3.8598
     3.8962   3.9747   3.9747   3.9783   3.9804   4.0301   4.0390   4.0390
     4.0929   4.1117   4.1212   4.1212   4.1259   4.1630   4.1630   4.1777
     4.2482   4.2673   4.2673   4.2825   4.3030   4.3232   4.3232   4.3683
     4.3785   4.4170   4.4170   4.4836   4.5179   4.5281   4.5281   4.5288
     4.5913   4.5913   4.6267   4.7486   5.1442   5.1442   5.1471   5.1547
     5.1607   5.1607   5.1697   5.1747   5.2150   5.2197   5.2197   5.2219
     5.2280   5.2376   5.2492   5.2493   5.2501   5.2612   5.2678   5.2722
     5.2722   5.2893   5.3045   5.3046   5.3141   5.3189   5.3276   5.3276
     5.3369   5.3499   5.3529   5.3529   5.3574   5.3656   5.4141   5.4142
     5.4338   5.4512   5.4614   5.4614   5.4858   5.4935   5.5005   5.5005
     5.5027   5.5128   5.5278   5.5439   5.5570   5.5570   5.5613   5.6035
     5.6035   5.6307   5.6317   5.6317   5.6682   5.6784   5.6958   5.6964
     5.6964   5.7178   5.7297   5.7564   5.7756   5.7756   5.8089   5.8195
     5.8195   5.8639   5.8761   5.8761   5.9508   5.9516   5.9653   5.9653
     5.9905   6.0072   6.0072   6.0207   6.1394   6.1394   6.1450   6.1606
     6.2256   6.2300   6.2300   6.2514   6.2709   6.2896   6.2896   6.2993
     6.3620   6.3620   6.3775   6.3902   6.3902   6.4412   6.4865   6.4865
     6.5243   6.5383   6.5383   6.5758   6.6048   6.6511   6.6839   6.6929
     6.6929   6.7299   6.7378   6.7378   6.7627   6.7780   6.7930   6.8124
     6.8124   6.9044   6.9091   7.0808

          k =-0.3333 0.1925 0.2714 (115773 PWs)   bands (ev):

   -28.2754 -28.2754 -28.2754 -28.2754 -28.2754 -28.2753 -28.2753 -28.2753
   -28.2753 -28.2753 -28.2753 -28.2753 -14.9227 -14.9227 -14.9226 -14.9226
   -14.9226 -14.9225 -14.9225 -14.9224 -14.9224 -14.9223 -14.9223 -14.9223
   -14.9168 -14.9168 -14.9167 -14.9167 -14.9167 -14.9166 -14.9166 -14.9166
   -14.9166 -14.9165 -14.9165 -14.9165 -14.9047 -14.9046 -14.9046 -14.9046
   -14.9046 -14.9046 -14.9046 -14.9045 -14.9045 -14.9045 -14.9045 -14.9044
   -14.8644 -14.8644 -14.8644 -14.8644 -14.8644 -14.8644 -14.8644 -14.8644
   -14.8643 -14.8643 -14.8643 -14.8643 -14.8193 -14.8192 -14.8192 -14.8192
   -14.8192 -14.8192 -14.8192 -14.8192 -14.8192 -14.8192 -14.8192 -14.8192
   -10.3388 -10.3388 -10.3376 -10.3368 -10.3368 -10.3345 -10.3342 -10.3331
   -10.3331 -10.3315 -10.3297 -10.3275 -10.3101 -10.3080 -10.3052 -10.3052
   -10.3029 -10.3029 -10.2977 -10.2954 -10.2954 -10.2947 -10.2930 -10.2870
   -10.2690 -10.2690 -10.2686 -10.2673 -10.2673 -10.2629 -10.2621 -10.2620
   -10.2620 -10.2610 -10.2602 -10.2574  -6.7508  -6.6464  -6.5612  -6.4684
    -6.4189  -6.4189  -6.3634  -6.3401  -6.3401  -6.2654  -6.2104  -6.2104
    -5.9134  -5.9133  -5.8245  -5.8215  -5.8177  -5.8177  -5.7645  -5.7645
    -5.7532  -5.7334  -5.6822  -5.6822  -5.6818  -5.6632  -5.6416  -5.6416
    -5.6376  -5.6072  -5.5854  -5.5854  -5.5727  -5.5301  -5.5270  -5.5270
    -5.5163  -5.4860  -5.4652  -5.4394  -5.4370  -5.4370  -5.3991  -5.3702
    -5.3438  -5.3438  -5.3315  -5.2960  -0.5620  -0.5620  -0.5514  -0.4329
    -0.4286  -0.4286  -0.4109  -0.3605  -0.3218  -0.3218  -0.2901  -0.2833
     1.4051   1.4946   1.4946   1.5154   1.6124   1.7121   1.7121   1.7225
     1.7370   1.7729   1.8457   1.8457   1.9665   1.9858   2.0219   2.0219
     2.1294   2.1993   2.2094   2.2094   2.2854   2.3341   2.3967   2.4272
     2.4272   2.5184   2.5296   2.5296   2.5579   2.5582   2.5589   2.5589
     2.5996   2.6784   2.7645   2.7645   2.8245   2.8245   2.8254   2.8295
     2.8504   2.8528   2.8958   2.8958   2.9059   3.0083   3.0186   3.0186
     3.0767   3.0783   3.1185   3.1186   3.1339   3.1811   3.1811   3.1884
     3.2136   3.2462   3.2663   3.2855   3.2855   3.2952   3.3311   3.3311
     3.3756   3.3771   3.3791   3.3791   3.4475   3.4475   3.4501   3.4772
     3.4803   3.4803   3.5061   3.5194   3.5347   3.5347   3.5365   3.5582
     3.5868   3.5869   3.6108   3.6314   3.6402   3.6444   3.6836   3.6836
     3.6867   3.6960   3.7044   3.7044   3.8366   3.8366   3.8786   3.8802
     3.9419   3.9459   3.9459   3.9482   3.9720   4.0324   4.0541   4.0565
     4.0607   4.0607   4.1008   4.1008   4.1226   4.1226   4.1300   4.1333
     4.2238   4.2403   4.2691   4.2691   4.2914   4.2914   4.3136   4.3672
     4.3921   4.4348   4.4348   4.4809   4.5214   4.5448   4.5448   4.5857
     4.5964   4.5964   4.6313   4.7297   5.1481   5.1481   5.1535   5.1648
     5.1689   5.1689   5.1695   5.1729   5.1998   5.2049   5.2127   5.2187
     5.2188   5.2293   5.2414   5.2414   5.2606   5.2649   5.2649   5.2649
     5.2659   5.2734   5.3105   5.3105   5.3187   5.3341   5.3470   5.3470
     5.3601   5.3632   5.3632   5.3683   5.3696   5.3807   5.3890   5.3890
     5.4101   5.4333   5.4478   5.4518   5.4518   5.4692   5.4974   5.4974
     5.5170   5.5243   5.5563   5.5574   5.5690   5.5690   5.6024   5.6024
     5.6076   5.6204   5.6313   5.6503   5.6503   5.6609   5.6749   5.7091
     5.7091   5.7393   5.7604   5.7604   5.7707   5.7845   5.8055   5.8055
     5.8146   5.8398   5.8676   5.8677   5.8753   5.8948   5.9693   5.9693
     6.0193   6.0256   6.0256   6.1018   6.1018   6.1119   6.1597   6.1874
     6.2036   6.2036   6.2037   6.2630   6.2630   6.2875   6.3184   6.3423
     6.3550   6.3695   6.3695   6.4133   6.4199   6.4199   6.4523   6.4819
     6.4819   6.5071   6.5580   6.5665   6.6074   6.6074   6.6475   6.6673
     6.6673   6.7379   6.7379   6.7399   6.7485   6.8047   6.8047   6.8511
     6.8663   6.9183   6.9458   7.0388

          k =-0.3333 0.1925-0.2714 (115773 PWs)   bands (ev):

   -28.2754 -28.2754 -28.2754 -28.2754 -28.2754 -28.2753 -28.2753 -28.2753
   -28.2753 -28.2753 -28.2753 -28.2753 -14.9227 -14.9227 -14.9226 -14.9226
   -14.9226 -14.9225 -14.9225 -14.9224 -14.9224 -14.9223 -14.9223 -14.9223
   -14.9168 -14.9168 -14.9167 -14.9167 -14.9167 -14.9166 -14.9166 -14.9166
   -14.9166 -14.9165 -14.9165 -14.9165 -14.9047 -14.9046 -14.9046 -14.9046
   -14.9046 -14.9046 -14.9046 -14.9045 -14.9045 -14.9045 -14.9045 -14.9044
   -14.8644 -14.8644 -14.8644 -14.8644 -14.8644 -14.8644 -14.8644 -14.8644
   -14.8643 -14.8643 -14.8643 -14.8643 -14.8193 -14.8192 -14.8192 -14.8192
   -14.8192 -14.8192 -14.8192 -14.8192 -14.8192 -14.8192 -14.8192 -14.8192
   -10.3387 -10.3387 -10.3378 -10.3370 -10.3370 -10.3342 -10.3339 -10.3330
   -10.3330 -10.3320 -10.3298 -10.3273 -10.3104 -10.3066 -10.3066 -10.3060
   -10.3013 -10.3006 -10.3006 -10.2963 -10.2963 -10.2940 -10.2911 -10.2876
   -10.2695 -10.2695 -10.2681 -10.2666 -10.2666 -10.2640 -10.2625 -10.2621
   -10.2621 -10.2604 -10.2594 -10.2578  -6.7507  -6.6465  -6.5604  -6.4718
    -6.4222  -6.4222  -6.3638  -6.3284  -6.3284  -6.2587  -6.2242  -6.2242
    -5.9047  -5.9047  -5.8229  -5.8215  -5.8077  -5.8077  -5.7920  -5.7598
    -5.7598  -5.7317  -5.7102  -5.7102  -5.6716  -5.6350  -5.6286  -5.6273
    -5.6273  -5.6079  -5.5996  -5.5996  -5.5691  -5.5282  -5.5221  -5.5220
    -5.5204  -5.4964  -5.4676  -5.4325  -5.4283  -5.4283  -5.4224  -5.3634
    -5.3475  -5.3475  -5.3220  -5.2996  -0.5592  -0.5585  -0.5585  -0.4356
    -0.4356  -0.4249  -0.3936  -0.3732  -0.3186  -0.3186  -0.2991  -0.2788
     1.4336   1.4859   1.4859   1.4872   1.6256   1.6416   1.7731   1.7731
     1.7823   1.7902   1.8004   1.8004   1.9145   1.9962   1.9962   2.0773
     2.1553   2.2001   2.2107   2.2481   2.2481   2.3602   2.3934   2.3934
     2.3984   2.4487   2.5122   2.5122   2.5472   2.5908   2.5908   2.6079
     2.6429   2.7111   2.7616   2.7687   2.7687   2.7890   2.8094   2.8094
     2.8389   2.8745   2.9160   2.9160   2.9186   2.9816   3.0242   3.0242
     3.0679   3.1069   3.1069   3.1325   3.1708   3.1933   3.1933   3.1940
     3.2001   3.2322   3.2647   3.2647   3.2768   3.3183   3.3220   3.3220
     3.3239   3.3896   3.3896   3.4109   3.4458   3.4458   3.4695   3.4695
     3.4721   3.4734   3.4759   3.4771   3.5338   3.5365   3.5366   3.5913
     3.6109   3.6128   3.6128   3.6332   3.6423   3.6479   3.6593   3.6594
     3.6676   3.7111   3.7111   3.7121   3.8359   3.8359   3.8799   3.8886
     3.9044   3.9502   3.9502   3.9747   3.9821   4.0200   4.0479   4.0494
     4.0494   4.0658   4.1111   4.1111   4.1198   4.1333   4.1333   4.1476
     4.1909   4.2556   4.2672   4.2672   4.2893   4.2893   4.2942   4.3873
     4.3977   4.4382   4.4382   4.4679   4.5249   4.5249   4.5357   4.5963
     4.6110   4.6110   4.6221   4.7212   5.1511   5.1511   5.1548   5.1569
     5.1721   5.1762   5.1762   5.1836   5.1907   5.1980   5.2014   5.2080
     5.2080   5.2350   5.2350   5.2352   5.2548   5.2642   5.2659   5.2659
     5.2793   5.2982   5.3076   5.3132   5.3132   5.3289   5.3368   5.3368
     5.3585   5.3585   5.3601   5.3636   5.3802   5.3928   5.4072   5.4072
     5.4132   5.4320   5.4333   5.4452   5.4452   5.4928   5.5023   5.5023
     5.5094   5.5159   5.5538   5.5599   5.5748   5.5748   5.6027   5.6113
     5.6113   5.6190   5.6252   5.6252   5.6430   5.6703   5.6822   5.7147
     5.7147   5.7173   5.7342   5.7728   5.7732   5.7732   5.8026   5.8026
     5.8101   5.8586   5.8757   5.8757   5.8785   5.9148   5.9594   5.9594
     6.0349   6.0349   6.0351   6.0597   6.0792   6.0792   6.1732   6.2066
     6.2133   6.2133   6.2668   6.2668   6.2698   6.2773   6.2856   6.3493
     6.3493   6.3657   6.3722   6.4154   6.4249   6.4249   6.4273   6.4712
     6.4986   6.4986   6.5459   6.5594   6.5959   6.5959   6.6672   6.6672
     6.6771   6.7198   6.7366   6.7366   6.7475   6.8137   6.8137   6.8447
     6.8691   6.9284   6.9371   7.0523

          k =-0.3333-0.5774 0.0000 (115752 PWs)   bands (ev):

   -28.2754 -28.2754 -28.2754 -28.2754 -28.2753 -28.2753 -28.2753 -28.2753
   -28.2753 -28.2753 -28.2753 -28.2753 -14.9226 -14.9226 -14.9226 -14.9225
   -14.9225 -14.9225 -14.9225 -14.9225 -14.9225 -14.9224 -14.9224 -14.9223
   -14.9168 -14.9168 -14.9168 -14.9167 -14.9166 -14.9166 -14.9166 -14.9166
   -14.9165 -14.9165 -14.9165 -14.9165 -14.9046 -14.9046 -14.9046 -14.9046
   -14.9046 -14.9046 -14.9045 -14.9045 -14.9045 -14.9045 -14.9045 -14.9045
   -14.8644 -14.8644 -14.8644 -14.8644 -14.8644 -14.8644 -14.8644 -14.8644
   -14.8644 -14.8643 -14.8643 -14.8643 -14.8192 -14.8192 -14.8192 -14.8192
   -14.8192 -14.8192 -14.8192 -14.8192 -14.8192 -14.8192 -14.8192 -14.8192
   -10.3387 -10.3356 -10.3356 -10.3350 -10.3350 -10.3350 -10.3349 -10.3349
   -10.3349 -10.3302 -10.3302 -10.3302 -10.3072 -10.3048 -10.3048 -10.3048
   -10.3021 -10.3021 -10.3021 -10.3000 -10.3000 -10.2899 -10.2899 -10.2899
   -10.2695 -10.2671 -10.2671 -10.2670 -10.2659 -10.2658 -10.2641 -10.2641
   -10.2641 -10.2588 -10.2588 -10.2588  -6.6501  -6.6501  -6.6501  -6.3985
    -6.3985  -6.3985  -6.3985  -6.3985  -6.3985  -6.2922  -6.2922  -6.1926
    -5.8650  -5.8507  -5.8507  -5.7484  -5.7484  -5.7484  -5.7317  -5.7317
    -5.7317  -5.7077  -5.7077  -5.6940  -5.6940  -5.6940  -5.6845  -5.6845
    -5.6845  -5.6449  -5.5408  -5.5408  -5.5408  -5.5290  -5.5290  -5.5289
    -5.5118  -5.4714  -5.4714  -5.4714  -5.4663  -5.4662  -5.4662  -5.3967
    -5.3966  -5.3015  -5.3015  -5.3015  -0.5440  -0.5141  -0.5141  -0.5141
    -0.3958  -0.3958  -0.3900  -0.3900  -0.3900  -0.3095  -0.3095  -0.3095
     1.4845   1.4845   1.4845   1.6755   1.6755   1.6755   1.6866   1.6866
     1.6866   1.7343   1.7343   1.7995   2.0818   2.0818   2.0827   2.0827
     2.0827   2.1446   2.1446   2.1446   2.2554   2.3973   2.3973   2.3973
     2.4947   2.4947   2.4947   2.5638   2.5638   2.5638   2.5975   2.5975
     2.7746   2.7746   2.7746   2.8373   2.8373   2.8445   2.8445   2.8445
     2.8496   2.8530   2.8530   2.8530   2.8683   3.0105   3.0105   3.0105
     3.0257   3.0257   3.0257   3.0622   3.1344   3.1344   3.1344   3.1975
     3.1975   3.1975   3.2599   3.2599   3.2599   3.2711   3.2711   3.3617
     3.3704   3.3724   3.3725   3.3725   3.4257   3.4257   3.4257   3.4873
     3.4873   3.5029   3.5029   3.5029   3.5301   3.5301   3.5301   3.5478
     3.5478   3.5801   3.5801   3.5801   3.6508   3.6508   3.6508   3.7210
     3.7210   3.7210   3.7284   3.7284   3.7565   3.8018   3.8018   3.8018
     3.9596   3.9596   3.9597   3.9871   3.9871   4.0304   4.0304   4.0304
     4.0849   4.0849   4.0849   4.1408   4.1514   4.1514   4.1514   4.2851
     4.2851   4.2940   4.3196   4.3196   4.3196   4.3212   4.3212   4.3212
     4.3866   4.3866   4.3866   4.4964   4.5152   4.5152   4.5209   4.5209
     4.5209   4.6550   4.6550   4.6550   5.1379   5.1444   5.1444   5.1444
     5.1736   5.1736   5.1885   5.1885   5.1885   5.1970   5.1970   5.1970
     5.2475   5.2475   5.2475   5.2662   5.2662   5.2662   5.2988   5.2988
     5.2988   5.3011   5.3030   5.3030   5.3140   5.3192   5.3192   5.3192
     5.3406   5.3406   5.3406   5.4033   5.4033   5.4033   5.4083   5.4083
     5.4558   5.4558   5.4558   5.4579   5.4839   5.4839   5.4839   5.4887
     5.4887   5.5358   5.5358   5.5358   5.5648   5.5648   5.5648   5.5712
     5.5712   5.5712   5.6413   5.6725   5.6725   5.6952   5.6952   5.6952
     5.7075   5.7075   5.7075   5.7807   5.7807   5.7807   5.7998   5.7998
     5.7998   5.8244   5.8244   5.8443   5.9312   5.9312   5.9312   6.0472
     6.0472   6.0472   6.0484   6.0484   6.1389   6.1389   6.1389   6.1585
     6.2194   6.2194   6.2194   6.2604   6.2604   6.2604   6.2843   6.2843
     6.3750   6.4108   6.4108   6.4108   6.4170   6.4170   6.4231   6.4524
     6.4524   6.4524   6.6155   6.6155   6.6155   6.6767   6.6767   6.6767
     6.7255   6.7411   6.7411   6.8067   6.8067   6.8067   6.8106   6.8106
     6.8106   6.9394   6.9395   6.9395

          k =-0.3333-0.5774 0.2714 (115827 PWs)   bands (ev):

   -28.2754 -28.2754 -28.2754 -28.2754 -28.2754 -28.2754 -28.2753 -28.2753
   -28.2753 -28.2753 -28.2753 -28.2753 -14.9226 -14.9226 -14.9226 -14.9225
   -14.9225 -14.9225 -14.9225 -14.9225 -14.9225 -14.9224 -14.9223 -14.9223
   -14.9168 -14.9168 -14.9168 -14.9167 -14.9166 -14.9166 -14.9166 -14.9166
   -14.9166 -14.9166 -14.9166 -14.9165 -14.9046 -14.9046 -14.9046 -14.9046
   -14.9046 -14.9046 -14.9045 -14.9045 -14.9045 -14.9045 -14.9045 -14.9045
   -14.8644 -14.8644 -14.8644 -14.8644 -14.8644 -14.8644 -14.8644 -14.8644
   -14.8644 -14.8643 -14.8643 -14.8643 -14.8192 -14.8192 -14.8192 -14.8192
   -14.8192 -14.8192 -14.8192 -14.8192 -14.8192 -14.8192 -14.8192 -14.8192
   -10.3388 -10.3379 -10.3367 -10.3367 -10.3367 -10.3333 -10.3331 -10.3331
   -10.3331 -10.3303 -10.3303 -10.3303 -10.3077 -10.3077 -10.3077 -10.3049
   -10.3011 -10.3009 -10.2974 -10.2974 -10.2973 -10.2917 -10.2917 -10.2917
   -10.2696 -10.2687 -10.2665 -10.2665 -10.2665 -10.2639 -10.2639 -10.2639
   -10.2631 -10.2596 -10.2596 -10.2596  -6.6179  -6.6179  -6.6179  -6.5245
    -6.5245  -6.5245  -6.3080  -6.2889  -6.2889  -6.2889  -6.2575  -6.2143
    -5.8746  -5.8576  -5.8448  -5.7792  -5.7792  -5.7792  -5.7417  -5.7417
    -5.7417  -5.7151  -5.6876  -5.6876  -5.6876  -5.6724  -5.6714  -5.6714
    -5.6714  -5.6433  -5.5560  -5.5560  -5.5560  -5.5244  -5.5244  -5.5244
    -5.5047  -5.5027  -5.5027  -5.5027  -5.4586  -5.3976  -5.3976  -5.3976
    -5.3578  -5.3224  -5.3224  -5.3224  -0.5201  -0.5052  -0.5052  -0.5052
    -0.4608  -0.4167  -0.4167  -0.4167  -0.3549  -0.2925  -0.2925  -0.2925
     1.4826   1.4826   1.4826   1.6387   1.6387   1.6387   1.6902   1.7759
     1.7766   1.7766   1.7766   1.7937   1.9817   1.9817   1.9817   2.0553
     2.1707   2.1933   2.1933   2.1933   2.2474   2.3976   2.3976   2.3976
     2.4893   2.4893   2.4893   2.5572   2.5882   2.5882   2.5882   2.5924
     2.6790   2.7373   2.7373   2.7373   2.8234   2.8234   2.8234   2.8276
     2.9028   2.9028   2.9028   2.9243   2.9366   2.9557   2.9557   2.9557
     3.0604   3.0604   3.0605   3.0887   3.0887   3.0887   3.1268   3.1810
     3.2450   3.2450   3.2450   3.2713   3.2713   3.2713   3.3216   3.3279
     3.3279   3.3279   3.3741   3.4074   3.4208   3.4658   3.4658   3.4658
     3.4929   3.4996   3.4996   3.4996   3.5374   3.5374   3.5374   3.5400
     3.5612   3.6165   3.6165   3.6165   3.6551   3.6551   3.6551   3.6981
     3.6981   3.6982   3.7199   3.7440   3.8216   3.8415   3.8415   3.8415
     3.9384   3.9411   3.9411   3.9411   4.0302   4.0302   4.0302   4.0402
     4.0681   4.0681   4.0681   4.1089   4.1144   4.1144   4.1144   4.1682
     4.2736   4.2736   4.2736   4.2898   4.3148   4.3618   4.3618   4.3618
     4.4172   4.4172   4.4172   4.4936   4.4936   4.4936   4.5075   4.5117
     4.5646   4.6676   4.6676   4.6676   5.1492   5.1576   5.1577   5.1577
     5.1577   5.1831   5.1831   5.1831   5.1984   5.1984   5.1984   5.2111
     5.2253   5.2253   5.2253   5.2525   5.2525   5.2525   5.2568   5.2687
     5.3021   5.3021   5.3021   5.3094   5.3295   5.3295   5.3295   5.3685
     5.3685   5.3685   5.3748   5.3940   5.3954   5.4094   5.4094   5.4094
     5.4334   5.4334   5.4334   5.4386   5.4850   5.4850   5.4850   5.4912
     5.5396   5.5396   5.5396   5.5437   5.5667   5.5667   5.5667   5.6061
     5.6061   5.6061   5.6384   5.6391   5.6728   5.6728   5.6728   5.7040
     5.7040   5.7040   5.7175   5.7597   5.7597   5.7597   5.8016   5.8080
     5.8210   5.8244   5.8244   5.8244   5.8909   5.8909   5.8909   6.0572
     6.0608   6.0608   6.0608   6.0773   6.1206   6.1206   6.1206   6.1351
     6.1957   6.2384   6.2384   6.2384   6.2843   6.3026   6.3026   6.3026
     6.3065   6.3858   6.3858   6.3858   6.4503   6.4682   6.4682   6.4682
     6.4920   6.4926   6.5598   6.5598   6.5598   6.6459   6.6856   6.6856
     6.6856   6.7608   6.7785   6.7786   6.7786   6.7929   6.8551   6.8551
     6.8551   6.9363   6.9363   6.9363

          k =-0.3333-0.5774-0.2714 (115827 PWs)   bands (ev):

   -28.2754 -28.2754 -28.2754 -28.2754 -28.2754 -28.2754 -28.2753 -28.2753
   -28.2753 -28.2753 -28.2753 -28.2753 -14.9226 -14.9226 -14.9226 -14.9225
   -14.9225 -14.9225 -14.9225 -14.9225 -14.9225 -14.9224 -14.9223 -14.9223
   -14.9168 -14.9168 -14.9168 -14.9167 -14.9166 -14.9166 -14.9166 -14.9166
   -14.9166 -14.9166 -14.9166 -14.9165 -14.9046 -14.9046 -14.9046 -14.9046
   -14.9046 -14.9046 -14.9045 -14.9045 -14.9045 -14.9045 -14.9045 -14.9045
   -14.8644 -14.8644 -14.8644 -14.8644 -14.8644 -14.8644 -14.8644 -14.8644
   -14.8644 -14.8643 -14.8643 -14.8643 -14.8192 -14.8192 -14.8192 -14.8192
   -14.8192 -14.8192 -14.8192 -14.8192 -14.8192 -14.8192 -14.8192 -14.8192
   -10.3388 -10.3379 -10.3367 -10.3367 -10.3367 -10.3333 -10.3331 -10.3331
   -10.3331 -10.3303 -10.3303 -10.3303 -10.3077 -10.3077 -10.3077 -10.3049
   -10.3011 -10.3009 -10.2974 -10.2973 -10.2973 -10.2917 -10.2917 -10.2917
   -10.2696 -10.2687 -10.2665 -10.2665 -10.2665 -10.2639 -10.2639 -10.2639
   -10.2631 -10.2596 -10.2596 -10.2596  -6.6179  -6.6179  -6.6179  -6.5245
    -6.5245  -6.5245  -6.3080  -6.2889  -6.2889  -6.2889  -6.2575  -6.2143
    -5.8746  -5.8576  -5.8448  -5.7792  -5.7792  -5.7792  -5.7417  -5.7417
    -5.7417  -5.7151  -5.6876  -5.6876  -5.6876  -5.6724  -5.6714  -5.6714
    -5.6714  -5.6433  -5.5560  -5.5560  -5.5560  -5.5244  -5.5244  -5.5244
    -5.5047  -5.5027  -5.5027  -5.5027  -5.4586  -5.3976  -5.3976  -5.3976
    -5.3578  -5.3224  -5.3224  -5.3224  -0.5201  -0.5052  -0.5052  -0.5052
    -0.4608  -0.4167  -0.4167  -0.4167  -0.3549  -0.2925  -0.2925  -0.2925
     1.4826   1.4826   1.4826   1.6387   1.6387   1.6387   1.6902   1.7759
     1.7766   1.7766   1.7766   1.7937   1.9817   1.9817   1.9817   2.0553
     2.1707   2.1933   2.1933   2.1933   2.2474   2.3976   2.3976   2.3976
     2.4893   2.4893   2.4893   2.5572   2.5882   2.5882   2.5882   2.5924
     2.6790   2.7373   2.7373   2.7373   2.8234   2.8234   2.8234   2.8276
     2.9028   2.9028   2.9028   2.9243   2.9366   2.9557   2.9557   2.9557
     3.0604   3.0604   3.0605   3.0887   3.0887   3.0887   3.1268   3.1810
     3.2450   3.2450   3.2450   3.2713   3.2713   3.2713   3.3216   3.3279
     3.3279   3.3279   3.3741   3.4074   3.4208   3.4658   3.4658   3.4658
     3.4929   3.4996   3.4996   3.4996   3.5374   3.5374   3.5374   3.5400
     3.5612   3.6165   3.6165   3.6165   3.6551   3.6551   3.6551   3.6981
     3.6981   3.6982   3.7199   3.7440   3.8216   3.8415   3.8415   3.8415
     3.9384   3.9411   3.9411   3.9411   4.0302   4.0302   4.0302   4.0402
     4.0681   4.0681   4.0681   4.1089   4.1144   4.1144   4.1144   4.1682
     4.2736   4.2736   4.2736   4.2898   4.3148   4.3618   4.3618   4.3618
     4.4172   4.4172   4.4172   4.4936   4.4936   4.4936   4.5075   4.5117
     4.5646   4.6676   4.6676   4.6676   5.1492   5.1576   5.1577   5.1577
     5.1577   5.1831   5.1831   5.1831   5.1984   5.1984   5.1984   5.2111
     5.2253   5.2253   5.2253   5.2525   5.2525   5.2525   5.2568   5.2687
     5.3021   5.3021   5.3021   5.3094   5.3295   5.3295   5.3295   5.3685
     5.3685   5.3685   5.3748   5.3940   5.3954   5.4094   5.4094   5.4094
     5.4334   5.4334   5.4334   5.4386   5.4850   5.4850   5.4850   5.4912
     5.5396   5.5396   5.5396   5.5437   5.5667   5.5667   5.5667   5.6061
     5.6061   5.6061   5.6384   5.6391   5.6728   5.6728   5.6728   5.7040
     5.7040   5.7040   5.7175   5.7597   5.7597   5.7597   5.8016   5.8080
     5.8210   5.8244   5.8244   5.8244   5.8909   5.8909   5.8909   6.0572
     6.0608   6.0608   6.0608   6.0773   6.1206   6.1206   6.1206   6.1351
     6.1957   6.2384   6.2384   6.2384   6.2843   6.3026   6.3026   6.3026
     6.3065   6.3858   6.3858   6.3858   6.4503   6.4682   6.4682   6.4682
     6.4920   6.4926   6.5598   6.5598   6.5598   6.6459   6.6856   6.6856
     6.6856   6.7608   6.7785   6.7785   6.7786   6.7929   6.8551   6.8551
     6.8551   6.9363   6.9363   6.9363

     highest occupied level (ev):     7.1807

!    total energy              =   -9077.18790448 Ry
     estimated scf accuracy    <          9.6E-10 Ry

     The total energy is the sum of the following terms:
     one-electron contribution =   -2776.54854748 Ry
     hartree contribution      =    2020.03207855 Ry
     xc contribution           =   -2269.38696274 Ry
     ewald contribution        =   -3895.48812314 Ry
     one-center paw contrib.   =   -2155.79634967 Ry

     convergence has been achieved in  20 iterations

     negative rho (up, down):  7.902E-01 0.000E+00

     Forces acting on atoms (cartesian axes, Ry/au):

     atom    1 type  1   force =    -0.00015465    0.00026673   -0.00000021
     atom    2 type  1   force =    -0.00015418    0.00026642   -0.00000022
     atom    3 type  1   force =    -0.00015373    0.00026670   -0.00000061
     atom    4 type  1   force =    -0.00015486    0.00026689   -0.00000063
     atom    5 type  1   force =    -0.00015432   -0.00026666   -0.00000004
     atom    6 type  1   force =    -0.00015383   -0.00026690   -0.00000008
     atom    7 type  1   force =    -0.00015378   -0.00026741    0.00000066
     atom    8 type  1   force =    -0.00015430   -0.00026718    0.00000100
     atom    9 type  1   force =     0.00030822   -0.00000118   -0.00000139
     atom   10 type  1   force =     0.00030804   -0.00000093   -0.00000144
     atom   11 type  1   force =     0.00030788    0.00000055   -0.00000111
     atom   12 type  1   force =     0.00030825    0.00000024   -0.00000145
     atom   13 type  2   force =     0.00020081   -0.00038339    0.00018714
     atom   14 type  2   force =     0.00020282   -0.00038359    0.00018744
     atom   15 type  2   force =     0.00020135   -0.00038700    0.00018831
     atom   16 type  2   force =     0.00020049   -0.00038608    0.00018772
     atom   17 type  2   force =     0.00023224    0.00037044    0.00018764
     atom   18 type  2   force =     0.00023192    0.00036964    0.00018779
     atom   19 type  2   force =     0.00023480    0.00036743    0.00018688
     atom   20 type  2   force =     0.00023408    0.00036722    0.00018695
     atom   21 type  2   force =    -0.00043490    0.00001976    0.00018623
     atom   22 type  2   force =    -0.00043424    0.00001866    0.00018732
     atom   23 type  2   force =    -0.00043349    0.00001879    0.00018569
     atom   24 type  2   force =    -0.00043571    0.00001943    0.00018614
     atom   25 type  2   force =    -0.00043423   -0.00002033   -0.00018644
     atom   26 type  2   force =    -0.00043509   -0.00001943   -0.00018762
     atom   27 type  2   force =    -0.00043504   -0.00001681   -0.00018567
     atom   28 type  2   force =    -0.00043410   -0.00001755   -0.00018574
     atom   29 type  2   force =     0.00020209    0.00038690   -0.00018825
     atom   30 type  2   force =     0.00020228    0.00038665   -0.00018838
     atom   31 type  2   force =     0.00020301    0.00038442   -0.00018726
     atom   32 type  2   force =     0.00020181    0.00038441   -0.00018729
     atom   33 type  2   force =     0.00023401   -0.00036519   -0.00018623
     atom   34 type  2   force =     0.00023337   -0.00036516   -0.00018639
     atom   35 type  2   force =     0.00023343   -0.00036799   -0.00018802
     atom   36 type  2   force =     0.00023463   -0.00036773   -0.00018840
     atom   37 type  3   force =     0.00027273   -0.00046538   -0.00000536
     atom   38 type  3   force =     0.00027351   -0.00046583   -0.00000504
     atom   39 type  3   force =     0.00027224   -0.00047620   -0.00000203
     atom   40 type  3   force =     0.00027034   -0.00047594   -0.00000168
     atom   41 type  3   force =     0.00027028    0.00046812    0.00000099
     atom   42 type  3   force =     0.00026899    0.00046647    0.00000169
     atom   43 type  3   force =     0.00027109    0.00046836   -0.00000187
     atom   44 type  3   force =     0.00026908    0.00046856   -0.00000176
     atom   45 type  3   force =    -0.00054254    0.00000107    0.00000264
     atom   46 type  3   force =    -0.00054513    0.00000201    0.00000340
     atom   47 type  3   force =    -0.00054486   -0.00000001    0.00000503
     atom   48 type  3   force =    -0.00054318   -0.00000198    0.00000491
     atom   49 type  4   force =     0.00035326   -0.00009997    0.00001444
     atom   50 type  4   force =     0.00035386   -0.00010004    0.00001396
     atom   51 type  4   force =     0.00035410   -0.00010010    0.00001403
     atom   52 type  4   force =     0.00035380   -0.00009999    0.00001429
     atom   53 type  4   force =    -0.00008942    0.00035413    0.00001664
     atom   54 type  4   force =    -0.00008907    0.00035397    0.00001682
     atom   55 type  4   force =    -0.00008912    0.00035389    0.00001663
     atom   56 type  4   force =    -0.00008929    0.00035445    0.00001609
     atom   57 type  4   force =    -0.00026077   -0.00025514    0.00001064
     atom   58 type  4   force =    -0.00026058   -0.00025522    0.00001073
     atom   59 type  4   force =    -0.00026082   -0.00025528    0.00001032
     atom   60 type  4   force =    -0.00026099   -0.00025527    0.00001015
     atom   61 type  4   force =    -0.00026338    0.00025655   -0.00001399
     atom   62 type  4   force =    -0.00026380    0.00025703   -0.00001388
     atom   63 type  4   force =    -0.00026344    0.00025634   -0.00001413
     atom   64 type  4   force =    -0.00026287    0.00025591   -0.00001451
     atom   65 type  4   force =     0.00035123    0.00009969   -0.00001595
     atom   66 type  4   force =     0.00035147    0.00009961   -0.00001593
     atom   67 type  4   force =     0.00035144    0.00009974   -0.00001649
     atom   68 type  4   force =     0.00035112    0.00009982   -0.00001657
     atom   69 type  4   force =    -0.00009070   -0.00035392   -0.00001050
     atom   70 type  4   force =    -0.00009070   -0.00035382   -0.00001058
     atom   71 type  4   force =    -0.00009082   -0.00035431   -0.00001012
     atom   72 type  4   force =    -0.00009070   -0.00035433   -0.00001004
     atom   73 type  4   force =     0.00001409    0.00015573   -0.00024713
     atom   74 type  4   force =     0.00001470    0.00015544   -0.00024732
     atom   75 type  4   force =     0.00001456    0.00015550   -0.00024723
     atom   76 type  4   force =     0.00001359    0.00015566   -0.00024664
     atom   77 type  4   force =    -0.00014354   -0.00006354   -0.00024596
     atom   78 type  4   force =    -0.00014336   -0.00006388   -0.00024570
     atom   79 type  4   force =    -0.00014355   -0.00006452   -0.00024524
     atom   80 type  4   force =    -0.00014362   -0.00006440   -0.00024523
     atom   81 type  4   force =     0.00012564   -0.00009006   -0.00024702
     atom   82 type  4   force =     0.00012594   -0.00008968   -0.00024680
     atom   83 type  4   force =     0.00012552   -0.00009005   -0.00024723
     atom   84 type  4   force =     0.00012535   -0.00009028   -0.00024743
     atom   85 type  4   force =     0.00012806    0.00008966    0.00024696
     atom   86 type  4   force =     0.00012800    0.00008980    0.00024718
     atom   87 type  4   force =     0.00012801    0.00009017    0.00024702
     atom   88 type  4   force =     0.00012799    0.00009017    0.00024709
     atom   89 type  4   force =     0.00001585   -0.00015657    0.00024551
     atom   90 type  4   force =     0.00001599   -0.00015685    0.00024526
     atom   91 type  4   force =     0.00001586   -0.00015635    0.00024544
     atom   92 type  4   force =     0.00001627   -0.00015615    0.00024578
     atom   93 type  4   force =    -0.00014053    0.00006384    0.00024811
     atom   94 type  4   force =    -0.00014071    0.00006434    0.00024791
     atom   95 type  4   force =    -0.00014089    0.00006428    0.00024769
     atom   96 type  4   force =    -0.00014063    0.00006400    0.00024794

     Total force =     0.003915     Total SCF correction =     0.000053
     Message from routine punch:
     Nothing written, as per user request (disk_io='none')

     init_run     :     83.51s CPU     88.47s WALL (       1 calls)
     electrons    :   4148.67s CPU   4371.39s WALL (       1 calls)
     forces       :     37.27s CPU     38.45s WALL (       1 calls)

     Called by init_run:
     wfcinit      :     79.53s CPU     84.23s WALL (       1 calls)
     potinit      :      1.22s CPU      1.26s WALL (       1 calls)
     hinit0       :      1.07s CPU      1.10s WALL (       1 calls)

     Called by electrons:
     c_bands      :   3716.69s CPU   3899.49s WALL (      20 calls)
     sum_band     :    406.92s CPU    437.07s WALL (      20 calls)
     v_of_rho     :      4.31s CPU      4.81s WALL (      21 calls)
     newd         :     15.10s CPU     24.35s WALL (      21 calls)
     PAW_pot      :      5.54s CPU      5.57s WALL (      21 calls)
     mix_rho      :      0.73s CPU      0.79s WALL (      20 calls)

     Called by c_bands:
     init_us_2    :     49.07s CPU     49.47s WALL (     588 calls)
     cegterg      :   3608.39s CPU   3790.33s WALL (     280 calls)

     Called by *egterg:
     cdiaghg      :    162.78s CPU    167.66s WALL (    1682 calls)
     h_psi        :   1981.38s CPU   2106.73s WALL (    1696 calls)
     s_psi        :    456.55s CPU    460.00s WALL (    1696 calls)
     g_psi        :      7.69s CPU      7.74s WALL (    1402 calls)

     Called by h_psi:
     h_psi:calbec :    459.68s CPU    465.85s WALL (    1696 calls)
     vloc_psi     :   1054.52s CPU   1158.10s WALL (    1696 calls)
     add_vuspsi   :    459.73s CPU    463.17s WALL (    1696 calls)

     General routines
     calbec       :    635.05s CPU    643.64s WALL (    2032 calls)
     fft          :      4.08s CPU      4.46s WALL (     282 calls)
     ffts         :      0.78s CPU      0.80s WALL (      41 calls)
     fftw         :    839.59s CPU    937.17s WALL (  826970 calls)
     interpolate  :      0.97s CPU      1.02s WALL (      21 calls)

     Parallel routines

     PWSCF        :      1h11m CPU      1h14m WALL


   This run was terminated on:  18:11:23  21Aug2026            

=------------------------------------------------------------------------------=
   JOB DONE.
=------------------------------------------------------------------------------=
