
     Program PWSCF v.7.5 starts on  2Jul2026 at  2:11:27 
        Git branch: develop
        Last git commit: ea9b1b3d7915154c244e4a71786faaa0fdafa55c
        Last git commit date: Mon Mar 16 14:03:30 2026 +0000
        Last git commit subject: Merge branch 'dev_td_porting' into 'develop'

     This program is part of the open-source Quantum ESPRESSO suite
     for quantum simulation of materials; please cite
         "P. Giannozzi et al., J. Phys.:Condens. Matter 21 395502 (2009);
         "P. Giannozzi et al., J. Phys.:Condens. Matter 29 465901 (2017);
         "P. Giannozzi et al., J. Chem. Phys. 152 154105 (2020);
          URL http://www.quantum-espresso.org", 
     in publications or presentations arising from this work. More details at
     http://www.quantum-espresso.org/quote

     Parallel version (MPI), running on     4 processors

     MPI processes distributed on     1 nodes
     0 MiB available memory on the printing compute node when the environment starts

     Reading input from inputs/ecut_35.in
Warning: card &CELL ignored

     Current dimensions of program PWSCF are:
     Max number of different atomic species (ntypx) = 10
     Max number of k-points (npk) =  40000
     Max angular momentum in pseudopotentials (lmaxx) =  4

     Exact exchange band parallelism type set to band_pairs

     Message from routine setup:
     using ibrav=0 with symmetry is DISCOURAGED, use correct ibrav instead

     R & G space division:  proc/nbgrp/npool/nimage =       4
     Subspace diagonalization in iterative solution of the eigenvalue problem:
     a serial algorithm will be used


     Parallelization info
     --------------------
     sticks:   dense  smooth     PW     G-vecs:    dense   smooth      PW
     Min         656     327     96                61614    21779    3438
     Max         657     328     98                61623    21786    3442
     Sum        2625    1311    387               246469    87133   13759

     Using Slab Decomposition



     bravais-lattice index     =            0
     lattice parameter (alat)  =       7.2569  a.u.
     unit-cell volume          =    3114.5940 (a.u.)^3
     number of atoms/cell      =           20
     number of atomic types    =            3
     number of electrons       =       160.00
     number of Kohn-Sham states=           80
     kinetic-energy cutoff     =      35.0000  Ry
     charge density cutoff     =     280.0000  Ry
     scf convergence threshold =      1.0E-08
     mixing beta               =       0.3000
     number of iterations used =            8  plain     mixing
     Exchange-correlation= SLA  PW   PBE  PBE
                           (   1   4   3   4   0   0   0)

     celldm(1)=   7.256926  celldm(2)=   0.000000  celldm(3)=   0.000000
     celldm(4)=   0.000000  celldm(5)=   0.000000  celldm(6)=   0.000000

     crystal axes: (cart. coord. in units of alat)
               a(1) = (   1.000000   0.000000   0.000000 )  
               a(2) = (  -0.000000   2.236035   0.000000 )  
               a(3) = (   0.000000   0.000000   3.644724 )  

     reciprocal axes: (cart. coord. in units 2 pi/alat)
               b(1) = (  1.000000  0.000000 -0.000000 )  
               b(2) = (  0.000000  0.447220  0.000000 )  
               b(3) = (  0.000000 -0.000000  0.274369 )  


     PseudoPot. # 1 for S  read from file:
     /Users/kaede/scientific-tools/pseudopotentials/SSSP/1.3.0/PBE/precision/s_pbe_v1.4.uspp.F.UPF
     MD5 check sum: 88d86576ff6df21479756cfb9bdac1df
     Pseudo is Ultrasoft + core correction, Zval =  6.0
     Generated by new atomic code, or converted to UPF format
     Using radial grid of  907 points,  6 beta functions with: 
                l(1) =   0
                l(2) =   0
                l(3) =   1
                l(4) =   1
                l(5) =   2
                l(6) =   2
     Q(r) pseudized with  8 coefficients,  rinner =    1.300   1.300   1.300
                                                       1.300   1.300

     PseudoPot. # 2 for Sr read from file:
     /Users/kaede/scientific-tools/pseudopotentials/SSSP/1.3.0/PBE/precision/Sr_pbe_v1.uspp.F.UPF
     MD5 check sum: 6b418c05fbe9db5448babca5e47b7a5b
     Pseudo is Ultrasoft + core correction, Zval = 10.0
     Generated by new atomic code, or converted to UPF format
     Using radial grid of  883 points,  6 beta functions with: 
                l(1) =   0
                l(2) =   0
                l(3) =   1
                l(4) =   1
                l(5) =   2
                l(6) =   2
     Q(r) pseudized with  6 coefficients,  rinner =    1.400   1.400   1.400
                                                       1.400   1.400

     PseudoPot. # 3 for Zr read from file:
     /Users/kaede/scientific-tools/pseudopotentials/SSSP/1.3.0/PBE/precision/Zr_pbe_v1.uspp.F.UPF
     MD5 check sum: 5db81b1e868ab7776c4564c113de050b
     Pseudo is Ultrasoft + core correction, Zval = 12.0
     Generated by new atomic code, or converted to UPF format
     Using radial grid of  887 points,  6 beta functions with: 
                l(1) =   0
                l(2) =   0
                l(3) =   1
                l(4) =   1
                l(5) =   2
                l(6) =   2
     Q(r) pseudized with  6 coefficients,  rinner =    1.200   1.200   1.200
                                                       1.200   1.200

     atomic species   valence    mass     pseudopotential
     S                 6.00    32.06500     S ( 1.00)
     Sr               10.00    87.62000     Sr( 1.00)
     Zr               12.00    91.22400     Zr( 1.00)

      8 Sym. Ops., with inversion, found ( 6 have fractional translation)


                                    s                        frac. trans.

      isym =  1     identity                                     

 cryst.   s( 1) = (     1          0          0      )
                  (     0          1          0      )
                  (     0          0          1      )

 cart.    s( 1) = (  1.0000000  0.0000000  0.0000000 )
                  (  0.0000000  1.0000000  0.0000000 )
                  (  0.0000000  0.0000000  1.0000000 )


      isym =  2     180 deg rotation - cart. axis [0,0,1]        

 cryst.   s( 2) = (    -1          0          0      )    f =(  0.0000000 )
                  (     0         -1          0      )       ( -0.5000000 )
                  (     0          0          1      )       (  0.5000000 )

 cart.    s( 2) = ( -1.0000000  0.0000000  0.0000000 )    f =(  0.0000000 )
                  (  0.0000000 -1.0000000  0.0000000 )       ( -1.1180177 )
                  (  0.0000000  0.0000000  1.0000000 )       (  1.8223620 )


      isym =  3     180 deg rotation - cart. axis [0,1,0]        

 cryst.   s( 3) = (    -1          0          0      )    f =(  0.5000000 )
                  (     0          1          0      )       (  0.5000000 )
                  (     0          0         -1      )       (  0.5000000 )

 cart.    s( 3) = ( -1.0000000  0.0000000  0.0000000 )    f =(  0.5000000 )
                  (  0.0000000  1.0000000  0.0000000 )       (  1.1180177 )
                  (  0.0000000  0.0000000 -1.0000000 )       (  1.8223620 )


      isym =  4     180 deg rotation - cart. axis [1,0,0]        

 cryst.   s( 4) = (     1          0          0      )    f =( -0.5000000 )
                  (     0         -1          0      )       (  0.0000000 )
                  (     0          0         -1      )       (  0.0000000 )

 cart.    s( 4) = (  1.0000000  0.0000000  0.0000000 )    f =( -0.5000000 )
                  (  0.0000000 -1.0000000  0.0000000 )       (  0.0000000 )
                  (  0.0000000  0.0000000 -1.0000000 )       (  0.0000000 )


      isym =  5     inversion                                    

 cryst.   s( 5) = (    -1          0          0      )
                  (     0         -1          0      )
                  (     0          0         -1      )

 cart.    s( 5) = ( -1.0000000  0.0000000  0.0000000 )
                  (  0.0000000 -1.0000000  0.0000000 )
                  (  0.0000000  0.0000000 -1.0000000 )


      isym =  6     inv. 180 deg rotation - cart. axis [0,0,1]   

 cryst.   s( 6) = (     1          0          0      )    f =(  0.0000000 )
                  (     0          1          0      )       (  0.5000000 )
                  (     0          0         -1      )       (  0.5000000 )

 cart.    s( 6) = (  1.0000000  0.0000000  0.0000000 )    f =(  0.0000000 )
                  (  0.0000000  1.0000000  0.0000000 )       (  1.1180177 )
                  (  0.0000000  0.0000000 -1.0000000 )       (  1.8223620 )


      isym =  7     inv. 180 deg rotation - cart. axis [0,1,0]   

 cryst.   s( 7) = (     1          0          0      )    f =( -0.5000000 )
                  (     0         -1          0      )       ( -0.5000000 )
                  (     0          0          1      )       (  0.5000000 )

 cart.    s( 7) = (  1.0000000  0.0000000  0.0000000 )    f =( -0.5000000 )
                  (  0.0000000 -1.0000000  0.0000000 )       ( -1.1180177 )
                  (  0.0000000  0.0000000  1.0000000 )       (  1.8223620 )


      isym =  8     inv. 180 deg rotation - cart. axis [1,0,0]   

 cryst.   s( 8) = (    -1          0          0      )    f =(  0.5000000 )
                  (     0          1          0      )       (  0.0000000 )
                  (     0          0          1      )       (  0.0000000 )

 cart.    s( 8) = ( -1.0000000  0.0000000  0.0000000 )    f =(  0.5000000 )
                  (  0.0000000  1.0000000  0.0000000 )       (  0.0000000 )
                  (  0.0000000  0.0000000  1.0000000 )       (  0.0000000 )


   Cartesian axes

     site n.     atom                  positions (alat units)
         1        Sr     tau(   1) = (   0.2500000   0.1482894   2.9910901  )
         2        Sr     tau(   2) = (   0.7500000   2.0877460   0.6536339  )
         3        Sr     tau(   3) = (   0.7500000   0.9697283   1.1687281  )
         4        Sr     tau(   4) = (   0.2500000   1.2663071   2.4759958  )
         5        Zr     tau(   5) = (   0.2500000   0.7327533   0.2079279  )
         6        Zr     tau(   6) = (   0.7500000   1.5032821   3.4367961  )
         7        Zr     tau(   7) = (   0.7500000   0.3852644   2.0302898  )
         8        Zr     tau(   8) = (   0.2500000   1.8507709   1.6144341  )
         9        S      tau(   9) = (   0.2500000   0.4620834   0.7862872  )
        10        S      tau(  10) = (   0.7500000   1.7739519   2.8584367  )
        11        S      tau(  11) = (   0.7500000   0.6559343   2.6086492  )
        12        S      tau(  12) = (   0.2500000   1.5801011   1.0360747  )
        13        S      tau(  13) = (   0.2500000   0.7520860   1.7723564  )
        14        S      tau(  14) = (   0.7500000   1.4839493   1.8723676  )
        15        S      tau(  15) = (   0.7500000   0.3659317   3.5947184  )
        16        S      tau(  16) = (   0.2500000   1.8701037   0.0500056  )
        17        S      tau(  17) = (   0.2500000   1.0839137   3.2590575  )
        18        S      tau(  18) = (   0.7500000   1.1521217   0.3856665  )
        19        S      tau(  19) = (   0.7500000   0.0341040   1.4366955  )
        20        S      tau(  20) = (   0.2500000   2.2019314   2.2080285  )

   Crystallographic axes

     site n.     atom                  positions (cryst. coord.)
         1        Sr     tau(   1) = (  0.2500000  0.0663180  0.8206630  )
         2        Sr     tau(   2) = (  0.7500000  0.9336820  0.1793370  )
         3        Sr     tau(   3) = (  0.7500000  0.4336820  0.3206630  )
         4        Sr     tau(   4) = (  0.2500000  0.5663180  0.6793370  )
         5        Zr     tau(   5) = (  0.2500000  0.3277020  0.0570490  )
         6        Zr     tau(   6) = (  0.7500000  0.6722980  0.9429510  )
         7        Zr     tau(   7) = (  0.7500000  0.1722980  0.5570490  )
         8        Zr     tau(   8) = (  0.2500000  0.8277020  0.4429510  )
         9        S      tau(   9) = (  0.2500000  0.2066530  0.2157330  )
        10        S      tau(  10) = (  0.7500000  0.7933470  0.7842670  )
        11        S      tau(  11) = (  0.7500000  0.2933470  0.7157330  )
        12        S      tau(  12) = (  0.2500000  0.7066530  0.2842670  )
        13        S      tau(  13) = (  0.2500000  0.3363480  0.4862800  )
        14        S      tau(  14) = (  0.7500000  0.6636520  0.5137200  )
        15        S      tau(  15) = (  0.7500000  0.1636520  0.9862800  )
        16        S      tau(  16) = (  0.2500000  0.8363480  0.0137200  )
        17        S      tau(  17) = (  0.2500000  0.4847480  0.8941850  )
        18        S      tau(  18) = (  0.7500000  0.5152520  0.1058150  )
        19        S      tau(  19) = (  0.7500000  0.0152520  0.3941850  )
        20        S      tau(  20) = (  0.2500000  0.9847480  0.6058150  )

     number of k points=     6
                       cart. coord. in units 2pi/alat
        k(    1) = (   0.0000000   0.0000000   0.0000000), wk =   0.2500000
        k(    2) = (   0.0000000  -0.2236101   0.0000000), wk =   0.2500000
        k(    3) = (   0.2500000   0.0000000   0.0000000), wk =   0.5000000
        k(    4) = (   0.2500000  -0.2236101   0.0000000), wk =   0.5000000
        k(    5) = (  -0.5000000   0.0000000   0.0000000), wk =   0.2500000
        k(    6) = (  -0.5000000  -0.2236101   0.0000000), wk =   0.2500000

                       cryst. coord.
        k(    1) = (   0.0000000   0.0000000   0.0000000), wk =   0.2500000
        k(    2) = (   0.0000000  -0.5000000   0.0000000), wk =   0.2500000
        k(    3) = (   0.2500000   0.0000000   0.0000000), wk =   0.5000000
        k(    4) = (   0.2500000  -0.5000000   0.0000000), wk =   0.5000000
        k(    5) = (  -0.5000000   0.0000000   0.0000000), wk =   0.2500000
        k(    6) = (  -0.5000000  -0.5000000   0.0000000), wk =   0.2500000

     Dense  grid:   246469 G-vectors     FFT dimensions: (  40,  90, 144)

     Smooth grid:    87133 G-vectors     FFT dimensions: (  30,  64, 100)

     Dynamical RAM for                 wfc:       3.32 MB

     Dynamical RAM for     wfc (w. buffer):      23.26 MB

     Dynamical RAM for           str. fact:       2.82 MB

     Dynamical RAM for           local pot:       0.00 MB

     Dynamical RAM for          nlocal pot:      14.95 MB

     Dynamical RAM for                qrad:       4.03 MB

     Dynamical RAM for          rho,v,vnew:       5.79 MB

     Dynamical RAM for               rhoin:       1.93 MB

     Dynamical RAM for            rho*nmix:      15.04 MB

     Dynamical RAM for           G-vectors:       3.69 MB

     Dynamical RAM for          h,s,v(r/c):       1.17 MB

     Dynamical RAM for          <psi|beta>:       0.44 MB

     Dynamical RAM for                 psi:       6.65 MB

     Dynamical RAM for                hpsi:       6.65 MB

     Dynamical RAM for                spsi:       6.65 MB

     Dynamical RAM for      wfcinit/wfcrot:       6.79 MB

     Dynamical RAM for           addusdens:     186.16 MB

     Dynamical RAM for         addusstress:     188.98 MB

     Estimated static dynamical RAM per process >      65.17 MB

     Estimated max dynamical RAM per process >     269.20 MB

     Estimated total dynamical RAM >       1.05 GB

     Initial potential from superposition of free atoms

     starting charge     159.8564, renormalised to     160.0000

     negative rho (up, down):  5.022E-01 0.000E+00
     Starting wfcs are  152 randomized atomic wfcs

     total cpu time spent up to now is        1.6 secs

     Self-consistent Calculation

     iteration #  1     ecut=    35.00 Ry     beta= 0.30
     Davidson diagonalization with overlap

---- Real-time Memory Report at c_bands before calling an iterative solver
             0 MiB given to the printing process from OS
             0 MiB allocation reported by mallinfo(arena+hblkhd)
             0 MiB available memory on the node where the printing process lives
------------------
     ethr =  1.00E-02,  avg # of iterations =  1.0

     negative rho (up, down):  5.078E-01 0.000E+00

     total cpu time spent up to now is        3.4 secs

     total energy              =    -968.72236983 Ry
     estimated scf accuracy    <       1.79803178 Ry

     iteration #  2     ecut=    35.00 Ry     beta= 0.30
     Davidson diagonalization with overlap

---- Real-time Memory Report at c_bands before calling an iterative solver
             0 MiB given to the printing process from OS
             0 MiB allocation reported by mallinfo(arena+hblkhd)
             0 MiB available memory on the node where the printing process lives
------------------
     ethr =  1.12E-03,  avg # of iterations =  3.3

     negative rho (up, down):  5.138E-01 0.000E+00

     total cpu time spent up to now is        5.7 secs

     total energy              =    -968.97743374 Ry
     estimated scf accuracy    <       0.28203651 Ry

     iteration #  3     ecut=    35.00 Ry     beta= 0.30
     Davidson diagonalization with overlap

---- Real-time Memory Report at c_bands before calling an iterative solver
             0 MiB given to the printing process from OS
             0 MiB allocation reported by mallinfo(arena+hblkhd)
             0 MiB available memory on the node where the printing process lives
------------------
     ethr =  1.76E-04,  avg # of iterations =  4.5

     negative rho (up, down):  5.190E-01 0.000E+00

     total cpu time spent up to now is        8.1 secs

     total energy              =    -969.02065707 Ry
     estimated scf accuracy    <       0.05821448 Ry

     iteration #  4     ecut=    35.00 Ry     beta= 0.30
     Davidson diagonalization with overlap

---- Real-time Memory Report at c_bands before calling an iterative solver
             0 MiB given to the printing process from OS
             0 MiB allocation reported by mallinfo(arena+hblkhd)
             0 MiB available memory on the node where the printing process lives
------------------
     ethr =  3.64E-05,  avg # of iterations =  4.2

     negative rho (up, down):  5.235E-01 0.000E+00

     total cpu time spent up to now is       10.5 secs

     total energy              =    -969.03188330 Ry
     estimated scf accuracy    <       0.01562958 Ry

     iteration #  5     ecut=    35.00 Ry     beta= 0.30
     Davidson diagonalization with overlap

---- Real-time Memory Report at c_bands before calling an iterative solver
             0 MiB given to the printing process from OS
             0 MiB allocation reported by mallinfo(arena+hblkhd)
             0 MiB available memory on the node where the printing process lives
------------------
     ethr =  9.77E-06,  avg # of iterations =  4.5

     negative rho (up, down):  5.253E-01 0.000E+00

     total cpu time spent up to now is       12.9 secs

     total energy              =    -969.03399635 Ry
     estimated scf accuracy    <       0.00357307 Ry

     iteration #  6     ecut=    35.00 Ry     beta= 0.30
     Davidson diagonalization with overlap

---- Real-time Memory Report at c_bands before calling an iterative solver
             0 MiB given to the printing process from OS
             0 MiB allocation reported by mallinfo(arena+hblkhd)
             0 MiB available memory on the node where the printing process lives
------------------
     ethr =  2.23E-06,  avg # of iterations =  3.7

     negative rho (up, down):  5.256E-01 0.000E+00

     total cpu time spent up to now is       15.2 secs

     total energy              =    -969.03409875 Ry
     estimated scf accuracy    <       0.00063594 Ry

     iteration #  7     ecut=    35.00 Ry     beta= 0.30
     Davidson diagonalization with overlap

---- Real-time Memory Report at c_bands before calling an iterative solver
             0 MiB given to the printing process from OS
             0 MiB allocation reported by mallinfo(arena+hblkhd)
             0 MiB available memory on the node where the printing process lives
------------------
     ethr =  3.97E-07,  avg # of iterations =  5.5

     negative rho (up, down):  5.256E-01 0.000E+00

     total cpu time spent up to now is       18.3 secs

     total energy              =    -969.03399388 Ry
     estimated scf accuracy    <       0.00122579 Ry

     iteration #  8     ecut=    35.00 Ry     beta= 0.30
     Davidson diagonalization with overlap

---- Real-time Memory Report at c_bands before calling an iterative solver
             0 MiB given to the printing process from OS
             0 MiB allocation reported by mallinfo(arena+hblkhd)
             0 MiB available memory on the node where the printing process lives
------------------
     ethr =  3.97E-07,  avg # of iterations =  5.7

     negative rho (up, down):  5.255E-01 0.000E+00

     total cpu time spent up to now is       21.4 secs

     total energy              =    -969.03455188 Ry
     estimated scf accuracy    <       0.00065387 Ry

     iteration #  9     ecut=    35.00 Ry     beta= 0.30
     Davidson diagonalization with overlap

---- Real-time Memory Report at c_bands before calling an iterative solver
             0 MiB given to the printing process from OS
             0 MiB allocation reported by mallinfo(arena+hblkhd)
             0 MiB available memory on the node where the printing process lives
------------------
     ethr =  3.97E-07,  avg # of iterations =  1.0

     negative rho (up, down):  5.254E-01 0.000E+00

     total cpu time spent up to now is       23.3 secs

     total energy              =    -969.03432140 Ry
     estimated scf accuracy    <       0.00060897 Ry

     iteration # 10     ecut=    35.00 Ry     beta= 0.30
     Davidson diagonalization with overlap

---- Real-time Memory Report at c_bands before calling an iterative solver
             0 MiB given to the printing process from OS
             0 MiB allocation reported by mallinfo(arena+hblkhd)
             0 MiB available memory on the node where the printing process lives
------------------
     ethr =  3.81E-07,  avg # of iterations =  3.0

     negative rho (up, down):  5.254E-01 0.000E+00

     total cpu time spent up to now is       25.6 secs

     total energy              =    -969.03443100 Ry
     estimated scf accuracy    <       0.00000480 Ry

     iteration # 11     ecut=    35.00 Ry     beta= 0.30
     Davidson diagonalization with overlap

---- Real-time Memory Report at c_bands before calling an iterative solver
             0 MiB given to the printing process from OS
             0 MiB allocation reported by mallinfo(arena+hblkhd)
             0 MiB available memory on the node where the printing process lives
------------------
     ethr =  3.00E-09,  avg # of iterations =  6.7

     negative rho (up, down):  5.254E-01 0.000E+00

     total cpu time spent up to now is       29.2 secs

     total energy              =    -969.03443756 Ry
     estimated scf accuracy    <       0.00000668 Ry

     iteration # 12     ecut=    35.00 Ry     beta= 0.30
     Davidson diagonalization with overlap

---- Real-time Memory Report at c_bands before calling an iterative solver
             0 MiB given to the printing process from OS
             0 MiB allocation reported by mallinfo(arena+hblkhd)
             0 MiB available memory on the node where the printing process lives
------------------
     ethr =  3.00E-09,  avg # of iterations =  3.2

     negative rho (up, down):  5.253E-01 0.000E+00

     total cpu time spent up to now is       31.6 secs

     total energy              =    -969.03443826 Ry
     estimated scf accuracy    <       0.00000092 Ry

     iteration # 13     ecut=    35.00 Ry     beta= 0.30
     Davidson diagonalization with overlap

---- Real-time Memory Report at c_bands before calling an iterative solver
             0 MiB given to the printing process from OS
             0 MiB allocation reported by mallinfo(arena+hblkhd)
             0 MiB available memory on the node where the printing process lives
------------------
     ethr =  5.76E-10,  avg # of iterations =  4.2

     negative rho (up, down):  5.253E-01 0.000E+00

     total cpu time spent up to now is       34.0 secs

     total energy              =    -969.03443845 Ry
     estimated scf accuracy    <       0.00000006 Ry

     iteration # 14     ecut=    35.00 Ry     beta= 0.30
     Davidson diagonalization with overlap

---- Real-time Memory Report at c_bands before calling an iterative solver
             0 MiB given to the printing process from OS
             0 MiB allocation reported by mallinfo(arena+hblkhd)
             0 MiB available memory on the node where the printing process lives
------------------
     ethr =  4.05E-11,  avg # of iterations =  6.5

     negative rho (up, down):  5.253E-01 0.000E+00

     total cpu time spent up to now is       37.8 secs

     total energy              =    -969.03443846 Ry
     estimated scf accuracy    <       0.00000018 Ry

     iteration # 15     ecut=    35.00 Ry     beta= 0.30
     Davidson diagonalization with overlap

---- Real-time Memory Report at c_bands before calling an iterative solver
             0 MiB given to the printing process from OS
             0 MiB allocation reported by mallinfo(arena+hblkhd)
             0 MiB available memory on the node where the printing process lives
------------------
     ethr =  4.05E-11,  avg # of iterations =  4.2

     negative rho (up, down):  5.253E-01 0.000E+00

     total cpu time spent up to now is       40.4 secs

     total energy              =    -969.03443848 Ry
     estimated scf accuracy    <       0.00000002 Ry

     iteration # 16     ecut=    35.00 Ry     beta= 0.30
     Davidson diagonalization with overlap

---- Real-time Memory Report at c_bands before calling an iterative solver
             0 MiB given to the printing process from OS
             0 MiB allocation reported by mallinfo(arena+hblkhd)
             0 MiB available memory on the node where the printing process lives
------------------
     ethr =  1.43E-11,  avg # of iterations =  4.2

     negative rho (up, down):  5.253E-01 0.000E+00

     total cpu time spent up to now is       42.9 secs

     End of self-consistent calculation

          k = 0.0000 0.0000 0.0000 ( 10847 PWs)   bands (ev):

   -41.3278 -41.3278 -41.3233 -41.3233 -26.5861 -26.5860 -26.5845 -26.5843
   -19.4210 -19.4210 -19.3889 -19.3888 -19.3395 -19.3394 -19.3099 -19.3099
   -19.2912 -19.2912 -19.2746 -19.2746  -8.6915  -8.6844  -8.6825  -8.6747
    -8.6608  -8.6363  -8.5815  -8.5809  -8.5227  -8.5218  -8.5161  -8.5151
    -4.8298  -4.5949  -4.0402  -3.9862  -3.7500  -3.6543  -3.6220  -3.6172
    -3.4845  -3.3892  -3.3381  -3.2603   3.6935   3.9287   3.9601   3.9902
     4.0280   4.2238   4.3405   4.5947   4.8063   4.8064   4.8365   4.8809
     4.9262   4.9578   4.9699   5.4850   5.7153   5.7305   5.7744   5.9747
     5.9836   6.0297   6.3411   6.3568   6.5550   6.6157   6.6905   6.7258
     6.8212   6.8886   7.0128   7.1820   7.5122   7.5377   7.7435   7.9485

     occupation numbers 
     1.0000   1.0000   1.0000   1.0000   1.0000   1.0000   1.0000   1.0000
     1.0000   1.0000   1.0000   1.0000   1.0000   1.0000   1.0000   1.0000
     1.0000   1.0000   1.0000   1.0000   1.0000   1.0000   1.0000   1.0000
     1.0000   1.0000   1.0000   1.0000   1.0000   1.0000   1.0000   1.0000
     1.0000   1.0000   1.0000   1.0000   1.0000   1.0000   1.0000   1.0000
     1.0000   1.0000   1.0000   1.0000   1.0000   1.0000   1.0000   1.0000
     1.0000   1.0000   1.0000   1.0000   1.0000   1.0000   1.0000   1.0000
     1.0000   1.0000   1.0000   1.0000   1.0000   1.0000   1.0000   1.0000
     1.0000   1.0000   1.0000   1.0000   1.0000   1.0000   1.0000   1.0000
     1.0000   1.0000   1.0000   1.0000   1.0000   1.0000   1.0000   1.0000

          k = 0.0000-0.2236 0.0000 ( 10866 PWs)   bands (ev):

   -41.3278 -41.3278 -41.3233 -41.3233 -26.5853 -26.5853 -26.5851 -26.5851
   -19.4207 -19.4207 -19.3892 -19.3892 -19.3394 -19.3394 -19.3099 -19.3099
   -19.2912 -19.2912 -19.2746 -19.2746  -8.6952  -8.6952  -8.6710  -8.6710
    -8.6234  -8.6234  -8.6085  -8.6085  -8.5194  -8.5194  -8.5185  -8.5185
    -4.5987  -4.5987  -4.1825  -4.1825  -3.8847  -3.8847  -3.4562  -3.4562
    -3.3828  -3.3828  -3.2664  -3.2664   3.5040   3.5040   3.7644   3.7644
     4.2214   4.2214   4.6760   4.6760   4.8005   4.8005   4.9438   4.9438
     5.2560   5.2560   5.3373   5.3373   5.5935   5.5935   5.8776   5.8776
     6.2518   6.2518   6.5259   6.5259   6.5897   6.5897   6.7912   6.7912
     6.8090   6.8090   7.0770   7.0770   7.1752   7.1752   7.2181   7.2181

     occupation numbers 
     1.0000   1.0000   1.0000   1.0000   1.0000   1.0000   1.0000   1.0000
     1.0000   1.0000   1.0000   1.0000   1.0000   1.0000   1.0000   1.0000
     1.0000   1.0000   1.0000   1.0000   1.0000   1.0000   1.0000   1.0000
     1.0000   1.0000   1.0000   1.0000   1.0000   1.0000   1.0000   1.0000
     1.0000   1.0000   1.0000   1.0000   1.0000   1.0000   1.0000   1.0000
     1.0000   1.0000   1.0000   1.0000   1.0000   1.0000   1.0000   1.0000
     1.0000   1.0000   1.0000   1.0000   1.0000   1.0000   1.0000   1.0000
     1.0000   1.0000   1.0000   1.0000   1.0000   1.0000   1.0000   1.0000
     1.0000   1.0000   1.0000   1.0000   1.0000   1.0000   1.0000   1.0000
     1.0000   1.0000   1.0000   1.0000   1.0000   1.0000   1.0000   1.0000

          k = 0.2500 0.0000 0.0000 ( 10866 PWs)   bands (ev):

   -41.3246 -41.3246 -41.3214 -41.3214 -26.5760 -26.5758 -26.5745 -26.5743
   -19.4056 -19.4056 -19.3799 -19.3798 -19.3534 -19.3534 -19.3462 -19.3462
   -19.3211 -19.3211 -19.3074 -19.3074  -8.7155  -8.7153  -8.6887  -8.6866
    -8.6429  -8.6406  -8.6402  -8.6253  -8.6251  -8.6070  -8.5570  -8.5561
    -4.4349  -4.2626  -3.8738  -3.8504  -3.7923  -3.7248  -3.6171  -3.6048
    -3.3812  -3.3349  -3.2981  -3.2676   3.8840   3.9508   3.9582   4.1449
     4.1542   4.2581   4.4444   4.4460   4.5223   4.5374   4.5764   4.9121
     5.1532   5.1943   5.2571   5.2643   5.4328   5.5272   5.5519   5.6815
     5.8504   5.8537   5.9420   5.9592   6.0461   6.0700   6.1898   6.4804
     6.4883   6.4974   6.5885   6.8070   6.8636   7.0216   7.1233   7.2694

     occupation numbers 
     1.0000   1.0000   1.0000   1.0000   1.0000   1.0000   1.0000   1.0000
     1.0000   1.0000   1.0000   1.0000   1.0000   1.0000   1.0000   1.0000
     1.0000   1.0000   1.0000   1.0000   1.0000   1.0000   1.0000   1.0000
     1.0000   1.0000   1.0000   1.0000   1.0000   1.0000   1.0000   1.0000
     1.0000   1.0000   1.0000   1.0000   1.0000   1.0000   1.0000   1.0000
     1.0000   1.0000   1.0000   1.0000   1.0000   1.0000   1.0000   1.0000
     1.0000   1.0000   1.0000   1.0000   1.0000   1.0000   1.0000   1.0000
     1.0000   1.0000   1.0000   1.0000   1.0000   1.0000   1.0000   1.0000
     1.0000   1.0000   1.0000   1.0000   1.0000   1.0000   1.0000   1.0000
     1.0000   1.0000   1.0000   1.0000   1.0000   1.0000   1.0000   1.0000

          k = 0.2500-0.2236 0.0000 ( 10886 PWs)   bands (ev):

   -41.3246 -41.3246 -41.3214 -41.3214 -26.5752 -26.5752 -26.5751 -26.5751
   -19.4054 -19.4054 -19.3801 -19.3801 -19.3534 -19.3534 -19.3461 -19.3461
   -19.3211 -19.3211 -19.3074 -19.3074  -8.7032  -8.7032  -8.7016  -8.7016
    -8.6497  -8.6497  -8.6316  -8.6316  -8.5855  -8.5855  -8.5790  -8.5790
    -4.2912  -4.2912  -3.9265  -3.9265  -3.8581  -3.8581  -3.4908  -3.4908
    -3.3786  -3.3786  -3.2759  -3.2759   4.0263   4.0263   4.0737   4.0737
     4.2143   4.2143   4.3204   4.3204   4.5618   4.5618   4.8241   4.8241
     4.9293   4.9293   5.1860   5.1860   5.4096   5.4096   5.5298   5.5298
     5.7457   5.7457   6.0325   6.0325   6.1274   6.1274   6.3520   6.3520
     6.5298   6.5298   6.9688   6.9688   7.1300   7.1300   7.2645   7.2645

     occupation numbers 
     1.0000   1.0000   1.0000   1.0000   1.0000   1.0000   1.0000   1.0000
     1.0000   1.0000   1.0000   1.0000   1.0000   1.0000   1.0000   1.0000
     1.0000   1.0000   1.0000   1.0000   1.0000   1.0000   1.0000   1.0000
     1.0000   1.0000   1.0000   1.0000   1.0000   1.0000   1.0000   1.0000
     1.0000   1.0000   1.0000   1.0000   1.0000   1.0000   1.0000   1.0000
     1.0000   1.0000   1.0000   1.0000   1.0000   1.0000   1.0000   1.0000
     1.0000   1.0000   1.0000   1.0000   1.0000   1.0000   1.0000   1.0000
     1.0000   1.0000   1.0000   1.0000   1.0000   1.0000   1.0000   1.0000
     1.0000   1.0000   1.0000   1.0000   1.0000   1.0000   1.0000   1.0000
     1.0000   1.0000   1.0000   1.0000   1.0000   1.0000   1.0000   1.0000

          k =-0.5000 0.0000 0.0000 ( 10914 PWs)   bands (ev):

   -41.3204 -41.3204 -41.3204 -41.3204 -26.5657 -26.5657 -26.5644 -26.5644
   -19.4154 -19.4154 -19.4154 -19.4154 -19.3671 -19.3671 -19.3671 -19.3671
   -19.3176 -19.3176 -19.3175 -19.3175  -8.8948  -8.8948  -8.8489  -8.8489
    -8.5986  -8.5986  -8.5969  -8.5969  -8.5723  -8.5723  -8.5316  -8.5316
    -3.9188  -3.9188  -3.9174  -3.9174  -3.6321  -3.6321  -3.6187  -3.6187
    -3.3282  -3.3282  -3.2154  -3.2154   3.6019   3.6019   3.7930   3.7930
     4.0927   4.0927   4.3566   4.3566   4.5731   4.5731   4.6612   4.6612
     5.1357   5.1357   5.2809   5.2809   5.3312   5.3312   5.3367   5.3367
     5.5485   5.5485   5.9440   5.9440   6.0357   6.0357   6.1161   6.1161
     6.6269   6.6269   6.6865   6.6865   6.7970   6.7970   6.8694   6.8694

     occupation numbers 
     1.0000   1.0000   1.0000   1.0000   1.0000   1.0000   1.0000   1.0000
     1.0000   1.0000   1.0000   1.0000   1.0000   1.0000   1.0000   1.0000
     1.0000   1.0000   1.0000   1.0000   1.0000   1.0000   1.0000   1.0000
     1.0000   1.0000   1.0000   1.0000   1.0000   1.0000   1.0000   1.0000
     1.0000   1.0000   1.0000   1.0000   1.0000   1.0000   1.0000   1.0000
     1.0000   1.0000   1.0000   1.0000   1.0000   1.0000   1.0000   1.0000
     1.0000   1.0000   1.0000   1.0000   1.0000   1.0000   1.0000   1.0000
     1.0000   1.0000   1.0000   1.0000   1.0000   1.0000   1.0000   1.0000
     1.0000   1.0000   1.0000   1.0000   1.0000   1.0000   1.0000   1.0000
     1.0000   1.0000   1.0000   1.0000   1.0000   1.0000   1.0000   1.0000

          k =-0.5000-0.2236 0.0000 ( 10904 PWs)   bands (ev):

   -41.3204 -41.3204 -41.3204 -41.3204 -26.5650 -26.5650 -26.5650 -26.5650
   -19.4155 -19.4155 -19.4155 -19.4155 -19.3670 -19.3670 -19.3670 -19.3670
   -19.3175 -19.3175 -19.3175 -19.3175  -8.8720  -8.8720  -8.8720  -8.8720
    -8.6000  -8.6000  -8.6000  -8.6000  -8.5497  -8.5497  -8.5497  -8.5497
    -3.9180  -3.9180  -3.9180  -3.9180  -3.6276  -3.6276  -3.6276  -3.6276
    -3.2683  -3.2683  -3.2683  -3.2683   3.5238   3.5238   3.5238   3.5238
     4.3919   4.3919   4.3919   4.3919   4.7431   4.7431   4.7431   4.7431
     5.0436   5.0436   5.0436   5.0436   5.4016   5.4016   5.4016   5.4016
     5.7978   5.7978   5.7978   5.7978   6.3153   6.3153   6.3153   6.3153
     6.4077   6.4077   6.4077   6.4077   6.6838   6.6838   6.6838   6.6838

     occupation numbers 
     1.0000   1.0000   1.0000   1.0000   1.0000   1.0000   1.0000   1.0000
     1.0000   1.0000   1.0000   1.0000   1.0000   1.0000   1.0000   1.0000
     1.0000   1.0000   1.0000   1.0000   1.0000   1.0000   1.0000   1.0000
     1.0000   1.0000   1.0000   1.0000   1.0000   1.0000   1.0000   1.0000
     1.0000   1.0000   1.0000   1.0000   1.0000   1.0000   1.0000   1.0000
     1.0000   1.0000   1.0000   1.0000   1.0000   1.0000   1.0000   1.0000
     1.0000   1.0000   1.0000   1.0000   1.0000   1.0000   1.0000   1.0000
     1.0000   1.0000   1.0000   1.0000   1.0000   1.0000   1.0000   1.0000
     1.0000   1.0000   1.0000   1.0000   1.0000   1.0000   1.0000   1.0000
     1.0000   1.0000   1.0000   1.0000   1.0000   1.0000   1.0000   1.0000

     highest occupied level (ev):     7.9485

!    total energy              =    -969.03443848 Ry
     estimated scf accuracy    <          1.7E-09 Ry

     The total energy is the sum of the following terms:
     one-electron contribution =    -192.67158326 Ry
     hartree contribution      =     157.20007139 Ry
     xc contribution           =    -246.10287167 Ry
     ewald contribution        =    -687.46005494 Ry

     convergence has been achieved in  16 iterations


     Computing stress (Cartesian axis) and pressure


     negative rho (up, down):  5.253E-01 0.000E+00
          total   stress  (Ry/bohr**3)                   (kbar)     P=        3.35
   0.00002547   0.00000000   0.00000000            3.75        0.00        0.00
   0.00000000   0.00001967   0.00000000            0.00        2.89        0.00
   0.00000000   0.00000000   0.00002318            0.00        0.00        3.41

     kinetic stress (kbar)   8984.54      0.00      0.00
                                0.00   9007.72      0.00
                                0.00      0.00   9028.75

     local   stress (kbar)  -7811.30      0.00     -0.00
                                0.00  -4278.34     -0.00
                               -0.00     -0.00  -3999.87

     nonloc. stress (kbar)   7416.08      0.00      0.00
                                0.00   7411.56      0.00
                                0.00      0.00   7416.43

     hartree stress (kbar)   3497.47      0.00      0.00
                                0.00   2110.45      0.00
                                0.00      0.00   1816.78

     exc-cor stress (kbar)   2585.91     -0.00     -0.00
                               -0.00   2583.70     -0.00
                               -0.00     -0.00   2586.41

     corecor stress (kbar)  -5292.20      0.00      0.00
                                0.00  -5291.99      0.00
                                0.00      0.00  -5292.70

     ewald   stress (kbar)  -9376.77      0.00      0.00
                                0.00 -11540.20      0.00
                                0.00      0.00 -11552.39

     hubbard stress (kbar)      0.00      0.00      0.00
                                0.00      0.00      0.00
                                0.00      0.00      0.00

     DFT-D   stress (kbar)      0.00      0.00      0.00
                                0.00      0.00      0.00
                                0.00      0.00      0.00

     XDM     stress (kbar)      0.00      0.00      0.00
                                0.00      0.00      0.00
                                0.00      0.00      0.00

     dft-nl  stress (kbar)      0.00      0.00      0.00
                                0.00      0.00      0.00
                                0.00      0.00      0.00

     TS-vdW  stress (kbar)      0.00      0.00      0.00
                                0.00      0.00      0.00
                                0.00      0.00      0.00

     MDB     stress (kbar)      0.00      0.00      0.00
                                0.00      0.00      0.00
                                0.00      0.00      0.00

     3D-RISM stress (kbar)      0.00      0.00      0.00
                                0.00      0.00      0.00
                                0.00      0.00      0.00


     Writing all to output data dir ./tmp/ecut_35/SrZrS3_ecut_35.save/ :
     XML data file, charge density, pseudopotentials, collected wavefunctions

     init_run     :      1.38s CPU      1.41s WALL (       1 calls)
     electrons    :     40.84s CPU     41.33s WALL (       1 calls)
     stress       :      2.74s CPU      2.77s WALL (       1 calls)

     Called by init_run:
     wfcinit      :      1.09s CPU      1.11s WALL (       1 calls)
     wfcinit:atom :      0.00s CPU      0.00s WALL (       6 calls)
     wfcinit:wfcr :      1.04s CPU      1.06s WALL (       6 calls)
     potinit      :      0.03s CPU      0.03s WALL (       1 calls)
     hinit0       :      0.07s CPU      0.07s WALL (       1 calls)

     Called by electrons:
     c_bands      :     31.57s CPU     31.95s WALL (      16 calls)
     sum_band     :      6.27s CPU      6.34s WALL (      16 calls)
     v_of_rho     :      0.36s CPU      0.37s WALL (      17 calls)
     v_h          :      0.02s CPU      0.02s WALL (      17 calls)
     v_xc         :      0.36s CPU      0.37s WALL (      18 calls)
     newd         :      2.73s CPU      2.77s WALL (      17 calls)
     mix_rho      :      0.05s CPU      0.05s WALL (      16 calls)

     Called by c_bands:
     init_us_2    :      0.21s CPU      0.21s WALL (     204 calls)
     cegterg      :     30.20s CPU     30.56s WALL (      96 calls)

     Called by sum_band:
     sum_band:wei :      0.00s CPU      0.00s WALL (      16 calls)
     sum_band:loo :      3.26s CPU      3.30s WALL (      16 calls)
     sum_band:buf :      0.02s CPU      0.02s WALL (      96 calls)
     sum_band:ini :      0.10s CPU      0.10s WALL (      96 calls)
     sum_band:cal :      1.35s CPU      1.37s WALL (      96 calls)
     sum_band:bec :      0.01s CPU      0.01s WALL (      96 calls)
     addusdens    :      2.91s CPU      2.94s WALL (      16 calls)
                                        0.00s GPU  (      16 calls)
     addusd:skk   :      0.02s CPU      0.02s WALL (      48 calls)
                                        0.00s GPU  (      48 calls)

     Called by *egterg:
     cdiaghg      :      1.66s CPU      1.67s WALL (     487 calls)
     cegterg:over :      2.25s CPU      2.28s WALL (     391 calls)
     cegterg:upda :      1.24s CPU      1.25s WALL (     391 calls)
     cegterg:last :      2.66s CPU      2.68s WALL (     217 calls)
     h_psi        :     18.25s CPU     18.50s WALL (     493 calls)
     s_psi        :      4.18s CPU      4.22s WALL (     493 calls)
     g_psi        :      0.03s CPU      0.03s WALL (     391 calls)

     Called by h_psi:
     h_psi:calbec :      4.24s CPU      4.29s WALL (     493 calls)
     vloc_psi     :      9.72s CPU      9.89s WALL (     493 calls)
                                        0.00s GPU  (     493 calls)
     add_vuspsi   :      4.25s CPU      4.29s WALL (     493 calls)

     General routines
     calbec       :      6.71s CPU      6.78s WALL (     667 calls)
     fft          :      0.26s CPU      0.26s WALL (     233 calls)
     ffts         :      0.01s CPU      0.01s WALL (      33 calls)
     fftw         :     10.60s CPU     10.77s WALL (   52854 calls)
     interpolate  :      0.03s CPU      0.03s WALL (      17 calls)

     Parallel routines

     PWSCF        :     45.09s CPU     45.70s WALL


   This run was terminated on:   2:12:12   2Jul2026            

=------------------------------------------------------------------------------=
   JOB DONE.
=------------------------------------------------------------------------------=
