
     Program PWSCF v.7.5 starts on  2Jul2026 at  2:10:54 
        Git branch: develop
        Last git commit: ea9b1b3d7915154c244e4a71786faaa0fdafa55c
        Last git commit date: Mon Mar 16 14:03:30 2026 +0000
        Last git commit subject: Merge branch 'dev_td_porting' into 'develop'

     This program is part of the open-source Quantum ESPRESSO suite
     for quantum simulation of materials; please cite
         "P. Giannozzi et al., J. Phys.:Condens. Matter 21 395502 (2009);
         "P. Giannozzi et al., J. Phys.:Condens. Matter 29 465901 (2017);
         "P. Giannozzi et al., J. Chem. Phys. 152 154105 (2020);
          URL http://www.quantum-espresso.org", 
     in publications or presentations arising from this work. More details at
     http://www.quantum-espresso.org/quote

     Parallel version (MPI), running on     4 processors

     MPI processes distributed on     1 nodes
     0 MiB available memory on the printing compute node when the environment starts

     Reading input from inputs/ecut_30.in
Warning: card &CELL ignored

     Current dimensions of program PWSCF are:
     Max number of different atomic species (ntypx) = 10
     Max number of k-points (npk) =  40000
     Max angular momentum in pseudopotentials (lmaxx) =  4

     Exact exchange band parallelism type set to band_pairs

     Message from routine setup:
     using ibrav=0 with symmetry is DISCOURAGED, use correct ibrav instead

     R & G space division:  proc/nbgrp/npool/nimage =       4
     Subspace diagonalization in iterative solution of the eigenvalue problem:
     a serial algorithm will be used


     Parallelization info
     --------------------
     sticks:   dense  smooth     PW     G-vecs:    dense   smooth      PW
     Min         557     278     81                48892    17270    2769
     Max         558     279     82                48900    17281    2776
     Sum        2231    1113    327               195581    69093   11097

     Using Slab Decomposition



     bravais-lattice index     =            0
     lattice parameter (alat)  =       7.2569  a.u.
     unit-cell volume          =    3114.5940 (a.u.)^3
     number of atoms/cell      =           20
     number of atomic types    =            3
     number of electrons       =       160.00
     number of Kohn-Sham states=           80
     kinetic-energy cutoff     =      30.0000  Ry
     charge density cutoff     =     240.0000  Ry
     scf convergence threshold =      1.0E-08
     mixing beta               =       0.3000
     number of iterations used =            8  plain     mixing
     Exchange-correlation= SLA  PW   PBE  PBE
                           (   1   4   3   4   0   0   0)

     celldm(1)=   7.256926  celldm(2)=   0.000000  celldm(3)=   0.000000
     celldm(4)=   0.000000  celldm(5)=   0.000000  celldm(6)=   0.000000

     crystal axes: (cart. coord. in units of alat)
               a(1) = (   1.000000   0.000000   0.000000 )  
               a(2) = (  -0.000000   2.236035   0.000000 )  
               a(3) = (   0.000000   0.000000   3.644724 )  

     reciprocal axes: (cart. coord. in units 2 pi/alat)
               b(1) = (  1.000000  0.000000 -0.000000 )  
               b(2) = (  0.000000  0.447220  0.000000 )  
               b(3) = (  0.000000 -0.000000  0.274369 )  


     PseudoPot. # 1 for S  read from file:
     /Users/kaede/scientific-tools/pseudopotentials/SSSP/1.3.0/PBE/precision/s_pbe_v1.4.uspp.F.UPF
     MD5 check sum: 88d86576ff6df21479756cfb9bdac1df
     Pseudo is Ultrasoft + core correction, Zval =  6.0
     Generated by new atomic code, or converted to UPF format
     Using radial grid of  907 points,  6 beta functions with: 
                l(1) =   0
                l(2) =   0
                l(3) =   1
                l(4) =   1
                l(5) =   2
                l(6) =   2
     Q(r) pseudized with  8 coefficients,  rinner =    1.300   1.300   1.300
                                                       1.300   1.300

     PseudoPot. # 2 for Sr read from file:
     /Users/kaede/scientific-tools/pseudopotentials/SSSP/1.3.0/PBE/precision/Sr_pbe_v1.uspp.F.UPF
     MD5 check sum: 6b418c05fbe9db5448babca5e47b7a5b
     Pseudo is Ultrasoft + core correction, Zval = 10.0
     Generated by new atomic code, or converted to UPF format
     Using radial grid of  883 points,  6 beta functions with: 
                l(1) =   0
                l(2) =   0
                l(3) =   1
                l(4) =   1
                l(5) =   2
                l(6) =   2
     Q(r) pseudized with  6 coefficients,  rinner =    1.400   1.400   1.400
                                                       1.400   1.400

     PseudoPot. # 3 for Zr read from file:
     /Users/kaede/scientific-tools/pseudopotentials/SSSP/1.3.0/PBE/precision/Zr_pbe_v1.uspp.F.UPF
     MD5 check sum: 5db81b1e868ab7776c4564c113de050b
     Pseudo is Ultrasoft + core correction, Zval = 12.0
     Generated by new atomic code, or converted to UPF format
     Using radial grid of  887 points,  6 beta functions with: 
                l(1) =   0
                l(2) =   0
                l(3) =   1
                l(4) =   1
                l(5) =   2
                l(6) =   2
     Q(r) pseudized with  6 coefficients,  rinner =    1.200   1.200   1.200
                                                       1.200   1.200

     atomic species   valence    mass     pseudopotential
     S                 6.00    32.06500     S ( 1.00)
     Sr               10.00    87.62000     Sr( 1.00)
     Zr               12.00    91.22400     Zr( 1.00)

      8 Sym. Ops., with inversion, found ( 6 have fractional translation)


                                    s                        frac. trans.

      isym =  1     identity                                     

 cryst.   s( 1) = (     1          0          0      )
                  (     0          1          0      )
                  (     0          0          1      )

 cart.    s( 1) = (  1.0000000  0.0000000  0.0000000 )
                  (  0.0000000  1.0000000  0.0000000 )
                  (  0.0000000  0.0000000  1.0000000 )


      isym =  2     180 deg rotation - cart. axis [0,0,1]        

 cryst.   s( 2) = (    -1          0          0      )    f =(  0.0000000 )
                  (     0         -1          0      )       ( -0.5000000 )
                  (     0          0          1      )       (  0.5000000 )

 cart.    s( 2) = ( -1.0000000  0.0000000  0.0000000 )    f =(  0.0000000 )
                  (  0.0000000 -1.0000000  0.0000000 )       ( -1.1180177 )
                  (  0.0000000  0.0000000  1.0000000 )       (  1.8223620 )


      isym =  3     180 deg rotation - cart. axis [0,1,0]        

 cryst.   s( 3) = (    -1          0          0      )    f =(  0.5000000 )
                  (     0          1          0      )       (  0.5000000 )
                  (     0          0         -1      )       (  0.5000000 )

 cart.    s( 3) = ( -1.0000000  0.0000000  0.0000000 )    f =(  0.5000000 )
                  (  0.0000000  1.0000000  0.0000000 )       (  1.1180177 )
                  (  0.0000000  0.0000000 -1.0000000 )       (  1.8223620 )


      isym =  4     180 deg rotation - cart. axis [1,0,0]        

 cryst.   s( 4) = (     1          0          0      )    f =( -0.5000000 )
                  (     0         -1          0      )       (  0.0000000 )
                  (     0          0         -1      )       (  0.0000000 )

 cart.    s( 4) = (  1.0000000  0.0000000  0.0000000 )    f =( -0.5000000 )
                  (  0.0000000 -1.0000000  0.0000000 )       (  0.0000000 )
                  (  0.0000000  0.0000000 -1.0000000 )       (  0.0000000 )


      isym =  5     inversion                                    

 cryst.   s( 5) = (    -1          0          0      )
                  (     0         -1          0      )
                  (     0          0         -1      )

 cart.    s( 5) = ( -1.0000000  0.0000000  0.0000000 )
                  (  0.0000000 -1.0000000  0.0000000 )
                  (  0.0000000  0.0000000 -1.0000000 )


      isym =  6     inv. 180 deg rotation - cart. axis [0,0,1]   

 cryst.   s( 6) = (     1          0          0      )    f =(  0.0000000 )
                  (     0          1          0      )       (  0.5000000 )
                  (     0          0         -1      )       (  0.5000000 )

 cart.    s( 6) = (  1.0000000  0.0000000  0.0000000 )    f =(  0.0000000 )
                  (  0.0000000  1.0000000  0.0000000 )       (  1.1180177 )
                  (  0.0000000  0.0000000 -1.0000000 )       (  1.8223620 )


      isym =  7     inv. 180 deg rotation - cart. axis [0,1,0]   

 cryst.   s( 7) = (     1          0          0      )    f =( -0.5000000 )
                  (     0         -1          0      )       ( -0.5000000 )
                  (     0          0          1      )       (  0.5000000 )

 cart.    s( 7) = (  1.0000000  0.0000000  0.0000000 )    f =( -0.5000000 )
                  (  0.0000000 -1.0000000  0.0000000 )       ( -1.1180177 )
                  (  0.0000000  0.0000000  1.0000000 )       (  1.8223620 )


      isym =  8     inv. 180 deg rotation - cart. axis [1,0,0]   

 cryst.   s( 8) = (    -1          0          0      )    f =(  0.5000000 )
                  (     0          1          0      )       (  0.0000000 )
                  (     0          0          1      )       (  0.0000000 )

 cart.    s( 8) = ( -1.0000000  0.0000000  0.0000000 )    f =(  0.5000000 )
                  (  0.0000000  1.0000000  0.0000000 )       (  0.0000000 )
                  (  0.0000000  0.0000000  1.0000000 )       (  0.0000000 )


   Cartesian axes

     site n.     atom                  positions (alat units)
         1        Sr     tau(   1) = (   0.2500000   0.1482894   2.9910901  )
         2        Sr     tau(   2) = (   0.7500000   2.0877460   0.6536339  )
         3        Sr     tau(   3) = (   0.7500000   0.9697283   1.1687281  )
         4        Sr     tau(   4) = (   0.2500000   1.2663071   2.4759958  )
         5        Zr     tau(   5) = (   0.2500000   0.7327533   0.2079279  )
         6        Zr     tau(   6) = (   0.7500000   1.5032821   3.4367961  )
         7        Zr     tau(   7) = (   0.7500000   0.3852644   2.0302898  )
         8        Zr     tau(   8) = (   0.2500000   1.8507709   1.6144341  )
         9        S      tau(   9) = (   0.2500000   0.4620834   0.7862872  )
        10        S      tau(  10) = (   0.7500000   1.7739519   2.8584367  )
        11        S      tau(  11) = (   0.7500000   0.6559343   2.6086492  )
        12        S      tau(  12) = (   0.2500000   1.5801011   1.0360747  )
        13        S      tau(  13) = (   0.2500000   0.7520860   1.7723564  )
        14        S      tau(  14) = (   0.7500000   1.4839493   1.8723676  )
        15        S      tau(  15) = (   0.7500000   0.3659317   3.5947184  )
        16        S      tau(  16) = (   0.2500000   1.8701037   0.0500056  )
        17        S      tau(  17) = (   0.2500000   1.0839137   3.2590575  )
        18        S      tau(  18) = (   0.7500000   1.1521217   0.3856665  )
        19        S      tau(  19) = (   0.7500000   0.0341040   1.4366955  )
        20        S      tau(  20) = (   0.2500000   2.2019314   2.2080285  )

   Crystallographic axes

     site n.     atom                  positions (cryst. coord.)
         1        Sr     tau(   1) = (  0.2500000  0.0663180  0.8206630  )
         2        Sr     tau(   2) = (  0.7500000  0.9336820  0.1793370  )
         3        Sr     tau(   3) = (  0.7500000  0.4336820  0.3206630  )
         4        Sr     tau(   4) = (  0.2500000  0.5663180  0.6793370  )
         5        Zr     tau(   5) = (  0.2500000  0.3277020  0.0570490  )
         6        Zr     tau(   6) = (  0.7500000  0.6722980  0.9429510  )
         7        Zr     tau(   7) = (  0.7500000  0.1722980  0.5570490  )
         8        Zr     tau(   8) = (  0.2500000  0.8277020  0.4429510  )
         9        S      tau(   9) = (  0.2500000  0.2066530  0.2157330  )
        10        S      tau(  10) = (  0.7500000  0.7933470  0.7842670  )
        11        S      tau(  11) = (  0.7500000  0.2933470  0.7157330  )
        12        S      tau(  12) = (  0.2500000  0.7066530  0.2842670  )
        13        S      tau(  13) = (  0.2500000  0.3363480  0.4862800  )
        14        S      tau(  14) = (  0.7500000  0.6636520  0.5137200  )
        15        S      tau(  15) = (  0.7500000  0.1636520  0.9862800  )
        16        S      tau(  16) = (  0.2500000  0.8363480  0.0137200  )
        17        S      tau(  17) = (  0.2500000  0.4847480  0.8941850  )
        18        S      tau(  18) = (  0.7500000  0.5152520  0.1058150  )
        19        S      tau(  19) = (  0.7500000  0.0152520  0.3941850  )
        20        S      tau(  20) = (  0.2500000  0.9847480  0.6058150  )

     number of k points=     6
                       cart. coord. in units 2pi/alat
        k(    1) = (   0.0000000   0.0000000   0.0000000), wk =   0.2500000
        k(    2) = (   0.0000000  -0.2236101   0.0000000), wk =   0.2500000
        k(    3) = (   0.2500000   0.0000000   0.0000000), wk =   0.5000000
        k(    4) = (   0.2500000  -0.2236101   0.0000000), wk =   0.5000000
        k(    5) = (  -0.5000000   0.0000000   0.0000000), wk =   0.2500000
        k(    6) = (  -0.5000000  -0.2236101   0.0000000), wk =   0.2500000

                       cryst. coord.
        k(    1) = (   0.0000000   0.0000000   0.0000000), wk =   0.2500000
        k(    2) = (   0.0000000  -0.5000000   0.0000000), wk =   0.2500000
        k(    3) = (   0.2500000   0.0000000   0.0000000), wk =   0.5000000
        k(    4) = (   0.2500000  -0.5000000   0.0000000), wk =   0.5000000
        k(    5) = (  -0.5000000   0.0000000   0.0000000), wk =   0.2500000
        k(    6) = (  -0.5000000  -0.5000000   0.0000000), wk =   0.2500000

     Dense  grid:   195581 G-vectors     FFT dimensions: (  36,  90, 144)

     Smooth grid:    69093 G-vectors     FFT dimensions: (  30,  60,  96)

     Dynamical RAM for                 wfc:       2.64 MB

     Dynamical RAM for     wfc (w. buffer):      18.46 MB

     Dynamical RAM for           str. fact:       2.24 MB

     Dynamical RAM for           local pot:       0.00 MB

     Dynamical RAM for          nlocal pot:      11.87 MB

     Dynamical RAM for                qrad:       3.73 MB

     Dynamical RAM for          rho,v,vnew:       4.91 MB

     Dynamical RAM for               rhoin:       1.64 MB

     Dynamical RAM for            rho*nmix:      11.94 MB

     Dynamical RAM for           G-vectors:       2.93 MB

     Dynamical RAM for          h,s,v(r/c):       1.17 MB

     Dynamical RAM for          <psi|beta>:       0.44 MB

     Dynamical RAM for                 psi:       5.27 MB

     Dynamical RAM for                hpsi:       5.27 MB

     Dynamical RAM for                spsi:       5.27 MB

     Dynamical RAM for      wfcinit/wfcrot:       5.42 MB

     Dynamical RAM for           addusdens:     147.72 MB

     Dynamical RAM for         addusstress:     149.96 MB

     Estimated static dynamical RAM per process >      53.20 MB

     Estimated max dynamical RAM per process >     215.10 MB

     Estimated total dynamical RAM >     860.38 MB

     Check: negative core charge=   -0.000003

     Initial potential from superposition of free atoms

     starting charge     159.8564, renormalised to     160.0000

     negative rho (up, down):  4.967E-01 0.000E+00
     Starting wfcs are  152 randomized atomic wfcs

     total cpu time spent up to now is        1.3 secs

     Self-consistent Calculation

     iteration #  1     ecut=    30.00 Ry     beta= 0.30
     Davidson diagonalization with overlap

---- Real-time Memory Report at c_bands before calling an iterative solver
             0 MiB given to the printing process from OS
             0 MiB allocation reported by mallinfo(arena+hblkhd)
             0 MiB available memory on the node where the printing process lives
------------------
     ethr =  1.00E-02,  avg # of iterations =  1.0

     negative rho (up, down):  5.025E-01 0.000E+00

     total cpu time spent up to now is        2.7 secs

     total energy              =    -968.72357407 Ry
     estimated scf accuracy    <       1.79346965 Ry

     iteration #  2     ecut=    30.00 Ry     beta= 0.30
     Davidson diagonalization with overlap

---- Real-time Memory Report at c_bands before calling an iterative solver
             0 MiB given to the printing process from OS
             0 MiB allocation reported by mallinfo(arena+hblkhd)
             0 MiB available memory on the node where the printing process lives
------------------
     ethr =  1.12E-03,  avg # of iterations =  3.3

     negative rho (up, down):  5.086E-01 0.000E+00

     total cpu time spent up to now is        4.6 secs

     total energy              =    -968.97723926 Ry
     estimated scf accuracy    <       0.28240421 Ry

     iteration #  3     ecut=    30.00 Ry     beta= 0.30
     Davidson diagonalization with overlap

---- Real-time Memory Report at c_bands before calling an iterative solver
             0 MiB given to the printing process from OS
             0 MiB allocation reported by mallinfo(arena+hblkhd)
             0 MiB available memory on the node where the printing process lives
------------------
     ethr =  1.77E-04,  avg # of iterations =  4.0

     negative rho (up, down):  5.140E-01 0.000E+00

     total cpu time spent up to now is        6.4 secs

     total energy              =    -969.01993522 Ry
     estimated scf accuracy    <       0.05720941 Ry

     iteration #  4     ecut=    30.00 Ry     beta= 0.30
     Davidson diagonalization with overlap

---- Real-time Memory Report at c_bands before calling an iterative solver
             0 MiB given to the printing process from OS
             0 MiB allocation reported by mallinfo(arena+hblkhd)
             0 MiB available memory on the node where the printing process lives
------------------
     ethr =  3.58E-05,  avg # of iterations =  4.0

     negative rho (up, down):  5.190E-01 0.000E+00

     total cpu time spent up to now is        8.2 secs

     total energy              =    -969.03025712 Ry
     estimated scf accuracy    <       0.01563786 Ry

     iteration #  5     ecut=    30.00 Ry     beta= 0.30
     Davidson diagonalization with overlap

---- Real-time Memory Report at c_bands before calling an iterative solver
             0 MiB given to the printing process from OS
             0 MiB allocation reported by mallinfo(arena+hblkhd)
             0 MiB available memory on the node where the printing process lives
------------------
     ethr =  9.77E-06,  avg # of iterations =  3.8

     negative rho (up, down):  5.209E-01 0.000E+00

     total cpu time spent up to now is       10.1 secs

     total energy              =    -969.03224612 Ry
     estimated scf accuracy    <       0.00321264 Ry

     iteration #  6     ecut=    30.00 Ry     beta= 0.30
     Davidson diagonalization with overlap

---- Real-time Memory Report at c_bands before calling an iterative solver
             0 MiB given to the printing process from OS
             0 MiB allocation reported by mallinfo(arena+hblkhd)
             0 MiB available memory on the node where the printing process lives
------------------
     ethr =  2.01E-06,  avg # of iterations =  3.5

     negative rho (up, down):  5.213E-01 0.000E+00

     total cpu time spent up to now is       11.8 secs

     total energy              =    -969.03230331 Ry
     estimated scf accuracy    <       0.00063639 Ry

     iteration #  7     ecut=    30.00 Ry     beta= 0.30
     Davidson diagonalization with overlap

---- Real-time Memory Report at c_bands before calling an iterative solver
             0 MiB given to the printing process from OS
             0 MiB allocation reported by mallinfo(arena+hblkhd)
             0 MiB available memory on the node where the printing process lives
------------------
     ethr =  3.98E-07,  avg # of iterations =  5.2

     negative rho (up, down):  5.213E-01 0.000E+00

     total cpu time spent up to now is       14.1 secs

     total energy              =    -969.03239117 Ry
     estimated scf accuracy    <       0.00090527 Ry

     iteration #  8     ecut=    30.00 Ry     beta= 0.30
     Davidson diagonalization with overlap

---- Real-time Memory Report at c_bands before calling an iterative solver
             0 MiB given to the printing process from OS
             0 MiB allocation reported by mallinfo(arena+hblkhd)
             0 MiB available memory on the node where the printing process lives
------------------
     ethr =  3.98E-07,  avg # of iterations =  4.2

     negative rho (up, down):  5.212E-01 0.000E+00

     total cpu time spent up to now is       16.1 secs

     total energy              =    -969.03266515 Ry
     estimated scf accuracy    <       0.00007198 Ry

     iteration #  9     ecut=    30.00 Ry     beta= 0.30
     Davidson diagonalization with overlap

---- Real-time Memory Report at c_bands before calling an iterative solver
             0 MiB given to the printing process from OS
             0 MiB allocation reported by mallinfo(arena+hblkhd)
             0 MiB available memory on the node where the printing process lives
------------------
     ethr =  4.50E-08,  avg # of iterations =  4.8

     negative rho (up, down):  5.212E-01 0.000E+00

     total cpu time spent up to now is       18.4 secs

     total energy              =    -969.03254313 Ry
     estimated scf accuracy    <       0.00041437 Ry

     iteration # 10     ecut=    30.00 Ry     beta= 0.30
     Davidson diagonalization with overlap

---- Real-time Memory Report at c_bands before calling an iterative solver
             0 MiB given to the printing process from OS
             0 MiB allocation reported by mallinfo(arena+hblkhd)
             0 MiB available memory on the node where the printing process lives
------------------
     ethr =  4.50E-08,  avg # of iterations =  5.5

     negative rho (up, down):  5.211E-01 0.000E+00

     total cpu time spent up to now is       20.8 secs

     total energy              =    -969.03262103 Ry
     estimated scf accuracy    <       0.00000520 Ry

     iteration # 11     ecut=    30.00 Ry     beta= 0.30
     Davidson diagonalization with overlap

---- Real-time Memory Report at c_bands before calling an iterative solver
             0 MiB given to the printing process from OS
             0 MiB allocation reported by mallinfo(arena+hblkhd)
             0 MiB available memory on the node where the printing process lives
------------------
     ethr =  3.25E-09,  avg # of iterations =  4.3

     negative rho (up, down):  5.211E-01 0.000E+00

     total cpu time spent up to now is       23.0 secs

     total energy              =    -969.03261875 Ry
     estimated scf accuracy    <       0.00001159 Ry

     iteration # 12     ecut=    30.00 Ry     beta= 0.30
     Davidson diagonalization with overlap

---- Real-time Memory Report at c_bands before calling an iterative solver
             0 MiB given to the printing process from OS
             0 MiB allocation reported by mallinfo(arena+hblkhd)
             0 MiB available memory on the node where the printing process lives
------------------
     ethr =  3.25E-09,  avg # of iterations =  4.0

     negative rho (up, down):  5.211E-01 0.000E+00

     total cpu time spent up to now is       25.0 secs

     total energy              =    -969.03262066 Ry
     estimated scf accuracy    <       0.00000013 Ry

     iteration # 13     ecut=    30.00 Ry     beta= 0.30
     Davidson diagonalization with overlap

---- Real-time Memory Report at c_bands before calling an iterative solver
             0 MiB given to the printing process from OS
             0 MiB allocation reported by mallinfo(arena+hblkhd)
             0 MiB available memory on the node where the printing process lives
------------------
     ethr =  8.11E-11,  avg # of iterations =  5.3

     negative rho (up, down):  5.211E-01 0.000E+00

     total cpu time spent up to now is       27.6 secs

     total energy              =    -969.03262075 Ry
     estimated scf accuracy    <       0.00000001 Ry

     iteration # 14     ecut=    30.00 Ry     beta= 0.30
     Davidson diagonalization with overlap

---- Real-time Memory Report at c_bands before calling an iterative solver
             0 MiB given to the printing process from OS
             0 MiB allocation reported by mallinfo(arena+hblkhd)
             0 MiB available memory on the node where the printing process lives
------------------
     ethr =  7.43E-12,  avg # of iterations =  5.0

     negative rho (up, down):  5.211E-01 0.000E+00

     total cpu time spent up to now is       30.2 secs

     End of self-consistent calculation

          k = 0.0000 0.0000 0.0000 (  8663 PWs)   bands (ev):

   -41.3278 -41.3277 -41.3232 -41.3232 -26.5859 -26.5858 -26.5843 -26.5841
   -19.4210 -19.4210 -19.3889 -19.3888 -19.3395 -19.3394 -19.3099 -19.3099
   -19.2911 -19.2911 -19.2746 -19.2746  -8.6915  -8.6845  -8.6826  -8.6748
    -8.6609  -8.6364  -8.5816  -8.5809  -8.5228  -8.5219  -8.5162  -8.5153
    -4.8296  -4.5948  -4.0400  -3.9861  -3.7498  -3.6541  -3.6218  -3.6171
    -3.4843  -3.3889  -3.3379  -3.2600   3.6936   3.9288   3.9601   3.9903
     4.0281   4.2239   4.3406   4.5948   4.8064   4.8065   4.8365   4.8809
     4.9263   4.9578   4.9699   5.4851   5.7154   5.7306   5.7745   5.9748
     5.9838   6.0298   6.3412   6.3569   6.5551   6.6157   6.6906   6.7259
     6.8213   6.8887   7.0129   7.1821   7.5123   7.5379   7.7436   7.9486

     occupation numbers 
     1.0000   1.0000   1.0000   1.0000   1.0000   1.0000   1.0000   1.0000
     1.0000   1.0000   1.0000   1.0000   1.0000   1.0000   1.0000   1.0000
     1.0000   1.0000   1.0000   1.0000   1.0000   1.0000   1.0000   1.0000
     1.0000   1.0000   1.0000   1.0000   1.0000   1.0000   1.0000   1.0000
     1.0000   1.0000   1.0000   1.0000   1.0000   1.0000   1.0000   1.0000
     1.0000   1.0000   1.0000   1.0000   1.0000   1.0000   1.0000   1.0000
     1.0000   1.0000   1.0000   1.0000   1.0000   1.0000   1.0000   1.0000
     1.0000   1.0000   1.0000   1.0000   1.0000   1.0000   1.0000   1.0000
     1.0000   1.0000   1.0000   1.0000   1.0000   1.0000   1.0000   1.0000
     1.0000   1.0000   1.0000   1.0000   1.0000   1.0000   1.0000   1.0000

          k = 0.0000-0.2236 0.0000 (  8644 PWs)   bands (ev):

   -41.3277 -41.3277 -41.3232 -41.3232 -26.5851 -26.5851 -26.5849 -26.5849
   -19.4207 -19.4207 -19.3892 -19.3892 -19.3394 -19.3394 -19.3100 -19.3100
   -19.2911 -19.2911 -19.2746 -19.2746  -8.6953  -8.6953  -8.6711  -8.6711
    -8.6235  -8.6235  -8.6086  -8.6086  -8.5195  -8.5195  -8.5186  -8.5186
    -4.5985  -4.5985  -4.1824  -4.1824  -3.8844  -3.8844  -3.4560  -3.4560
    -3.3826  -3.3826  -3.2662  -3.2662   3.5040   3.5040   3.7645   3.7645
     4.2215   4.2215   4.6761   4.6761   4.8006   4.8006   4.9438   4.9438
     5.2561   5.2561   5.3374   5.3374   5.5936   5.5936   5.8777   5.8777
     6.2519   6.2519   6.5260   6.5260   6.5898   6.5898   6.7913   6.7913
     6.8091   6.8091   7.0771   7.0771   7.1754   7.1754   7.2182   7.2182

     occupation numbers 
     1.0000   1.0000   1.0000   1.0000   1.0000   1.0000   1.0000   1.0000
     1.0000   1.0000   1.0000   1.0000   1.0000   1.0000   1.0000   1.0000
     1.0000   1.0000   1.0000   1.0000   1.0000   1.0000   1.0000   1.0000
     1.0000   1.0000   1.0000   1.0000   1.0000   1.0000   1.0000   1.0000
     1.0000   1.0000   1.0000   1.0000   1.0000   1.0000   1.0000   1.0000
     1.0000   1.0000   1.0000   1.0000   1.0000   1.0000   1.0000   1.0000
     1.0000   1.0000   1.0000   1.0000   1.0000   1.0000   1.0000   1.0000
     1.0000   1.0000   1.0000   1.0000   1.0000   1.0000   1.0000   1.0000
     1.0000   1.0000   1.0000   1.0000   1.0000   1.0000   1.0000   1.0000
     1.0000   1.0000   1.0000   1.0000   1.0000   1.0000   1.0000   1.0000

          k = 0.2500 0.0000 0.0000 (  8645 PWs)   bands (ev):

   -41.3245 -41.3245 -41.3213 -41.3213 -26.5758 -26.5756 -26.5743 -26.5741
   -19.4056 -19.4056 -19.3799 -19.3798 -19.3534 -19.3533 -19.3462 -19.3462
   -19.3211 -19.3210 -19.3074 -19.3074  -8.7156  -8.7154  -8.6888  -8.6867
    -8.6430  -8.6407  -8.6403  -8.6254  -8.6252  -8.6071  -8.5570  -8.5562
    -4.4347  -4.2624  -3.8736  -3.8502  -3.7922  -3.7247  -3.6169  -3.6047
    -3.3810  -3.3347  -3.2978  -3.2674   3.8841   3.9509   3.9582   4.1450
     4.1543   4.2582   4.4445   4.4461   4.5224   4.5375   4.5765   4.9122
     5.1532   5.1944   5.2572   5.2644   5.4329   5.5273   5.5519   5.6816
     5.8505   5.8538   5.9421   5.9593   6.0462   6.0701   6.1899   6.4805
     6.4885   6.4976   6.5886   6.8070   6.8637   7.0217   7.1234   7.2695

     occupation numbers 
     1.0000   1.0000   1.0000   1.0000   1.0000   1.0000   1.0000   1.0000
     1.0000   1.0000   1.0000   1.0000   1.0000   1.0000   1.0000   1.0000
     1.0000   1.0000   1.0000   1.0000   1.0000   1.0000   1.0000   1.0000
     1.0000   1.0000   1.0000   1.0000   1.0000   1.0000   1.0000   1.0000
     1.0000   1.0000   1.0000   1.0000   1.0000   1.0000   1.0000   1.0000
     1.0000   1.0000   1.0000   1.0000   1.0000   1.0000   1.0000   1.0000
     1.0000   1.0000   1.0000   1.0000   1.0000   1.0000   1.0000   1.0000
     1.0000   1.0000   1.0000   1.0000   1.0000   1.0000   1.0000   1.0000
     1.0000   1.0000   1.0000   1.0000   1.0000   1.0000   1.0000   1.0000
     1.0000   1.0000   1.0000   1.0000   1.0000   1.0000   1.0000   1.0000

          k = 0.2500-0.2236 0.0000 (  8644 PWs)   bands (ev):

   -41.3245 -41.3245 -41.3213 -41.3213 -26.5750 -26.5750 -26.5749 -26.5749
   -19.4054 -19.4054 -19.3801 -19.3801 -19.3533 -19.3533 -19.3461 -19.3461
   -19.3210 -19.3210 -19.3074 -19.3074  -8.7033  -8.7033  -8.7017  -8.7017
    -8.6498  -8.6498  -8.6317  -8.6317  -8.5856  -8.5856  -8.5791  -8.5791
    -4.2910  -4.2910  -3.9264  -3.9264  -3.8579  -3.8579  -3.4907  -3.4907
    -3.3783  -3.3783  -3.2757  -3.2757   4.0264   4.0264   4.0738   4.0738
     4.2144   4.2144   4.3205   4.3205   4.5619   4.5619   4.8241   4.8241
     4.9294   4.9294   5.1861   5.1861   5.4096   5.4096   5.5299   5.5299
     5.7458   5.7458   6.0327   6.0327   6.1275   6.1275   6.3521   6.3521
     6.5299   6.5299   6.9689   6.9689   7.1301   7.1301   7.2646   7.2646

     occupation numbers 
     1.0000   1.0000   1.0000   1.0000   1.0000   1.0000   1.0000   1.0000
     1.0000   1.0000   1.0000   1.0000   1.0000   1.0000   1.0000   1.0000
     1.0000   1.0000   1.0000   1.0000   1.0000   1.0000   1.0000   1.0000
     1.0000   1.0000   1.0000   1.0000   1.0000   1.0000   1.0000   1.0000
     1.0000   1.0000   1.0000   1.0000   1.0000   1.0000   1.0000   1.0000
     1.0000   1.0000   1.0000   1.0000   1.0000   1.0000   1.0000   1.0000
     1.0000   1.0000   1.0000   1.0000   1.0000   1.0000   1.0000   1.0000
     1.0000   1.0000   1.0000   1.0000   1.0000   1.0000   1.0000   1.0000
     1.0000   1.0000   1.0000   1.0000   1.0000   1.0000   1.0000   1.0000
     1.0000   1.0000   1.0000   1.0000   1.0000   1.0000   1.0000   1.0000

          k =-0.5000 0.0000 0.0000 (  8588 PWs)   bands (ev):

   -41.3203 -41.3203 -41.3203 -41.3203 -26.5655 -26.5655 -26.5641 -26.5641
   -19.4154 -19.4154 -19.4153 -19.4153 -19.3671 -19.3671 -19.3671 -19.3671
   -19.3176 -19.3176 -19.3175 -19.3175  -8.8949  -8.8949  -8.8490  -8.8490
    -8.5986  -8.5986  -8.5970  -8.5970  -8.5724  -8.5724  -8.5317  -8.5317
    -3.9186  -3.9186  -3.9172  -3.9172  -3.6319  -3.6319  -3.6185  -3.6185
    -3.3279  -3.3279  -3.2151  -3.2151   3.6020   3.6020   3.7931   3.7931
     4.0927   4.0927   4.3566   4.3566   4.5732   4.5732   4.6613   4.6613
     5.1358   5.1358   5.2810   5.2810   5.3313   5.3313   5.3368   5.3368
     5.5486   5.5486   5.9441   5.9441   6.0357   6.0357   6.1163   6.1163
     6.6270   6.6270   6.6866   6.6866   6.7971   6.7971   6.8695   6.8695

     occupation numbers 
     1.0000   1.0000   1.0000   1.0000   1.0000   1.0000   1.0000   1.0000
     1.0000   1.0000   1.0000   1.0000   1.0000   1.0000   1.0000   1.0000
     1.0000   1.0000   1.0000   1.0000   1.0000   1.0000   1.0000   1.0000
     1.0000   1.0000   1.0000   1.0000   1.0000   1.0000   1.0000   1.0000
     1.0000   1.0000   1.0000   1.0000   1.0000   1.0000   1.0000   1.0000
     1.0000   1.0000   1.0000   1.0000   1.0000   1.0000   1.0000   1.0000
     1.0000   1.0000   1.0000   1.0000   1.0000   1.0000   1.0000   1.0000
     1.0000   1.0000   1.0000   1.0000   1.0000   1.0000   1.0000   1.0000
     1.0000   1.0000   1.0000   1.0000   1.0000   1.0000   1.0000   1.0000
     1.0000   1.0000   1.0000   1.0000   1.0000   1.0000   1.0000   1.0000

          k =-0.5000-0.2236 0.0000 (  8688 PWs)   bands (ev):

   -41.3203 -41.3203 -41.3203 -41.3203 -26.5648 -26.5648 -26.5648 -26.5648
   -19.4155 -19.4155 -19.4155 -19.4155 -19.3670 -19.3670 -19.3670 -19.3670
   -19.3175 -19.3175 -19.3175 -19.3175  -8.8721  -8.8721  -8.8721  -8.8721
    -8.6001  -8.6001  -8.6001  -8.6001  -8.5498  -8.5498  -8.5498  -8.5498
    -3.9178  -3.9178  -3.9178  -3.9178  -3.6275  -3.6275  -3.6275  -3.6275
    -3.2681  -3.2681  -3.2681  -3.2681   3.5239   3.5239   3.5239   3.5239
     4.3919   4.3919   4.3919   4.3919   4.7432   4.7432   4.7432   4.7432
     5.0437   5.0437   5.0437   5.0437   5.4017   5.4017   5.4017   5.4017
     5.7979   5.7979   5.7979   5.7979   6.3154   6.3154   6.3154   6.3154
     6.4078   6.4078   6.4078   6.4078   6.6839   6.6839   6.6839   6.6839

     occupation numbers 
     1.0000   1.0000   1.0000   1.0000   1.0000   1.0000   1.0000   1.0000
     1.0000   1.0000   1.0000   1.0000   1.0000   1.0000   1.0000   1.0000
     1.0000   1.0000   1.0000   1.0000   1.0000   1.0000   1.0000   1.0000
     1.0000   1.0000   1.0000   1.0000   1.0000   1.0000   1.0000   1.0000
     1.0000   1.0000   1.0000   1.0000   1.0000   1.0000   1.0000   1.0000
     1.0000   1.0000   1.0000   1.0000   1.0000   1.0000   1.0000   1.0000
     1.0000   1.0000   1.0000   1.0000   1.0000   1.0000   1.0000   1.0000
     1.0000   1.0000   1.0000   1.0000   1.0000   1.0000   1.0000   1.0000
     1.0000   1.0000   1.0000   1.0000   1.0000   1.0000   1.0000   1.0000
     1.0000   1.0000   1.0000   1.0000   1.0000   1.0000   1.0000   1.0000

     highest occupied level (ev):     7.9486

!    total energy              =    -969.03262075 Ry
     estimated scf accuracy    <          6.1E-09 Ry

     The total energy is the sum of the following terms:
     one-electron contribution =    -192.66837822 Ry
     hartree contribution      =     157.19861767 Ry
     xc contribution           =    -246.10280526 Ry
     ewald contribution        =    -687.46005494 Ry

     convergence has been achieved in  14 iterations


     Computing stress (Cartesian axis) and pressure


     negative rho (up, down):  5.211E-01 0.000E+00
          total   stress  (Ry/bohr**3)                   (kbar)     P=        2.92
   0.00002262   0.00000000   0.00000000            3.33        0.00        0.00
   0.00000000   0.00001676   0.00000000            0.00        2.46        0.00
   0.00000000   0.00000000   0.00002026            0.00        0.00        2.98

     kinetic stress (kbar)   8984.46      0.00      0.00
                                0.00   9007.68      0.00
                                0.00      0.00   9028.71

     local   stress (kbar)  -7811.07     -0.00     -0.00
                               -0.00  -4278.11     -0.00
                               -0.00     -0.00  -3999.62

     nonloc. stress (kbar)   7415.52      0.00      0.00
                                0.00   7410.96      0.00
                                0.00      0.00   7415.82

     hartree stress (kbar)   3497.44     -0.00      0.00
                               -0.00   2110.43      0.00
                                0.00      0.00   1816.76

     exc-cor stress (kbar)   2585.90     -0.00     -0.00
                               -0.00   2583.70     -0.00
                               -0.00     -0.00   2586.41

     corecor stress (kbar)  -5292.16      0.00      0.00
                                0.00  -5292.00      0.00
                                0.00      0.00  -5292.70

     ewald   stress (kbar)  -9376.77      0.00      0.00
                                0.00 -11540.20      0.00
                                0.00      0.00 -11552.39

     hubbard stress (kbar)      0.00      0.00      0.00
                                0.00      0.00      0.00
                                0.00      0.00      0.00

     DFT-D   stress (kbar)      0.00      0.00      0.00
                                0.00      0.00      0.00
                                0.00      0.00      0.00

     XDM     stress (kbar)      0.00      0.00      0.00
                                0.00      0.00      0.00
                                0.00      0.00      0.00

     dft-nl  stress (kbar)      0.00      0.00      0.00
                                0.00      0.00      0.00
                                0.00      0.00      0.00

     TS-vdW  stress (kbar)      0.00      0.00      0.00
                                0.00      0.00      0.00
                                0.00      0.00      0.00

     MDB     stress (kbar)      0.00      0.00      0.00
                                0.00      0.00      0.00
                                0.00      0.00      0.00

     3D-RISM stress (kbar)      0.00      0.00      0.00
                                0.00      0.00      0.00
                                0.00      0.00      0.00


     Writing all to output data dir ./tmp/ecut_30/SrZrS3_ecut_30.save/ :
     XML data file, charge density, pseudopotentials, collected wavefunctions

     init_run     :      1.09s CPU      1.13s WALL (       1 calls)
     electrons    :     28.59s CPU     28.90s WALL (       1 calls)
     stress       :      2.10s CPU      2.12s WALL (       1 calls)

     Called by init_run:
     wfcinit      :      0.85s CPU      0.88s WALL (       1 calls)
     wfcinit:atom :      0.00s CPU      0.00s WALL (       6 calls)
     wfcinit:wfcr :      0.82s CPU      0.84s WALL (       6 calls)
     potinit      :      0.02s CPU      0.02s WALL (       1 calls)
     hinit0       :      0.06s CPU      0.07s WALL (       1 calls)

     Called by electrons:
     c_bands      :     22.34s CPU     22.58s WALL (      14 calls)
     sum_band     :      4.25s CPU      4.30s WALL (      14 calls)
     v_of_rho     :      0.27s CPU      0.27s WALL (      15 calls)
     v_h          :      0.01s CPU      0.02s WALL (      15 calls)
     v_xc         :      0.27s CPU      0.27s WALL (      16 calls)
     newd         :      1.81s CPU      1.83s WALL (      15 calls)
     mix_rho      :      0.03s CPU      0.04s WALL (      14 calls)

     Called by c_bands:
     init_us_2    :      0.14s CPU      0.14s WALL (     180 calls)
     cegterg      :     21.43s CPU     21.67s WALL (      84 calls)

     Called by sum_band:
     sum_band:wei :      0.00s CPU      0.00s WALL (      14 calls)
     sum_band:loo :      2.22s CPU      2.25s WALL (      14 calls)
     sum_band:buf :      0.01s CPU      0.01s WALL (      84 calls)
     sum_band:ini :      0.07s CPU      0.07s WALL (      84 calls)
     sum_band:cal :      0.89s CPU      0.90s WALL (      84 calls)
     sum_band:bec :      0.01s CPU      0.01s WALL (      84 calls)
     addusdens    :      1.91s CPU      1.93s WALL (      14 calls)
                                        0.00s GPU  (      14 calls)
     addusd:skk   :      0.01s CPU      0.01s WALL (      42 calls)
                                        0.00s GPU  (      42 calls)

     Called by *egterg:
     cdiaghg      :      1.41s CPU      1.43s WALL (     432 calls)
     cegterg:over :      1.50s CPU      1.51s WALL (     348 calls)
     cegterg:upda :      0.87s CPU      0.88s WALL (     348 calls)
     cegterg:last :      1.87s CPU      1.88s WALL (     197 calls)
     h_psi        :     13.04s CPU     13.21s WALL (     438 calls)
     s_psi        :      2.91s CPU      2.93s WALL (     438 calls)
     g_psi        :      0.02s CPU      0.02s WALL (     348 calls)

     Called by h_psi:
     h_psi:calbec :      2.90s CPU      2.93s WALL (     438 calls)
     vloc_psi     :      7.17s CPU      7.30s WALL (     438 calls)
                                        0.00s GPU  (     438 calls)
     add_vuspsi   :      2.95s CPU      2.97s WALL (     438 calls)

     General routines
     calbec       :      4.63s CPU      4.67s WALL (     600 calls)
     fft          :      0.18s CPU      0.19s WALL (     207 calls)
     ffts         :      0.01s CPU      0.01s WALL (      29 calls)
     fftw         :      7.73s CPU      7.85s WALL (   47762 calls)
     interpolate  :      0.02s CPU      0.02s WALL (      15 calls)

     Parallel routines

     PWSCF        :     31.90s CPU     32.33s WALL


   This run was terminated on:   2:11:26   2Jul2026            

=------------------------------------------------------------------------------=
   JOB DONE.
=------------------------------------------------------------------------------=
