
     Program PWSCF v.7.3.1 starts on 21Aug2026 at  1:47: 9 

     This program is part of the open-source Quantum ESPRESSO suite
     for quantum simulation of materials; please cite
         "P. Giannozzi et al., J. Phys.:Condens. Matter 21 395502 (2009);
         "P. Giannozzi et al., J. Phys.:Condens. Matter 29 465901 (2017);
         "P. Giannozzi et al., J. Chem. Phys. 152 154105 (2020);
          URL http://www.quantum-espresso.org", 
     in publications or presentations arising from this work. More details at
     http://www.quantum-espresso.org/quote

     Parallel version (MPI & OpenMP), running on      32 processor cores
     Number of MPI processes:                32
     Threads/MPI process:                     1

     MPI processes distributed on     1 nodes
     538229 MiB available memory on the printing compute node when the environment starts

     Reading input from scf.in

     Current dimensions of program PWSCF are:
     Max number of different atomic species (ntypx) = 10
     Max number of k-points (npk) =  40000
     Max angular momentum in pseudopotentials (lmaxx) =  4
     file Cu.paw.z_11.ld1.psl.v1.0.0-low.upf: wavefunction(s)  4S 3D renormalized

     K-points division:     npool     =       2
     R & G space division:  proc/nbgrp/npool/nimage =      16
     Subspace diagonalization in iterative solution of the eigenvalue problem:
     one sub-group per band group will be used
     scalapack distributed-memory algorithm (size of sub-group:  4*  4 procs)


     Parallelization info
     --------------------
     sticks:   dense  smooth     PW     G-vecs:    dense   smooth      PW
     Min        1193     597    157               163743    57882    7779
     Max        1194     599    158               163747    57885    7784
     Sum       19099    9565   2515              2619931   926125  124485

     Using Slab Decomposition



     bravais-lattice index     =            0
     lattice parameter (alat)  =      24.0273  a.u.
     unit-cell volume          =   14752.0463 (a.u.)^3
     number of atoms/cell      =           96
     number of atomic types    =            4
     number of electrons       =       840.00
     number of Kohn-Sham states=          420
     kinetic-energy cutoff     =      60.0000  Ry
     charge density cutoff     =     480.0000  Ry
     scf convergence threshold =      1.0E-09
     mixing beta               =       0.3000
     number of iterations used =            8  plain     mixing
     Exchange-correlation=  SLA  PW   PBX  PBC
                           (   1   4   3   4   0   0   0)

     celldm(1)=  24.027274  celldm(2)=   0.000000  celldm(3)=   0.000000
     celldm(4)=   0.000000  celldm(5)=   0.000000  celldm(6)=   0.000000

     crystal axes: (cart. coord. in units of alat)
               a(1) = (   1.000000   0.000000   0.000000 )  
               a(2) = (  -0.500000   0.866025   0.000000 )  
               a(3) = (   0.000000   0.000000   1.228028 )  

     reciprocal axes: (cart. coord. in units 2 pi/alat)
               b(1) = (  1.000000  0.577351 -0.000000 )  
               b(2) = (  0.000000  1.154701  0.000000 )  
               b(3) = (  0.000000 -0.000000  0.814314 )  


     PseudoPot. # 1 for Sr read from file:
     /home/yuhansun/pseudos/SSSP-1.3.0-PBE-precision/Sr_pbe_v1.uspp.F.UPF
     MD5 check sum: 6b418c05fbe9db5448babca5e47b7a5b
     Pseudo is Ultrasoft + core correction, Zval = 10.0
     Generated by new atomic code, or converted to UPF format
     Using radial grid of  883 points,  6 beta functions with: 
                l(1) =   0
                l(2) =   0
                l(3) =   1
                l(4) =   1
                l(5) =   2
                l(6) =   2
     Q(r) pseudized with  6 coefficients,  rinner =    1.400   1.400   1.400
                                                       1.400   1.400

     PseudoPot. # 2 for Cu read from file:
     /home/yuhansun/pseudos/SSSP-1.3.0-PBE-precision/Cu.paw.z_11.ld1.psl.v1.0.0-low.upf
     MD5 check sum: 619f40885d92a09a85a8b37550532d0c
     Pseudo is Projector augmented-wave + core cor, Zval = 11.0
     Generated using &quot;atomic&quot; code by A. Dal Corso  v.6.3MaX
     Shape of augmentation charge: PSQ
     Using radial grid of 1199 points,  6 beta functions with: 
                l(1) =   0
                l(2) =   0
                l(3) =   1
                l(4) =   1
                l(5) =   2
                l(6) =   2
     Q(r) pseudized with 0 coefficients 


     PseudoPot. # 3 for Sn read from file:
     /home/yuhansun/pseudos/SSSP-1.3.0-PBE-precision/Sn_pbe_v1.uspp.F.UPF
     MD5 check sum: 4cf58ce39ec5d5d420df3dd08604eb00
     Pseudo is Ultrasoft + core correction, Zval = 14.0
     Generated by new atomic code, or converted to UPF format
     Using radial grid of  891 points,  6 beta functions with: 
                l(1) =   0
                l(2) =   0
                l(3) =   1
                l(4) =   1
                l(5) =   2
                l(6) =   2
     Q(r) pseudized with  6 coefficients,  rinner =    1.200   1.200   1.200
                                                       1.200   1.200

     PseudoPot. # 4 for S  read from file:
     /home/yuhansun/pseudos/SSSP-1.3.0-PBE-precision/s_pbe_v1.4.uspp.F.UPF
     MD5 check sum: 88d86576ff6df21479756cfb9bdac1df
     Pseudo is Ultrasoft + core correction, Zval =  6.0
     Generated by new atomic code, or converted to UPF format
     Using radial grid of  907 points,  6 beta functions with: 
                l(1) =   0
                l(2) =   0
                l(3) =   1
                l(4) =   1
                l(5) =   2
                l(6) =   2
     Q(r) pseudized with  8 coefficients,  rinner =    1.300   1.300   1.300
                                                       1.300   1.300

     atomic species   valence    mass     pseudopotential
     Sr               10.00    87.62000     Sr( 1.00)
     Cu               11.00    63.54600     Cu( 1.00)
     Sn               14.00   118.71000     Sn( 1.00)
     S                 6.00    32.06500     S ( 1.00)

     No symmetry found



   Cartesian axes

     site n.     atom                  positions (alat units)
         1        Sr     tau(   1) = (  -0.1368295   0.2413208   0.2046717  )
         2        Sr     tau(   2) = (   0.3594247   0.2434834   0.2046717  )
         3        Sr     tau(   3) = (  -0.3905753   0.6764960   0.2046717  )
         4        Sr     tau(   4) = (   0.1094247   0.6764960   0.2046717  )
         5        Sr     tau(   5) = (   0.1094247   0.1895292   0.6140139  )
         6        Sr     tau(   6) = (   0.6094247   0.1895292   0.6140139  )
         7        Sr     tau(   7) = (  -0.1405753   0.6225418   0.6140139  )
         8        Sr     tau(   8) = (   0.3594247   0.6225418   0.6140139  )
         9        Sr     tau(   9) = (   0.2811505   0.0000000   1.0233574  )
        10        Sr     tau(  10) = (   0.7811505   0.0000000   1.0233574  )
        11        Sr     tau(  11) = (   0.0311505   0.4330126   1.0233574  )
        12        Sr     tau(  12) = (   0.5311505   0.4330126   1.0233574  )
        13        Cu     tau(  13) = (  -0.1226788   0.2753211   0.5061747  )
        14        Cu     tau(  14) = (   0.3773212   0.2753211   0.5061747  )
        15        Cu     tau(  15) = (  -0.3726788   0.7083337   0.5061747  )
        16        Cu     tau(  16) = (   0.1273212   0.7083337   0.5061747  )
        17        Cu     tau(  17) = (   0.0729045   0.1891087   0.9155169  )
        18        Cu     tau(  18) = (   0.5729045   0.1891087   0.9155169  )
        19        Cu     tau(  19) = (  -0.1770956   0.6221213   0.9155169  )
        20        Cu     tau(  20) = (   0.3229044   0.6221213   0.9155169  )
        21        Cu     tau(  21) = (   0.0497750   0.4015949   0.0968325  )
        22        Cu     tau(  22) = (   0.5497750   0.4015949   0.0968325  )
        23        Cu     tau(  23) = (  -0.2002251   0.8346075   0.0968325  )
        24        Cu     tau(  24) = (   0.2997749   0.8346075   0.0968325  )
        25        Cu     tau(  25) = (   0.2997745   0.0314177   0.7218532  )
        26        Cu     tau(  26) = (   0.7997745   0.0314177   0.7218532  )
        27        Cu     tau(  27) = (   0.0497745   0.4644302   0.7218532  )
        28        Cu     tau(  28) = (   0.5497745   0.4644302   0.7218532  )
        29        Cu     tau(  29) = (   0.1273207   0.1576915   0.3125110  )
        30        Cu     tau(  30) = (   0.6273207   0.1576915   0.3125110  )
        31        Cu     tau(  31) = (  -0.1226793   0.5907041   0.3125110  )
        32        Cu     tau(  32) = (   0.3773207   0.5907041   0.3125110  )
        33        Cu     tau(  33) = (   0.3229040   0.2439039   1.1311954  )
        34        Cu     tau(  34) = (   0.8229040   0.2439039   1.1311954  )
        35        Cu     tau(  35) = (   0.0729039   0.6769164   1.1311954  )
        36        Cu     tau(  36) = (   0.5729039   0.6769164   1.1311954  )
        37        Sn     tau(  37) = (  -0.1762580   0.3052877   0.8186857  )
        38        Sn     tau(  38) = (   0.3237420   0.3052877   0.8186857  )
        39        Sn     tau(  39) = (  -0.4262581   0.7383003   0.8186857  )
        40        Sn     tau(  40) = (   0.0737419   0.7383003   0.8186857  )
        41        Sn     tau(  41) = (   0.0737420   0.1277249   0.0000000  )
        42        Sn     tau(  42) = (   0.5737420   0.1277249   0.0000000  )
        43        Sn     tau(  43) = (  -0.1762581   0.5607374   0.0000000  )
        44        Sn     tau(  44) = (   0.3237419   0.5607374   0.0000000  )
        45        Sn     tau(  45) = (   0.3525160   0.0000000   0.4093422  )
        46        Sn     tau(  46) = (   0.8525160   0.0000000   0.4093422  )
        47        Sn     tau(  47) = (   0.1025160   0.4330126   0.4093422  )
        48        Sn     tau(  48) = (   0.6025160   0.4330126   0.4093422  )
        49        S      tau(  49) = (  -0.0988203   0.2103164   0.9671149  )
        50        S      tau(  50) = (   0.4011797   0.2103164   0.9671149  )
        51        S      tau(  51) = (  -0.3488203   0.6433290   0.9671149  )
        52        S      tau(  52) = (   0.1511797   0.6433290   0.9671149  )
        53        S      tau(  53) = (   0.1172707   0.2422736   0.1484293  )
        54        S      tau(  54) = (   0.6172707   0.2422736   0.1484293  )
        55        S      tau(  55) = (  -0.1327293   0.6752862   0.1484293  )
        56        S      tau(  56) = (   0.3672707   0.6752862   0.1484293  )
        57        S      tau(  57) = (  -0.0184505   0.4134352   0.5577727  )
        58        S      tau(  58) = (   0.4815495   0.4134352   0.5577727  )
        59        S      tau(  59) = (  -0.2684506   0.8464478   0.5577727  )
        60        S      tau(  60) = (   0.2315494   0.8464478   0.5577727  )
        61        S      tau(  61) = (   0.2315495   0.0195774   0.2609129  )
        62        S      tau(  62) = (   0.7315495   0.0195774   0.2609129  )
        63        S      tau(  63) = (  -0.0184505   0.4525899   0.2609129  )
        64        S      tau(  64) = (   0.4815495   0.4525899   0.2609129  )
        65        S      tau(  65) = (   0.1511797   0.2226962   1.0795986  )
        66        S      tau(  66) = (   0.6511797   0.2226962   1.0795986  )
        67        S      tau(  67) = (  -0.0988203   0.6557088   1.0795986  )
        68        S      tau(  68) = (   0.4011797   0.6557088   1.0795986  )
        69        S      tau(  69) = (   0.3672707   0.1907390   0.6702552  )
        70        S      tau(  70) = (   0.8672707   0.1907390   0.6702552  )
        71        S      tau(  71) = (   0.1172707   0.6237516   0.6702552  )
        72        S      tau(  72) = (   0.6172707   0.6237516   0.6702552  )
        73        S      tau(  73) = (  -0.0296498   0.1532012   0.4035914  )
        74        S      tau(  74) = (   0.4703502   0.1532012   0.4035914  )
        75        S      tau(  75) = (  -0.2796498   0.5862137   0.4035914  )
        76        S      tau(  76) = (   0.2203502   0.5862137   0.4035914  )
        77        S      tau(  77) = (   0.1321490   0.3307341   0.8129336  )
        78        S      tau(  78) = (   0.6321490   0.3307341   0.8129336  )
        79        S      tau(  79) = (  -0.1178511   0.7637467   0.8129336  )
        80        S      tau(  80) = (   0.3821489   0.7637467   0.8129336  )
        81        S      tau(  81) = (  -0.1024985   0.3820894   1.2222770  )
        82        S      tau(  82) = (   0.3975015   0.3820894   1.2222770  )
        83        S      tau(  83) = (  -0.3524986   0.8151020   1.2222770  )
        84        S      tau(  84) = (   0.1475014   0.8151020   1.2222770  )
        85        S      tau(  85) = (   0.1475010   0.0509231   0.8244365  )
        86        S      tau(  86) = (   0.6475010   0.0509231   0.8244365  )
        87        S      tau(  87) = (  -0.1024990   0.4839357   0.8244365  )
        88        S      tau(  88) = (   0.3975010   0.4839357   0.8244365  )
        89        S      tau(  89) = (   0.2203497   0.2798114   0.4150943  )
        90        S      tau(  90) = (   0.7203497   0.2798114   0.4150943  )
        91        S      tau(  91) = (  -0.0296503   0.7128240   0.4150943  )
        92        S      tau(  92) = (   0.4703497   0.7128240   0.4150943  )
        93        S      tau(  93) = (   0.3821485   0.1022784   0.0057509  )
        94        S      tau(  94) = (   0.8821485   0.1022784   0.0057509  )
        95        S      tau(  95) = (   0.1321485   0.5352910   0.0057509  )
        96        S      tau(  96) = (   0.6321485   0.5352910   0.0057509  )

     number of k points=    14
                       cart. coord. in units 2pi/alat
        k(    1) = (   0.0000000   0.0000000   0.0000000), wk =   0.0740741
        k(    2) = (   0.0000000   0.0000000   0.2714379), wk =   0.1481481
        k(    3) = (   0.0000000   0.3849003   0.0000000), wk =   0.1481481
        k(    4) = (   0.0000000   0.3849003   0.2714379), wk =   0.1481481
        k(    5) = (   0.3333333   0.5773505   0.0000000), wk =   0.1481481
        k(    6) = (   0.3333333   0.5773505   0.2714379), wk =   0.1481481
        k(    7) = (  -0.3333333   0.1924501   0.0000000), wk =   0.1481481
        k(    8) = (   0.3333333   0.1924502   0.0000000), wk =   0.1481481
        k(    9) = (   0.0000000  -0.3849003   0.2714379), wk =   0.1481481
        k(   10) = (  -0.3333333   0.1924501   0.2714379), wk =   0.1481481
        k(   11) = (   0.3333333   0.1924502   0.2714379), wk =   0.1481481
        k(   12) = (  -0.3333333  -0.1924502   0.2714379), wk =   0.1481481
        k(   13) = (   0.3333333  -0.1924501   0.2714379), wk =   0.1481481
        k(   14) = (  -0.3333333  -0.5773505   0.2714379), wk =   0.1481481

     Dense  grid:  2619931 G-vectors     FFT dimensions: ( 180, 180, 216)

     Smooth grid:   926125 G-vectors     FFT dimensions: ( 120, 120, 150)

     Estimated max dynamical RAM per process >       1.07 GB

     Estimated total dynamical RAM >      33.54 GB

     Initial potential from superposition of free atoms

     starting charge     827.5884, renormalised to     840.0000

     negative rho (up, down):  7.777E-01 0.000E+00
     Starting wfcs are  672 randomized atomic wfcs
     Checking if some PAW data can be deallocated... 

     total cpu time spent up to now is       40.7 secs

     Self-consistent Calculation

     iteration #  1     ecut=    60.00 Ry     beta= 0.30
     Davidson diagonalization with overlap
     ethr =  1.00E-02,  avg # of iterations =  2.0

     negative rho (up, down):  7.747E-01 0.000E+00

     total cpu time spent up to now is      114.0 secs

     total energy              =   -9070.29044871 Ry
     estimated scf accuracy    <      21.98002291 Ry

     iteration #  2     ecut=    60.00 Ry     beta= 0.30
     Davidson diagonalization with overlap
     ethr =  2.62E-03,  avg # of iterations =  4.9

     negative rho (up, down):  7.752E-01 0.000E+00

     total cpu time spent up to now is      207.1 secs

     total energy              =   -9076.61493163 Ry
     estimated scf accuracy    <       8.22282722 Ry

     iteration #  3     ecut=    60.00 Ry     beta= 0.30
     Davidson diagonalization with overlap
     ethr =  9.79E-04,  avg # of iterations =  2.0

     negative rho (up, down):  7.804E-01 0.000E+00

     total cpu time spent up to now is      281.6 secs

     total energy              =   -9076.48806743 Ry
     estimated scf accuracy    <       1.62483835 Ry

     iteration #  4     ecut=    60.00 Ry     beta= 0.30
     Davidson diagonalization with overlap
     ethr =  1.93E-04,  avg # of iterations =  6.1

     negative rho (up, down):  7.829E-01 0.000E+00

     total cpu time spent up to now is      390.0 secs

     total energy              =   -9076.69881928 Ry
     estimated scf accuracy    <       2.07276787 Ry

     iteration #  5     ecut=    60.00 Ry     beta= 0.30
     Davidson diagonalization with overlap
     ethr =  1.93E-04,  avg # of iterations =  5.1

     negative rho (up, down):  7.884E-01 0.000E+00

     total cpu time spent up to now is      477.6 secs

     total energy              =   -9077.13306348 Ry
     estimated scf accuracy    <       0.14677454 Ry

     iteration #  6     ecut=    60.00 Ry     beta= 0.30
     Davidson diagonalization with overlap
     ethr =  1.75E-05,  avg # of iterations =  6.5

     negative rho (up, down):  7.902E-01 0.000E+00

     total cpu time spent up to now is      571.9 secs

     total energy              =   -9077.18444359 Ry
     estimated scf accuracy    <       0.01375131 Ry

     iteration #  7     ecut=    60.00 Ry     beta= 0.30
     Davidson diagonalization with overlap
     ethr =  1.64E-06,  avg # of iterations =  5.5

     negative rho (up, down):  7.907E-01 0.000E+00

     total cpu time spent up to now is      671.7 secs

     total energy              =   -9077.18907259 Ry
     estimated scf accuracy    <       0.00638051 Ry

     iteration #  8     ecut=    60.00 Ry     beta= 0.30
     Davidson diagonalization with overlap
     ethr =  7.60E-07,  avg # of iterations =  6.5

     negative rho (up, down):  7.911E-01 0.000E+00

     total cpu time spent up to now is      780.4 secs

     total energy              =   -9077.17991113 Ry
     estimated scf accuracy    <       0.04318766 Ry

     iteration #  9     ecut=    60.00 Ry     beta= 0.30
     Davidson diagonalization with overlap
     ethr =  7.60E-07,  avg # of iterations =  9.0

     negative rho (up, down):  7.911E-01 0.000E+00

     total cpu time spent up to now is      897.5 secs

     total energy              =   -9077.18750707 Ry
     estimated scf accuracy    <       0.00180503 Ry

     iteration # 10     ecut=    60.00 Ry     beta= 0.30
     Davidson diagonalization with overlap
     ethr =  2.15E-07,  avg # of iterations =  2.4

     negative rho (up, down):  7.908E-01 0.000E+00

     total cpu time spent up to now is      965.4 secs

     total energy              =   -9077.18737870 Ry
     estimated scf accuracy    <       0.00051156 Ry

     iteration # 11     ecut=    60.00 Ry     beta= 0.30
     Davidson diagonalization with overlap
     ethr =  6.09E-08,  avg # of iterations =  7.4

     negative rho (up, down):  7.905E-01 0.000E+00

     total cpu time spent up to now is     1058.2 secs

     total energy              =   -9077.18757388 Ry
     estimated scf accuracy    <       0.00031169 Ry

     iteration # 12     ecut=    60.00 Ry     beta= 0.30
     Davidson diagonalization with overlap
     ethr =  3.71E-08,  avg # of iterations =  3.3

     negative rho (up, down):  7.904E-01 0.000E+00

     total cpu time spent up to now is     1129.2 secs

     total energy              =   -9077.18762635 Ry
     estimated scf accuracy    <       0.00003490 Ry

     iteration # 13     ecut=    60.00 Ry     beta= 0.30
     Davidson diagonalization with overlap
     ethr =  4.15E-09,  avg # of iterations =  5.9

     negative rho (up, down):  7.903E-01 0.000E+00

     total cpu time spent up to now is     1237.7 secs

     total energy              =   -9077.18763647 Ry
     estimated scf accuracy    <       0.00000950 Ry

     iteration # 14     ecut=    60.00 Ry     beta= 0.30
     Davidson diagonalization with overlap
     ethr =  1.13E-09,  avg # of iterations =  5.1

     negative rho (up, down):  7.902E-01 0.000E+00

     total cpu time spent up to now is     1327.1 secs

     total energy              =   -9077.18763904 Ry
     estimated scf accuracy    <       0.00000060 Ry

     iteration # 15     ecut=    60.00 Ry     beta= 0.30
     Davidson diagonalization with overlap
     ethr =  7.15E-11,  avg # of iterations =  7.2

     negative rho (up, down):  7.902E-01 0.000E+00

     total cpu time spent up to now is     1446.9 secs

     total energy              =   -9077.18763950 Ry
     estimated scf accuracy    <       0.00000028 Ry

     iteration # 16     ecut=    60.00 Ry     beta= 0.30
     Davidson diagonalization with overlap
     ethr =  3.38E-11,  avg # of iterations =  4.6

     negative rho (up, down):  7.902E-01 0.000E+00

     total cpu time spent up to now is     1550.2 secs

     total energy              =   -9077.18763961 Ry
     estimated scf accuracy    <       0.00000018 Ry

     iteration # 17     ecut=    60.00 Ry     beta= 0.30
     Davidson diagonalization with overlap
     ethr =  2.14E-11,  avg # of iterations =  3.6

     negative rho (up, down):  7.902E-01 0.000E+00

     total cpu time spent up to now is     1632.4 secs

     total energy              =   -9077.18763966 Ry
     estimated scf accuracy    <       0.00000002 Ry

     iteration # 18     ecut=    60.00 Ry     beta= 0.30
     Davidson diagonalization with overlap
     ethr =  2.11E-12,  avg # of iterations =  7.7

     negative rho (up, down):  7.902E-01 0.000E+00

     total cpu time spent up to now is     1778.1 secs

     total energy              =   -9077.18763967 Ry
     estimated scf accuracy    <       0.00000006 Ry

     iteration # 19     ecut=    60.00 Ry     beta= 0.30
     Davidson diagonalization with overlap
     ethr =  2.11E-12,  avg # of iterations =  5.4

     negative rho (up, down):  7.902E-01 0.000E+00

     total cpu time spent up to now is     1876.4 secs

     total energy              =   -9077.18763969 Ry
     estimated scf accuracy    <          2.6E-09 Ry

     iteration # 20     ecut=    60.00 Ry     beta= 0.30
     Davidson diagonalization with overlap
     ethr =  3.09E-13,  avg # of iterations =  7.9

     negative rho (up, down):  7.902E-01 0.000E+00

     total cpu time spent up to now is     2028.5 secs

     total energy              =   -9077.18763969 Ry
     estimated scf accuracy    <       0.00000002 Ry

     iteration # 21     ecut=    60.00 Ry     beta= 0.30
     Davidson diagonalization with overlap
     ethr =  3.09E-13,  avg # of iterations =  6.9

     negative rho (up, down):  7.902E-01 0.000E+00

     total cpu time spent up to now is     2149.4 secs

     End of self-consistent calculation

          k = 0.0000 0.0000 0.0000 (115723 PWs)   bands (ev):

   -28.2786 -28.2775 -28.2764 -28.2760 -28.2756 -28.2754 -28.2753 -28.2753
   -28.2748 -28.2741 -28.2713 -28.2666 -14.9324 -14.9277 -14.9266 -14.9234
   -14.9233 -14.9228 -14.9228 -14.9226 -14.9225 -14.9223 -14.9218 -14.9207
   -14.9175 -14.9175 -14.9174 -14.9169 -14.9168 -14.9168 -14.9166 -14.9165
   -14.9156 -14.9149 -14.9141 -14.9115 -14.9096 -14.9096 -14.9055 -14.9054
   -14.9048 -14.9048 -14.9047 -14.9046 -14.9045 -14.9027 -14.8994 -14.8978
   -14.8742 -14.8695 -14.8652 -14.8652 -14.8647 -14.8646 -14.8645 -14.8644
   -14.8644 -14.8626 -14.8594 -14.8575 -14.8292 -14.8244 -14.8201 -14.8200
   -14.8194 -14.8194 -14.8193 -14.8192 -14.8192 -14.8174 -14.8141 -14.8122
   -10.3397 -10.3389 -10.3374 -10.3370 -10.3368 -10.3360 -10.3356 -10.3343
   -10.3333 -10.3301 -10.3282 -10.3229 -10.3101 -10.3087 -10.3080 -10.3044
   -10.3038 -10.3018 -10.3012 -10.2989 -10.2934 -10.2915 -10.2902 -10.2813
   -10.2711 -10.2703 -10.2699 -10.2657 -10.2654 -10.2636 -10.2631 -10.2616
   -10.2607 -10.2578 -10.2562 -10.2531  -6.8633  -6.5552  -6.5549  -6.4197
    -6.4176  -6.4139  -6.3033  -6.2986  -6.2965  -6.2196  -6.2180  -6.2165
    -5.9906  -5.9900  -5.9891  -5.8513  -5.8490  -5.8484  -5.7979  -5.7960
    -5.7953  -5.7373  -5.7370  -5.6219  -5.6182  -5.6170  -5.6154  -5.6133
    -5.6117  -5.6011  -5.5594  -5.5589  -5.5581  -5.5466  -5.5453  -5.5426
    -5.5171  -5.5168  -5.4331  -5.4302  -5.4287  -5.4270  -5.3731  -5.3724
    -5.3482  -5.3453  -5.3422  -5.2509  -0.6140  -0.6112  -0.6103  -0.3907
    -0.3899  -0.3868  -0.3510  -0.3188  -0.3157  -0.3128  -0.3011  -0.3007
     1.3843   1.3846   1.3856   1.5917   1.5920   1.6555   1.7162   1.7167
     1.7175   1.8041   1.8051   1.8083   2.0195   2.0402   2.0409   2.0838
     2.0847   2.0861   2.2462   2.2476   2.2491   2.3085   2.3106   2.4034
     2.4041   2.4054   2.4599   2.4608   2.4617   2.5491   2.5496   2.6615
     2.6628   2.6640   2.7830   2.7842   2.7849   2.8711   2.8717   2.9243
     2.9251   2.9260   2.9522   2.9541   2.9546   3.0258   3.0277   3.0283
     3.0442   3.0462   3.0470   3.1645   3.2134   3.2140   3.2160   3.2271
     3.2278   3.2554   3.2575   3.2595   3.3766   3.3777   3.3783   3.3928
     3.3931   3.4256   3.4270   3.4284   3.4354   3.4360   3.4369   3.4752
     3.4761   3.4768   3.4913   3.4948   3.4949   3.4969   3.5169   3.5175
     3.5837   3.5852   3.5856   3.6251   3.6273   3.6281   3.6878   3.6886
     3.6908   3.6917   3.6922   3.7060   3.7948   3.7954   3.8240   3.8258
     3.8264   3.9625   4.0183   4.0203   4.0228   4.0350   4.0357   4.0376
     4.1235   4.1241   4.1254   4.1272   4.1723   4.1727   4.1762   4.2011
     4.2067   4.2099   4.2115   4.2412   4.2446   4.2469   4.2810   4.2810
     4.4231   4.4246   4.4264   4.5169   4.5184   4.5193   4.5356   4.5367
     4.6180   4.6203   4.6233   4.8564   5.1244   5.1548   5.1552   5.1560
     5.1735   5.1738   5.1747   5.1782   5.1785   5.2219   5.2266   5.2272
     5.2279   5.2292   5.2300   5.2507   5.2522   5.2529   5.2649   5.2669
     5.2681   5.2780   5.2783   5.2795   5.3089   5.3113   5.3118   5.3126
     5.3137   5.3247   5.3368   5.3375   5.3383   5.3740   5.3752   5.3771
     5.4384   5.4387   5.4708   5.4710   5.4714   5.4745   5.4771   5.4774
     5.4779   5.4982   5.4994   5.6005   5.6010   5.6019   5.6182   5.6187
     5.6189   5.6264   5.6466   5.6472   5.6479   5.6591   5.6596   5.6599
     5.7252   5.7253   5.7442   5.7810   5.7828   5.7845   5.8203   5.8205
     5.8223   5.9032   5.9036   5.9041   5.9262   5.9274   5.9290   5.9957
     5.9961   6.0266   6.0266   6.0269   6.1491   6.1500   6.1512   6.1522
     6.2615   6.2621   6.2627   6.2627   6.2632   6.2637   6.2895   6.2905
     6.3345   6.3347   6.3359   6.3630   6.3632   6.3637   6.3875   6.3897
     6.3911   6.5520   6.5706   6.5712   6.5723   6.6372   6.6377   6.6386
     6.7467   6.7473   6.7480   6.7652   6.7657   6.7806   6.7810   6.7823
     6.8078   6.9643   7.1802   7.1806

          k = 0.0000 0.0000 0.2714 (115879 PWs)   bands (ev):

   -28.2786 -28.2775 -28.2764 -28.2760 -28.2756 -28.2754 -28.2753 -28.2753
   -28.2748 -28.2742 -28.2713 -28.2666 -14.9324 -14.9277 -14.9266 -14.9234
   -14.9233 -14.9228 -14.9228 -14.9226 -14.9225 -14.9223 -14.9218 -14.9207
   -14.9175 -14.9175 -14.9174 -14.9169 -14.9168 -14.9168 -14.9166 -14.9165
   -14.9156 -14.9149 -14.9141 -14.9115 -14.9096 -14.9096 -14.9055 -14.9054
   -14.9048 -14.9048 -14.9047 -14.9046 -14.9045 -14.9027 -14.8994 -14.8978
   -14.8742 -14.8695 -14.8652 -14.8652 -14.8647 -14.8646 -14.8645 -14.8644
   -14.8644 -14.8626 -14.8594 -14.8575 -14.8292 -14.8244 -14.8201 -14.8200
   -14.8194 -14.8194 -14.8193 -14.8192 -14.8192 -14.8174 -14.8141 -14.8122
   -10.3406 -10.3393 -10.3388 -10.3376 -10.3368 -10.3362 -10.3343 -10.3341
   -10.3320 -10.3303 -10.3267 -10.3238 -10.3123 -10.3082 -10.3072 -10.3065
   -10.3027 -10.3016 -10.3002 -10.2943 -10.2934 -10.2926 -10.2907 -10.2838
   -10.2704 -10.2698 -10.2694 -10.2666 -10.2655 -10.2645 -10.2623 -10.2616
   -10.2603 -10.2576 -10.2562 -10.2542  -6.8241  -6.7135  -6.4119  -6.4097
    -6.4073  -6.4059  -6.3076  -6.3032  -6.3014  -6.2315  -6.2304  -6.2291
    -5.9929  -5.9920  -5.9902  -5.8540  -5.8371  -5.8341  -5.8329  -5.7755
    -5.7734  -5.7716  -5.6596  -5.6564  -5.6534  -5.6519  -5.6147  -5.6126
    -5.6123  -5.6100  -5.5583  -5.5526  -5.5518  -5.5495  -5.5468  -5.5450
    -5.5423  -5.4545  -5.4367  -5.4346  -5.4337  -5.4327  -5.3752  -5.3464
    -5.3405  -5.3374  -5.3338  -5.2813  -0.6055  -0.6036  -0.6027  -0.4157
    -0.4126  -0.4094  -0.3484  -0.3327  -0.3049  -0.3003  -0.2979  -0.2740
     1.4083   1.4092   1.4097   1.5699   1.6131   1.6181   1.6189   1.6203
     1.6573   1.9338   1.9349   1.9371   2.0037   2.0460   2.0518   2.0526
     2.0547   2.0680   2.2748   2.2759   2.2773   2.3052   2.3870   2.3890
     2.3908   2.3919   2.4153   2.4164   2.4176   2.4558   2.6216   2.6225
     2.6238   2.6675   2.7182   2.7908   2.7972   2.7983   2.7992   2.8719
     2.8721   2.8732   2.9750   2.9756   2.9766   3.0445   3.0456   3.0474
     3.1049   3.1065   3.1081   3.1756   3.1987   3.2028   3.2040   3.2068
     3.2725   3.2738   3.2757   3.2838   3.3744   3.3818   3.3845   3.3859
     3.4184   3.4200   3.4212   3.4390   3.4404   3.4409   3.4482   3.4492
     3.4506   3.4768   3.4984   3.5180   3.5188   3.5193   3.5376   3.5437
     3.5490   3.5506   3.5513   3.6384   3.6431   3.6450   3.6463   3.6508
     3.6785   3.6808   3.6823   3.7731   3.8297   3.8746   3.8765   3.8768
     3.9078   3.9212   3.9931   3.9951   3.9969   4.0550   4.0553   4.0567
     4.0750   4.1159   4.1170   4.1190   4.1473   4.1479   4.1514   4.1650
     4.1695   4.1717   4.1749   4.2112   4.2491   4.2511   4.2530   4.2674
     4.4198   4.4217   4.4243   4.4833   4.5573   4.5595   4.5622   4.6029
     4.6053   4.6083   4.6767   4.8066   5.1356   5.1470   5.1534   5.1540
     5.1550   5.1641   5.1861   5.1869   5.1880   5.2155   5.2156   5.2176
     5.2181   5.2475   5.2482   5.2486   5.2576   5.2590   5.2597   5.2612
     5.2760   5.2766   5.2775   5.2780   5.3288   5.3293   5.3299   5.3325
     5.3337   5.3350   5.3411   5.3421   5.3435   5.3654   5.3730   5.3748
     5.3757   5.3896   5.4024   5.4192   5.4204   5.4218   5.5258   5.5318
     5.5328   5.5332   5.5818   5.5873   5.5884   5.5892   5.5897   5.6199
     5.6202   5.6205   5.6510   5.6519   5.6530   5.6608   5.6814   5.6822
     5.6826   5.7542   5.7551   5.7559   5.7906   5.7986   5.8168   5.8179
     5.8184   5.8704   5.8832   5.8837   5.8842   5.9876   5.9888   5.9898
     6.0425   6.0425   6.0432   6.0968   6.0979   6.0986   6.1745   6.1914
     6.1921   6.1926   6.2365   6.2682   6.2691   6.2696   6.3252   6.3260
     6.3264   6.3586   6.3601   6.3707   6.3712   6.3719   6.3947   6.4282
     6.4300   6.4311   6.4808   6.6398   6.6406   6.6425   6.6426   6.6437
     6.6442   6.6702   6.7076   6.7092   6.7103   6.7509   6.7532   6.7545
     6.9408   7.0053   7.0941   7.1701

          k = 0.0000 0.3849 0.0000 (115797 PWs)   bands (ev):

   -28.2786 -28.2775 -28.2764 -28.2760 -28.2756 -28.2754 -28.2753 -28.2753
   -28.2748 -28.2742 -28.2713 -28.2666 -14.9324 -14.9277 -14.9266 -14.9233
   -14.9233 -14.9228 -14.9228 -14.9226 -14.9225 -14.9224 -14.9218 -14.9207
   -14.9175 -14.9175 -14.9174 -14.9169 -14.9168 -14.9168 -14.9167 -14.9166
   -14.9157 -14.9149 -14.9141 -14.9115 -14.9096 -14.9096 -14.9055 -14.9054
   -14.9048 -14.9048 -14.9047 -14.9046 -14.9045 -14.9027 -14.8994 -14.8978
   -14.8742 -14.8695 -14.8652 -14.8652 -14.8647 -14.8646 -14.8645 -14.8644
   -14.8644 -14.8626 -14.8594 -14.8575 -14.8292 -14.8244 -14.8201 -14.8200
   -14.8194 -14.8194 -14.8193 -14.8192 -14.8192 -14.8174 -14.8141 -14.8122
   -10.3390 -10.3383 -10.3372 -10.3364 -10.3359 -10.3349 -10.3345 -10.3336
   -10.3323 -10.3306 -10.3289 -10.3249 -10.3083 -10.3067 -10.3059 -10.3042
   -10.3034 -10.3019 -10.3012 -10.2990 -10.2950 -10.2934 -10.2894 -10.2841
   -10.2700 -10.2693 -10.2689 -10.2669 -10.2665 -10.2636 -10.2628 -10.2621
   -10.2616 -10.2593 -10.2577 -10.2547  -6.7881  -6.5901  -6.4997  -6.4980
    -6.4391  -6.4373  -6.3659  -6.3488  -6.2859  -6.2837  -6.2489  -6.2473
    -5.9117  -5.9107  -5.8225  -5.8190  -5.8164  -5.7776  -5.7693  -5.7663
    -5.7321  -5.7243  -5.7229  -5.6915  -5.6887  -5.6481  -5.6393  -5.6366
    -5.6289  -5.5956  -5.5842  -5.5834  -5.5686  -5.5283  -5.5199  -5.5180
    -5.5160  -5.5045  -5.4626  -5.4519  -5.4369  -5.4360  -5.4218  -5.4149
    -5.3490  -5.3475  -5.3129  -5.2702  -0.5726  -0.5704  -0.5620  -0.4356
    -0.4048  -0.4038  -0.3773  -0.3411  -0.3368  -0.3351  -0.3126  -0.3033
     1.4186   1.4870   1.4877   1.5008   1.6396   1.6513   1.6878   1.7234
     1.7245   1.8278   1.8764   1.8776   1.9533   1.9556   1.9569   2.0272
     2.1152   2.2063   2.2295   2.2303   2.3386   2.3634   2.3852   2.3876
     2.3934   2.4086   2.4494   2.5372   2.5385   2.6123   2.6134   2.6170
     2.6574   2.7345   2.8125   2.8135   2.8214   2.8402   2.8413   2.8453
     2.8539   2.8845   2.9079   2.9087   2.9150   2.9617   2.9623   3.0041
     3.0501   3.0561   3.0574   3.1241   3.1480   3.1755   3.2041   3.2113
     3.2122   3.2341   3.2600   3.2617   3.2688   3.3233   3.3299   3.3310
     3.3387   3.3720   3.3949   3.3954   3.4334   3.4401   3.4413   3.4496
     3.4971   3.4985   3.5003   3.5102   3.5110   3.5138   3.5228   3.5429
     3.5614   3.6045   3.6055   3.6110   3.6346   3.6461   3.6792   3.6801
     3.6939   3.7024   3.7036   3.7086   3.7784   3.7797   3.8490   3.8590
     3.8957   3.9719   3.9750   3.9789   3.9808   4.0297   4.0381   4.0402
     4.0921   4.1114   4.1198   4.1222   4.1259   4.1619   4.1631   4.1776
     4.2481   4.2642   4.2682   4.2823   4.3027   4.3226   4.3235   4.3684
     4.3781   4.4149   4.4191   4.4836   4.5175   4.5275   4.5282   4.5288
     4.5906   4.5911   4.6271   4.7487   5.1435   5.1438   5.1469   5.1543
     5.1601   5.1606   5.1694   5.1744   5.2146   5.2189   5.2194   5.2216
     5.2278   5.2373   5.2481   5.2491   5.2504   5.2607   5.2675   5.2716
     5.2720   5.2891   5.3040   5.3046   5.3139   5.3185   5.3267   5.3276
     5.3366   5.3490   5.3524   5.3530   5.3575   5.3656   5.4134   5.4143
     5.4333   5.4507   5.4609   5.4615   5.4854   5.4932   5.4999   5.5004
     5.5025   5.5127   5.5275   5.5437   5.5564   5.5568   5.5611   5.6033
     5.6035   5.6296   5.6314   5.6325   5.6678   5.6777   5.6950   5.6957
     5.6970   5.7177   5.7298   5.7560   5.7751   5.7756   5.8086   5.8187
     5.8202   5.8636   5.8751   5.8767   5.9503   5.9513   5.9648   5.9651
     5.9901   6.0069   6.0072   6.0203   6.1384   6.1393   6.1449   6.1605
     6.2249   6.2296   6.2301   6.2510   6.2703   6.2890   6.2894   6.2990
     6.3612   6.3618   6.3769   6.3894   6.3907   6.4410   6.4860   6.4864
     6.5240   6.5375   6.5385   6.5757   6.6044   6.6508   6.6834   6.6926
     6.6928   6.7295   6.7372   6.7380   6.7625   6.7776   6.7926   6.8118
     6.8123   6.9042   6.9089   7.0807

          k = 0.0000 0.3849 0.2714 (115773 PWs)   bands (ev):

   -28.2786 -28.2775 -28.2764 -28.2760 -28.2756 -28.2754 -28.2753 -28.2753
   -28.2748 -28.2742 -28.2713 -28.2666 -14.9324 -14.9277 -14.9266 -14.9233
   -14.9233 -14.9228 -14.9228 -14.9226 -14.9225 -14.9224 -14.9218 -14.9207
   -14.9175 -14.9175 -14.9174 -14.9169 -14.9168 -14.9168 -14.9167 -14.9166
   -14.9157 -14.9149 -14.9141 -14.9115 -14.9096 -14.9096 -14.9055 -14.9054
   -14.9048 -14.9048 -14.9047 -14.9046 -14.9045 -14.9027 -14.8994 -14.8978
   -14.8742 -14.8695 -14.8652 -14.8652 -14.8647 -14.8646 -14.8645 -14.8644
   -14.8644 -14.8626 -14.8594 -14.8575 -14.8292 -14.8244 -14.8201 -14.8200
   -14.8194 -14.8194 -14.8193 -14.8192 -14.8192 -14.8174 -14.8141 -14.8122
   -10.3397 -10.3388 -10.3382 -10.3370 -10.3361 -10.3348 -10.3337 -10.3329
   -10.3315 -10.3306 -10.3282 -10.3252 -10.3106 -10.3071 -10.3061 -10.3055
   -10.3018 -10.3003 -10.2995 -10.2966 -10.2955 -10.2931 -10.2899 -10.2864
   -10.2699 -10.2694 -10.2684 -10.2671 -10.2665 -10.2635 -10.2628 -10.2618
   -10.2613 -10.2596 -10.2577 -10.2557  -6.7510  -6.6469  -6.5608  -6.4723
    -6.4235  -6.4214  -6.3642  -6.3291  -6.3281  -6.2591  -6.2249  -6.2236
    -5.9057  -5.9044  -5.8238  -5.8218  -5.8093  -5.8074  -5.7919  -5.7613
    -5.7587  -5.7322  -5.7114  -5.7093  -5.6718  -5.6362  -5.6308  -5.6279
    -5.6247  -5.6085  -5.5997  -5.5985  -5.5697  -5.5284  -5.5230  -5.5221
    -5.5202  -5.4965  -5.4680  -5.4334  -5.4290  -5.4282  -5.4222  -5.3639
    -5.3486  -5.3467  -5.3215  -5.2995  -0.5612  -0.5586  -0.5580  -0.4377
    -0.4349  -0.4248  -0.3938  -0.3735  -0.3211  -0.3169  -0.2990  -0.2789
     1.4333   1.4844   1.4858   1.4875   1.6254   1.6411   1.7713   1.7726
     1.7831   1.7907   1.7998   1.8003   1.9141   1.9956   1.9959   2.0767
     2.1547   2.1996   2.2101   2.2475   2.2485   2.3597   2.3922   2.3941
     2.3983   2.4485   2.5117   2.5124   2.5471   2.5896   2.5914   2.6080
     2.6427   2.7112   2.7611   2.7677   2.7690   2.7887   2.8090   2.8097
     2.8387   2.8743   2.9152   2.9160   2.9182   2.9812   3.0235   3.0242
     3.0676   3.1060   3.1073   3.1322   3.1703   3.1922   3.1932   3.1941
     3.2002   3.2319   3.2637   3.2647   3.2769   3.3174   3.3212   3.3226
     3.3237   3.3891   3.3893   3.4107   3.4451   3.4456   3.4680   3.4693
     3.4717   3.4741   3.4758   3.4773   3.5333   3.5363   3.5366   3.5907
     3.6104   3.6123   3.6129   3.6330   3.6421   3.6478   3.6586   3.6594
     3.6677   3.7094   3.7111   3.7128   3.8350   3.8358   3.8792   3.8883
     3.9041   3.9498   3.9507   3.9745   3.9819   4.0195   4.0459   4.0494
     4.0502   4.0652   4.1105   4.1114   4.1200   4.1320   4.1336   4.1477
     4.1909   4.2548   4.2653   4.2679   4.2870   4.2903   4.2948   4.3871
     4.3976   4.4372   4.4392   4.4676   4.5236   4.5252   4.5359   4.5959
     4.6102   4.6109   4.6224   4.7214   5.1503   5.1508   5.1545   5.1565
     5.1710   5.1758   5.1764   5.1833   5.1903   5.1977   5.2011   5.2076
     5.2078   5.2330   5.2346   5.2365   5.2545   5.2626   5.2656   5.2667
     5.2791   5.2978   5.3073   5.3128   5.3131   5.3285   5.3363   5.3370
     5.3574   5.3581   5.3605   5.3636   5.3802   5.3925   5.4066   5.4070
     5.4129   5.4316   5.4330   5.4444   5.4453   5.4923   5.5018   5.5022
     5.5091   5.5159   5.5533   5.5595   5.5745   5.5747   5.6022   5.6103
     5.6114   5.6190   5.6249   5.6252   5.6428   5.6699   5.6817   5.7141
     5.7146   5.7171   5.7339   5.7714   5.7731   5.7741   5.8020   5.8030
     5.8100   5.8582   5.8748   5.8760   5.8788   5.9145   5.9589   5.9591
     6.0338   6.0346   6.0356   6.0594   6.0785   6.0794   6.1726   6.2061
     6.2127   6.2133   6.2655   6.2667   6.2697   6.2770   6.2857   6.3487
     6.3490   6.3656   6.3719   6.4152   6.4237   6.4246   6.4275   6.4707
     6.4981   6.4993   6.5459   6.5591   6.5951   6.5959   6.6665   6.6675
     6.6768   6.7196   6.7354   6.7366   6.7477   6.8128   6.8135   6.8443
     6.8690   6.9281   6.9370   7.0523

          k = 0.3333 0.5774 0.0000 (115752 PWs)   bands (ev):

   -28.2786 -28.2775 -28.2764 -28.2760 -28.2756 -28.2753 -28.2753 -28.2753
   -28.2748 -28.2742 -28.2713 -28.2666 -14.9324 -14.9277 -14.9266 -14.9233
   -14.9233 -14.9228 -14.9227 -14.9226 -14.9225 -14.9224 -14.9218 -14.9207
   -14.9175 -14.9175 -14.9174 -14.9169 -14.9168 -14.9168 -14.9167 -14.9166
   -14.9157 -14.9149 -14.9141 -14.9115 -14.9096 -14.9096 -14.9055 -14.9054
   -14.9048 -14.9048 -14.9047 -14.9046 -14.9045 -14.9027 -14.8994 -14.8978
   -14.8742 -14.8695 -14.8652 -14.8652 -14.8647 -14.8646 -14.8645 -14.8644
   -14.8644 -14.8626 -14.8594 -14.8575 -14.8292 -14.8244 -14.8201 -14.8200
   -14.8194 -14.8194 -14.8193 -14.8192 -14.8192 -14.8174 -14.8141 -14.8122
   -10.3392 -10.3375 -10.3364 -10.3355 -10.3352 -10.3351 -10.3349 -10.3337
   -10.3317 -10.3303 -10.3291 -10.3263 -10.3078 -10.3054 -10.3051 -10.3040
   -10.3032 -10.3016 -10.3009 -10.2994 -10.2978 -10.2903 -10.2895 -10.2873
   -10.2698 -10.2685 -10.2674 -10.2669 -10.2658 -10.2654 -10.2643 -10.2637
   -10.2613 -10.2590 -10.2579 -10.2560  -6.6540  -6.6501  -6.6473  -6.4035
    -6.4012  -6.3990  -6.3980  -6.3960  -6.3949  -6.2926  -6.2923  -6.1928
    -5.8654  -5.8517  -5.8502  -5.7511  -5.7492  -5.7468  -5.7342  -5.7320
    -5.7306  -5.7085  -5.7081  -5.6954  -5.6936  -5.6930  -5.6867  -5.6844
    -5.6825  -5.6448  -5.5433  -5.5408  -5.5400  -5.5305  -5.5289  -5.5276
    -5.5117  -5.4741  -5.4722  -5.4703  -5.4681  -5.4658  -5.4635  -5.3969
    -5.3967  -5.3051  -5.3016  -5.2980  -0.5448  -0.5183  -0.5137  -0.5114
    -0.3981  -0.3965  -0.3920  -0.3900  -0.3872  -0.3105  -0.3098  -0.3087
     1.4824   1.4840   1.4856   1.6726   1.6749   1.6774   1.6846   1.6864
     1.6878   1.7338   1.7344   1.7995   2.0794   2.0807   2.0820   2.0827
     2.0851   2.1433   2.1444   2.1456   2.2551   2.3951   2.3974   2.3990
     2.4921   2.4944   2.4966   2.5623   2.5637   2.5643   2.5974   2.5976
     2.7721   2.7748   2.7759   2.8366   2.8368   2.8427   2.8439   2.8455
     2.8490   2.8522   2.8525   2.8543   2.8682   3.0087   3.0099   3.0117
     3.0250   3.0256   3.0259   3.0620   3.1333   3.1343   3.1351   3.1962
     3.1966   3.1985   3.2581   3.2596   3.2608   3.2708   3.2712   3.3613
     3.3688   3.3708   3.3723   3.3747   3.4240   3.4253   3.4266   3.4868
     3.4872   3.5005   3.5027   3.5045   3.5284   3.5301   3.5311   3.5475
     3.5477   3.5785   3.5797   3.5817   3.6493   3.6508   3.6516   3.7191
     3.7208   3.7220   3.7282   3.7286   3.7563   3.8000   3.8014   3.8030
     3.9573   3.9596   3.9610   3.9867   3.9870   4.0282   4.0307   4.0313
     4.0828   4.0847   4.0867   4.1401   4.1496   4.1512   4.1530   4.2838
     4.2847   4.2935   4.3157   4.3194   4.3200   4.3205   4.3213   4.3237
     4.3841   4.3864   4.3894   4.4959   4.5140   4.5150   4.5185   4.5208
     4.5244   4.6535   4.6546   4.6568   5.1373   5.1431   5.1442   5.1449
     5.1730   5.1733   5.1868   5.1880   5.1892   5.1956   5.1968   5.1982
     5.2457   5.2473   5.2480   5.2650   5.2657   5.2665   5.2977   5.2984
     5.2992   5.3008   5.3025   5.3029   5.3136   5.3181   5.3191   5.3198
     5.3389   5.3404   5.3417   5.4020   5.4030   5.4036   5.4080   5.4081
     5.4544   5.4552   5.4564   5.4581   5.4826   5.4836   5.4845   5.4884
     5.4887   5.5347   5.5354   5.5364   5.5639   5.5645   5.5650   5.5706
     5.5712   5.5716   5.6410   5.6720   5.6723   5.6942   5.6950   5.6957
     5.7068   5.7072   5.7079   5.7797   5.7804   5.7809   5.7977   5.7994
     5.8011   5.8240   5.8245   5.8441   5.9293   5.9310   5.9323   6.0449
     6.0463   6.0474   6.0486   6.0497   6.1377   6.1387   6.1395   6.1584
     6.2178   6.2189   6.2201   6.2594   6.2601   6.2608   6.2837   6.2844
     6.3744   6.4084   6.4103   6.4115   6.4163   6.4171   6.4230   6.4508
     6.4523   6.4533   6.6142   6.6155   6.6165   6.6753   6.6761   6.6773
     6.7253   6.7405   6.7410   6.8041   6.8063   6.8079   6.8090   6.8107
     6.8123   6.9379   6.9394   6.9401

          k = 0.3333 0.5774 0.2714 (115827 PWs)   bands (ev):

   -28.2786 -28.2775 -28.2764 -28.2760 -28.2756 -28.2753 -28.2753 -28.2753
   -28.2748 -28.2742 -28.2713 -28.2666 -14.9324 -14.9277 -14.9266 -14.9233
   -14.9233 -14.9228 -14.9227 -14.9226 -14.9225 -14.9224 -14.9218 -14.9207
   -14.9175 -14.9175 -14.9174 -14.9169 -14.9168 -14.9168 -14.9167 -14.9166
   -14.9157 -14.9149 -14.9141 -14.9115 -14.9096 -14.9096 -14.9055 -14.9054
   -14.9048 -14.9048 -14.9047 -14.9046 -14.9045 -14.9027 -14.8994 -14.8978
   -14.8742 -14.8695 -14.8652 -14.8652 -14.8647 -14.8646 -14.8645 -14.8644
   -14.8644 -14.8626 -14.8594 -14.8575 -14.8292 -14.8244 -14.8201 -14.8200
   -14.8194 -14.8194 -14.8193 -14.8192 -14.8192 -14.8174 -14.8141 -14.8122
   -10.3394 -10.3386 -10.3371 -10.3369 -10.3360 -10.3340 -10.3334 -10.3321
   -10.3318 -10.3305 -10.3289 -10.3261 -10.3086 -10.3079 -10.3068 -10.3045
   -10.3013 -10.3003 -10.2980 -10.2970 -10.2956 -10.2919 -10.2911 -10.2889
   -10.2698 -10.2691 -10.2674 -10.2667 -10.2658 -10.2644 -10.2636 -10.2630
   -10.2616 -10.2596 -10.2585 -10.2566  -6.6219  -6.6180  -6.6152  -6.5283
    -6.5245  -6.5215  -6.3086  -6.2923  -6.2888  -6.2862  -6.2578  -6.2145
    -5.8750  -5.8578  -5.8454  -5.7829  -5.7796  -5.7767  -5.7440  -5.7419
    -5.7404  -5.7155  -5.6896  -5.6875  -5.6869  -5.6746  -5.6730  -5.6711
    -5.6687  -5.6433  -5.5582  -5.5565  -5.5541  -5.5258  -5.5249  -5.5235
    -5.5056  -5.5045  -5.5031  -5.4998  -5.4589  -5.4012  -5.3982  -5.3946
    -5.3580  -5.3259  -5.3226  -5.3186  -0.5211  -0.5089  -0.5052  -0.5025
    -0.4615  -0.4191  -0.4168  -0.4147  -0.3554  -0.2952  -0.2919  -0.2907
     1.4803   1.4824   1.4838   1.6370   1.6383   1.6393   1.6900   1.7738
     1.7751   1.7769   1.7784   1.7939   1.9806   1.9811   1.9825   2.0550
     2.1706   2.1922   2.1929   2.1940   2.2469   2.3945   2.3976   2.3997
     2.4876   2.4890   2.4904   2.5572   2.5870   2.5881   2.5885   2.5925
     2.6785   2.7357   2.7370   2.7381   2.8222   2.8232   2.8237   2.8279
     2.9008   2.9025   2.9035   2.9240   2.9361   2.9545   2.9553   2.9565
     3.0599   3.0600   3.0606   3.0876   3.0883   3.0897   3.1267   3.1804
     3.2433   3.2446   3.2462   3.2696   3.2711   3.2720   3.3210   3.3268
     3.3276   3.3285   3.3738   3.4073   3.4205   3.4634   3.4654   3.4676
     3.4922   3.4982   3.4996   3.5006   3.5363   3.5370   3.5378   3.5402
     3.5609   3.6148   3.6162   3.6174   3.6536   3.6546   3.6564   3.6968
     3.6980   3.6990   3.7198   3.7438   3.8212   3.8394   3.8412   3.8429
     3.9370   3.9401   3.9414   3.9424   4.0280   4.0299   4.0309   4.0404
     4.0660   4.0680   4.0700   4.1085   4.1122   4.1143   4.1160   4.1678
     4.2720   4.2729   4.2748   4.2888   4.3146   4.3601   4.3617   4.3631
     4.4148   4.4166   4.4196   4.4900   4.4936   4.4958   4.5078   4.5119
     4.5643   4.6662   4.6674   4.6692   5.1486   5.1560   5.1567   5.1579
     5.1584   5.1820   5.1829   5.1831   5.1969   5.1982   5.1992   5.2108
     5.2240   5.2248   5.2262   5.2509   5.2519   5.2533   5.2567   5.2685
     5.3006   5.3017   5.3030   5.3090   5.3279   5.3293   5.3303   5.3677
     5.3680   5.3688   5.3747   5.3936   5.3951   5.4082   5.4092   5.4100
     5.4323   5.4333   5.4335   5.4384   5.4836   5.4847   5.4858   5.4910
     5.5384   5.5392   5.5400   5.5436   5.5656   5.5666   5.5674   5.6055
     5.6059   5.6064   5.6383   5.6388   5.6720   5.6726   5.6732   5.7029
     5.7036   5.7047   5.7173   5.7583   5.7590   5.7606   5.8012   5.8075
     5.8206   5.8237   5.8242   5.8250   5.8894   5.8905   5.8919   6.0565
     6.0594   6.0606   6.0617   6.0773   6.1195   6.1203   6.1211   6.1348
     6.1952   6.2367   6.2381   6.2392   6.2841   6.3012   6.3023   6.3028
     6.3062   6.3846   6.3852   6.3862   6.4498   6.4664   6.4677   6.4698
     6.4916   6.4923   6.5579   6.5598   6.5615   6.6457   6.6843   6.6851
     6.6865   6.7605   6.7770   6.7783   6.7796   6.7925   6.8529   6.8550
     6.8566   6.9349   6.9363   6.9366

          k =-0.3333 0.1925 0.0000 (115797 PWs)   bands (ev):

   -28.2786 -28.2775 -28.2764 -28.2760 -28.2756 -28.2753 -28.2753 -28.2753
   -28.2748 -28.2742 -28.2713 -28.2666 -14.9324 -14.9277 -14.9266 -14.9233
   -14.9233 -14.9228 -14.9228 -14.9227 -14.9225 -14.9224 -14.9218 -14.9207
   -14.9175 -14.9175 -14.9174 -14.9169 -14.9168 -14.9168 -14.9166 -14.9166
   -14.9157 -14.9149 -14.9141 -14.9115 -14.9096 -14.9096 -14.9055 -14.9054
   -14.9048 -14.9048 -14.9047 -14.9046 -14.9045 -14.9027 -14.8994 -14.8978
   -14.8742 -14.8695 -14.8652 -14.8652 -14.8647 -14.8646 -14.8645 -14.8644
   -14.8644 -14.8626 -14.8594 -14.8575 -14.8292 -14.8244 -14.8201 -14.8200
   -14.8194 -14.8194 -14.8193 -14.8192 -14.8192 -14.8174 -14.8141 -14.8122
   -10.3391 -10.3381 -10.3370 -10.3364 -10.3363 -10.3352 -10.3344 -10.3333
   -10.3324 -10.3309 -10.3286 -10.3249 -10.3084 -10.3065 -10.3060 -10.3043
   -10.3034 -10.3020 -10.3013 -10.2989 -10.2951 -10.2931 -10.2895 -10.2842
   -10.2701 -10.2694 -10.2691 -10.2668 -10.2661 -10.2638 -10.2632 -10.2620
   -10.2607 -10.2598 -10.2578 -10.2547  -6.7881  -6.5902  -6.4995  -6.4982
    -6.4405  -6.4360  -6.3657  -6.3489  -6.2867  -6.2829  -6.2494  -6.2468
    -5.9125  -5.9101  -5.8209  -5.8195  -5.8179  -5.7774  -5.7700  -5.7660
    -5.7322  -5.7244  -5.7217  -5.6921  -5.6883  -5.6478  -5.6396  -5.6360
    -5.6292  -5.5957  -5.5848  -5.5831  -5.5684  -5.5290  -5.5204  -5.5175
    -5.5155  -5.5046  -5.4624  -5.4516  -5.4377  -5.4354  -5.4219  -5.4150
    -5.3515  -5.3448  -5.3132  -5.2702  -0.5732  -0.5694  -0.5624  -0.4357
    -0.4049  -0.4033  -0.3775  -0.3429  -0.3368  -0.3333  -0.3127  -0.3030
     1.4186   1.4862   1.4883   1.5010   1.6393   1.6516   1.6878   1.7234
     1.7243   1.8276   1.8766   1.8774   1.9538   1.9557   1.9564   2.0271
     2.1155   2.2062   2.2297   2.2302   2.3384   2.3636   2.3842   2.3880
     2.3931   2.4088   2.4498   2.5366   2.5387   2.6122   2.6136   2.6172
     2.6576   2.7344   2.8125   2.8136   2.8209   2.8406   2.8417   2.8440
     2.8539   2.8849   2.9082   2.9087   2.9150   2.9613   2.9633   3.0041
     3.0501   3.0556   3.0583   3.1238   3.1479   3.1755   3.2042   3.2109
     3.2126   3.2340   3.2590   3.2623   3.2692   3.3233   3.3291   3.3318
     3.3381   3.3720   3.3943   3.3961   3.4333   3.4390   3.4427   3.4500
     3.4963   3.4986   3.5004   3.5096   3.5116   3.5136   3.5230   3.5428
     3.5618   3.6036   3.6063   3.6108   3.6345   3.6462   3.6788   3.6803
     3.6940   3.7017   3.7041   3.7087   3.7783   3.7795   3.8484   3.8589
     3.8959   3.9729   3.9763   3.9778   3.9807   4.0300   4.0365   4.0406
     4.0924   4.1115   4.1191   4.1221   4.1260   4.1618   4.1639   4.1777
     4.2485   4.2657   4.2679   4.2821   4.3027   4.3226   4.3231   4.3683
     4.3778   4.4155   4.4183   4.4832   4.5175   4.5257   4.5287   4.5307
     4.5903   4.5923   4.6261   4.7483   5.1427   5.1449   5.1464   5.1543
     5.1595   5.1612   5.1692   5.1748   5.2143   5.2186   5.2198   5.2214
     5.2279   5.2372   5.2478   5.2498   5.2500   5.2611   5.2675   5.2713
     5.2725   5.2892   5.3031   5.3050   5.3136   5.3186   5.3256   5.3288
     5.3368   5.3493   5.3518   5.3532   5.3571   5.3654   5.4123   5.4157
     5.4333   5.4507   5.4599   5.4621   5.4854   5.4934   5.4993   5.5012
     5.5024   5.5129   5.5275   5.5439   5.5564   5.5572   5.5611   5.6032
     5.6034   5.6297   5.6315   5.6326   5.6676   5.6779   5.6950   5.6958
     5.6968   5.7176   5.7299   5.7562   5.7744   5.7760   5.8086   5.8188
     5.8194   5.8636   5.8748   5.8767   5.9499   5.9517   5.9642   5.9659
     5.9901   6.0053   6.0089   6.0203   6.1383   6.1397   6.1446   6.1604
     6.2253   6.2281   6.2310   6.2514   6.2706   6.2890   6.2895   6.2988
     6.3610   6.3622   6.3772   6.3884   6.3918   6.4407   6.4857   6.4865
     6.5238   6.5366   6.5393   6.5758   6.6046   6.6509   6.6833   6.6920
     6.6931   6.7297   6.7358   6.7395   6.7624   6.7775   6.7927   6.8110
     6.8135   6.9041   6.9088   7.0806

          k = 0.3333 0.1925 0.0000 (115797 PWs)   bands (ev):

   -28.2786 -28.2775 -28.2764 -28.2760 -28.2756 -28.2753 -28.2753 -28.2753
   -28.2748 -28.2742 -28.2713 -28.2666 -14.9324 -14.9277 -14.9266 -14.9233
   -14.9233 -14.9228 -14.9227 -14.9226 -14.9225 -14.9224 -14.9218 -14.9207
   -14.9175 -14.9175 -14.9174 -14.9169 -14.9168 -14.9168 -14.9167 -14.9166
   -14.9156 -14.9149 -14.9141 -14.9115 -14.9096 -14.9096 -14.9055 -14.9054
   -14.9048 -14.9048 -14.9047 -14.9046 -14.9045 -14.9027 -14.8994 -14.8978
   -14.8742 -14.8695 -14.8652 -14.8652 -14.8647 -14.8646 -14.8645 -14.8644
   -14.8644 -14.8626 -14.8594 -14.8575 -14.8292 -14.8244 -14.8201 -14.8200
   -14.8194 -14.8194 -14.8193 -14.8192 -14.8192 -14.8174 -14.8141 -14.8122
   -10.3392 -10.3381 -10.3373 -10.3364 -10.3357 -10.3352 -10.3345 -10.3331
   -10.3328 -10.3309 -10.3285 -10.3248 -10.3083 -10.3070 -10.3060 -10.3042
   -10.3028 -10.3023 -10.3013 -10.2996 -10.2947 -10.2921 -10.2901 -10.2843
   -10.2703 -10.2693 -10.2688 -10.2671 -10.2661 -10.2639 -10.2631 -10.2620
   -10.2607 -10.2592 -10.2581 -10.2551  -6.7881  -6.5900  -6.4994  -6.4982
    -6.4396  -6.4371  -6.3655  -6.3490  -6.2862  -6.2839  -6.2497  -6.2468
    -5.9122  -5.9095  -5.8203  -5.8182  -5.8169  -5.7786  -5.7683  -5.7669
    -5.7321  -5.7253  -5.7225  -5.6907  -5.6897  -5.6477  -5.6395  -5.6381
    -5.6296  -5.5955  -5.5864  -5.5829  -5.5676  -5.5276  -5.5200  -5.5185
    -5.5153  -5.5041  -5.4625  -5.4514  -5.4387  -5.4343  -5.4221  -5.4146
    -5.3487  -5.3473  -5.3134  -5.2702  -0.5734  -0.5697  -0.5618  -0.4355
    -0.4061  -0.4026  -0.3773  -0.3389  -0.3377  -0.3366  -0.3128  -0.3028
     1.4181   1.4871   1.4879   1.5005   1.6396   1.6513   1.6881   1.7232
     1.7245   1.8283   1.8755   1.8774   1.9536   1.9556   1.9577   2.0277
     2.1151   2.2066   2.2287   2.2303   2.3389   2.3636   2.3860   2.3864
     2.3935   2.4088   2.4494   2.5371   2.5383   2.6121   2.6132   2.6166
     2.6570   2.7349   2.8124   2.8134   2.8225   2.8408   2.8419   2.8447
     2.8535   2.8839   2.9076   2.9090   2.9145   2.9617   2.9630   3.0039
     3.0500   3.0555   3.0576   3.1239   3.1482   3.1755   3.2037   3.2108
     3.2129   3.2340   3.2603   3.2614   3.2684   3.3235   3.3305   3.3312
     3.3391   3.3719   3.3935   3.3963   3.4330   3.4407   3.4413   3.4491
     3.4977   3.4979   3.5000   3.5105   3.5112   3.5136   3.5223   3.5431
     3.5612   3.6050   3.6065   3.6109   3.6346   3.6461   3.6789   3.6800
     3.6937   3.7025   3.7034   3.7086   3.7780   3.7796   3.8491   3.8602
     3.8960   3.9713   3.9752   3.9785   3.9810   4.0303   4.0387   4.0390
     4.0927   4.1109   4.1199   4.1217   4.1260   4.1603   4.1646   4.1777
     4.2468   4.2667   4.2675   4.2821   4.3027   4.3212   4.3247   4.3678
     4.3784   4.4166   4.4170   4.4833   4.5160   4.5270   4.5282   4.5314
     4.5878   4.5949   4.6267   4.7485   5.1434   5.1438   5.1467   5.1545
     5.1599   5.1604   5.1692   5.1745   5.2140   5.2189   5.2197   5.2218
     5.2278   5.2373   5.2479   5.2492   5.2505   5.2609   5.2669   5.2715
     5.2725   5.2890   5.3039   5.3047   5.3137   5.3186   5.3271   5.3275
     5.3366   5.3495   5.3522   5.3530   5.3573   5.3654   5.4130   5.4142
     5.4337   5.4511   5.4607   5.4621   5.4853   5.4931   5.5000   5.5006
     5.5026   5.5125   5.5276   5.5433   5.5564   5.5568   5.5612   5.6027
     5.6037   5.6304   5.6307   5.6320   5.6682   5.6785   5.6951   5.6961
     5.6972   5.7174   5.7289   5.7562   5.7749   5.7758   5.8087   5.8189
     5.8195   5.8635   5.8757   5.8761   5.9505   5.9507   5.9645   5.9658
     5.9903   6.0068   6.0071   6.0205   6.1387   6.1393   6.1443   6.1606
     6.2251   6.2287   6.2302   6.2508   6.2704   6.2879   6.2904   6.2993
     6.3614   6.3621   6.3772   6.3894   6.3903   6.4411   6.4854   6.4870
     6.5239   6.5375   6.5380   6.5753   6.6047   6.6510   6.6833   6.6921
     6.6935   6.7299   6.7374   6.7379   6.7622   6.7776   6.7928   6.8119
     6.8127   6.9034   6.9092   7.0802

          k = 0.0000-0.3849 0.2714 (115773 PWs)   bands (ev):

   -28.2786 -28.2775 -28.2764 -28.2760 -28.2756 -28.2754 -28.2753 -28.2753
   -28.2748 -28.2742 -28.2713 -28.2666 -14.9324 -14.9277 -14.9266 -14.9233
   -14.9233 -14.9228 -14.9228 -14.9226 -14.9225 -14.9224 -14.9218 -14.9207
   -14.9175 -14.9175 -14.9174 -14.9169 -14.9168 -14.9168 -14.9167 -14.9166
   -14.9157 -14.9149 -14.9141 -14.9115 -14.9096 -14.9096 -14.9055 -14.9054
   -14.9048 -14.9048 -14.9047 -14.9046 -14.9045 -14.9027 -14.8994 -14.8978
   -14.8742 -14.8695 -14.8652 -14.8652 -14.8647 -14.8646 -14.8645 -14.8644
   -14.8644 -14.8626 -14.8594 -14.8575 -14.8292 -14.8244 -14.8201 -14.8200
   -14.8194 -14.8194 -14.8193 -14.8192 -14.8192 -14.8174 -14.8141 -14.8122
   -10.3398 -10.3387 -10.3382 -10.3370 -10.3360 -10.3349 -10.3339 -10.3329
   -10.3312 -10.3306 -10.3282 -10.3253 -10.3103 -10.3082 -10.3054 -10.3044
   -10.3031 -10.3019 -10.2975 -10.2957 -10.2950 -10.2937 -10.2915 -10.2858
   -10.2696 -10.2689 -10.2688 -10.2675 -10.2669 -10.2632 -10.2624 -10.2617
   -10.2613 -10.2600 -10.2580 -10.2554  -6.7512  -6.6468  -6.5616  -6.4690
    -6.4203  -6.4179  -6.3637  -6.3410  -6.3395  -6.2657  -6.2112  -6.2098
    -5.9144  -5.9131  -5.8259  -5.8227  -5.8185  -5.8162  -5.7659  -5.7640
    -5.7530  -5.7337  -5.6843  -5.6830  -5.6798  -5.6635  -5.6446  -5.6400
    -5.6364  -5.6081  -5.5857  -5.5848  -5.5731  -5.5311  -5.5278  -5.5256
    -5.5166  -5.4865  -5.4654  -5.4403  -5.4374  -5.4367  -5.3993  -5.3705
    -5.3452  -5.3432  -5.3309  -5.2958  -0.5633  -0.5618  -0.5518  -0.4343
    -0.4298  -0.4276  -0.4108  -0.3609  -0.3243  -0.3201  -0.2902  -0.2833
     1.4049   1.4936   1.4946   1.5150   1.6119   1.7111   1.7120   1.7225
     1.7370   1.7726   1.8448   1.8459   1.9663   1.9854   2.0211   2.0221
     2.1288   2.1986   2.2090   2.2095   2.2849   2.3336   2.3964   2.4259
     2.4283   2.5179   2.5292   2.5294   2.5565   2.5579   2.5586   2.5604
     2.5994   2.6780   2.7639   2.7646   2.8232   2.8241   2.8259   2.8297
     2.8499   2.8531   2.8949   2.8959   2.9054   3.0079   3.0180   3.0185
     3.0763   3.0782   3.1179   3.1190   3.1338   3.1803   3.1810   3.1881
     3.2135   3.2458   3.2660   3.2844   3.2860   3.2950   3.3302   3.3314
     3.3749   3.3765   3.3785   3.3791   3.4465   3.4477   3.4501   3.4762
     3.4796   3.4807   3.5059   3.5190   3.5341   3.5347   3.5366   3.5580
     3.5862   3.5868   3.6108   3.6310   3.6400   3.6446   3.6823   3.6836
     3.6864   3.6959   3.7040   3.7045   3.8356   3.8370   3.8779   3.8800
     3.9410   3.9441   3.9462   3.9496   3.9719   4.0317   4.0534   4.0564
     4.0595   4.0619   4.0998   4.1010   4.1218   4.1225   4.1300   4.1335
     4.2234   4.2401   4.2670   4.2706   4.2892   4.2920   4.3135   4.3671
     4.3916   4.4335   4.4363   4.4807   4.5211   4.5440   4.5449   4.5856
     4.5956   4.5966   4.6317   4.7296   5.1472   5.1477   5.1533   5.1641
     5.1681   5.1688   5.1692   5.1728   5.1996   5.2046   5.2122   5.2181
     5.2186   5.2290   5.2408   5.2411   5.2597   5.2627   5.2645   5.2656
     5.2669   5.2733   5.3100   5.3101   5.3186   5.3336   5.3463   5.3468
     5.3600   5.3626   5.3630   5.3682   5.3695   5.3806   5.3885   5.3893
     5.4099   5.4330   5.4472   5.4514   5.4518   5.4688   5.4968   5.4972
     5.5166   5.5238   5.5558   5.5572   5.5684   5.5689   5.6017   5.6024
     5.6076   5.6200   5.6309   5.6495   5.6508   5.6606   5.6746   5.7084
     5.7090   5.7391   5.7598   5.7606   5.7706   5.7842   5.8049   5.8057
     5.8147   5.8396   5.8669   5.8683   5.8751   5.8946   5.9686   5.9691
     6.0188   6.0254   6.0256   6.1008   6.1018   6.1117   6.1593   6.1873
     6.2016   6.2034   6.2046   6.2626   6.2631   6.2872   6.3179   6.3420
     6.3542   6.3687   6.3695   6.4121   6.4193   6.4201   6.4520   6.4814
     6.4824   6.5071   6.5581   6.5662   6.6065   6.6076   6.6472   6.6669
     6.6673   6.7371   6.7376   6.7398   6.7482   6.8038   6.8046   6.8506
     6.8662   6.9180   6.9459   7.0387

          k =-0.3333 0.1925 0.2714 (115773 PWs)   bands (ev):

   -28.2786 -28.2775 -28.2764 -28.2760 -28.2756 -28.2753 -28.2753 -28.2753
   -28.2748 -28.2742 -28.2713 -28.2666 -14.9324 -14.9277 -14.9266 -14.9233
   -14.9233 -14.9228 -14.9228 -14.9227 -14.9225 -14.9224 -14.9218 -14.9207
   -14.9175 -14.9175 -14.9174 -14.9169 -14.9168 -14.9168 -14.9166 -14.9166
   -14.9157 -14.9149 -14.9141 -14.9115 -14.9096 -14.9096 -14.9055 -14.9054
   -14.9048 -14.9048 -14.9047 -14.9046 -14.9045 -14.9027 -14.8994 -14.8978
   -14.8742 -14.8695 -14.8652 -14.8652 -14.8647 -14.8646 -14.8645 -14.8644
   -14.8644 -14.8626 -14.8594 -14.8575 -14.8292 -14.8244 -14.8201 -14.8200
   -14.8194 -14.8194 -14.8193 -14.8192 -14.8192 -14.8174 -14.8141 -14.8122
   -10.3399 -10.3385 -10.3380 -10.3372 -10.3361 -10.3352 -10.3337 -10.3328
   -10.3315 -10.3307 -10.3279 -10.3253 -10.3104 -10.3080 -10.3057 -10.3042
   -10.3031 -10.3019 -10.2974 -10.2960 -10.2948 -10.2937 -10.2913 -10.2859
   -10.2695 -10.2693 -10.2688 -10.2676 -10.2664 -10.2634 -10.2625 -10.2618
   -10.2610 -10.2596 -10.2584 -10.2554  -6.7512  -6.6468  -6.5615  -6.4689
    -6.4220  -6.4165  -6.3637  -6.3418  -6.3386  -6.2656  -6.2114  -6.2098
    -5.9150  -5.9127  -5.8263  -5.8211  -5.8191  -5.8176  -5.7662  -5.7636
    -5.7528  -5.7337  -5.6853  -5.6816  -5.6800  -5.6631  -5.6443  -5.6398
    -5.6375  -5.6075  -5.5857  -5.5853  -5.5730  -5.5308  -5.5282  -5.5255
    -5.5167  -5.4864  -5.4656  -5.4404  -5.4376  -5.4364  -5.3999  -5.3701
    -5.3475  -5.3404  -5.3312  -5.2960  -0.5637  -0.5611  -0.5522  -0.4347
    -0.4302  -0.4265  -0.4111  -0.3607  -0.3262  -0.3183  -0.2907  -0.2828
     1.4048   1.4925   1.4956   1.5151   1.6119   1.7113   1.7121   1.7222
     1.7368   1.7725   1.8442   1.8467   1.9659   1.9854   2.0208   2.0224
     2.1291   2.1985   2.2083   2.2102   2.2852   2.3338   2.3964   2.4256
     2.4284   2.5181   2.5288   2.5300   2.5557   2.5576   2.5587   2.5606
     2.5995   2.6783   2.7639   2.7648   2.8231   2.8244   2.8255   2.8293
     2.8497   2.8534   2.8950   2.8962   2.9053   3.0081   3.0174   3.0196
     3.0765   3.0779   3.1172   3.1196   3.1337   3.1796   3.1815   3.1881
     3.2133   3.2459   3.2666   3.2838   3.2864   3.2949   3.3297   3.3317
     3.3744   3.3768   3.3781   3.3800   3.4451   3.4488   3.4501   3.4770
     3.4796   3.4805   3.5060   3.5190   3.5336   3.5350   3.5366   3.5577
     3.5854   3.5877   3.6108   3.6310   3.6394   3.6449   3.6817   3.6846
     3.6865   3.6962   3.7031   3.7049   3.8357   3.8368   3.8764   3.8809
     3.9412   3.9442   3.9472   3.9487   3.9717   4.0316   4.0530   4.0565
     4.0587   4.0624   4.0993   4.1017   4.1217   4.1235   4.1300   4.1339
     4.2236   4.2402   4.2678   4.2693   4.2899   4.2916   4.3132   4.3676
     4.3909   4.4331   4.4369   4.4808   4.5212   4.5423   4.5468   4.5853
     4.5944   4.5986   4.6309   4.7293   5.1470   5.1484   5.1529   5.1638
     5.1679   5.1687   5.1697   5.1726   5.1995   5.2043   5.2124   5.2171
     5.2197   5.2291   5.2404   5.2417   5.2601   5.2637   5.2645   5.2649
     5.2660   5.2733   5.3093   5.3108   5.3184   5.3338   5.3455   5.3476
     5.3597   5.3627   5.3630   5.3679   5.3695   5.3805   5.3876   5.3902
     5.4100   5.4330   5.4474   5.4511   5.4520   5.4689   5.4965   5.4978
     5.5167   5.5237   5.5557   5.5577   5.5680   5.5695   5.6014   5.6026
     5.6076   5.6199   5.6310   5.6496   5.6508   5.6605   5.6748   5.7082
     5.7095   5.7394   5.7591   5.7606   5.7706   5.7844   5.8048   5.8055
     5.8145   5.8395   5.8664   5.8682   5.8749   5.8947   5.9682   5.9699
     6.0190   6.0243   6.0267   6.1006   6.1023   6.1117   6.1592   6.1870
     6.2020   6.2034   6.2043   6.2625   6.2630   6.2870   6.3183   6.3421
     6.3544   6.3683   6.3704   6.4128   6.4183   6.4208   6.4519   6.4811
     6.4823   6.5072   6.5578   6.5665   6.6062   6.6077   6.6472   6.6661
     6.6678   6.7367   6.7384   6.7396   6.7480   6.8029   6.8058   6.8506
     6.8661   6.9181   6.9456   7.0387

          k = 0.3333 0.1925 0.2714 (115773 PWs)   bands (ev):

   -28.2786 -28.2775 -28.2764 -28.2760 -28.2756 -28.2753 -28.2753 -28.2753
   -28.2748 -28.2742 -28.2713 -28.2666 -14.9324 -14.9277 -14.9266 -14.9233
   -14.9233 -14.9228 -14.9227 -14.9226 -14.9225 -14.9224 -14.9218 -14.9207
   -14.9175 -14.9175 -14.9174 -14.9169 -14.9168 -14.9168 -14.9167 -14.9166
   -14.9156 -14.9149 -14.9141 -14.9115 -14.9096 -14.9096 -14.9055 -14.9054
   -14.9048 -14.9048 -14.9047 -14.9046 -14.9045 -14.9027 -14.8994 -14.8978
   -14.8742 -14.8695 -14.8652 -14.8652 -14.8647 -14.8646 -14.8645 -14.8644
   -14.8644 -14.8626 -14.8594 -14.8575 -14.8292 -14.8244 -14.8201 -14.8200
   -14.8194 -14.8194 -14.8193 -14.8192 -14.8192 -14.8174 -14.8141 -14.8122
   -10.3399 -10.3389 -10.3376 -10.3373 -10.3361 -10.3347 -10.3343 -10.3330
   -10.3315 -10.3301 -10.3278 -10.3254 -10.3103 -10.3077 -10.3058 -10.3051
   -10.3032 -10.3016 -10.2978 -10.2956 -10.2949 -10.2927 -10.2915 -10.2863
   -10.2699 -10.2692 -10.2687 -10.2673 -10.2663 -10.2633 -10.2628 -10.2617
   -10.2610 -10.2594 -10.2578 -10.2563  -6.7512  -6.6467  -6.5615  -6.4687
    -6.4200  -6.4186  -6.3637  -6.3428  -6.3384  -6.2655  -6.2117  -6.2094
    -5.9149  -5.9121  -5.8254  -5.8219  -5.8173  -5.8163  -5.7662  -5.7633
    -5.7546  -5.7337  -5.6853  -5.6825  -5.6807  -5.6637  -5.6431  -5.6410
    -5.6378  -5.6080  -5.5869  -5.5846  -5.5720  -5.5306  -5.5293  -5.5261
    -5.5158  -5.4857  -5.4654  -5.4404  -5.4373  -5.4357  -5.3992  -5.3707
    -5.3450  -5.3435  -5.3311  -5.2958  -0.5644  -0.5610  -0.5516  -0.4334
    -0.4302  -0.4283  -0.4107  -0.3608  -0.3232  -0.3213  -0.2904  -0.2830
     1.4044   1.4941   1.4945   1.5147   1.6120   1.7108   1.7127   1.7223
     1.7366   1.7730   1.8445   1.8461   1.9663   1.9857   2.0202   2.0230
     2.1291   2.1989   2.2084   2.2092   2.2854   2.3339   2.3966   2.4263
     2.4274   2.5180   2.5288   2.5298   2.5572   2.5582   2.5587   2.5594
     2.5991   2.6780   2.7632   2.7651   2.8236   2.8245   2.8249   2.8297
     2.8502   2.8527   2.8948   2.8961   2.9061   3.0072   3.0177   3.0190
     3.0766   3.0781   3.1171   3.1187   3.1334   3.1803   3.1811   3.1883
     3.2135   3.2454   3.2651   3.2850   3.2857   3.2950   3.3303   3.3317
     3.3749   3.3771   3.3783   3.3803   3.4470   3.4474   3.4497   3.4769
     3.4799   3.4801   3.5056   3.5190   3.5342   3.5348   3.5364   3.5581
     3.5865   3.5868   3.6101   3.6312   3.6398   3.6442   3.6829   3.6839
     3.6863   3.6952   3.7040   3.7053   3.8354   3.8368   3.8785   3.8808
     3.9416   3.9433   3.9466   3.9488   3.9719   4.0332   4.0523   4.0564
     4.0599   4.0620   4.0982   4.1016   4.1203   4.1239   4.1288   4.1336
     4.2237   4.2402   4.2680   4.2696   4.2904   4.2926   4.3137   4.3652
     4.3934   4.4337   4.4349   4.4803   4.5211   4.5435   4.5456   4.5845
     4.5937   4.6006   4.6311   4.7298   5.1471   5.1478   5.1531   5.1641
     5.1677   5.1681   5.1703   5.1728   5.1992   5.2048   5.2121   5.2179
     5.2189   5.2288   5.2410   5.2412   5.2603   5.2640   5.2647   5.2649
     5.2659   5.2731   5.3100   5.3104   5.3183   5.3337   5.3464   5.3473
     5.3597   5.3627   5.3631   5.3678   5.3696   5.3801   5.3884   5.3891
     5.4099   5.4330   5.4473   5.4511   5.4521   5.4690   5.4967   5.4974
     5.5170   5.5241   5.5559   5.5569   5.5681   5.5690   5.6019   5.6027
     5.6071   5.6204   5.6313   5.6493   5.6507   5.6606   5.6745   5.7084
     5.7094   5.7389   5.7599   5.7608   5.7707   5.7843   5.8051   5.8056
     5.8144   5.8391   5.8668   5.8676   5.8747   5.8950   5.9691   5.9695
     6.0188   6.0254   6.0257   6.1013   6.1016   6.1117   6.1591   6.1873
     6.2023   6.2032   6.2037   6.2620   6.2626   6.2871   6.3175   6.3423
     6.3547   6.3689   6.3696   6.4129   6.4193   6.4199   6.4522   6.4812
     6.4819   6.5068   6.5576   6.5664   6.6067   6.6077   6.6473   6.6667
     6.6675   6.7368   6.7380   6.7395   6.7484   6.8040   6.8050   6.8509
     6.8658   6.9180   6.9456   7.0382

          k =-0.3333-0.1925 0.2714 (115773 PWs)   bands (ev):

   -28.2786 -28.2775 -28.2764 -28.2760 -28.2756 -28.2753 -28.2753 -28.2753
   -28.2748 -28.2742 -28.2713 -28.2666 -14.9324 -14.9277 -14.9266 -14.9233
   -14.9233 -14.9228 -14.9227 -14.9226 -14.9225 -14.9224 -14.9218 -14.9207
   -14.9175 -14.9175 -14.9174 -14.9169 -14.9168 -14.9168 -14.9167 -14.9166
   -14.9156 -14.9149 -14.9141 -14.9115 -14.9096 -14.9096 -14.9055 -14.9054
   -14.9048 -14.9048 -14.9047 -14.9046 -14.9045 -14.9027 -14.8994 -14.8978
   -14.8742 -14.8695 -14.8652 -14.8652 -14.8647 -14.8646 -14.8645 -14.8644
   -14.8644 -14.8626 -14.8594 -14.8575 -14.8292 -14.8244 -14.8201 -14.8200
   -14.8194 -14.8194 -14.8193 -14.8192 -14.8192 -14.8174 -14.8141 -14.8122
   -10.3399 -10.3387 -10.3378 -10.3376 -10.3361 -10.3348 -10.3336 -10.3331
   -10.3316 -10.3307 -10.3277 -10.3253 -10.3105 -10.3076 -10.3062 -10.3054
   -10.3016 -10.3012 -10.2988 -10.2967 -10.2948 -10.2928 -10.2906 -10.2864
   -10.2704 -10.2694 -10.2681 -10.2670 -10.2660 -10.2641 -10.2626 -10.2621
   -10.2606 -10.2592 -10.2579 -10.2562  -6.7510  -6.6469  -6.5607  -6.4720
    -6.4235  -6.4216  -6.3641  -6.3309  -6.3268  -6.2590  -6.2252  -6.2235
    -5.9060  -5.9035  -5.8238  -5.8215  -5.8077  -5.8057  -5.7931  -5.7612
    -5.7595  -5.7327  -5.7111  -5.7100  -5.6726  -5.6360  -5.6302  -5.6275
    -5.6267  -5.6083  -5.6020  -5.5982  -5.5684  -5.5283  -5.5247  -5.5218
    -5.5187  -5.4966  -5.4675  -5.4330  -5.4304  -5.4263  -5.4226  -5.3636
    -5.3484  -5.3468  -5.3223  -5.2993  -0.5615  -0.5589  -0.5574  -0.4371
    -0.4351  -0.4251  -0.3938  -0.3733  -0.3201  -0.3181  -0.2990  -0.2788
     1.4328   1.4852   1.4856   1.4869   1.6254   1.6412   1.7725   1.7728
     1.7813   1.7900   1.7987   1.8017   1.9143   1.9951   1.9972   2.0778
     2.1552   2.1997   2.2102   2.2464   2.2486   2.3600   2.3925   2.3937
     2.3988   2.4486   2.5115   2.5120   2.5465   2.5901   2.5904   2.6072
     2.6427   2.7108   2.7612   2.7684   2.7694   2.7890   2.8082   2.8102
     2.8380   2.8742   2.9148   2.9164   2.9190   2.9810   3.0235   3.0243
     3.0678   3.1053   3.1074   3.1322   3.1708   3.1923   3.1926   3.1941
     3.2001   3.2316   3.2642   3.2654   3.2761   3.3178   3.3208   3.3220
     3.3248   3.3882   3.3906   3.4103   3.4452   3.4457   3.4688   3.4691
     3.4708   3.4721   3.4757   3.4789   3.5327   3.5362   3.5371   3.5913
     3.6101   3.6123   3.6129   3.6327   3.6418   3.6478   3.6591   3.6602
     3.6670   3.7104   3.7108   3.7129   3.8347   3.8361   3.8804   3.8884
     3.9042   3.9483   3.9505   3.9738   3.9823   4.0199   4.0481   4.0486
     4.0502   4.0660   4.1074   4.1124   4.1192   4.1319   4.1342   4.1466
     4.1904   4.2558   4.2663   4.2675   4.2884   4.2904   4.2944   4.3855
     4.3987   4.4374   4.4382   4.4677   4.5229   4.5250   4.5359   4.5957
     4.6083   4.6147   4.6225   4.7208   5.1499   5.1508   5.1542   5.1571
     5.1716   5.1757   5.1762   5.1832   5.1901   5.1974   5.2010   5.2071
     5.2082   5.2334   5.2348   5.2358   5.2545   5.2639   5.2652   5.2660
     5.2787   5.2975   5.3076   5.3128   5.3132   5.3284   5.3363   5.3370
     5.3576   5.3583   5.3601   5.3635   5.3798   5.3926   5.4063   5.4075
     5.4131   5.4317   5.4333   5.4445   5.4452   5.4924   5.5014   5.5027
     5.5092   5.5157   5.5534   5.5595   5.5742   5.5745   5.6027   5.6109
     5.6112   5.6186   5.6249   5.6253   5.6427   5.6701   5.6821   5.7142
     5.7149   5.7170   5.7336   5.7720   5.7729   5.7737   5.8021   5.8029
     5.8099   5.8578   5.8747   5.8755   5.8788   5.9143   5.9589   5.9597
     6.0337   6.0350   6.0352   6.0590   6.0787   6.0794   6.1729   6.2058
     6.2126   6.2132   6.2660   6.2665   6.2698   6.2769   6.2854   6.3479
     6.3494   6.3655   6.3719   6.4149   6.4244   6.4249   6.4274   6.4711
     6.4977   6.4989   6.5453   6.5594   6.5950   6.5960   6.6661   6.6679
     6.6769   6.7194   6.7357   6.7369   6.7474   6.8128   6.8143   6.8444
     6.8684   6.9284   6.9367   7.0518

          k = 0.3333-0.1925 0.2714 (115773 PWs)   bands (ev):

   -28.2786 -28.2775 -28.2764 -28.2760 -28.2756 -28.2753 -28.2753 -28.2753
   -28.2748 -28.2742 -28.2713 -28.2666 -14.9324 -14.9277 -14.9266 -14.9233
   -14.9233 -14.9228 -14.9228 -14.9227 -14.9225 -14.9224 -14.9218 -14.9207
   -14.9175 -14.9175 -14.9174 -14.9169 -14.9168 -14.9168 -14.9166 -14.9166
   -14.9157 -14.9149 -14.9141 -14.9115 -14.9096 -14.9096 -14.9055 -14.9054
   -14.9048 -14.9048 -14.9047 -14.9046 -14.9045 -14.9027 -14.8994 -14.8978
   -14.8742 -14.8695 -14.8652 -14.8652 -14.8647 -14.8646 -14.8645 -14.8644
   -14.8644 -14.8626 -14.8594 -14.8575 -14.8292 -14.8244 -14.8201 -14.8200
   -14.8194 -14.8194 -14.8193 -14.8192 -14.8192 -14.8174 -14.8141 -14.8122
   -10.3398 -10.3386 -10.3379 -10.3372 -10.3362 -10.3351 -10.3338 -10.3327
   -10.3314 -10.3304 -10.3283 -10.3252 -10.3106 -10.3071 -10.3065 -10.3051
   -10.3015 -10.3007 -10.2997 -10.2966 -10.2950 -10.2931 -10.2900 -10.2865
   -10.2701 -10.2694 -10.2685 -10.2669 -10.2661 -10.2638 -10.2631 -10.2618
   -10.2603 -10.2599 -10.2581 -10.2556  -6.7511  -6.6469  -6.5608  -6.4723
    -6.4249  -6.4201  -6.3641  -6.3289  -6.3281  -6.2589  -6.2251  -6.2236
    -5.9060  -5.9043  -5.8248  -5.8207  -5.8105  -5.8069  -5.7916  -5.7620
    -5.7582  -5.7316  -5.7128  -5.7081  -5.6717  -5.6355  -5.6296  -5.6288
    -5.6253  -5.6089  -5.5999  -5.5980  -5.5696  -5.5286  -5.5237  -5.5219
    -5.5198  -5.4966  -5.4677  -5.4331  -5.4295  -5.4281  -5.4221  -5.3642
    -5.3511  -5.3439  -5.3221  -5.2993  -0.5612  -0.5590  -0.5576  -0.4387
    -0.4336  -0.4249  -0.3939  -0.3733  -0.3229  -0.3150  -0.2993  -0.2787
     1.4332   1.4835   1.4858   1.4884   1.6250   1.6412   1.7717   1.7736
     1.7817   1.7901   1.7994   1.8012   1.9140   1.9954   1.9963   2.0767
     2.1549   2.1995   2.2101   2.2469   2.2493   2.3600   2.3920   2.3942
     2.3984   2.4485   2.5112   2.5128   2.5472   2.5896   2.5910   2.6080
     2.6425   2.7109   2.7612   2.7670   2.7697   2.7887   2.8088   2.8095
     2.8389   2.8746   2.9152   2.9163   2.9183   2.9812   3.0232   3.0249
     3.0678   3.1052   3.1080   3.1320   3.1703   3.1917   3.1935   3.1944
     3.2000   3.2321   3.2640   3.2642   3.2768   3.3176   3.3207   3.3226
     3.3238   3.3887   3.3898   3.4108   3.4444   3.4462   3.4673   3.4695
     3.4715   3.4740   3.4760   3.4781   3.5334   3.5353   3.5375   3.5907
     3.6105   3.6117   3.6135   3.6331   3.6421   3.6475   3.6579   3.6597
     3.6678   3.7083   3.7120   3.7131   3.8352   3.8360   3.8782   3.8888
     3.9043   3.9487   3.9516   3.9743   3.9819   4.0194   4.0466   4.0485
     4.0507   4.0649   4.1103   4.1113   4.1200   4.1313   4.1351   4.1483
     4.1913   4.2549   4.2654   4.2681   4.2868   4.2906   4.2941   4.3872
     4.3967   4.4367   4.4397   4.4677   4.5245   4.5252   4.5356   4.5961
     4.6087   4.6128   4.6219   4.7209   5.1500   5.1515   5.1538   5.1568
     5.1714   5.1749   5.1766   5.1832   5.1902   5.1977   5.2011   5.2075
     5.2080   5.2333   5.2352   5.2359   5.2544   5.2633   5.2655   5.2659
     5.2790   5.2978   5.3072   5.3119   5.3141   5.3288   5.3353   5.3375
     5.3577   5.3582   5.3601   5.3634   5.3799   5.3924   5.4063   5.4074
     5.4128   5.4314   5.4331   5.4436   5.4465   5.4924   5.5017   5.5024
     5.5091   5.5157   5.5534   5.5599   5.5742   5.5749   5.6023   5.6103
     5.6117   5.6189   5.6248   5.6254   5.6429   5.6699   5.6819   5.7140
     5.7145   5.7173   5.7341   5.7720   5.7725   5.7736   5.8020   5.8025
     5.8100   5.8581   5.8746   5.8759   5.8784   5.9147   5.9588   5.9596
     6.0335   6.0346   6.0359   6.0594   6.0787   6.0791   6.1727   6.2064
     6.2126   6.2135   6.2656   6.2669   6.2694   6.2772   6.2855   6.3482
     6.3498   6.3651   6.3717   6.4149   6.4238   6.4253   6.4271   6.4709
     6.4979   6.4986   6.5458   6.5596   6.5949   6.5964   6.6654   6.6683
     6.6766   6.7193   6.7340   6.7387   6.7470   6.8120   6.8146   6.8443
     6.8690   6.9283   6.9369   7.0521

          k =-0.3333-0.5774 0.2714 (115827 PWs)   bands (ev):

   -28.2786 -28.2775 -28.2764 -28.2760 -28.2756 -28.2753 -28.2753 -28.2753
   -28.2748 -28.2742 -28.2713 -28.2666 -14.9324 -14.9277 -14.9266 -14.9233
   -14.9233 -14.9228 -14.9227 -14.9226 -14.9225 -14.9224 -14.9218 -14.9207
   -14.9175 -14.9175 -14.9174 -14.9169 -14.9168 -14.9168 -14.9167 -14.9166
   -14.9157 -14.9149 -14.9141 -14.9115 -14.9096 -14.9096 -14.9055 -14.9054
   -14.9048 -14.9048 -14.9047 -14.9046 -14.9045 -14.9027 -14.8994 -14.8978
   -14.8742 -14.8695 -14.8652 -14.8652 -14.8647 -14.8646 -14.8645 -14.8644
   -14.8644 -14.8626 -14.8594 -14.8575 -14.8292 -14.8244 -14.8201 -14.8200
   -14.8194 -14.8194 -14.8193 -14.8192 -14.8192 -14.8174 -14.8141 -14.8122
   -10.3395 -10.3384 -10.3373 -10.3369 -10.3360 -10.3340 -10.3332 -10.3328
   -10.3308 -10.3306 -10.3291 -10.3261 -10.3085 -10.3080 -10.3068 -10.3045
   -10.3014 -10.3004 -10.2978 -10.2972 -10.2952 -10.2921 -10.2913 -10.2888
   -10.2699 -10.2690 -10.2675 -10.2667 -10.2655 -10.2648 -10.2634 -10.2632
   -10.2612 -10.2598 -10.2585 -10.2565  -6.6218  -6.6180  -6.6153  -6.5282
    -6.5244  -6.5217  -6.3088  -6.2922  -6.2888  -6.2862  -6.2577  -6.2145
    -5.8752  -5.8582  -5.8447  -5.7833  -5.7795  -5.7763  -5.7433  -5.7424
    -5.7406  -5.7155  -5.6906  -5.6879  -5.6860  -5.6742  -5.6720  -5.6708
    -5.6702  -5.6432  -5.5583  -5.5569  -5.5537  -5.5267  -5.5250  -5.5224
    -5.5061  -5.5041  -5.5023  -5.5007  -5.4588  -5.4007  -5.3978  -5.3953
    -5.3581  -5.3257  -5.3222  -5.3192  -0.5212  -0.5088  -0.5051  -0.5026
    -0.4613  -0.4193  -0.4167  -0.4147  -0.3555  -0.2951  -0.2920  -0.2908
     1.4802   1.4822   1.4839   1.6368   1.6386   1.6394   1.6900   1.7732
     1.7755   1.7764   1.7793   1.7937   1.9799   1.9816   1.9826   2.0551
     2.1701   2.1913   2.1928   2.1950   2.2473   2.3957   2.3970   2.3987
     2.4880   2.4889   2.4902   2.5570   2.5861   2.5882   2.5896   2.5924
     2.6787   2.7359   2.7372   2.7382   2.8219   2.8231   2.8235   2.8282
     2.9014   2.9023   2.9038   2.9240   2.9361   2.9544   2.9553   2.9564
     3.0594   3.0601   3.0612   3.0876   3.0883   3.0890   3.1265   3.1808
     3.2439   3.2445   3.2453   3.2697   3.2707   3.2725   3.3211   3.3267
     3.3277   3.3283   3.3740   3.4068   3.4205   3.4638   3.4655   3.4671
     3.4925   3.4980   3.4994   3.5009   3.5353   3.5374   3.5384   3.5403
     3.5609   3.6146   3.6160   3.6184   3.6536   3.6550   3.6556   3.6965
     3.6983   3.6991   3.7198   3.7439   3.8213   3.8402   3.8410   3.8425
     3.9367   3.9401   3.9414   3.9424   4.0275   4.0294   4.0319   4.0405
     4.0658   4.0682   4.0691   4.1077   4.1129   4.1141   4.1163   4.1681
     4.2723   4.2733   4.2745   4.2902   4.3138   4.3606   4.3613   4.3629
     4.4136   4.4172   4.4190   4.4908   4.4931   4.4960   4.5077   4.5120
     4.5646   4.6663   4.6672   4.6689   5.1484   5.1566   5.1571   5.1572
     5.1581   5.1815   5.1829   5.1839   5.1973   5.1982   5.1987   5.2107
     5.2238   5.2251   5.2259   5.2508   5.2522   5.2532   5.2567   5.2685
     5.3008   5.3017   5.3028   5.3091   5.3280   5.3292   5.3305   5.3672
     5.3684   5.3691   5.3746   5.3935   5.3950   5.4085   5.4090   5.4100
     5.4323   5.4331   5.4337   5.4386   5.4836   5.4846   5.4855   5.4912
     5.5387   5.5393   5.5397   5.5434   5.5658   5.5662   5.5675   5.6053
     5.6058   5.6066   5.6380   5.6390   5.6717   5.6726   5.6731   5.7029
     5.7042   5.7044   5.7174   5.7579   5.7594   5.7608   5.8016   5.8076
     5.8205   5.8234   5.8242   5.8253   5.8895   5.8909   5.8913   6.0563
     6.0598   6.0606   6.0613   6.0769   6.1189   6.1205   6.1217   6.1350
     6.1954   6.2369   6.2380   6.2391   6.2838   6.3010   6.3021   6.3033
     6.3063   6.3843   6.3852   6.3866   6.4500   6.4660   6.4682   6.4697
     6.4916   6.4922   6.5579   6.5594   6.5615   6.6454   6.6840   6.6854
     6.6869   6.7603   6.7770   6.7784   6.7796   6.7928   6.8530   6.8551
     6.8562   6.9348   6.9362   6.9369

     highest occupied level (ev):     7.1806

!    total energy              =   -9077.18763970 Ry
     estimated scf accuracy    <          3.1E-10 Ry

     The total energy is the sum of the following terms:
     one-electron contribution =   -2776.92158509 Ry
     hartree contribution      =    2020.21284344 Ry
     xc contribution           =   -2269.38868682 Ry
     ewald contribution        =   -3895.29386946 Ry
     one-center paw contrib.   =   -2155.79634176 Ry

     convergence has been achieved in  21 iterations

     negative rho (up, down):  7.902E-01 0.000E+00

     Forces acting on atoms (cartesian axes, Ry/au):

     atom    1 type  1   force =    -0.00419948    0.00236088    0.00005690
     atom    2 type  1   force =     0.00047714    0.00025578    0.00001250
     atom    3 type  1   force =    -0.00009858    0.00008568    0.00000611
     atom    4 type  1   force =    -0.00016982    0.00025333    0.00000051
     atom    5 type  1   force =    -0.00005521   -0.00022739    0.00017345
     atom    6 type  1   force =    -0.00009494   -0.00015410   -0.00019216
     atom    7 type  1   force =    -0.00019238   -0.00027495   -0.00002717
     atom    8 type  1   force =    -0.00013457   -0.00031289    0.00000860
     atom    9 type  1   force =     0.00036879   -0.00001369    0.00001383
     atom   10 type  1   force =     0.00020522   -0.00004137   -0.00012773
     atom   11 type  1   force =     0.00024126    0.00003018    0.00005921
     atom   12 type  1   force =     0.00033033   -0.00002384    0.00003586
     atom   13 type  2   force =    -0.00003946   -0.00016543    0.00024071
     atom   14 type  2   force =     0.00025956   -0.00042776    0.00018077
     atom   15 type  2   force =     0.00020657   -0.00041802    0.00016299
     atom   16 type  2   force =     0.00021440   -0.00039009    0.00018833
     atom   17 type  2   force =     0.00021187    0.00036642    0.00015890
     atom   18 type  2   force =     0.00025445    0.00037353    0.00021172
     atom   19 type  2   force =     0.00023725    0.00037057    0.00019400
     atom   20 type  2   force =     0.00022751    0.00036467    0.00018254
     atom   21 type  2   force =    -0.00041596    0.00042635   -0.00000629
     atom   22 type  2   force =    -0.00040844   -0.00019945    0.00022097
     atom   23 type  2   force =    -0.00039302    0.00000427    0.00016822
     atom   24 type  2   force =    -0.00049411   -0.00003631    0.00020672
     atom   25 type  2   force =    -0.00042815   -0.00001069   -0.00018411
     atom   26 type  2   force =    -0.00043712   -0.00002106   -0.00017603
     atom   27 type  2   force =    -0.00044050   -0.00002012   -0.00018773
     atom   28 type  2   force =    -0.00043385   -0.00002166   -0.00019639
     atom   29 type  2   force =     0.00037644    0.00029644   -0.00003240
     atom   30 type  2   force =     0.00060370    0.00076318   -0.00052815
     atom   31 type  2   force =     0.00017887    0.00041237   -0.00019993
     atom   32 type  2   force =     0.00021836    0.00034242   -0.00018437
     atom   33 type  2   force =     0.00026772   -0.00035798   -0.00018150
     atom   34 type  2   force =     0.00016697   -0.00020635   -0.00018594
     atom   35 type  2   force =     0.00021406   -0.00036369   -0.00021369
     atom   36 type  2   force =     0.00025971   -0.00040554   -0.00015322
     atom   37 type  3   force =     0.00022409   -0.00043083   -0.00000533
     atom   38 type  3   force =     0.00031283   -0.00047189   -0.00001670
     atom   39 type  3   force =     0.00027539   -0.00050978   -0.00001518
     atom   40 type  3   force =     0.00027413   -0.00045976    0.00002163
     atom   41 type  3   force =     0.00081179   -0.00018297   -0.00116478
     atom   42 type  3   force =     0.00037475    0.00113050    0.00086450
     atom   43 type  3   force =     0.00022575    0.00020409    0.00012883
     atom   44 type  3   force =     0.00031774    0.00037415   -0.00003029
     atom   45 type  3   force =    -0.00041006    0.00013890    0.00015464
     atom   46 type  3   force =    -0.00110276   -0.00075224    0.00014723
     atom   47 type  3   force =    -0.00056040    0.00022124   -0.00004020
     atom   48 type  3   force =    -0.00004593   -0.00048620   -0.00012909
     atom   49 type  4   force =     0.00038775   -0.00015314    0.00002940
     atom   50 type  4   force =     0.00033150   -0.00010596    0.00001698
     atom   51 type  4   force =     0.00034657   -0.00007197    0.00002007
     atom   52 type  4   force =     0.00036431   -0.00010083    0.00000197
     atom   53 type  4   force =    -0.00023641    0.00039770    0.00027451
     atom   54 type  4   force =     0.00083409   -0.00010386   -0.00013935
     atom   55 type  4   force =    -0.00004954    0.00036471    0.00005149
     atom   56 type  4   force =    -0.00008626    0.00035556    0.00000432
     atom   57 type  4   force =    -0.00018390   -0.00030480   -0.00000633
     atom   58 type  4   force =    -0.00039681   -0.00018167    0.00005895
     atom   59 type  4   force =    -0.00033586   -0.00024883    0.00001634
     atom   60 type  4   force =    -0.00016903   -0.00023652    0.00000260
     atom   61 type  4   force =    -0.00035256    0.00022741   -0.00011299
     atom   62 type  4   force =     0.00003520    0.00029826    0.00002932
     atom   63 type  4   force =    -0.00009730    0.00002513    0.00007598
     atom   64 type  4   force =    -0.00030341    0.00031609   -0.00000311
     atom   65 type  4   force =     0.00032842    0.00010688    0.00013432
     atom   66 type  4   force =     0.00035977    0.00001016   -0.00013785
     atom   67 type  4   force =     0.00036676    0.00014231   -0.00003494
     atom   68 type  4   force =     0.00033215    0.00013876   -0.00001621
     atom   69 type  4   force =    -0.00014059   -0.00033580   -0.00000169
     atom   70 type  4   force =     0.00000494   -0.00043901   -0.00002102
     atom   71 type  4   force =    -0.00008210   -0.00034188   -0.00003197
     atom   72 type  4   force =    -0.00010260   -0.00034124    0.00000766
     atom   73 type  4   force =     0.00091733   -0.00019221    0.00058094
     atom   74 type  4   force =    -0.00003813    0.00006855   -0.00026142
     atom   75 type  4   force =    -0.00001302    0.00025434   -0.00020675
     atom   76 type  4   force =     0.00003142    0.00015484   -0.00020570
     atom   77 type  4   force =    -0.00014989   -0.00008553   -0.00024147
     atom   78 type  4   force =    -0.00012327   -0.00005444   -0.00025092
     atom   79 type  4   force =    -0.00014718   -0.00006703   -0.00025065
     atom   80 type  4   force =    -0.00014542   -0.00005744   -0.00023704
     atom   81 type  4   force =     0.00039161   -0.00009036   -0.00041247
     atom   82 type  4   force =     0.00003014    0.00000764   -0.00024982
     atom   83 type  4   force =     0.00003733   -0.00005830   -0.00020579
     atom   84 type  4   force =     0.00018444   -0.00012797   -0.00029396
     atom   85 type  4   force =     0.00013092    0.00010855    0.00024240
     atom   86 type  4   force =     0.00013553    0.00006341    0.00025972
     atom   87 type  4   force =     0.00013047    0.00008659    0.00024266
     atom   88 type  4   force =     0.00012498    0.00008824    0.00025504
     atom   89 type  4   force =     0.00003973   -0.00017615    0.00022953
     atom   90 type  4   force =    -0.00002972   -0.00024902    0.00017302
     atom   91 type  4   force =     0.00000782   -0.00017060    0.00021136
     atom   92 type  4   force =     0.00006914   -0.00004404    0.00027453
     atom   93 type  4   force =    -0.00032376   -0.00004037    0.00007628
     atom   94 type  4   force =     0.00006919   -0.00039231   -0.00004397
     atom   95 type  4   force =    -0.00009645    0.00003625    0.00026201
     atom   96 type  4   force =    -0.00017021    0.00013104    0.00021275

     Total force =     0.006839     Total SCF correction =     0.000036
     Message from routine punch:
     Nothing written, as per user request (disk_io='none')

     init_run     :     38.00s CPU     40.22s WALL (       1 calls)
     electrons    :   2008.89s CPU   2108.79s WALL (       1 calls)
     forces       :     19.00s CPU     19.46s WALL (       1 calls)

     Called by init_run:
     wfcinit      :     34.49s CPU     36.47s WALL (       1 calls)
     potinit      :      1.09s CPU      1.13s WALL (       1 calls)
     hinit0       :      1.08s CPU      1.13s WALL (       1 calls)

     Called by electrons:
     c_bands      :   1800.90s CPU   1879.03s WALL (      21 calls)
     sum_band     :    184.27s CPU    202.63s WALL (      21 calls)
     v_of_rho     :      3.40s CPU      3.79s WALL (      22 calls)
     newd         :     15.02s CPU     18.00s WALL (      22 calls)
     PAW_pot      :      5.44s CPU      5.47s WALL (      22 calls)
     mix_rho      :      0.54s CPU      0.59s WALL (      21 calls)

     Called by c_bands:
     init_us_2    :     19.55s CPU     19.72s WALL (     308 calls)
     cegterg      :   1747.94s CPU   1825.63s WALL (     147 calls)

     Called by *egterg:
     cdiaghg      :    105.57s CPU    108.95s WALL (    1001 calls)
     h_psi        :    916.97s CPU    981.01s WALL (    1008 calls)
     s_psi        :    225.65s CPU    227.35s WALL (    1008 calls)
     g_psi        :      3.25s CPU      3.27s WALL (     854 calls)

     Called by h_psi:
     h_psi:calbec :    229.29s CPU    232.71s WALL (    1008 calls)
     vloc_psi     :    458.32s CPU    515.25s WALL (    1008 calls)
     add_vuspsi   :    226.21s CPU    227.93s WALL (    1008 calls)

     General routines
     calbec       :    313.57s CPU    318.29s WALL (    1183 calls)
     fft          :      3.38s CPU      3.82s WALL (     295 calls)
     ffts         :      0.74s CPU      0.76s WALL (      43 calls)
     fftw         :    437.22s CPU    497.01s WALL (  451616 calls)
     interpolate  :      0.87s CPU      0.93s WALL (      22 calls)

     Parallel routines

     PWSCF        :  34m26.17s CPU  36m 9.24s WALL


   This run was terminated on:   2:23:18  21Aug2026            

=------------------------------------------------------------------------------=
   JOB DONE.
=------------------------------------------------------------------------------=
