
     Program PWSCF v.7.3.1 starts on 21Aug2026 at  0: 2:23 

     This program is part of the open-source Quantum ESPRESSO suite
     for quantum simulation of materials; please cite
         "P. Giannozzi et al., J. Phys.:Condens. Matter 21 395502 (2009);
         "P. Giannozzi et al., J. Phys.:Condens. Matter 29 465901 (2017);
         "P. Giannozzi et al., J. Chem. Phys. 152 154105 (2020);
          URL http://www.quantum-espresso.org", 
     in publications or presentations arising from this work. More details at
     http://www.quantum-espresso.org/quote

     Parallel version (MPI & OpenMP), running on      32 processor cores
     Number of MPI processes:                32
     Threads/MPI process:                     1

     MPI processes distributed on     1 nodes
     273925 MiB available memory on the printing compute node when the environment starts

     Reading input from scf.in

     Current dimensions of program PWSCF are:
     Max number of different atomic species (ntypx) = 10
     Max number of k-points (npk) =  40000
     Max angular momentum in pseudopotentials (lmaxx) =  4
     file Cu.paw.z_11.ld1.psl.v1.0.0-low.upf: wavefunction(s)  4S 3D renormalized

     K-points division:     npool     =       2
     R & G space division:  proc/nbgrp/npool/nimage =      16
     Subspace diagonalization in iterative solution of the eigenvalue problem:
     one sub-group per band group will be used
     scalapack distributed-memory algorithm (size of sub-group:  4*  4 procs)


     Parallelization info
     --------------------
     sticks:   dense  smooth     PW     G-vecs:    dense   smooth      PW
     Min        1790     894    231               300830   106340   14077
     Max        1791     895    232               300835   106347   14081
     Sum       28651   14317   3697              4813303  1701527  225271

     Using Slab Decomposition



     bravais-lattice index     =            0
     lattice parameter (alat)  =      24.0273  a.u.
     unit-cell volume          =   14752.0463 (a.u.)^3
     number of atoms/cell      =           96
     number of atomic types    =            4
     number of electrons       =       840.00
     number of Kohn-Sham states=          420
     kinetic-energy cutoff     =      90.0000  Ry
     charge density cutoff     =     720.0000  Ry
     scf convergence threshold =      1.0E-09
     mixing beta               =       0.3000
     number of iterations used =            8  plain     mixing
     Exchange-correlation=  SLA  PW   PBX  PBC
                           (   1   4   3   4   0   0   0)

     celldm(1)=  24.027274  celldm(2)=   0.000000  celldm(3)=   0.000000
     celldm(4)=   0.000000  celldm(5)=   0.000000  celldm(6)=   0.000000

     crystal axes: (cart. coord. in units of alat)
               a(1) = (   1.000000   0.000000   0.000000 )  
               a(2) = (  -0.500000   0.866025   0.000000 )  
               a(3) = (   0.000000   0.000000   1.228028 )  

     reciprocal axes: (cart. coord. in units 2 pi/alat)
               b(1) = (  1.000000  0.577351 -0.000000 )  
               b(2) = (  0.000000  1.154701  0.000000 )  
               b(3) = (  0.000000 -0.000000  0.814314 )  


     PseudoPot. # 1 for Sr read from file:
     /home/yuhansun/pseudos/SSSP-1.3.0-PBE-precision/Sr_pbe_v1.uspp.F.UPF
     MD5 check sum: 6b418c05fbe9db5448babca5e47b7a5b
     Pseudo is Ultrasoft + core correction, Zval = 10.0
     Generated by new atomic code, or converted to UPF format
     Using radial grid of  883 points,  6 beta functions with: 
                l(1) =   0
                l(2) =   0
                l(3) =   1
                l(4) =   1
                l(5) =   2
                l(6) =   2
     Q(r) pseudized with  6 coefficients,  rinner =    1.400   1.400   1.400
                                                       1.400   1.400

     PseudoPot. # 2 for Cu read from file:
     /home/yuhansun/pseudos/SSSP-1.3.0-PBE-precision/Cu.paw.z_11.ld1.psl.v1.0.0-low.upf
     MD5 check sum: 619f40885d92a09a85a8b37550532d0c
     Pseudo is Projector augmented-wave + core cor, Zval = 11.0
     Generated using &quot;atomic&quot; code by A. Dal Corso  v.6.3MaX
     Shape of augmentation charge: PSQ
     Using radial grid of 1199 points,  6 beta functions with: 
                l(1) =   0
                l(2) =   0
                l(3) =   1
                l(4) =   1
                l(5) =   2
                l(6) =   2
     Q(r) pseudized with 0 coefficients 


     PseudoPot. # 3 for Sn read from file:
     /home/yuhansun/pseudos/SSSP-1.3.0-PBE-precision/Sn_pbe_v1.uspp.F.UPF
     MD5 check sum: 4cf58ce39ec5d5d420df3dd08604eb00
     Pseudo is Ultrasoft + core correction, Zval = 14.0
     Generated by new atomic code, or converted to UPF format
     Using radial grid of  891 points,  6 beta functions with: 
                l(1) =   0
                l(2) =   0
                l(3) =   1
                l(4) =   1
                l(5) =   2
                l(6) =   2
     Q(r) pseudized with  6 coefficients,  rinner =    1.200   1.200   1.200
                                                       1.200   1.200

     PseudoPot. # 4 for S  read from file:
     /home/yuhansun/pseudos/SSSP-1.3.0-PBE-precision/s_pbe_v1.4.uspp.F.UPF
     MD5 check sum: 88d86576ff6df21479756cfb9bdac1df
     Pseudo is Ultrasoft + core correction, Zval =  6.0
     Generated by new atomic code, or converted to UPF format
     Using radial grid of  907 points,  6 beta functions with: 
                l(1) =   0
                l(2) =   0
                l(3) =   1
                l(4) =   1
                l(5) =   2
                l(6) =   2
     Q(r) pseudized with  8 coefficients,  rinner =    1.300   1.300   1.300
                                                       1.300   1.300

     atomic species   valence    mass     pseudopotential
     Sr               10.00    87.62000     Sr( 1.00)
     Cu               11.00    63.54600     Cu( 1.00)
     Sn               14.00   118.71000     Sn( 1.00)
     S                 6.00    32.06500     S ( 1.00)

     No symmetry found



   Cartesian axes

     site n.     atom                  positions (alat units)
         1        Sr     tau(   1) = (  -0.1380781   0.2434834   0.2046717  )
         2        Sr     tau(   2) = (   0.3594247   0.2434834   0.2046717  )
         3        Sr     tau(   3) = (  -0.3905753   0.6764960   0.2046717  )
         4        Sr     tau(   4) = (   0.1094247   0.6764960   0.2046717  )
         5        Sr     tau(   5) = (   0.1094247   0.1895292   0.6140139  )
         6        Sr     tau(   6) = (   0.6094247   0.1895292   0.6140139  )
         7        Sr     tau(   7) = (  -0.1405753   0.6225418   0.6140139  )
         8        Sr     tau(   8) = (   0.3594247   0.6225418   0.6140139  )
         9        Sr     tau(   9) = (   0.2811505   0.0000000   1.0233574  )
        10        Sr     tau(  10) = (   0.7811505   0.0000000   1.0233574  )
        11        Sr     tau(  11) = (   0.0311505   0.4330126   1.0233574  )
        12        Sr     tau(  12) = (   0.5311505   0.4330126   1.0233574  )
        13        Cu     tau(  13) = (  -0.1226788   0.2753211   0.5061747  )
        14        Cu     tau(  14) = (   0.3773212   0.2753211   0.5061747  )
        15        Cu     tau(  15) = (  -0.3726788   0.7083337   0.5061747  )
        16        Cu     tau(  16) = (   0.1273212   0.7083337   0.5061747  )
        17        Cu     tau(  17) = (   0.0729045   0.1891087   0.9155169  )
        18        Cu     tau(  18) = (   0.5729045   0.1891087   0.9155169  )
        19        Cu     tau(  19) = (  -0.1770956   0.6221213   0.9155169  )
        20        Cu     tau(  20) = (   0.3229044   0.6221213   0.9155169  )
        21        Cu     tau(  21) = (   0.0497750   0.4015949   0.0968325  )
        22        Cu     tau(  22) = (   0.5497750   0.4015949   0.0968325  )
        23        Cu     tau(  23) = (  -0.2002251   0.8346075   0.0968325  )
        24        Cu     tau(  24) = (   0.2997749   0.8346075   0.0968325  )
        25        Cu     tau(  25) = (   0.2997745   0.0314177   0.7218532  )
        26        Cu     tau(  26) = (   0.7997745   0.0314177   0.7218532  )
        27        Cu     tau(  27) = (   0.0497745   0.4644302   0.7218532  )
        28        Cu     tau(  28) = (   0.5497745   0.4644302   0.7218532  )
        29        Cu     tau(  29) = (   0.1273207   0.1576915   0.3125110  )
        30        Cu     tau(  30) = (   0.6273207   0.1576915   0.3125110  )
        31        Cu     tau(  31) = (  -0.1226793   0.5907041   0.3125110  )
        32        Cu     tau(  32) = (   0.3773207   0.5907041   0.3125110  )
        33        Cu     tau(  33) = (   0.3229040   0.2439039   1.1311954  )
        34        Cu     tau(  34) = (   0.8229040   0.2439039   1.1311954  )
        35        Cu     tau(  35) = (   0.0729039   0.6769164   1.1311954  )
        36        Cu     tau(  36) = (   0.5729039   0.6769164   1.1311954  )
        37        Sn     tau(  37) = (  -0.1762580   0.3052877   0.8186857  )
        38        Sn     tau(  38) = (   0.3237420   0.3052877   0.8186857  )
        39        Sn     tau(  39) = (  -0.4262581   0.7383003   0.8186857  )
        40        Sn     tau(  40) = (   0.0737419   0.7383003   0.8186857  )
        41        Sn     tau(  41) = (   0.0737420   0.1277249   0.0000000  )
        42        Sn     tau(  42) = (   0.5737420   0.1277249   0.0000000  )
        43        Sn     tau(  43) = (  -0.1762581   0.5607374   0.0000000  )
        44        Sn     tau(  44) = (   0.3237419   0.5607374   0.0000000  )
        45        Sn     tau(  45) = (   0.3525160   0.0000000   0.4093422  )
        46        Sn     tau(  46) = (   0.8525160   0.0000000   0.4093422  )
        47        Sn     tau(  47) = (   0.1025160   0.4330126   0.4093422  )
        48        Sn     tau(  48) = (   0.6025160   0.4330126   0.4093422  )
        49        S      tau(  49) = (  -0.0988203   0.2103164   0.9671149  )
        50        S      tau(  50) = (   0.4011797   0.2103164   0.9671149  )
        51        S      tau(  51) = (  -0.3488203   0.6433290   0.9671149  )
        52        S      tau(  52) = (   0.1511797   0.6433290   0.9671149  )
        53        S      tau(  53) = (   0.1172707   0.2422736   0.1484293  )
        54        S      tau(  54) = (   0.6172707   0.2422736   0.1484293  )
        55        S      tau(  55) = (  -0.1327293   0.6752862   0.1484293  )
        56        S      tau(  56) = (   0.3672707   0.6752862   0.1484293  )
        57        S      tau(  57) = (  -0.0184505   0.4134352   0.5577727  )
        58        S      tau(  58) = (   0.4815495   0.4134352   0.5577727  )
        59        S      tau(  59) = (  -0.2684506   0.8464478   0.5577727  )
        60        S      tau(  60) = (   0.2315494   0.8464478   0.5577727  )
        61        S      tau(  61) = (   0.2315495   0.0195774   0.2609129  )
        62        S      tau(  62) = (   0.7315495   0.0195774   0.2609129  )
        63        S      tau(  63) = (  -0.0184505   0.4525899   0.2609129  )
        64        S      tau(  64) = (   0.4815495   0.4525899   0.2609129  )
        65        S      tau(  65) = (   0.1511797   0.2226962   1.0795986  )
        66        S      tau(  66) = (   0.6511797   0.2226962   1.0795986  )
        67        S      tau(  67) = (  -0.0988203   0.6557088   1.0795986  )
        68        S      tau(  68) = (   0.4011797   0.6557088   1.0795986  )
        69        S      tau(  69) = (   0.3672707   0.1907390   0.6702552  )
        70        S      tau(  70) = (   0.8672707   0.1907390   0.6702552  )
        71        S      tau(  71) = (   0.1172707   0.6237516   0.6702552  )
        72        S      tau(  72) = (   0.6172707   0.6237516   0.6702552  )
        73        S      tau(  73) = (  -0.0296498   0.1532012   0.4035914  )
        74        S      tau(  74) = (   0.4703502   0.1532012   0.4035914  )
        75        S      tau(  75) = (  -0.2796498   0.5862137   0.4035914  )
        76        S      tau(  76) = (   0.2203502   0.5862137   0.4035914  )
        77        S      tau(  77) = (   0.1321490   0.3307341   0.8129336  )
        78        S      tau(  78) = (   0.6321490   0.3307341   0.8129336  )
        79        S      tau(  79) = (  -0.1178511   0.7637467   0.8129336  )
        80        S      tau(  80) = (   0.3821489   0.7637467   0.8129336  )
        81        S      tau(  81) = (  -0.1024985   0.3820894   1.2222770  )
        82        S      tau(  82) = (   0.3975015   0.3820894   1.2222770  )
        83        S      tau(  83) = (  -0.3524986   0.8151020   1.2222770  )
        84        S      tau(  84) = (   0.1475014   0.8151020   1.2222770  )
        85        S      tau(  85) = (   0.1475010   0.0509231   0.8244365  )
        86        S      tau(  86) = (   0.6475010   0.0509231   0.8244365  )
        87        S      tau(  87) = (  -0.1024990   0.4839357   0.8244365  )
        88        S      tau(  88) = (   0.3975010   0.4839357   0.8244365  )
        89        S      tau(  89) = (   0.2203497   0.2798114   0.4150943  )
        90        S      tau(  90) = (   0.7203497   0.2798114   0.4150943  )
        91        S      tau(  91) = (  -0.0296503   0.7128240   0.4150943  )
        92        S      tau(  92) = (   0.4703497   0.7128240   0.4150943  )
        93        S      tau(  93) = (   0.3821485   0.1022784   0.0057509  )
        94        S      tau(  94) = (   0.8821485   0.1022784   0.0057509  )
        95        S      tau(  95) = (   0.1321485   0.5352910   0.0057509  )
        96        S      tau(  96) = (   0.6321485   0.5352910   0.0057509  )

     number of k points=     8
                       cart. coord. in units 2pi/alat
        k(    1) = (   0.0000000   0.0000000   0.0000000), wk =   0.2500000
        k(    2) = (   0.0000000   0.0000000  -0.4071569), wk =   0.2500000
        k(    3) = (   0.0000000  -0.5773504   0.0000000), wk =   0.2500000
        k(    4) = (   0.0000000  -0.5773504  -0.4071569), wk =   0.2500000
        k(    5) = (   0.5000000  -0.2886752   0.0000000), wk =   0.2500000
        k(    6) = (  -0.5000000  -0.2886753   0.0000000), wk =   0.2500000
        k(    7) = (   0.5000000  -0.2886752  -0.4071569), wk =   0.2500000
        k(    8) = (  -0.5000000  -0.2886753  -0.4071569), wk =   0.2500000

     Dense  grid:  4813303 G-vectors     FFT dimensions: ( 216, 216, 256)

     Smooth grid:  1701527 G-vectors     FFT dimensions: ( 150, 150, 180)

     Estimated max dynamical RAM per process >       1.70 GB

     Estimated total dynamical RAM >      53.31 GB

     Initial potential from superposition of free atoms

     starting charge     827.5884, renormalised to     840.0000

     negative rho (up, down):  7.787E-01 0.000E+00
     Starting wfcs are  672 randomized atomic wfcs
     Checking if some PAW data can be deallocated... 

     total cpu time spent up to now is       54.3 secs

     Self-consistent Calculation

     iteration #  1     ecut=    90.00 Ry     beta= 0.30
     Davidson diagonalization with overlap
     ethr =  1.00E-02,  avg # of iterations =  2.0

     negative rho (up, down):  7.760E-01 0.000E+00

     total cpu time spent up to now is      156.3 secs

     total energy              =   -9070.37836224 Ry
     estimated scf accuracy    <      21.74281623 Ry

     iteration #  2     ecut=    90.00 Ry     beta= 0.30
     Davidson diagonalization with overlap
     ethr =  2.59E-03,  avg # of iterations =  5.1

     negative rho (up, down):  7.767E-01 0.000E+00

     total cpu time spent up to now is      283.0 secs

     total energy              =   -9076.61123538 Ry
     estimated scf accuracy    <       8.13705383 Ry

     iteration #  3     ecut=    90.00 Ry     beta= 0.30
     Davidson diagonalization with overlap
     ethr =  9.69E-04,  avg # of iterations =  2.0

     negative rho (up, down):  7.821E-01 0.000E+00

     total cpu time spent up to now is      386.2 secs

     total energy              =   -9076.51687996 Ry
     estimated scf accuracy    <       1.57909855 Ry

     iteration #  4     ecut=    90.00 Ry     beta= 0.30
     Davidson diagonalization with overlap
     ethr =  1.88E-04,  avg # of iterations =  5.0

     negative rho (up, down):  7.848E-01 0.000E+00

     total cpu time spent up to now is      531.5 secs

     total energy              =   -9076.74102933 Ry
     estimated scf accuracy    <       1.97320704 Ry

     iteration #  5     ecut=    90.00 Ry     beta= 0.30
     Davidson diagonalization with overlap
     ethr =  1.88E-04,  avg # of iterations =  5.0

     negative rho (up, down):  7.904E-01 0.000E+00

     total cpu time spent up to now is      647.8 secs

     total energy              =   -9077.15105462 Ry
     estimated scf accuracy    <       0.12961206 Ry

     iteration #  6     ecut=    90.00 Ry     beta= 0.30
     Davidson diagonalization with overlap
     ethr =  1.54E-05,  avg # of iterations =  5.8

     negative rho (up, down):  7.922E-01 0.000E+00

     total cpu time spent up to now is      776.7 secs

     total energy              =   -9077.19887872 Ry
     estimated scf accuracy    <       0.01914465 Ry

     iteration #  7     ecut=    90.00 Ry     beta= 0.30
     Davidson diagonalization with overlap
     ethr =  2.28E-06,  avg # of iterations =  5.2

     negative rho (up, down):  7.928E-01 0.000E+00

     total cpu time spent up to now is      895.8 secs

     total energy              =   -9077.20363055 Ry
     estimated scf accuracy    <       0.00633089 Ry

     iteration #  8     ecut=    90.00 Ry     beta= 0.30
     Davidson diagonalization with overlap
     ethr =  7.54E-07,  avg # of iterations =  6.0

     negative rho (up, down):  7.933E-01 0.000E+00

     total cpu time spent up to now is     1047.1 secs

     total energy              =   -9077.19578020 Ry
     estimated scf accuracy    <       0.04477972 Ry

     iteration #  9     ecut=    90.00 Ry     beta= 0.30
     Davidson diagonalization with overlap
     ethr =  7.54E-07,  avg # of iterations =  7.9

     negative rho (up, down):  7.932E-01 0.000E+00

     total cpu time spent up to now is     1200.9 secs

     total energy              =   -9077.20284613 Ry
     estimated scf accuracy    <       0.00089339 Ry

     iteration # 10     ecut=    90.00 Ry     beta= 0.30
     Davidson diagonalization with overlap
     ethr =  1.06E-07,  avg # of iterations =  6.6

     negative rho (up, down):  7.930E-01 0.000E+00

     total cpu time spent up to now is     1328.4 secs

     total energy              =   -9077.20275502 Ry
     estimated scf accuracy    <       0.00082532 Ry

     iteration # 11     ecut=    90.00 Ry     beta= 0.30
     Davidson diagonalization with overlap
     ethr =  9.83E-08,  avg # of iterations =  4.1

     negative rho (up, down):  7.926E-01 0.000E+00

     total cpu time spent up to now is     1445.9 secs

     total energy              =   -9077.20292653 Ry
     estimated scf accuracy    <       0.00016029 Ry

     iteration # 12     ecut=    90.00 Ry     beta= 0.30
     Davidson diagonalization with overlap
     ethr =  1.91E-08,  avg # of iterations =  5.6

     negative rho (up, down):  7.925E-01 0.000E+00

     total cpu time spent up to now is     1582.4 secs

     total energy              =   -9077.20297681 Ry
     estimated scf accuracy    <       0.00008527 Ry

     iteration # 13     ecut=    90.00 Ry     beta= 0.30
     Davidson diagonalization with overlap
     ethr =  1.02E-08,  avg # of iterations =  2.9

     negative rho (up, down):  7.925E-01 0.000E+00

     total cpu time spent up to now is     1693.2 secs

     total energy              =   -9077.20299344 Ry
     estimated scf accuracy    <       0.00001195 Ry

     iteration # 14     ecut=    90.00 Ry     beta= 0.30
     Davidson diagonalization with overlap
     ethr =  1.42E-09,  avg # of iterations =  5.9

     negative rho (up, down):  7.924E-01 0.000E+00

     total cpu time spent up to now is     1822.0 secs

     total energy              =   -9077.20299942 Ry
     estimated scf accuracy    <       0.00000333 Ry

     iteration # 15     ecut=    90.00 Ry     beta= 0.30
     Davidson diagonalization with overlap
     ethr =  3.97E-10,  avg # of iterations =  3.6

     negative rho (up, down):  7.923E-01 0.000E+00

     total cpu time spent up to now is     1933.8 secs

     total energy              =   -9077.20300172 Ry
     estimated scf accuracy    <       0.00000056 Ry

     iteration # 16     ecut=    90.00 Ry     beta= 0.30
     Davidson diagonalization with overlap
     ethr =  6.68E-11,  avg # of iterations =  9.6

     negative rho (up, down):  7.923E-01 0.000E+00

     total cpu time spent up to now is     2124.2 secs

     total energy              =   -9077.20300282 Ry
     estimated scf accuracy    <       0.00000291 Ry

     iteration # 17     ecut=    90.00 Ry     beta= 0.30
     Davidson diagonalization with overlap
     ethr =  6.68E-11,  avg # of iterations =  5.2

     negative rho (up, down):  7.923E-01 0.000E+00

     total cpu time spent up to now is     2242.8 secs

     total energy              =   -9077.20300303 Ry
     estimated scf accuracy    <       0.00000096 Ry

     iteration # 18     ecut=    90.00 Ry     beta= 0.30
     Davidson diagonalization with overlap
     ethr =  6.68E-11,  avg # of iterations =  5.9

     negative rho (up, down):  7.923E-01 0.000E+00

     total cpu time spent up to now is     2383.8 secs

     total energy              =   -9077.20300346 Ry
     estimated scf accuracy    <       0.00000010 Ry

     iteration # 19     ecut=    90.00 Ry     beta= 0.30
     Davidson diagonalization with overlap
     ethr =  1.20E-11,  avg # of iterations =  2.0

     negative rho (up, down):  7.923E-01 0.000E+00

     total cpu time spent up to now is     2480.7 secs

     total energy              =   -9077.20300355 Ry
     estimated scf accuracy    <       0.00000004 Ry

     iteration # 20     ecut=    90.00 Ry     beta= 0.30
     Davidson diagonalization with overlap
     ethr =  5.18E-12,  avg # of iterations =  5.5

     negative rho (up, down):  7.923E-01 0.000E+00

     total cpu time spent up to now is     2621.9 secs

     total energy              =   -9077.20300361 Ry
     estimated scf accuracy    <       0.00000002 Ry

     iteration # 21     ecut=    90.00 Ry     beta= 0.30
     Davidson diagonalization with overlap
     ethr =  2.43E-12,  avg # of iterations =  2.1

     negative rho (up, down):  7.923E-01 0.000E+00

     total cpu time spent up to now is     2722.9 secs

     total energy              =   -9077.20300364 Ry
     estimated scf accuracy    <          3.8E-09 Ry

     iteration # 22     ecut=    90.00 Ry     beta= 0.30
     Davidson diagonalization with overlap
     ethr =  4.52E-13,  avg # of iterations = 11.5

     negative rho (up, down):  7.923E-01 0.000E+00

     total cpu time spent up to now is     2914.0 secs

     total energy              =   -9077.20300365 Ry
     estimated scf accuracy    <       0.00000002 Ry

     iteration # 23     ecut=    90.00 Ry     beta= 0.30
     Davidson diagonalization with overlap
     ethr =  4.52E-13,  avg # of iterations =  6.2

     negative rho (up, down):  7.923E-01 0.000E+00

     total cpu time spent up to now is     3043.5 secs

     End of self-consistent calculation

          k = 0.0000 0.0000 0.0000 (212639 PWs)   bands (ev):

   -28.2768 -28.2759 -28.2758 -28.2757 -28.2755 -28.2755 -28.2755 -28.2753
   -28.2753 -28.2750 -28.2730 -28.2721 -14.9278 -14.9259 -14.9236 -14.9234
   -14.9232 -14.9231 -14.9231 -14.9230 -14.9229 -14.9227 -14.9220 -14.9202
   -14.9201 -14.9181 -14.9177 -14.9174 -14.9173 -14.9173 -14.9172 -14.9171
   -14.9170 -14.9169 -14.9142 -14.9121 -14.9098 -14.9080 -14.9056 -14.9054
   -14.9053 -14.9053 -14.9052 -14.9051 -14.9050 -14.9050 -14.9022 -14.9002
   -14.8697 -14.8678 -14.8654 -14.8652 -14.8651 -14.8651 -14.8650 -14.8649
   -14.8648 -14.8648 -14.8621 -14.8600 -14.8245 -14.8226 -14.8202 -14.8199
   -14.8198 -14.8198 -14.8198 -14.8196 -14.8196 -14.8195 -14.8167 -14.8146
   -10.3387 -10.3382 -10.3379 -10.3367 -10.3366 -10.3360 -10.3357 -10.3349
   -10.3344 -10.3307 -10.3300 -10.3239 -10.3092 -10.3087 -10.3083 -10.3042
   -10.3038 -10.3014 -10.3010 -10.3004 -10.2926 -10.2920 -10.2914 -10.2818
   -10.2706 -10.2703 -10.2700 -10.2651 -10.2649 -10.2641 -10.2628 -10.2622
   -10.2616 -10.2581 -10.2576 -10.2540  -6.8629  -6.5548  -6.5546  -6.4182
    -6.4166  -6.4151  -6.3005  -6.2990  -6.2979  -6.2184  -6.2178  -6.2173
    -5.9896  -5.9895  -5.9890  -5.8497  -5.8489  -5.8485  -5.7963  -5.7956
    -5.7953  -5.7366  -5.7365  -5.6194  -5.6184  -5.6167  -5.6138  -5.6132
    -5.6122  -5.6004  -5.5585  -5.5584  -5.5581  -5.5451  -5.5447  -5.5437
    -5.5166  -5.5165  -5.4325  -5.4285  -5.4282  -5.4276  -5.3727  -5.3723
    -5.3467  -5.3447  -5.3430  -5.2504  -0.6123  -0.6116  -0.6108  -0.3897
    -0.3890  -0.3882  -0.3511  -0.3171  -0.3156  -0.3144  -0.3012  -0.3011
     1.3852   1.3855   1.3857   1.5925   1.5927   1.6566   1.7171   1.7173
     1.7176   1.8056   1.8065   1.8075   2.0201   2.0410   2.0415   2.0851
     2.0852   2.0864   2.2476   2.2480   2.2490   2.3087   2.3108   2.4044
     2.4048   2.4052   2.4610   2.4614   2.4616   2.5497   2.5500   2.6629
     2.6633   2.6643   2.7842   2.7845   2.7849   2.8717   2.8723   2.9251
     2.9257   2.9259   2.9536   2.9540   2.9545   3.0275   3.0281   3.0284
     3.0458   3.0463   3.0470   3.1653   3.2145   3.2151   3.2155   3.2280
     3.2284   3.2572   3.2582   3.2588   3.3777   3.3786   3.3790   3.3936
     3.3938   3.4269   3.4277   3.4286   3.4365   3.4368   3.4370   3.4763
     3.4771   3.4774   3.4935   3.4955   3.4956   3.4964   3.5175   3.5178
     3.5848   3.5856   3.5861   3.6268   3.6276   3.6278   3.6896   3.6900
     3.6911   3.6915   3.6919   3.7067   3.7957   3.7960   3.8256   3.8263
     3.8265   3.9633   4.0205   4.0213   4.0221   4.0358   4.0365   4.0378
     4.1241   4.1253   4.1259   4.1274   4.1729   4.1737   4.1756   4.2016
     4.2092   4.2102   4.2107   4.2437   4.2449   4.2464   4.2816   4.2816
     4.4239   4.4252   4.4266   4.5176   4.5190   4.5197   4.5364   4.5372
     4.6195   4.6215   4.6227   4.8570   5.1259   5.1562   5.1565   5.1569
     5.1749   5.1753   5.1755   5.1794   5.1797   5.2232   5.2280   5.2285
     5.2289   5.2305   5.2312   5.2525   5.2530   5.2537   5.2671   5.2678
     5.2689   5.2792   5.2795   5.2803   5.3106   5.3124   5.3127   5.3138
     5.3147   5.3256   5.3382   5.3386   5.3389   5.3757   5.3765   5.3776
     5.4397   5.4400   5.4722   5.4723   5.4725   5.4756   5.4781   5.4784
     5.4786   5.4996   5.5000   5.6020   5.6024   5.6028   5.6197   5.6197
     5.6199   5.6275   5.6479   5.6484   5.6487   5.6604   5.6606   5.6608
     5.7260   5.7262   5.7450   5.7832   5.7838   5.7846   5.8217   5.8218
     5.8225   5.9044   5.9045   5.9048   5.9276   5.9287   5.9295   5.9970
     5.9971   6.0276   6.0276   6.0277   6.1502   6.1516   6.1524   6.1526
     6.2630   6.2634   6.2637   6.2639   6.2641   6.2642   6.2907   6.2912
     6.3356   6.3358   6.3362   6.3643   6.3645   6.3646   6.3893   6.3904
     6.3913   6.5533   6.5717   6.5722   6.5727   6.6385   6.6386   6.6393
     6.7478   6.7483   6.7488   6.7660   6.7662   6.7821   6.7824   6.7828
     6.8092   6.9651   7.1813   7.1816

          k = 0.0000 0.0000-0.4072 (212634 PWs)   bands (ev):

   -28.2768 -28.2759 -28.2758 -28.2757 -28.2755 -28.2755 -28.2755 -28.2753
   -28.2753 -28.2750 -28.2730 -28.2721 -14.9278 -14.9259 -14.9236 -14.9234
   -14.9232 -14.9231 -14.9231 -14.9230 -14.9229 -14.9227 -14.9220 -14.9202
   -14.9201 -14.9181 -14.9177 -14.9174 -14.9173 -14.9173 -14.9172 -14.9171
   -14.9170 -14.9169 -14.9142 -14.9121 -14.9098 -14.9080 -14.9056 -14.9054
   -14.9053 -14.9053 -14.9052 -14.9051 -14.9050 -14.9050 -14.9022 -14.9002
   -14.8697 -14.8678 -14.8654 -14.8652 -14.8651 -14.8651 -14.8650 -14.8649
   -14.8648 -14.8648 -14.8621 -14.8600 -14.8245 -14.8226 -14.8202 -14.8199
   -14.8198 -14.8198 -14.8198 -14.8196 -14.8196 -14.8195 -14.8167 -14.8146
   -10.3399 -10.3395 -10.3390 -10.3374 -10.3370 -10.3367 -10.3338 -10.3335
   -10.3327 -10.3319 -10.3264 -10.3259 -10.3131 -10.3070 -10.3068 -10.3064
   -10.3023 -10.3019 -10.3012 -10.2943 -10.2938 -10.2932 -10.2880 -10.2875
   -10.2697 -10.2696 -10.2693 -10.2661 -10.2657 -10.2649 -10.2621 -10.2617
   -10.2610 -10.2577 -10.2567 -10.2564  -6.7764  -6.7762  -6.4068  -6.4055
    -6.4042  -6.3808  -6.3070  -6.3058  -6.3048  -6.2340  -6.2338  -6.2334
    -5.9927  -5.9920  -5.9916  -5.8769  -5.8305  -5.8289  -5.8287  -5.7626
    -5.7612  -5.7605  -5.6727  -5.6705  -5.6688  -5.6283  -5.6281  -5.6122
    -5.6116  -5.6107  -5.5606  -5.5510  -5.5503  -5.5493  -5.5449  -5.5441
    -5.5432  -5.4400  -5.4387  -5.4358  -5.4354  -5.4349  -5.3749  -5.3370
    -5.3345  -5.3328  -5.3134  -5.3127  -0.6013  -0.6008  -0.6005  -0.4208
    -0.4193  -0.4181  -0.3431  -0.3428  -0.2989  -0.2972  -0.2957  -0.2702
     1.4196   1.4202   1.4206   1.5864   1.5870   1.5955   1.5960   1.5966
     1.6720   1.9954   1.9956   1.9960   1.9975   2.0150   2.0153   2.0164
     2.0643   2.0645   2.2912   2.2914   2.2916   2.3349   2.3351   2.3701
     2.3704   2.3707   2.4117   2.4119   2.4122   2.5833   2.5833   2.6118
     2.6121   2.6126   2.6770   2.7788   2.7910   2.7914   2.7920   2.8745
     2.8747   2.8749   2.9716   2.9718   2.9721   3.0851   3.0855   3.0860
     3.0899   3.0902   3.0908   3.1874   3.1877   3.2054   3.2066   3.2076
     3.2818   3.2822   3.2828   3.3219   3.3309   3.3845   3.3859   3.3868
     3.4174   3.4187   3.4193   3.4388   3.4392   3.4394   3.4451   3.4458
     3.4467   3.5008   3.5011   3.5308   3.5311   3.5316   3.5339   3.5347
     3.5354   3.5462   3.5906   3.5907   3.6590   3.6601   3.6606   3.6660
     3.6683   3.6689   3.6696   3.7714   3.8789   3.8793   3.8961   3.8968
     3.8970   3.9839   3.9847   3.9858   3.9992   3.9995   4.0678   4.0680
     4.0682   4.1103   4.1112   4.1123   4.1293   4.1428   4.1434   4.1450
     4.1506   4.1525   4.1544   4.2386   4.2387   4.2564   4.2579   4.2585
     4.4208   4.4220   4.4231   4.4809   4.5796   4.5807   4.5813   4.5915
     4.5930   4.5945   4.7489   4.7494   5.1418   5.1498   5.1502   5.1642
     5.1644   5.1646   5.1733   5.1734   5.1739   5.2162   5.2307   5.2311
     5.2312   5.2506   5.2510   5.2513   5.2535   5.2539   5.2541   5.2717
     5.2718   5.2722   5.2960   5.2962   5.3303   5.3308   5.3332   5.3337
     5.3342   5.3483   5.3485   5.3486   5.3543   5.3549   5.3552   5.3580
     5.3588   5.3594   5.3886   5.4304   5.4311   5.4319   5.5325   5.5329
     5.5330   5.5592   5.5594   5.5860   5.5861   5.5867   5.6171   5.6203
     5.6204   5.6205   5.6355   5.6570   5.6573   5.6580   5.6933   5.6940
     5.6942   5.7474   5.7478   5.7483   5.8067   5.8070   5.8157   5.8161
     5.8164   5.8507   5.8803   5.8805   5.8807   6.0146   6.0152   6.0160
     6.0634   6.0638   6.0641   6.0685   6.0690   6.0695   6.1561   6.1564
     6.1566   6.2668   6.2675   6.2676   6.2740   6.2745   6.3446   6.3450
     6.3453   6.3539   6.3544   6.3631   6.3633   6.3635   6.3752   6.4464
     6.4472   6.4476   6.4929   6.4930   6.6464   6.6469   6.6471   6.6686
     6.6688   6.6690   6.6999   6.7002   6.7002   6.7307   6.7310   6.7313
     7.0249   7.0252   7.0639   7.1443

          k = 0.0000-0.5774 0.0000 (212726 PWs)   bands (ev):

   -28.2768 -28.2759 -28.2758 -28.2757 -28.2755 -28.2755 -28.2755 -28.2753
   -28.2753 -28.2750 -28.2730 -28.2721 -14.9278 -14.9259 -14.9236 -14.9233
   -14.9232 -14.9232 -14.9231 -14.9229 -14.9229 -14.9228 -14.9220 -14.9202
   -14.9201 -14.9181 -14.9177 -14.9174 -14.9173 -14.9173 -14.9172 -14.9171
   -14.9170 -14.9170 -14.9142 -14.9121 -14.9098 -14.9080 -14.9056 -14.9054
   -14.9053 -14.9053 -14.9053 -14.9051 -14.9050 -14.9050 -14.9023 -14.9002
   -14.8697 -14.8678 -14.8654 -14.8652 -14.8651 -14.8651 -14.8650 -14.8649
   -14.8648 -14.8648 -14.8621 -14.8600 -14.8245 -14.8226 -14.8202 -14.8199
   -14.8198 -14.8198 -14.8198 -14.8197 -14.8196 -14.8195 -14.8167 -14.8146
   -10.3380 -10.3377 -10.3366 -10.3361 -10.3345 -10.3343 -10.3342 -10.3341
   -10.3335 -10.3322 -10.3292 -10.3283 -10.3066 -10.3062 -10.3048 -10.3042
   -10.3025 -10.3021 -10.3013 -10.3007 -10.2954 -10.2951 -10.2880 -10.2872
   -10.2682 -10.2681 -10.2680 -10.2677 -10.2664 -10.2661 -10.2626 -10.2624
   -10.2620 -10.2608 -10.2580 -10.2572  -6.6998  -6.6997  -6.4449  -6.4438
    -6.4367  -6.4362  -6.4315  -6.4309  -6.2785  -6.2783  -6.2590  -6.2585
    -5.8738  -5.8735  -5.8109  -5.8108  -5.7450  -5.7436  -5.7420  -5.7399
    -5.7393  -5.7380  -5.7213  -5.7202  -5.6854  -5.6841  -5.6478  -5.6473
    -5.6332  -5.6323  -5.6038  -5.6037  -5.5184  -5.5166  -5.5111  -5.5104
    -5.5091  -5.5087  -5.4604  -5.4599  -5.4499  -5.4482  -5.4402  -5.4394
    -5.3485  -5.3473  -5.2902  -5.2894  -0.5531  -0.5530  -0.5043  -0.5042
    -0.4155  -0.4155  -0.3610  -0.3608  -0.3437  -0.3432  -0.3088  -0.3085
     1.4544   1.4547   1.5627   1.5633   1.6382   1.6393   1.6849   1.6855
     1.7444   1.7454   1.8330   1.8332   2.0028   2.0034   2.0150   2.0156
     2.2213   2.2223   2.2464   2.2469   2.3263   2.3270   2.3319   2.3321
     2.4083   2.4083   2.5112   2.5119   2.5695   2.5702   2.6559   2.6567
     2.7546   2.7550   2.7755   2.7762   2.8223   2.8225   2.8278   2.8284
     2.8487   2.8493   2.9111   2.9117   2.9422   2.9425   2.9508   2.9520
     3.0642   3.0649   3.0819   3.0825   3.1422   3.1430   3.1901   3.1906
     3.2034   3.2037   3.2800   3.2803   3.2901   3.2907   3.2942   3.2946
     3.3429   3.3436   3.3903   3.3907   3.4394   3.4395   3.4414   3.4421
     3.5060   3.5067   3.5113   3.5115   3.5240   3.5242   3.5330   3.5333
     3.5816   3.5819   3.5899   3.5902   3.6435   3.6446   3.6976   3.6982
     3.7030   3.7036   3.7256   3.7263   3.7447   3.7453   3.8630   3.8641
     3.9449   3.9452   3.9620   3.9622   3.9964   3.9968   4.0378   4.0388
     4.1041   4.1044   4.1178   4.1185   4.1472   4.1479   4.1776   4.1781
     4.2722   4.2738   4.2790   4.2809   4.3371   4.3374   4.3470   4.3480
     4.4107   4.4123   4.4306   4.4313   4.5172   4.5173   4.5220   4.5241
     4.5853   4.5860   4.6771   4.6781   5.1424   5.1430   5.1553   5.1557
     5.1584   5.1589   5.1708   5.1712   5.2101   5.2105   5.2210   5.2216
     5.2426   5.2432   5.2533   5.2538   5.2554   5.2556   5.2775   5.2782
     5.2829   5.2831   5.3032   5.3033   5.3246   5.3248   5.3361   5.3366
     5.3464   5.3470   5.3583   5.3587   5.3708   5.3714   5.4425   5.4432
     5.4495   5.4498   5.4631   5.4634   5.4706   5.4710   5.5099   5.5102
     5.5129   5.5134   5.5370   5.5372   5.5382   5.5389   5.5866   5.5871
     5.6005   5.6007   5.6296   5.6302   5.6750   5.6757   5.7027   5.7029
     5.7072   5.7079   5.7335   5.7337   5.7822   5.7825   5.8023   5.8029
     5.8373   5.8379   5.8836   5.8841   5.9262   5.9267   5.9501   5.9508
     6.0249   6.0264   6.0271   6.0282   6.1264   6.1274   6.1756   6.1761
     6.2240   6.2246   6.2339   6.2343   6.2922   6.2925   6.2931   6.2934
     6.3865   6.3868   6.3981   6.3988   6.4071   6.4074   6.4832   6.4840
     6.4900   6.4907   6.5377   6.5378   6.6747   6.6752   6.7133   6.7138
     6.7268   6.7272   6.7413   6.7415   6.7828   6.7838   6.7846   6.7849
     6.8458   6.8465   6.9888   6.9894

          k = 0.0000-0.5774-0.4072 (212692 PWs)   bands (ev):

   -28.2768 -28.2759 -28.2758 -28.2757 -28.2755 -28.2755 -28.2755 -28.2753
   -28.2753 -28.2750 -28.2730 -28.2721 -14.9278 -14.9259 -14.9236 -14.9233
   -14.9232 -14.9232 -14.9231 -14.9229 -14.9229 -14.9228 -14.9220 -14.9202
   -14.9201 -14.9181 -14.9177 -14.9174 -14.9173 -14.9173 -14.9172 -14.9171
   -14.9170 -14.9170 -14.9142 -14.9121 -14.9098 -14.9080 -14.9056 -14.9054
   -14.9053 -14.9053 -14.9053 -14.9051 -14.9050 -14.9050 -14.9023 -14.9002
   -14.8697 -14.8678 -14.8654 -14.8652 -14.8651 -14.8651 -14.8650 -14.8649
   -14.8648 -14.8648 -14.8621 -14.8600 -14.8245 -14.8226 -14.8202 -14.8199
   -14.8198 -14.8198 -14.8198 -14.8197 -14.8196 -14.8195 -14.8167 -14.8146
   -10.3390 -10.3387 -10.3374 -10.3367 -10.3363 -10.3352 -10.3328 -10.3323
   -10.3314 -10.3307 -10.3298 -10.3286 -10.3092 -10.3090 -10.3051 -10.3049
   -10.3005 -10.3001 -10.2978 -10.2975 -10.2946 -10.2942 -10.2909 -10.2899
   -10.2688 -10.2688 -10.2677 -10.2675 -10.2657 -10.2654 -10.2622 -10.2619
   -10.2613 -10.2604 -10.2595 -10.2587  -6.6317  -6.6316  -6.6160  -6.6159
    -6.4131  -6.4119  -6.3619  -6.3617  -6.2948  -6.2945  -6.2065  -6.2060
    -5.8603  -5.8601  -5.8221  -5.8215  -5.8088  -5.8079  -5.7571  -5.7563
    -5.7188  -5.7176  -5.7113  -5.7107  -5.6842  -5.6830  -5.6392  -5.6390
    -5.6355  -5.6348  -5.6018  -5.6017  -5.5287  -5.5276  -5.5257  -5.5249
    -5.5035  -5.5031  -5.4831  -5.4831  -5.4303  -5.4302  -5.3674  -5.3657
    -5.3479  -5.3469  -5.3282  -5.3274  -0.5327  -0.5326  -0.4961  -0.4960
    -0.4581  -0.4580  -0.3959  -0.3957  -0.3218  -0.3213  -0.2833  -0.2831
     1.4445   1.4450   1.5459   1.5466   1.6722   1.6730   1.7167   1.7174
     1.7691   1.7702   1.8485   1.8488   1.9661   1.9663   1.9715   1.9717
     2.1949   2.1951   2.2162   2.2173   2.3070   2.3078   2.4416   2.4425
     2.4810   2.4815   2.5371   2.5376   2.5912   2.5916   2.6120   2.6124
     2.6544   2.6552   2.6733   2.6744   2.7249   2.7252   2.8090   2.8091
     2.8857   2.8864   2.9593   2.9596   2.9765   2.9776   2.9805   2.9827
     3.0756   3.0761   3.1100   3.1109   3.1385   3.1388   3.1623   3.1627
     3.2109   3.2111   3.2839   3.2849   3.2900   3.2907   3.3010   3.3012
     3.3526   3.3528   3.3756   3.3757   3.4607   3.4616   3.4691   3.4703
     3.4708   3.4715   3.4827   3.4831   3.5477   3.5481   3.5737   3.5741
     3.6111   3.6118   3.6169   3.6186   3.6549   3.6551   3.6776   3.6781
     3.6989   3.6993   3.7096   3.7100   3.8559   3.8563   3.8890   3.8901
     3.9127   3.9131   3.9446   3.9451   4.0016   4.0029   4.0344   4.0347
     4.0590   4.0601   4.1029   4.1036   4.1113   4.1118   4.1157   4.1160
     4.2314   4.2335   4.2892   4.2912   4.2983   4.2998   4.3485   4.3492
     4.4491   4.4507   4.4773   4.4782   4.5078   4.5083   4.5129   4.5132
     4.6169   4.6179   4.6719   4.6730   5.1528   5.1533   5.1637   5.1639
     5.1725   5.1727   5.1732   5.1740   5.1902   5.1905   5.2109   5.2117
     5.2250   5.2253   5.2294   5.2297   5.2634   5.2639   5.2688   5.2700
     5.2730   5.2736   5.3128   5.3131   5.3522   5.3523   5.3619   5.3621
     5.3637   5.3642   5.3696   5.3701   5.3854   5.3856   5.4245   5.4248
     5.4321   5.4324   5.4394   5.4396   5.4751   5.4756   5.4778   5.4782
     5.5186   5.5191   5.5704   5.5705   5.5758   5.5759   5.5932   5.5935
     5.6175   5.6183   5.6278   5.6280   5.6473   5.6477   5.6885   5.6889
     5.7443   5.7445   5.7555   5.7559   5.7630   5.7637   5.7750   5.7757
     5.8278   5.8279   5.8567   5.8574   5.8621   5.8626   5.9552   5.9556
     6.0301   6.0311   6.0922   6.0931   6.1189   6.1194   6.1697   6.1698
     6.2072   6.2079   6.2580   6.2589   6.2628   6.2633   6.3055   6.3057
     6.3569   6.3570   6.3764   6.3772   6.4512   6.4521   6.4878   6.4886
     6.5170   6.5175   6.5446   6.5452   6.5718   6.5722   6.6328   6.6334
     6.7649   6.7656   6.7818   6.7827   6.8093   6.8098   6.8348   6.8354
     6.8862   6.8871   6.9383   6.9387

          k = 0.5000-0.2887 0.0000 (212726 PWs)   bands (ev):

   -28.2768 -28.2759 -28.2758 -28.2757 -28.2755 -28.2755 -28.2755 -28.2753
   -28.2753 -28.2750 -28.2730 -28.2721 -14.9278 -14.9259 -14.9235 -14.9233
   -14.9232 -14.9232 -14.9231 -14.9230 -14.9229 -14.9228 -14.9220 -14.9202
   -14.9201 -14.9181 -14.9177 -14.9174 -14.9173 -14.9172 -14.9172 -14.9172
   -14.9170 -14.9169 -14.9142 -14.9121 -14.9098 -14.9080 -14.9056 -14.9054
   -14.9053 -14.9053 -14.9052 -14.9052 -14.9050 -14.9050 -14.9023 -14.9002
   -14.8697 -14.8678 -14.8654 -14.8652 -14.8651 -14.8651 -14.8650 -14.8649
   -14.8648 -14.8648 -14.8621 -14.8600 -14.8245 -14.8226 -14.8202 -14.8199
   -14.8198 -14.8198 -14.8198 -14.8197 -14.8196 -14.8195 -14.8167 -14.8146
   -10.3382 -10.3375 -10.3367 -10.3360 -10.3350 -10.3343 -10.3342 -10.3341
   -10.3330 -10.3325 -10.3290 -10.3283 -10.3068 -10.3058 -10.3048 -10.3045
   -10.3025 -10.3020 -10.3015 -10.3007 -10.2957 -10.2945 -10.2879 -10.2876
   -10.2685 -10.2685 -10.2679 -10.2673 -10.2667 -10.2655 -10.2628 -10.2622
   -10.2615 -10.2613 -10.2579 -10.2574  -6.7011  -6.6985  -6.4454  -6.4429
    -6.4375  -6.4354  -6.4330  -6.4297  -6.2790  -6.2776  -6.2597  -6.2580
    -5.8750  -5.8726  -5.8122  -5.8097  -5.7449  -5.7440  -5.7409  -5.7403
    -5.7402  -5.7370  -5.7221  -5.7193  -5.6850  -5.6846  -5.6475  -5.6473
    -5.6337  -5.6321  -5.6039  -5.6030  -5.5197  -5.5161  -5.5115  -5.5101
    -5.5095  -5.5074  -5.4614  -5.4586  -5.4498  -5.4482  -5.4406  -5.4394
    -5.3500  -5.3459  -5.2911  -5.2886  -0.5541  -0.5518  -0.5066  -0.5022
    -0.4163  -0.4145  -0.3621  -0.3597  -0.3461  -0.3411  -0.3093  -0.3077
     1.4537   1.4555   1.5614   1.5644   1.6375   1.6398   1.6841   1.6867
     1.7438   1.7453   1.8330   1.8335   2.0029   2.0035   2.0149   2.0154
     2.2211   2.2221   2.2467   2.2472   2.3264   2.3274   2.3311   2.3321
     2.4079   2.4090   2.5112   2.5125   2.5681   2.5707   2.6558   2.6570
     2.7543   2.7556   2.7752   2.7766   2.8221   2.8224   2.8264   2.8292
     2.8483   2.8500   2.9113   2.9119   2.9417   2.9434   2.9509   2.9524
     3.0638   3.0655   3.0811   3.0832   3.1417   3.1434   3.1897   3.1908
     3.2027   3.2041   3.2798   3.2811   3.2898   3.2906   3.2935   3.2955
     3.3419   3.3442   3.3900   3.3912   3.4386   3.4399   3.4411   3.4434
     3.5051   3.5072   3.5110   3.5121   3.5233   3.5244   3.5330   3.5333
     3.5813   3.5825   3.5891   3.5907   3.6432   3.6448   3.6969   3.6989
     3.7031   3.7037   3.7254   3.7260   3.7443   3.7455   3.8620   3.8646
     3.9442   3.9461   3.9616   3.9633   3.9964   3.9969   4.0366   4.0390
     4.1040   4.1048   4.1171   4.1190   4.1466   4.1486   4.1775   4.1789
     4.2724   4.2742   4.2801   4.2809   4.3369   4.3374   4.3463   4.3486
     4.4103   4.4122   4.4287   4.4324   4.5170   4.5180   4.5208   4.5255
     4.5851   4.5871   4.6757   4.6781   5.1421   5.1435   5.1545   5.1562
     5.1580   5.1591   5.1705   5.1719   5.2098   5.2109   5.2201   5.2221
     5.2421   5.2431   5.2528   5.2544   5.2552   5.2562   5.2780   5.2783
     5.2823   5.2834   5.3028   5.3033   5.3242   5.3250   5.3355   5.3374
     5.3462   5.3476   5.3578   5.3589   5.3701   5.3715   5.4420   5.4441
     5.4490   5.4501   5.4628   5.4638   5.4702   5.4711   5.5099   5.5107
     5.5126   5.5140   5.5368   5.5378   5.5382   5.5389   5.5863   5.5879
     5.6002   5.6009   5.6296   5.6303   5.6744   5.6764   5.7026   5.7031
     5.7070   5.7078   5.7334   5.7340   5.7816   5.7827   5.8020   5.8026
     5.8369   5.8381   5.8832   5.8841   5.9257   5.9271   5.9498   5.9515
     6.0242   6.0262   6.0269   6.0290   6.1265   6.1274   6.1749   6.1764
     6.2234   6.2251   6.2343   6.2347   6.2923   6.2927   6.2931   6.2936
     6.3860   6.3873   6.3975   6.3997   6.4071   6.4073   6.4827   6.4842
     6.4898   6.4904   6.5366   6.5385   6.6743   6.6758   6.7129   6.7143
     6.7263   6.7279   6.7408   6.7414   6.7820   6.7840   6.7846   6.7862
     6.8452   6.8469   6.9881   6.9901

          k =-0.5000-0.2887 0.0000 (212726 PWs)   bands (ev):

   -28.2768 -28.2759 -28.2758 -28.2757 -28.2755 -28.2755 -28.2755 -28.2753
   -28.2753 -28.2750 -28.2730 -28.2721 -14.9278 -14.9259 -14.9235 -14.9232
   -14.9232 -14.9232 -14.9231 -14.9230 -14.9229 -14.9229 -14.9220 -14.9202
   -14.9201 -14.9181 -14.9177 -14.9174 -14.9173 -14.9173 -14.9172 -14.9171
   -14.9170 -14.9170 -14.9142 -14.9121 -14.9098 -14.9080 -14.9056 -14.9054
   -14.9053 -14.9053 -14.9052 -14.9051 -14.9050 -14.9050 -14.9023 -14.9002
   -14.8697 -14.8678 -14.8654 -14.8652 -14.8651 -14.8651 -14.8650 -14.8649
   -14.8648 -14.8648 -14.8621 -14.8600 -14.8245 -14.8226 -14.8202 -14.8199
   -14.8198 -14.8198 -14.8198 -14.8197 -14.8196 -14.8195 -14.8167 -14.8146
   -10.3382 -10.3376 -10.3367 -10.3360 -10.3348 -10.3345 -10.3342 -10.3340
   -10.3330 -10.3324 -10.3291 -10.3282 -10.3066 -10.3062 -10.3051 -10.3041
   -10.3021 -10.3020 -10.3017 -10.3011 -10.2953 -10.2944 -10.2882 -10.2873
   -10.2688 -10.2684 -10.2678 -10.2673 -10.2666 -10.2654 -10.2626 -10.2624
   -10.2614 -10.2613 -10.2583 -10.2572  -6.7015  -6.6980  -6.4445  -6.4435
    -6.4378  -6.4356  -6.4323  -6.4301  -6.2791  -6.2780  -6.2593  -6.2583
    -5.8742  -5.8729  -5.8108  -5.8098  -5.7465  -5.7424  -5.7410  -5.7408
    -5.7389  -5.7383  -5.7212  -5.7208  -5.6855  -5.6842  -5.6477  -5.6473
    -5.6333  -5.6325  -5.6051  -5.6031  -5.5181  -5.5166  -5.5111  -5.5110
    -5.5098  -5.5073  -5.4605  -5.4594  -5.4508  -5.4472  -5.4406  -5.4391
    -5.3480  -5.3475  -5.2931  -5.2868  -0.5537  -0.5524  -0.5045  -0.5039
    -0.4161  -0.4148  -0.3622  -0.3596  -0.3437  -0.3434  -0.3098  -0.3073
     1.4525   1.4563   1.5629   1.5631   1.6385   1.6390   1.6853   1.6854
     1.7436   1.7458   1.8324   1.8336   2.0021   2.0046   2.0149   2.0159
     2.2215   2.2217   2.2462   2.2473   2.3266   2.3268   2.3313   2.3327
     2.4063   2.4103   2.5103   2.5131   2.5695   2.5697   2.6561   2.6564
     2.7543   2.7552   2.7753   2.7762   2.8224   2.8225   2.8278   2.8283
     2.8487   2.8493   2.9111   2.9119   2.9425   2.9429   2.9509   2.9518
     3.0641   3.0649   3.0819   3.0827   3.1424   3.1425   3.1902   3.1905
     3.2029   3.2037   3.2797   3.2805   3.2898   3.2902   3.2945   3.2955
     3.3423   3.3442   3.3899   3.3910   3.4389   3.4397   3.4419   3.4421
     3.5057   3.5071   3.5110   3.5113   3.5239   3.5241   3.5310   3.5356
     3.5801   3.5835   3.5899   3.5905   3.6438   3.6442   3.6977   3.6985
     3.7029   3.7034   3.7255   3.7258   3.7449   3.7454   3.8635   3.8639
     3.9450   3.9455   3.9616   3.9624   3.9960   3.9973   4.0379   4.0381
     4.1027   4.1060   4.1177   4.1183   4.1470   4.1480   4.1772   4.1788
     4.2727   4.2733   4.2802   4.2806   4.3355   4.3388   4.3468   4.3481
     4.4112   4.4114   4.4302   4.4311   4.5129   4.5217   4.5229   4.5237
     4.5845   4.5874   4.6770   4.6776   5.1426   5.1427   5.1549   5.1562
     5.1585   5.1587   5.1698   5.1722   5.2102   5.2104   5.2210   5.2214
     5.2422   5.2435   5.2534   5.2538   5.2541   5.2566   5.2771   5.2792
     5.2827   5.2830   5.3029   5.3034   5.3234   5.3259   5.3366   5.3367
     5.3462   5.3473   5.3583   5.3585   5.3701   5.3719   5.4426   5.4429
     5.4497   5.4500   5.4625   5.4642   5.4706   5.4708   5.5101   5.5104
     5.5131   5.5133   5.5366   5.5374   5.5376   5.5398   5.5866   5.5872
     5.6002   5.6007   5.6296   5.6301   5.6750   5.6761   5.7024   5.7032
     5.7074   5.7079   5.7334   5.7337   5.7821   5.7826   5.8021   5.8026
     5.8349   5.8401   5.8837   5.8839   5.9258   5.9268   5.9504   5.9509
     6.0256   6.0258   6.0270   6.0282   6.1268   6.1271   6.1745   6.1769
     6.2238   6.2244   6.2326   6.2360   6.2919   6.2924   6.2932   6.2939
     6.3867   6.3868   6.3983   6.3989   6.4064   6.4080   6.4830   6.4842
     6.4899   6.4904   6.5375   6.5377   6.6746   6.6753   6.7135   6.7139
     6.7268   6.7271   6.7403   6.7424   6.7825   6.7829   6.7853   6.7859
     6.8445   6.8476   6.9872   6.9908

          k = 0.5000-0.2887-0.4072 (212692 PWs)   bands (ev):

   -28.2768 -28.2759 -28.2758 -28.2757 -28.2755 -28.2755 -28.2755 -28.2753
   -28.2753 -28.2750 -28.2730 -28.2721 -14.9278 -14.9259 -14.9235 -14.9233
   -14.9232 -14.9232 -14.9231 -14.9230 -14.9229 -14.9228 -14.9220 -14.9202
   -14.9201 -14.9181 -14.9177 -14.9174 -14.9173 -14.9172 -14.9172 -14.9172
   -14.9170 -14.9169 -14.9142 -14.9121 -14.9098 -14.9080 -14.9056 -14.9054
   -14.9053 -14.9053 -14.9052 -14.9052 -14.9050 -14.9050 -14.9023 -14.9002
   -14.8697 -14.8678 -14.8654 -14.8652 -14.8651 -14.8651 -14.8650 -14.8649
   -14.8648 -14.8648 -14.8621 -14.8600 -14.8245 -14.8226 -14.8202 -14.8199
   -14.8198 -14.8198 -14.8198 -14.8197 -14.8196 -14.8195 -14.8167 -14.8146
   -10.3391 -10.3385 -10.3372 -10.3368 -10.3362 -10.3356 -10.3327 -10.3323
   -10.3315 -10.3304 -10.3297 -10.3288 -10.3094 -10.3088 -10.3054 -10.3046
   -10.3009 -10.2999 -10.2980 -10.2971 -10.2949 -10.2936 -10.2908 -10.2903
   -10.2691 -10.2685 -10.2681 -10.2671 -10.2661 -10.2648 -10.2622 -10.2615
   -10.2614 -10.2604 -10.2598 -10.2588  -6.6325  -6.6307  -6.6179  -6.6142
    -6.4143  -6.4108  -6.3622  -6.3610  -6.2959  -6.2934  -6.2067  -6.2060
    -5.8611  -5.8594  -5.8232  -5.8210  -5.8099  -5.8069  -5.7574  -5.7557
    -5.7200  -5.7164  -5.7116  -5.7104  -5.6842  -5.6827  -5.6401  -5.6376
    -5.6360  -5.6348  -5.6018  -5.6014  -5.5292  -5.5270  -5.5258  -5.5247
    -5.5037  -5.5032  -5.4842  -5.4817  -5.4308  -5.4298  -5.3693  -5.3642
    -5.3495  -5.3448  -5.3283  -5.3277  -0.5334  -0.5317  -0.4987  -0.4938
    -0.4597  -0.4564  -0.3964  -0.3949  -0.3237  -0.3196  -0.2842  -0.2821
     1.4440   1.4455   1.5447   1.5477   1.6721   1.6729   1.7158   1.7184
     1.7685   1.7706   1.8484   1.8491   1.9650   1.9669   1.9714   1.9719
     2.1946   2.1960   2.2155   2.2178   2.3070   2.3082   2.4416   2.4425
     2.4804   2.4820   2.5370   2.5375   2.5902   2.5922   2.6118   2.6122
     2.6541   2.6556   2.6726   2.6748   2.7248   2.7262   2.8086   2.8094
     2.8852   2.8865   2.9594   2.9601   2.9762   2.9783   2.9807   2.9822
     3.0750   3.0770   3.1100   3.1106   3.1377   3.1393   3.1620   3.1632
     3.2106   3.2114   3.2841   3.2848   3.2898   3.2905   3.3007   3.3014
     3.3519   3.3535   3.3751   3.3763   3.4594   3.4629   3.4693   3.4702
     3.4703   3.4719   3.4826   3.4835   3.5472   3.5482   3.5735   3.5744
     3.6109   3.6122   3.6176   3.6179   3.6542   3.6554   3.6771   3.6780
     3.6985   3.7001   3.7084   3.7111   3.8559   3.8564   3.8878   3.8909
     3.9119   3.9139   3.9444   3.9450   4.0009   4.0036   4.0338   4.0349
     4.0583   4.0603   4.1023   4.1047   4.1111   4.1129   4.1159   4.1165
     4.2320   4.2334   4.2903   4.2906   4.2975   4.2997   4.3477   4.3492
     4.4478   4.4522   4.4762   4.4799   4.5075   4.5088   4.5128   4.5134
     4.6161   4.6190   4.6707   4.6731   5.1527   5.1538   5.1632   5.1643
     5.1717   5.1727   5.1731   5.1741   5.1899   5.1906   5.2103   5.2124
     5.2248   5.2257   5.2292   5.2299   5.2632   5.2639   5.2686   5.2703
     5.2727   5.2742   5.3120   5.3135   5.3520   5.3524   5.3619   5.3623
     5.3635   5.3642   5.3689   5.3698   5.3855   5.3858   5.4244   5.4249
     5.4321   5.4324   5.4389   5.4403   5.4753   5.4764   5.4770   5.4784
     5.5180   5.5196   5.5707   5.5708   5.5758   5.5760   5.5933   5.5935
     5.6173   5.6184   5.6277   5.6282   5.6473   5.6478   5.6883   5.6894
     5.7443   5.7449   5.7553   5.7562   5.7623   5.7635   5.7749   5.7750
     5.8276   5.8280   5.8565   5.8576   5.8615   5.8622   5.9551   5.9561
     6.0297   6.0314   6.0923   6.0935   6.1184   6.1199   6.1694   6.1699
     6.2071   6.2079   6.2576   6.2598   6.2625   6.2632   6.3053   6.3057
     6.3571   6.3574   6.3761   6.3773   6.4505   6.4529   6.4876   6.4893
     6.5163   6.5182   6.5445   6.5447   6.5711   6.5727   6.6318   6.6339
     6.7642   6.7660   6.7809   6.7839   6.8093   6.8101   6.8343   6.8362
     6.8853   6.8878   6.9378   6.9390

          k =-0.5000-0.2887-0.4072 (212692 PWs)   bands (ev):

   -28.2768 -28.2759 -28.2758 -28.2757 -28.2755 -28.2755 -28.2755 -28.2753
   -28.2753 -28.2750 -28.2730 -28.2721 -14.9278 -14.9259 -14.9235 -14.9232
   -14.9232 -14.9232 -14.9231 -14.9230 -14.9229 -14.9229 -14.9220 -14.9202
   -14.9201 -14.9181 -14.9177 -14.9174 -14.9173 -14.9172 -14.9172 -14.9171
   -14.9170 -14.9170 -14.9142 -14.9121 -14.9098 -14.9080 -14.9056 -14.9054
   -14.9053 -14.9053 -14.9052 -14.9051 -14.9050 -14.9050 -14.9023 -14.9002
   -14.8697 -14.8678 -14.8654 -14.8652 -14.8651 -14.8651 -14.8650 -14.8649
   -14.8648 -14.8648 -14.8621 -14.8600 -14.8245 -14.8226 -14.8202 -14.8199
   -14.8198 -14.8198 -14.8198 -14.8197 -14.8196 -14.8195 -14.8167 -14.8146
   -10.3391 -10.3385 -10.3374 -10.3367 -10.3365 -10.3354 -10.3326 -10.3321
   -10.3316 -10.3304 -10.3297 -10.3289 -10.3094 -10.3086 -10.3055 -10.3049
   -10.3009 -10.3002 -10.2977 -10.2968 -10.2946 -10.2935 -10.2913 -10.2902
   -10.2692 -10.2686 -10.2679 -10.2671 -10.2658 -10.2649 -10.2620 -10.2617
   -10.2612 -10.2605 -10.2601 -10.2588  -6.6344  -6.6289  -6.6164  -6.6154
    -6.4127  -6.4124  -6.3628  -6.3609  -6.2957  -6.2936  -6.2067  -6.2059
    -5.8608  -5.8597  -5.8217  -5.8208  -5.8109  -5.8057  -5.7570  -5.7563
    -5.7181  -5.7181  -5.7116  -5.7110  -5.6851  -5.6825  -5.6393  -5.6382
    -5.6361  -5.6350  -5.6025  -5.6013  -5.5282  -5.5277  -5.5265  -5.5251
    -5.5047  -5.5017  -5.4839  -5.4815  -5.4308  -5.4295  -5.3666  -5.3660
    -5.3479  -5.3473  -5.3324  -5.3236  -0.5335  -0.5320  -0.4962  -0.4959
    -0.4585  -0.4576  -0.3965  -0.3950  -0.3218  -0.3213  -0.2838  -0.2826
     1.4430   1.4463   1.5463   1.5464   1.6724   1.6728   1.7170   1.7170
     1.7684   1.7707   1.8478   1.8489   1.9652   1.9671   1.9715   1.9726
     2.1947   2.1959   2.2162   2.2167   2.3072   2.3079   2.4417   2.4422
     2.4793   2.4832   2.5371   2.5375   2.5911   2.5919   2.6118   2.6126
     2.6547   2.6549   2.6732   2.6741   2.7244   2.7256   2.8088   2.8093
     2.8857   2.8866   2.9594   2.9597   2.9776   2.9781   2.9805   2.9815
     3.0754   3.0762   3.1104   3.1106   3.1379   3.1389   3.1621   3.1627
     3.2103   3.2116   3.2840   3.2850   3.2901   3.2905   3.3008   3.3014
     3.3520   3.3534   3.3755   3.3762   3.4613   3.4616   3.4678   3.4703
     3.4706   3.4717   3.4825   3.4836   3.5477   3.5480   3.5723   3.5753
     3.6115   3.6118   3.6168   3.6186   3.6546   3.6550   3.6776   3.6780
     3.6982   3.7004   3.7096   3.7101   3.8560   3.8565   3.8895   3.8900
     3.9122   3.9131   3.9446   3.9450   4.0018   4.0026   4.0330   4.0363
     4.0592   4.0599   4.1026   4.1030   4.1101   4.1118   4.1157   4.1175
     4.2325   4.2328   4.2904   4.2908   4.2983   4.2997   4.3473   4.3504
     4.4496   4.4501   4.4775   4.4781   4.5058   4.5082   4.5094   4.5185
     4.6164   4.6189   4.6717   4.6726   5.1527   5.1530   5.1637   5.1640
     5.1722   5.1725   5.1733   5.1744   5.1889   5.1916   5.2113   5.2116
     5.2248   5.2254   5.2294   5.2295   5.2635   5.2638   5.2696   5.2700
     5.2728   5.2733   5.3129   5.3130   5.3516   5.3525   5.3621   5.3622
     5.3638   5.3642   5.3695   5.3699   5.3854   5.3856   5.4243   5.4248
     5.4321   5.4326   5.4392   5.4397   5.4755   5.4758   5.4770   5.4787
     5.5182   5.5197   5.5704   5.5712   5.5756   5.5759   5.5929   5.5936
     5.6177   5.6180   5.6278   5.6283   5.6468   5.6483   5.6885   5.6889
     5.7443   5.7447   5.7556   5.7561   5.7630   5.7634   5.7750   5.7753
     5.8249   5.8306   5.8569   5.8572   5.8618   5.8621   5.9556   5.9557
     6.0304   6.0307   6.0927   6.0930   6.1186   6.1197   6.1690   6.1702
     6.2073   6.2076   6.2584   6.2587   6.2624   6.2632   6.3052   6.3058
     6.3569   6.3573   6.3763   6.3772   6.4516   6.4519   6.4878   6.4884
     6.5163   6.5184   6.5446   6.5447   6.5717   6.5723   6.6327   6.6333
     6.7648   6.7659   6.7819   6.7826   6.8083   6.8112   6.8349   6.8355
     6.8865   6.8866   6.9359   6.9407

     highest occupied level (ev):     7.1816

!    total energy              =   -9077.20300366 Ry
     estimated scf accuracy    <          8.7E-10 Ry

     The total energy is the sum of the following terms:
     one-electron contribution =   -2776.72953038 Ry
     hartree contribution      =    2020.12554380 Ry
     xc contribution           =   -2269.39072506 Ry
     ewald contribution        =   -3895.41978677 Ry
     one-center paw contrib.   =   -2155.78850525 Ry

     convergence has been achieved in  23 iterations

     negative rho (up, down):  7.923E-01 0.000E+00

     Forces acting on atoms (cartesian axes, Ry/au):

     atom    1 type  1   force =    -0.00296342    0.00007256    0.00008228
     atom    2 type  1   force =     0.00026254    0.00025174    0.00000618
     atom    3 type  1   force =    -0.00015739    0.00018854    0.00000836
     atom    4 type  1   force =    -0.00005906    0.00043750    0.00000502
     atom    5 type  1   force =    -0.00011492   -0.00026108    0.00007415
     atom    6 type  1   force =    -0.00011258   -0.00021176   -0.00010753
     atom    7 type  1   force =    -0.00018163   -0.00025457   -0.00000853
     atom    8 type  1   force =    -0.00013148   -0.00027069    0.00000769
     atom    9 type  1   force =     0.00033255    0.00000887    0.00001311
     atom   10 type  1   force =     0.00026184   -0.00000098   -0.00002722
     atom   11 type  1   force =     0.00030059    0.00001390   -0.00002320
     atom   12 type  1   force =     0.00030857   -0.00002976    0.00001609
     atom   13 type  2   force =     0.00007820   -0.00029384    0.00022523
     atom   14 type  2   force =     0.00024277   -0.00043234    0.00017971
     atom   15 type  2   force =     0.00020400   -0.00040653    0.00018931
     atom   16 type  2   force =     0.00021759   -0.00039242    0.00019473
     atom   17 type  2   force =     0.00022596    0.00037637    0.00017189
     atom   18 type  2   force =     0.00025146    0.00038177    0.00020479
     atom   19 type  2   force =     0.00024263    0.00037884    0.00019023
     atom   20 type  2   force =     0.00024245    0.00037294    0.00018827
     atom   21 type  2   force =    -0.00024474    0.00035809   -0.00006158
     atom   22 type  2   force =    -0.00042301   -0.00013573    0.00020731
     atom   23 type  2   force =    -0.00042687    0.00001990    0.00017649
     atom   24 type  2   force =    -0.00048479    0.00004679    0.00024835
     atom   25 type  2   force =    -0.00044248   -0.00001958   -0.00019024
     atom   26 type  2   force =    -0.00045414   -0.00002968   -0.00019314
     atom   27 type  2   force =    -0.00044631   -0.00001278   -0.00018234
     atom   28 type  2   force =    -0.00044425   -0.00002287   -0.00019066
     atom   29 type  2   force =     0.00029092    0.00033326   -0.00007936
     atom   30 type  2   force =     0.00058839    0.00059186   -0.00047867
     atom   31 type  2   force =     0.00013122    0.00045821   -0.00018465
     atom   32 type  2   force =     0.00021804    0.00038007   -0.00019329
     atom   33 type  2   force =     0.00026875   -0.00036281   -0.00018707
     atom   34 type  2   force =     0.00021630   -0.00037349   -0.00017017
     atom   35 type  2   force =     0.00022635   -0.00034972   -0.00021259
     atom   36 type  2   force =     0.00025184   -0.00039901   -0.00017825
     atom   37 type  3   force =     0.00023001   -0.00044142   -0.00000836
     atom   38 type  3   force =     0.00029642   -0.00045080   -0.00000819
     atom   39 type  3   force =     0.00025543   -0.00047677   -0.00001381
     atom   40 type  3   force =     0.00026532   -0.00043697    0.00000964
     atom   41 type  3   force =     0.00030237   -0.00002017   -0.00071795
     atom   42 type  3   force =     0.00039024    0.00085289    0.00056713
     atom   43 type  3   force =     0.00016753    0.00050033    0.00003850
     atom   44 type  3   force =     0.00035756    0.00040365    0.00002600
     atom   45 type  3   force =    -0.00045026    0.00012508    0.00009773
     atom   46 type  3   force =    -0.00098784   -0.00023302   -0.00027942
     atom   47 type  3   force =    -0.00031880    0.00006934    0.00027595
     atom   48 type  3   force =    -0.00026640   -0.00030454   -0.00004414
     atom   49 type  4   force =     0.00026288   -0.00001959   -0.00003558
     atom   50 type  4   force =     0.00023818   -0.00002945   -0.00004854
     atom   51 type  4   force =     0.00024471   -0.00001147   -0.00003399
     atom   52 type  4   force =     0.00025259   -0.00004294   -0.00004932
     atom   53 type  4   force =    -0.00015714    0.00033641    0.00014567
     atom   54 type  4   force =     0.00051390    0.00000901   -0.00010945
     atom   55 type  4   force =    -0.00006328    0.00021188   -0.00001339
     atom   56 type  4   force =    -0.00012298    0.00020666   -0.00008150
     atom   57 type  4   force =    -0.00011719   -0.00021732   -0.00010191
     atom   58 type  4   force =    -0.00021998   -0.00015403   -0.00002192
     atom   59 type  4   force =    -0.00018619   -0.00020955   -0.00004406
     atom   60 type  4   force =    -0.00008376   -0.00019769   -0.00000424
     atom   61 type  4   force =    -0.00020558    0.00018373   -0.00002674
     atom   62 type  4   force =     0.00002101    0.00014630    0.00016266
     atom   63 type  4   force =     0.00002478    0.00045945    0.00006635
     atom   64 type  4   force =    -0.00016401    0.00025329    0.00006296
     atom   65 type  4   force =     0.00025065    0.00005330    0.00013976
     atom   66 type  4   force =     0.00025098   -0.00000424   -0.00004645
     atom   67 type  4   force =     0.00025572    0.00000186    0.00004683
     atom   68 type  4   force =     0.00022195    0.00002870    0.00004493
     atom   69 type  4   force =    -0.00013487   -0.00021042    0.00004926
     atom   70 type  4   force =    -0.00004826   -0.00026359    0.00004719
     atom   71 type  4   force =    -0.00010161   -0.00022190    0.00003303
     atom   72 type  4   force =    -0.00010386   -0.00022274    0.00006046
     atom   73 type  4   force =     0.00037341   -0.00002164    0.00018006
     atom   74 type  4   force =    -0.00015504    0.00002211   -0.00024929
     atom   75 type  4   force =    -0.00012132    0.00011175   -0.00022974
     atom   76 type  4   force =    -0.00016643    0.00002927   -0.00027635
     atom   77 type  4   force =    -0.00000941   -0.00014124   -0.00023576
     atom   78 type  4   force =     0.00001582   -0.00012563   -0.00024829
     atom   79 type  4   force =    -0.00000157   -0.00013383   -0.00024453
     atom   80 type  4   force =     0.00000662   -0.00012902   -0.00023982
     atom   81 type  4   force =     0.00026046    0.00007834   -0.00039285
     atom   82 type  4   force =     0.00004163    0.00013550   -0.00025849
     atom   83 type  4   force =     0.00009391    0.00008987   -0.00020736
     atom   84 type  4   force =     0.00014898    0.00005340   -0.00028161
     atom   85 type  4   force =     0.00011789   -0.00005783    0.00024442
     atom   86 type  4   force =     0.00011276   -0.00008581    0.00025463
     atom   87 type  4   force =     0.00012268   -0.00006941    0.00023994
     atom   88 type  4   force =     0.00011058   -0.00007281    0.00024859
     atom   89 type  4   force =    -0.00010271   -0.00005424    0.00021622
     atom   90 type  4   force =    -0.00009449   -0.00004894    0.00012938
     atom   91 type  4   force =    -0.00010760   -0.00011929    0.00021903
     atom   92 type  4   force =    -0.00008573   -0.00002085    0.00027639
     atom   93 type  4   force =    -0.00011617    0.00006760    0.00014369
     atom   94 type  4   force =     0.00020035    0.00014185    0.00031806
     atom   95 type  4   force =    -0.00000055    0.00011280    0.00025177
     atom   96 type  4   force =     0.00000980    0.00015322    0.00023614

     Total force =     0.005053     Total SCF correction =     0.000095
     Message from routine punch:
     Nothing written, as per user request (disk_io='none')

     init_run     :     50.93s CPU     53.92s WALL (       1 calls)
     electrons    :   2849.08s CPU   2989.28s WALL (       1 calls)
     forces       :     26.24s CPU     26.88s WALL (       1 calls)

     Called by init_run:
     wfcinit      :     44.55s CPU     47.15s WALL (       1 calls)
     potinit      :      1.22s CPU      1.30s WALL (       1 calls)
     hinit0       :      1.11s CPU      1.15s WALL (       1 calls)

     Called by electrons:
     c_bands      :   2435.41s CPU   2545.37s WALL (      23 calls)
     sum_band     :    339.85s CPU    363.06s WALL (      23 calls)
     v_of_rho     :     11.19s CPU     12.22s WALL (      24 calls)
     newd         :     55.97s CPU     61.91s WALL (      24 calls)
     PAW_pot      :      6.03s CPU      6.07s WALL (      24 calls)
     mix_rho      :      1.93s CPU      2.08s WALL (      23 calls)

     Called by c_bands:
     init_us_2    :     30.29s CPU     30.69s WALL (     192 calls)
     cegterg      :   2361.97s CPU   2471.09s WALL (      92 calls)

     Called by *egterg:
     cdiaghg      :     56.87s CPU     58.82s WALL (     584 calls)
     h_psi        :   1332.05s CPU   1425.00s WALL (     588 calls)
     s_psi        :    271.83s CPU    275.19s WALL (     588 calls)
     g_psi        :      4.45s CPU      4.51s WALL (     492 calls)

     Called by h_psi:
     h_psi:calbec :    278.95s CPU    283.42s WALL (     588 calls)
     vloc_psi     :    775.71s CPU    859.12s WALL (     588 calls)
     add_vuspsi   :    272.06s CPU    275.31s WALL (     588 calls)

     General routines
     calbec       :    382.31s CPU    388.34s WALL (     696 calls)
     fft          :     28.39s CPU     29.77s WALL (     321 calls)
     ffts         :      0.85s CPU      0.92s WALL (      47 calls)
     fftw         :    687.22s CPU    782.53s WALL (  267054 calls)
     interpolate  :      1.27s CPU      1.37s WALL (      24 calls)

     Parallel routines

     PWSCF        :  48m46.54s CPU  51m10.58s WALL


   This run was terminated on:   0:53:34  21Aug2026            

=------------------------------------------------------------------------------=
   JOB DONE.
=------------------------------------------------------------------------------=
