
     Program PWSCF v.7.3.1 starts on 21Aug2026 at  1:43:23 

     This program is part of the open-source Quantum ESPRESSO suite
     for quantum simulation of materials; please cite
         "P. Giannozzi et al., J. Phys.:Condens. Matter 21 395502 (2009);
         "P. Giannozzi et al., J. Phys.:Condens. Matter 29 465901 (2017);
         "P. Giannozzi et al., J. Chem. Phys. 152 154105 (2020);
          URL http://www.quantum-espresso.org", 
     in publications or presentations arising from this work. More details at
     http://www.quantum-espresso.org/quote

     Parallel version (MPI & OpenMP), running on      32 processor cores
     Number of MPI processes:                32
     Threads/MPI process:                     1

     MPI processes distributed on     1 nodes
     163392 MiB available memory on the printing compute node when the environment starts

     Reading input from scf.in

     Current dimensions of program PWSCF are:
     Max number of different atomic species (ntypx) = 10
     Max number of k-points (npk) =  40000
     Max angular momentum in pseudopotentials (lmaxx) =  4
     file Cu.paw.z_11.ld1.psl.v1.0.0-low.upf: wavefunction(s)  4S 3D renormalized

     K-points division:     npool     =       2
     R & G space division:  proc/nbgrp/npool/nimage =      16
     Subspace diagonalization in iterative solution of the eigenvalue problem:
     one sub-group per band group will be used
     scalapack distributed-memory algorithm (size of sub-group:  4*  4 procs)


     Parallelization info
     --------------------
     sticks:   dense  smooth     PW     G-vecs:    dense   smooth      PW
     Min        1193     597    157               163743    57882    7779
     Max        1194     599    158               163747    57885    7784
     Sum       19099    9565   2515              2619931   926125  124485

     Using Slab Decomposition



     bravais-lattice index     =            0
     lattice parameter (alat)  =      24.0273  a.u.
     unit-cell volume          =   14752.0463 (a.u.)^3
     number of atoms/cell      =           96
     number of atomic types    =            4
     number of electrons       =       840.00
     number of Kohn-Sham states=          420
     kinetic-energy cutoff     =      60.0000  Ry
     charge density cutoff     =     480.0000  Ry
     scf convergence threshold =      1.0E-09
     mixing beta               =       0.3000
     number of iterations used =            8  plain     mixing
     Exchange-correlation=  SLA  PW   PBX  PBC
                           (   1   4   3   4   0   0   0)

     celldm(1)=  24.027274  celldm(2)=   0.000000  celldm(3)=   0.000000
     celldm(4)=   0.000000  celldm(5)=   0.000000  celldm(6)=   0.000000

     crystal axes: (cart. coord. in units of alat)
               a(1) = (   1.000000   0.000000   0.000000 )  
               a(2) = (  -0.500000   0.866025   0.000000 )  
               a(3) = (   0.000000   0.000000   1.228028 )  

     reciprocal axes: (cart. coord. in units 2 pi/alat)
               b(1) = (  1.000000  0.577351 -0.000000 )  
               b(2) = (  0.000000  1.154701  0.000000 )  
               b(3) = (  0.000000 -0.000000  0.814314 )  


     PseudoPot. # 1 for Sr read from file:
     /home/yuhansun/pseudos/SSSP-1.3.0-PBE-precision/Sr_pbe_v1.uspp.F.UPF
     MD5 check sum: 6b418c05fbe9db5448babca5e47b7a5b
     Pseudo is Ultrasoft + core correction, Zval = 10.0
     Generated by new atomic code, or converted to UPF format
     Using radial grid of  883 points,  6 beta functions with: 
                l(1) =   0
                l(2) =   0
                l(3) =   1
                l(4) =   1
                l(5) =   2
                l(6) =   2
     Q(r) pseudized with  6 coefficients,  rinner =    1.400   1.400   1.400
                                                       1.400   1.400

     PseudoPot. # 2 for Cu read from file:
     /home/yuhansun/pseudos/SSSP-1.3.0-PBE-precision/Cu.paw.z_11.ld1.psl.v1.0.0-low.upf
     MD5 check sum: 619f40885d92a09a85a8b37550532d0c
     Pseudo is Projector augmented-wave + core cor, Zval = 11.0
     Generated using &quot;atomic&quot; code by A. Dal Corso  v.6.3MaX
     Shape of augmentation charge: PSQ
     Using radial grid of 1199 points,  6 beta functions with: 
                l(1) =   0
                l(2) =   0
                l(3) =   1
                l(4) =   1
                l(5) =   2
                l(6) =   2
     Q(r) pseudized with 0 coefficients 


     PseudoPot. # 3 for Sn read from file:
     /home/yuhansun/pseudos/SSSP-1.3.0-PBE-precision/Sn_pbe_v1.uspp.F.UPF
     MD5 check sum: 4cf58ce39ec5d5d420df3dd08604eb00
     Pseudo is Ultrasoft + core correction, Zval = 14.0
     Generated by new atomic code, or converted to UPF format
     Using radial grid of  891 points,  6 beta functions with: 
                l(1) =   0
                l(2) =   0
                l(3) =   1
                l(4) =   1
                l(5) =   2
                l(6) =   2
     Q(r) pseudized with  6 coefficients,  rinner =    1.200   1.200   1.200
                                                       1.200   1.200

     PseudoPot. # 4 for S  read from file:
     /home/yuhansun/pseudos/SSSP-1.3.0-PBE-precision/s_pbe_v1.4.uspp.F.UPF
     MD5 check sum: 88d86576ff6df21479756cfb9bdac1df
     Pseudo is Ultrasoft + core correction, Zval =  6.0
     Generated by new atomic code, or converted to UPF format
     Using radial grid of  907 points,  6 beta functions with: 
                l(1) =   0
                l(2) =   0
                l(3) =   1
                l(4) =   1
                l(5) =   2
                l(6) =   2
     Q(r) pseudized with  8 coefficients,  rinner =    1.300   1.300   1.300
                                                       1.300   1.300

     atomic species   valence    mass     pseudopotential
     Sr               10.00    87.62000     Sr( 1.00)
     Cu               11.00    63.54600     Cu( 1.00)
     Sn               14.00   118.71000     Sn( 1.00)
     S                 6.00    32.06500     S ( 1.00)

     No symmetry found



   Cartesian axes

     site n.     atom                  positions (alat units)
         1        Sr     tau(   1) = (  -0.1405753   0.2434834   0.2046717  )
         2        Sr     tau(   2) = (   0.3594247   0.2434834   0.2046717  )
         3        Sr     tau(   3) = (  -0.3905753   0.6764960   0.2046717  )
         4        Sr     tau(   4) = (   0.1094247   0.6764960   0.2046717  )
         5        Sr     tau(   5) = (   0.1094247   0.1895292   0.6140139  )
         6        Sr     tau(   6) = (   0.6094247   0.1895292   0.6140139  )
         7        Sr     tau(   7) = (  -0.1405753   0.6225418   0.6140139  )
         8        Sr     tau(   8) = (   0.3594247   0.6225418   0.6140139  )
         9        Sr     tau(   9) = (   0.2811505   0.0000000   1.0233574  )
        10        Sr     tau(  10) = (   0.7811505   0.0000000   1.0233574  )
        11        Sr     tau(  11) = (   0.0311505   0.4330126   1.0233574  )
        12        Sr     tau(  12) = (   0.5311505   0.4330126   1.0233574  )
        13        Cu     tau(  13) = (  -0.1226788   0.2753211   0.5061747  )
        14        Cu     tau(  14) = (   0.3773212   0.2753211   0.5061747  )
        15        Cu     tau(  15) = (  -0.3726788   0.7083337   0.5061747  )
        16        Cu     tau(  16) = (   0.1273212   0.7083337   0.5061747  )
        17        Cu     tau(  17) = (   0.0729045   0.1891087   0.9155169  )
        18        Cu     tau(  18) = (   0.5729045   0.1891087   0.9155169  )
        19        Cu     tau(  19) = (  -0.1770956   0.6221213   0.9155169  )
        20        Cu     tau(  20) = (   0.3229044   0.6221213   0.9155169  )
        21        Cu     tau(  21) = (   0.0497750   0.4015949   0.0968325  )
        22        Cu     tau(  22) = (   0.5497750   0.4015949   0.0968325  )
        23        Cu     tau(  23) = (  -0.2002251   0.8346075   0.0968325  )
        24        Cu     tau(  24) = (   0.2997749   0.8346075   0.0968325  )
        25        Cu     tau(  25) = (   0.2997745   0.0314177   0.7218532  )
        26        Cu     tau(  26) = (   0.7997745   0.0314177   0.7218532  )
        27        Cu     tau(  27) = (   0.0497745   0.4644302   0.7218532  )
        28        Cu     tau(  28) = (   0.5497745   0.4644302   0.7218532  )
        29        Cu     tau(  29) = (   0.1273207   0.1576915   0.3125110  )
        30        Cu     tau(  30) = (   0.6273207   0.1576915   0.3125110  )
        31        Cu     tau(  31) = (  -0.1226793   0.5907041   0.3125110  )
        32        Cu     tau(  32) = (   0.3773207   0.5907041   0.3125110  )
        33        Cu     tau(  33) = (   0.3229040   0.2439039   1.1311954  )
        34        Cu     tau(  34) = (   0.8229040   0.2439039   1.1311954  )
        35        Cu     tau(  35) = (   0.0729039   0.6769164   1.1311954  )
        36        Cu     tau(  36) = (   0.5729039   0.6769164   1.1311954  )
        37        Sn     tau(  37) = (  -0.1762580   0.3052877   0.8186857  )
        38        Sn     tau(  38) = (   0.3237420   0.3052877   0.8186857  )
        39        Sn     tau(  39) = (  -0.4262581   0.7383003   0.8186857  )
        40        Sn     tau(  40) = (   0.0737419   0.7383003   0.8186857  )
        41        Sn     tau(  41) = (   0.0737420   0.1277249   0.0000000  )
        42        Sn     tau(  42) = (   0.5737420   0.1277249   0.0000000  )
        43        Sn     tau(  43) = (  -0.1762581   0.5607374   0.0000000  )
        44        Sn     tau(  44) = (   0.3237419   0.5607374   0.0000000  )
        45        Sn     tau(  45) = (   0.3525160   0.0000000   0.4093422  )
        46        Sn     tau(  46) = (   0.8525160   0.0000000   0.4093422  )
        47        Sn     tau(  47) = (   0.1025160   0.4330126   0.4093422  )
        48        Sn     tau(  48) = (   0.6025160   0.4330126   0.4093422  )
        49        S      tau(  49) = (  -0.0988203   0.2103164   0.9671149  )
        50        S      tau(  50) = (   0.4011797   0.2103164   0.9671149  )
        51        S      tau(  51) = (  -0.3488203   0.6433290   0.9671149  )
        52        S      tau(  52) = (   0.1511797   0.6433290   0.9671149  )
        53        S      tau(  53) = (   0.1172707   0.2422736   0.1484293  )
        54        S      tau(  54) = (   0.6172707   0.2422736   0.1484293  )
        55        S      tau(  55) = (  -0.1327293   0.6752862   0.1484293  )
        56        S      tau(  56) = (   0.3672707   0.6752862   0.1484293  )
        57        S      tau(  57) = (  -0.0184505   0.4134352   0.5577727  )
        58        S      tau(  58) = (   0.4815495   0.4134352   0.5577727  )
        59        S      tau(  59) = (  -0.2684506   0.8464478   0.5577727  )
        60        S      tau(  60) = (   0.2315494   0.8464478   0.5577727  )
        61        S      tau(  61) = (   0.2315495   0.0195774   0.2609129  )
        62        S      tau(  62) = (   0.7315495   0.0195774   0.2609129  )
        63        S      tau(  63) = (  -0.0184505   0.4525899   0.2609129  )
        64        S      tau(  64) = (   0.4815495   0.4525899   0.2609129  )
        65        S      tau(  65) = (   0.1511797   0.2226962   1.0795986  )
        66        S      tau(  66) = (   0.6511797   0.2226962   1.0795986  )
        67        S      tau(  67) = (  -0.0988203   0.6557088   1.0795986  )
        68        S      tau(  68) = (   0.4011797   0.6557088   1.0795986  )
        69        S      tau(  69) = (   0.3672707   0.1907390   0.6702552  )
        70        S      tau(  70) = (   0.8672707   0.1907390   0.6702552  )
        71        S      tau(  71) = (   0.1172707   0.6237516   0.6702552  )
        72        S      tau(  72) = (   0.6172707   0.6237516   0.6702552  )
        73        S      tau(  73) = (  -0.0321469   0.1532012   0.4035914  )
        74        S      tau(  74) = (   0.4703502   0.1532012   0.4035914  )
        75        S      tau(  75) = (  -0.2796498   0.5862137   0.4035914  )
        76        S      tau(  76) = (   0.2203502   0.5862137   0.4035914  )
        77        S      tau(  77) = (   0.1321490   0.3307341   0.8129336  )
        78        S      tau(  78) = (   0.6321490   0.3307341   0.8129336  )
        79        S      tau(  79) = (  -0.1178511   0.7637467   0.8129336  )
        80        S      tau(  80) = (   0.3821489   0.7637467   0.8129336  )
        81        S      tau(  81) = (  -0.1024985   0.3820894   1.2222770  )
        82        S      tau(  82) = (   0.3975015   0.3820894   1.2222770  )
        83        S      tau(  83) = (  -0.3524986   0.8151020   1.2222770  )
        84        S      tau(  84) = (   0.1475014   0.8151020   1.2222770  )
        85        S      tau(  85) = (   0.1475010   0.0509231   0.8244365  )
        86        S      tau(  86) = (   0.6475010   0.0509231   0.8244365  )
        87        S      tau(  87) = (  -0.1024990   0.4839357   0.8244365  )
        88        S      tau(  88) = (   0.3975010   0.4839357   0.8244365  )
        89        S      tau(  89) = (   0.2203497   0.2798114   0.4150943  )
        90        S      tau(  90) = (   0.7203497   0.2798114   0.4150943  )
        91        S      tau(  91) = (  -0.0296503   0.7128240   0.4150943  )
        92        S      tau(  92) = (   0.4703497   0.7128240   0.4150943  )
        93        S      tau(  93) = (   0.3821485   0.1022784   0.0057509  )
        94        S      tau(  94) = (   0.8821485   0.1022784   0.0057509  )
        95        S      tau(  95) = (   0.1321485   0.5352910   0.0057509  )
        96        S      tau(  96) = (   0.6321485   0.5352910   0.0057509  )

     number of k points=    14
                       cart. coord. in units 2pi/alat
        k(    1) = (   0.0000000   0.0000000   0.0000000), wk =   0.0740741
        k(    2) = (   0.0000000   0.0000000   0.2714379), wk =   0.1481481
        k(    3) = (   0.0000000   0.3849003   0.0000000), wk =   0.1481481
        k(    4) = (   0.0000000   0.3849003   0.2714379), wk =   0.1481481
        k(    5) = (   0.3333333   0.5773505   0.0000000), wk =   0.1481481
        k(    6) = (   0.3333333   0.5773505   0.2714379), wk =   0.1481481
        k(    7) = (  -0.3333333   0.1924501   0.0000000), wk =   0.1481481
        k(    8) = (   0.3333333   0.1924502   0.0000000), wk =   0.1481481
        k(    9) = (   0.0000000  -0.3849003   0.2714379), wk =   0.1481481
        k(   10) = (  -0.3333333   0.1924501   0.2714379), wk =   0.1481481
        k(   11) = (   0.3333333   0.1924502   0.2714379), wk =   0.1481481
        k(   12) = (  -0.3333333  -0.1924502   0.2714379), wk =   0.1481481
        k(   13) = (   0.3333333  -0.1924501   0.2714379), wk =   0.1481481
        k(   14) = (  -0.3333333  -0.5773505   0.2714379), wk =   0.1481481

     Dense  grid:  2619931 G-vectors     FFT dimensions: ( 180, 180, 216)

     Smooth grid:   926125 G-vectors     FFT dimensions: ( 120, 120, 150)

     Estimated max dynamical RAM per process >       1.07 GB

     Estimated total dynamical RAM >      33.54 GB

     Initial potential from superposition of free atoms

     starting charge     827.5884, renormalised to     840.0000

     negative rho (up, down):  7.777E-01 0.000E+00
     Starting wfcs are  672 randomized atomic wfcs
     Checking if some PAW data can be deallocated... 

     total cpu time spent up to now is       46.9 secs

     Self-consistent Calculation

     iteration #  1     ecut=    60.00 Ry     beta= 0.30
     Davidson diagonalization with overlap
     ethr =  1.00E-02,  avg # of iterations =  2.0

     negative rho (up, down):  7.747E-01 0.000E+00

     total cpu time spent up to now is      132.0 secs

     total energy              =   -9070.30667105 Ry
     estimated scf accuracy    <      21.94258234 Ry

     iteration #  2     ecut=    60.00 Ry     beta= 0.30
     Davidson diagonalization with overlap
     ethr =  2.61E-03,  avg # of iterations =  4.9

     negative rho (up, down):  7.752E-01 0.000E+00

     total cpu time spent up to now is      237.9 secs

     total energy              =   -9076.61309159 Ry
     estimated scf accuracy    <       8.23805116 Ry

     iteration #  3     ecut=    60.00 Ry     beta= 0.30
     Davidson diagonalization with overlap
     ethr =  9.81E-04,  avg # of iterations =  2.0

     negative rho (up, down):  7.804E-01 0.000E+00

     total cpu time spent up to now is      318.8 secs

     total energy              =   -9076.48928079 Ry
     estimated scf accuracy    <       1.62082995 Ry

     iteration #  4     ecut=    60.00 Ry     beta= 0.30
     Davidson diagonalization with overlap
     ethr =  1.93E-04,  avg # of iterations =  6.6

     negative rho (up, down):  7.829E-01 0.000E+00

     total cpu time spent up to now is      436.6 secs

     total energy              =   -9076.70030383 Ry
     estimated scf accuracy    <       2.08405558 Ry

     iteration #  5     ecut=    60.00 Ry     beta= 0.30
     Davidson diagonalization with overlap
     ethr =  1.93E-04,  avg # of iterations =  5.6

     negative rho (up, down):  7.883E-01 0.000E+00

     total cpu time spent up to now is      530.8 secs

     total energy              =   -9077.13711486 Ry
     estimated scf accuracy    <       0.14565470 Ry

     iteration #  6     ecut=    60.00 Ry     beta= 0.30
     Davidson diagonalization with overlap
     ethr =  1.73E-05,  avg # of iterations =  6.2

     negative rho (up, down):  7.902E-01 0.000E+00

     total cpu time spent up to now is      626.2 secs

     total energy              =   -9077.18434565 Ry
     estimated scf accuracy    <       0.01277339 Ry

     iteration #  7     ecut=    60.00 Ry     beta= 0.30
     Davidson diagonalization with overlap
     ethr =  1.52E-06,  avg # of iterations =  5.1

     negative rho (up, down):  7.907E-01 0.000E+00

     total cpu time spent up to now is      734.1 secs

     total energy              =   -9077.18869042 Ry
     estimated scf accuracy    <       0.00570277 Ry

     iteration #  8     ecut=    60.00 Ry     beta= 0.30
     Davidson diagonalization with overlap
     ethr =  6.79E-07,  avg # of iterations =  6.6

     negative rho (up, down):  7.912E-01 0.000E+00

     total cpu time spent up to now is      858.2 secs

     total energy              =   -9077.17918738 Ry
     estimated scf accuracy    <       0.04917064 Ry

     iteration #  9     ecut=    60.00 Ry     beta= 0.30
     Davidson diagonalization with overlap
     ethr =  6.79E-07,  avg # of iterations =  6.6

     negative rho (up, down):  7.911E-01 0.000E+00

     total cpu time spent up to now is      999.4 secs

     total energy              =   -9077.18755086 Ry
     estimated scf accuracy    <       0.00149154 Ry

     iteration # 10     ecut=    60.00 Ry     beta= 0.30
     Davidson diagonalization with overlap
     ethr =  1.78E-07,  avg # of iterations =  3.4

     negative rho (up, down):  7.907E-01 0.000E+00

     total cpu time spent up to now is     1085.7 secs

     total energy              =   -9077.18740090 Ry
     estimated scf accuracy    <       0.00055219 Ry

     iteration # 11     ecut=    60.00 Ry     beta= 0.30
     Davidson diagonalization with overlap
     ethr =  6.57E-08,  avg # of iterations =  4.9

     negative rho (up, down):  7.905E-01 0.000E+00

     total cpu time spent up to now is     1196.6 secs

     total energy              =   -9077.18757278 Ry
     estimated scf accuracy    <       0.00016198 Ry

     iteration # 12     ecut=    60.00 Ry     beta= 0.30
     Davidson diagonalization with overlap
     ethr =  1.93E-08,  avg # of iterations =  4.3

     negative rho (up, down):  7.904E-01 0.000E+00

     total cpu time spent up to now is     1296.5 secs

     total energy              =   -9077.18759200 Ry
     estimated scf accuracy    <       0.00005086 Ry

     iteration # 13     ecut=    60.00 Ry     beta= 0.30
     Davidson diagonalization with overlap
     ethr =  6.06E-09,  avg # of iterations =  5.6

     negative rho (up, down):  7.903E-01 0.000E+00

     total cpu time spent up to now is     1401.2 secs

     total energy              =   -9077.18760278 Ry
     estimated scf accuracy    <       0.00000784 Ry

     iteration # 14     ecut=    60.00 Ry     beta= 0.30
     Davidson diagonalization with overlap
     ethr =  9.33E-10,  avg # of iterations =  4.7

     negative rho (up, down):  7.902E-01 0.000E+00

     total cpu time spent up to now is     1500.7 secs

     total energy              =   -9077.18760423 Ry
     estimated scf accuracy    <       0.00000157 Ry

     iteration # 15     ecut=    60.00 Ry     beta= 0.30
     Davidson diagonalization with overlap
     ethr =  1.87E-10,  avg # of iterations =  4.9

     negative rho (up, down):  7.902E-01 0.000E+00

     total cpu time spent up to now is     1611.8 secs

     total energy              =   -9077.18760492 Ry
     estimated scf accuracy    <       0.00000032 Ry

     iteration # 16     ecut=    60.00 Ry     beta= 0.30
     Davidson diagonalization with overlap
     ethr =  3.79E-11,  avg # of iterations =  4.4

     negative rho (up, down):  7.902E-01 0.000E+00

     total cpu time spent up to now is     1720.3 secs

     total energy              =   -9077.18760503 Ry
     estimated scf accuracy    <       0.00000006 Ry

     iteration # 17     ecut=    60.00 Ry     beta= 0.30
     Davidson diagonalization with overlap
     ethr =  7.62E-12,  avg # of iterations =  6.6

     negative rho (up, down):  7.902E-01 0.000E+00

     total cpu time spent up to now is     1840.9 secs

     total energy              =   -9077.18760508 Ry
     estimated scf accuracy    <       0.00000001 Ry

     iteration # 18     ecut=    60.00 Ry     beta= 0.30
     Davidson diagonalization with overlap
     ethr =  1.33E-12,  avg # of iterations =  5.4

     negative rho (up, down):  7.902E-01 0.000E+00

     total cpu time spent up to now is     1949.4 secs

     total energy              =   -9077.18760510 Ry
     estimated scf accuracy    <          5.3E-09 Ry

     iteration # 19     ecut=    60.00 Ry     beta= 0.30
     Davidson diagonalization with overlap
     ethr =  6.32E-13,  avg # of iterations =  8.1

     negative rho (up, down):  7.902E-01 0.000E+00

     total cpu time spent up to now is     2093.6 secs

     total energy              =   -9077.18760510 Ry
     estimated scf accuracy    <       0.00000002 Ry

     iteration # 20     ecut=    60.00 Ry     beta= 0.30
     Davidson diagonalization with overlap
     ethr =  6.32E-13,  avg # of iterations =  5.6

     negative rho (up, down):  7.902E-01 0.000E+00

     total cpu time spent up to now is     2198.4 secs

     total energy              =   -9077.18760511 Ry
     estimated scf accuracy    <          1.4E-09 Ry

     iteration # 21     ecut=    60.00 Ry     beta= 0.30
     Davidson diagonalization with overlap
     ethr =  1.62E-13,  avg # of iterations =  4.8

     negative rho (up, down):  7.902E-01 0.000E+00

     total cpu time spent up to now is     2310.0 secs

     End of self-consistent calculation

          k = 0.0000 0.0000 0.0000 (115723 PWs)   bands (ev):

   -28.2864 -28.2760 -28.2755 -28.2753 -28.2751 -28.2750 -28.2749 -28.2749
   -28.2747 -28.2746 -28.2734 -28.2679 -14.9280 -14.9234 -14.9228 -14.9225
   -14.9224 -14.9223 -14.9223 -14.9221 -14.9220 -14.9219 -14.9216 -14.9211
   -14.9199 -14.9176 -14.9169 -14.9167 -14.9166 -14.9165 -14.9164 -14.9162
   -14.9161 -14.9160 -14.9158 -14.9143 -14.9090 -14.9055 -14.9048 -14.9046
   -14.9044 -14.9044 -14.9043 -14.9042 -14.9040 -14.9040 -14.9038 -14.9022
   -14.8668 -14.8653 -14.8645 -14.8644 -14.8642 -14.8642 -14.8642 -14.8640
   -14.8639 -14.8638 -14.8637 -14.8619 -14.8226 -14.8201 -14.8194 -14.8192
   -14.8191 -14.8191 -14.8190 -14.8188 -14.8186 -14.8186 -14.8185 -14.8169
   -10.3458 -10.3382 -10.3374 -10.3369 -10.3362 -10.3356 -10.3355 -10.3347
   -10.3327 -10.3311 -10.3288 -10.3231 -10.3131 -10.3089 -10.3078 -10.3054
   -10.3034 -10.3017 -10.3011 -10.2996 -10.2933 -10.2919 -10.2903 -10.2816
   -10.2752 -10.2701 -10.2690 -10.2668 -10.2645 -10.2639 -10.2628 -10.2619
   -10.2606 -10.2587 -10.2567 -10.2532  -6.8638  -6.5573  -6.5545  -6.4206
    -6.4164  -6.4163  -6.3037  -6.2990  -6.2984  -6.2213  -6.2177  -6.2176
    -5.9921  -5.9896  -5.9890  -5.8511  -5.8489  -5.8486  -5.7975  -5.7957
    -5.7947  -5.7372  -5.7364  -5.6188  -5.6183  -5.6174  -5.6157  -5.6130
    -5.6126  -5.6006  -5.5602  -5.5585  -5.5580  -5.5469  -5.5445  -5.5442
    -5.5168  -5.5160  -5.4332  -5.4285  -5.4283  -5.4279  -5.3743  -5.3723
    -5.3453  -5.3448  -5.3442  -5.2506  -0.6119  -0.6110  -0.6096  -0.3897
    -0.3884  -0.3879  -0.3514  -0.3171  -0.3152  -0.3149  -0.3018  -0.3007
     1.3838   1.3854   1.3861   1.5922   1.5937   1.6573   1.7167   1.7175
     1.7179   1.8048   1.8067   1.8078   2.0188   2.0397   2.0411   2.0829
     2.0852   2.0858   2.2471   2.2484   2.2484   2.3081   2.3105   2.4038
     2.4050   2.4057   2.4589   2.4608   2.4616   2.5480   2.5500   2.6629
     2.6635   2.6649   2.7815   2.7844   2.7858   2.8713   2.8722   2.9246
     2.9252   2.9261   2.9529   2.9539   2.9562   3.0259   3.0275   3.0282
     3.0451   3.0465   3.0474   3.1653   3.2134   3.2153   3.2160   3.2280
     3.2289   3.2577   3.2582   3.2603   3.3782   3.3785   3.3796   3.3930
     3.3940   3.4267   3.4272   3.4279   3.4353   3.4367   3.4372   3.4758
     3.4765   3.4779   3.4936   3.4949   3.4957   3.4974   3.5168   3.5174
     3.5818   3.5860   3.5861   3.6232   3.6272   3.6279   3.6853   3.6908
     3.6911   3.6915   3.6925   3.7064   3.7952   3.7967   3.8250   3.8259
     3.8273   3.9635   4.0205   4.0211   4.0225   4.0362   4.0367   4.0375
     4.1242   4.1256   4.1261   4.1263   4.1717   4.1741   4.1753   4.2017
     4.2080   4.2104   4.2117   4.2441   4.2448   4.2461   4.2815   4.2824
     4.4243   4.4252   4.4253   4.5170   4.5190   4.5203   4.5359   4.5368
     4.6203   4.6205   4.6214   4.8563   5.1262   5.1559   5.1566   5.1573
     5.1743   5.1753   5.1758   5.1789   5.1809   5.2229   5.2270   5.2282
     5.2291   5.2306   5.2308   5.2519   5.2534   5.2538   5.2667   5.2674
     5.2693   5.2785   5.2795   5.2804   5.3107   5.3120   5.3129   5.3136
     5.3141   5.3258   5.3375   5.3386   5.3397   5.3760   5.3762   5.3778
     5.4395   5.4396   5.4718   5.4724   5.4727   5.4753   5.4775   5.4782
     5.4791   5.4991   5.5004   5.6014   5.6024   5.6029   5.6188   5.6193
     5.6199   5.6271   5.6473   5.6476   5.6486   5.6601   5.6605   5.6607
     5.7258   5.7265   5.7450   5.7828   5.7834   5.7845   5.8211   5.8218
     5.8228   5.9039   5.9043   5.9057   5.9277   5.9288   5.9297   5.9964
     5.9976   6.0265   6.0272   6.0275   6.1498   6.1508   6.1515   6.1527
     6.2615   6.2629   6.2635   6.2636   6.2642   6.2649   6.2907   6.2910
     6.3343   6.3356   6.3369   6.3629   6.3641   6.3647   6.3885   6.3895
     6.3902   6.5526   6.5706   6.5721   6.5724   6.6370   6.6382   6.6390
     6.7472   6.7481   6.7484   6.7652   6.7655   6.7816   6.7817   6.7829
     6.8083   6.9648   7.1801   7.1807

          k = 0.0000 0.0000 0.2714 (115879 PWs)   bands (ev):

   -28.2864 -28.2760 -28.2755 -28.2753 -28.2751 -28.2750 -28.2750 -28.2749
   -28.2747 -28.2746 -28.2734 -28.2679 -14.9280 -14.9234 -14.9228 -14.9225
   -14.9224 -14.9223 -14.9223 -14.9221 -14.9220 -14.9219 -14.9216 -14.9211
   -14.9199 -14.9176 -14.9169 -14.9167 -14.9165 -14.9165 -14.9164 -14.9162
   -14.9161 -14.9160 -14.9158 -14.9143 -14.9090 -14.9055 -14.9048 -14.9046
   -14.9044 -14.9044 -14.9043 -14.9042 -14.9040 -14.9040 -14.9038 -14.9022
   -14.8668 -14.8653 -14.8645 -14.8644 -14.8642 -14.8642 -14.8642 -14.8640
   -14.8639 -14.8638 -14.8637 -14.8619 -14.8226 -14.8201 -14.8194 -14.8192
   -14.8191 -14.8191 -14.8190 -14.8188 -14.8186 -14.8186 -14.8185 -14.8169
   -10.3460 -10.3391 -10.3385 -10.3377 -10.3367 -10.3358 -10.3341 -10.3335
   -10.3327 -10.3308 -10.3274 -10.3239 -10.3140 -10.3100 -10.3073 -10.3060
   -10.3029 -10.3016 -10.3004 -10.2949 -10.2932 -10.2928 -10.2911 -10.2840
   -10.2748 -10.2695 -10.2685 -10.2671 -10.2651 -10.2645 -10.2624 -10.2614
   -10.2603 -10.2585 -10.2568 -10.2542  -6.8246  -6.7141  -6.4142  -6.4083
    -6.4082  -6.4074  -6.3082  -6.3035  -6.3032  -6.2332  -6.2301  -6.2298
    -5.9941  -5.9915  -5.9907  -5.8532  -5.8366  -5.8342  -5.8337  -5.7748
    -5.7728  -5.7719  -5.6562  -5.6557  -5.6550  -5.6519  -5.6146  -5.6125
    -5.6115  -5.6111  -5.5558  -5.5534  -5.5518  -5.5514  -5.5461  -5.5445
    -5.5441  -5.4542  -5.4351  -5.4342  -5.4340  -5.4333  -5.3759  -5.3459
    -5.3374  -5.3371  -5.3363  -5.2811  -0.6040  -0.6030  -0.6019  -0.4134
    -0.4119  -0.4113  -0.3488  -0.3328  -0.3023  -0.3006  -0.3003  -0.2742
     1.4080   1.4097   1.4103   1.5711   1.6155   1.6182   1.6189   1.6212
     1.6583   1.9344   1.9357   1.9368   2.0038   2.0455   2.0519   2.0532
     2.0540   2.0676   2.2754   2.2766   2.2769   2.3049   2.3880   2.3892
     2.3900   2.3909   2.4161   2.4170   2.4174   2.4558   2.6222   2.6233
     2.6260   2.6672   2.7184   2.7908   2.7962   2.7986   2.7991   2.8708
     2.8725   2.8734   2.9750   2.9764   2.9772   3.0454   3.0463   3.0476
     3.1064   3.1072   3.1087   3.1764   3.1992   3.2037   3.2051   3.2058
     3.2734   3.2747   3.2766   3.2848   3.3755   3.3844   3.3851   3.3863
     3.4196   3.4203   3.4212   3.4385   3.4408   3.4413   3.4489   3.4504
     3.4509   3.4774   3.4992   3.5183   3.5189   3.5206   3.5377   3.5431
     3.5491   3.5507   3.5518   3.6388   3.6416   3.6452   3.6459   3.6513
     3.6778   3.6814   3.6816   3.7740   3.8309   3.8753   3.8766   3.8777
     3.9079   3.9220   3.9948   3.9955   3.9967   4.0556   4.0566   4.0573
     4.0754   4.1163   4.1181   4.1184   4.1470   4.1496   4.1503   4.1652
     4.1720   4.1725   4.1746   4.2122   4.2497   4.2517   4.2531   4.2686
     4.4213   4.4224   4.4233   4.4840   4.5587   4.5602   4.5612   4.6050
     4.6057   4.6063   4.6770   4.8067   5.1374   5.1484   5.1546   5.1554
     5.1561   5.1659   5.1874   5.1880   5.1891   5.2166   5.2173   5.2180
     5.2190   5.2486   5.2491   5.2501   5.2581   5.2603   5.2608   5.2616
     5.2771   5.2776   5.2781   5.2795   5.3298   5.3301   5.3310   5.3334
     5.3349   5.3365   5.3418   5.3434   5.3444   5.3663   5.3749   5.3752
     5.3774   5.3905   5.4037   5.4205   5.4213   5.4224   5.5267   5.5328
     5.5335   5.5346   5.5827   5.5885   5.5892   5.5900   5.5906   5.6201
     5.6208   5.6217   5.6520   5.6526   5.6531   5.6616   5.6824   5.6833
     5.6836   5.7552   5.7559   5.7568   5.7913   5.7993   5.8180   5.8183
     5.8196   5.8715   5.8837   5.8843   5.8858   5.9891   5.9896   5.9905
     6.0425   6.0433   6.0437   6.0975   6.0985   6.0992   6.1757   6.1921
     6.1928   6.1931   6.2370   6.2692   6.2694   6.2702   6.3252   6.3267
     6.3272   6.3598   6.3607   6.3705   6.3717   6.3729   6.3954   6.4293
     6.4304   6.4307   6.4809   6.6405   6.6417   6.6424   6.6429   6.6437
     6.6444   6.6710   6.7085   6.7097   6.7108   6.7523   6.7534   6.7544
     6.9413   7.0052   7.0943   7.1698

          k = 0.0000 0.3849 0.0000 (115797 PWs)   bands (ev):

   -28.2864 -28.2760 -28.2755 -28.2753 -28.2751 -28.2750 -28.2749 -28.2749
   -28.2747 -28.2746 -28.2734 -28.2679 -14.9280 -14.9234 -14.9227 -14.9226
   -14.9224 -14.9223 -14.9223 -14.9221 -14.9220 -14.9219 -14.9217 -14.9211
   -14.9199 -14.9176 -14.9168 -14.9167 -14.9165 -14.9165 -14.9164 -14.9162
   -14.9161 -14.9160 -14.9159 -14.9143 -14.9090 -14.9055 -14.9047 -14.9046
   -14.9044 -14.9044 -14.9044 -14.9042 -14.9040 -14.9039 -14.9039 -14.9022
   -14.8668 -14.8653 -14.8645 -14.8644 -14.8642 -14.8642 -14.8642 -14.8640
   -14.8639 -14.8638 -14.8637 -14.8619 -14.8226 -14.8201 -14.8194 -14.8192
   -14.8191 -14.8191 -14.8190 -14.8188 -14.8186 -14.8186 -14.8185 -14.8169
   -10.3453 -10.3376 -10.3368 -10.3361 -10.3355 -10.3346 -10.3342 -10.3335
   -10.3327 -10.3316 -10.3294 -10.3253 -10.3120 -10.3069 -10.3057 -10.3046
   -10.3027 -10.3020 -10.3015 -10.2996 -10.2949 -10.2935 -10.2896 -10.2845
   -10.2748 -10.2688 -10.2682 -10.2674 -10.2656 -10.2637 -10.2625 -10.2622
   -10.2618 -10.2600 -10.2584 -10.2550  -6.7885  -6.5902  -6.5005  -6.4989
    -6.4419  -6.4374  -6.3653  -6.3511  -6.2865  -6.2843  -6.2503  -6.2477
    -5.9110  -5.9102  -5.8214  -5.8186  -5.8177  -5.7775  -5.7695  -5.7663
    -5.7314  -5.7241  -5.7223  -5.6914  -5.6892  -5.6480  -5.6395  -5.6371
    -5.6292  -5.5954  -5.5844  -5.5836  -5.5679  -5.5279  -5.5197  -5.5181
    -5.5159  -5.5046  -5.4620  -5.4514  -5.4362  -5.4358  -5.4235  -5.4148
    -5.3480  -5.3471  -5.3128  -5.2700  -0.5711  -0.5702  -0.5613  -0.4358
    -0.4036  -0.4033  -0.3770  -0.3403  -0.3373  -0.3366  -0.3121  -0.3028
     1.4193   1.4862   1.4890   1.5012   1.6404   1.6520   1.6892   1.7233
     1.7255   1.8273   1.8762   1.8774   1.9546   1.9560   1.9572   2.0281
     2.1156   2.2052   2.2298   2.2304   2.3391   2.3637   2.3864   2.3874
     2.3932   2.4085   2.4503   2.5372   2.5388   2.6103   2.6130   2.6166
     2.6576   2.7333   2.8114   2.8138   2.8215   2.8417   2.8425   2.8441
     2.8542   2.8850   2.9086   2.9091   2.9148   2.9628   2.9633   3.0045
     3.0497   3.0565   3.0576   3.1234   3.1489   3.1764   3.2049   3.2126
     3.2130   3.2356   3.2613   3.2620   3.2695   3.3243   3.3310   3.3317
     3.3380   3.3723   3.3955   3.3959   3.4344   3.4406   3.4421   3.4504
     3.4982   3.4984   3.5008   3.5111   3.5131   3.5144   3.5228   3.5431
     3.5624   3.6056   3.6062   3.6102   3.6347   3.6449   3.6779   3.6808
     3.6948   3.7019   3.7046   3.7090   3.7782   3.7804   3.8498   3.8602
     3.8964   3.9744   3.9754   3.9789   3.9812   4.0303   4.0385   4.0411
     4.0924   4.1121   4.1205   4.1223   4.1265   4.1630   4.1635   4.1780
     4.2488   4.2649   4.2696   4.2836   4.3033   4.3226   4.3242   4.3687
     4.3790   4.4157   4.4188   4.4843   4.5181   4.5271   4.5281   4.5293
     4.5912   4.5918   4.6260   4.7482   5.1446   5.1450   5.1483   5.1565
     5.1607   5.1622   5.1710   5.1755   5.2153   5.2197   5.2209   5.2226
     5.2291   5.2387   5.2495   5.2500   5.2515   5.2620   5.2682   5.2721
     5.2734   5.2903   5.3046   5.3056   5.3149   5.3199   5.3270   5.3293
     5.3375   5.3504   5.3529   5.3546   5.3588   5.3670   5.4139   5.4154
     5.4341   5.4522   5.4616   5.4627   5.4863   5.4940   5.5010   5.5014
     5.5034   5.5139   5.5281   5.5444   5.5571   5.5581   5.5622   5.6035
     5.6049   5.6310   5.6314   5.6330   5.6687   5.6789   5.6957   5.6968
     5.6970   5.7187   5.7302   5.7571   5.7756   5.7764   5.8094   5.8196
     5.8210   5.8644   5.8756   5.8771   5.9510   5.9522   5.9656   5.9667
     5.9911   6.0076   6.0081   6.0215   6.1388   6.1403   6.1461   6.1614
     6.2255   6.2295   6.2305   6.2517   6.2711   6.2897   6.2905   6.2998
     6.3612   6.3624   6.3778   6.3899   6.3909   6.4417   6.4857   6.4874
     6.5245   6.5381   6.5392   6.5759   6.6052   6.6514   6.6831   6.6926
     6.6939   6.7302   6.7370   6.7388   6.7627   6.7780   6.7925   6.8120
     6.8134   6.9044   6.9093   7.0807

          k = 0.0000 0.3849 0.2714 (115773 PWs)   bands (ev):

   -28.2864 -28.2760 -28.2755 -28.2753 -28.2751 -28.2750 -28.2750 -28.2749
   -28.2747 -28.2746 -28.2734 -28.2679 -14.9280 -14.9234 -14.9227 -14.9226
   -14.9224 -14.9223 -14.9223 -14.9221 -14.9220 -14.9219 -14.9217 -14.9211
   -14.9199 -14.9176 -14.9168 -14.9167 -14.9165 -14.9165 -14.9164 -14.9162
   -14.9161 -14.9160 -14.9159 -14.9143 -14.9090 -14.9055 -14.9047 -14.9046
   -14.9044 -14.9044 -14.9044 -14.9042 -14.9040 -14.9039 -14.9039 -14.9022
   -14.8668 -14.8653 -14.8645 -14.8644 -14.8642 -14.8642 -14.8642 -14.8640
   -14.8639 -14.8638 -14.8637 -14.8619 -14.8226 -14.8201 -14.8194 -14.8192
   -14.8191 -14.8191 -14.8190 -14.8188 -14.8186 -14.8186 -14.8185 -14.8169
   -10.3455 -10.3384 -10.3377 -10.3371 -10.3357 -10.3342 -10.3336 -10.3329
   -10.3324 -10.3305 -10.3290 -10.3256 -10.3128 -10.3087 -10.3061 -10.3049
   -10.3020 -10.3009 -10.2992 -10.2967 -10.2956 -10.2934 -10.2901 -10.2867
   -10.2746 -10.2686 -10.2679 -10.2675 -10.2657 -10.2641 -10.2622 -10.2619
   -10.2616 -10.2598 -10.2587 -10.2559  -6.7515  -6.6475  -6.5607  -6.4730
    -6.4268  -6.4216  -6.3650  -6.3298  -6.3280  -6.2602  -6.2264  -6.2238
    -5.9054  -5.9041  -5.8244  -5.8212  -5.8083  -5.8071  -5.7917  -5.7622
    -5.7585  -5.7315  -5.7103  -5.7097  -5.6714  -5.6357  -5.6303  -5.6282
    -5.6265  -5.6078  -5.5997  -5.5992  -5.5695  -5.5295  -5.5229  -5.5215
    -5.5201  -5.4977  -5.4674  -5.4324  -5.4283  -5.4279  -5.4220  -5.3641
    -5.3475  -5.3466  -5.3218  -5.2992  -0.5594  -0.5582  -0.5578  -0.4365
    -0.4349  -0.4255  -0.3932  -0.3731  -0.3202  -0.3181  -0.2990  -0.2787
     1.4339   1.4843   1.4871   1.4876   1.6264   1.6417   1.7711   1.7744
     1.7827   1.7897   1.8002   1.8008   1.9148   1.9962   1.9966   2.0780
     2.1553   2.1995   2.2089   2.2479   2.2481   2.3605   2.3930   2.3941
     2.3981   2.4488   2.5122   2.5123   2.5469   2.5889   2.5916   2.6077
     2.6418   2.7102   2.7606   2.7678   2.7694   2.7886   2.8089   2.8105
     2.8391   2.8742   2.9155   2.9164   2.9192   2.9813   3.0245   3.0251
     3.0663   3.1067   3.1075   3.1332   3.1711   3.1926   3.1937   3.1954
     3.2002   3.2327   3.2646   3.2652   3.2776   3.3187   3.3219   3.3230
     3.3247   3.3895   3.3901   3.4118   3.4457   3.4464   3.4695   3.4704
     3.4727   3.4737   3.4761   3.4775   3.5340   3.5365   3.5383   3.5895
     3.6101   3.6124   3.6139   3.6334   3.6428   3.6464   3.6592   3.6600
     3.6679   3.7109   3.7119   3.7127   3.8347   3.8366   3.8802   3.8889
     3.9053   3.9496   3.9516   3.9752   3.9828   4.0194   4.0474   4.0490
     4.0508   4.0664   4.1107   4.1120   4.1202   4.1331   4.1333   4.1478
     4.1913   4.2562   4.2656   4.2694   4.2882   4.2914   4.2950   4.3878
     4.3981   4.4376   4.4390   4.4684   4.5241   4.5247   4.5360   4.5968
     4.6112   4.6114   4.6215   4.7207   5.1513   5.1519   5.1556   5.1587
     5.1733   5.1766   5.1782   5.1845   5.1919   5.1984   5.2022   5.2083
     5.2088   5.2348   5.2358   5.2364   5.2554   5.2648   5.2657   5.2678
     5.2804   5.2992   5.3082   5.3130   5.3146   5.3293   5.3366   5.3395
     5.3584   5.3594   5.3612   5.3645   5.3811   5.3940   5.4076   5.4078
     5.4136   5.4326   5.4342   5.4452   5.4464   5.4934   5.5023   5.5036
     5.5099   5.5170   5.5543   5.5603   5.5745   5.5759   5.6034   5.6109
     5.6124   5.6197   5.6248   5.6268   5.6436   5.6708   5.6827   5.7147
     5.7155   5.7180   5.7348   5.7733   5.7734   5.7742   5.8028   5.8042
     5.8107   5.8589   5.8751   5.8771   5.8791   5.9152   5.9598   5.9606
     6.0351   6.0355   6.0362   6.0601   6.0788   6.0804   6.1735   6.2070
     6.2125   6.2140   6.2665   6.2670   6.2700   6.2773   6.2861   6.3492
     6.3503   6.3662   6.3728   6.4160   6.4240   6.4255   6.4277   6.4718
     6.4980   6.4997   6.5463   6.5596   6.5956   6.5966   6.6665   6.6682
     6.6771   6.7196   6.7358   6.7379   6.7467   6.8134   6.8144   6.8446
     6.8696   6.9283   6.9370   7.0522

          k = 0.3333 0.5774 0.0000 (115752 PWs)   bands (ev):

   -28.2864 -28.2760 -28.2755 -28.2753 -28.2751 -28.2750 -28.2749 -28.2749
   -28.2747 -28.2746 -28.2734 -28.2679 -14.9280 -14.9234 -14.9227 -14.9225
   -14.9223 -14.9223 -14.9223 -14.9221 -14.9220 -14.9219 -14.9218 -14.9211
   -14.9199 -14.9176 -14.9168 -14.9166 -14.9165 -14.9165 -14.9164 -14.9162
   -14.9161 -14.9160 -14.9159 -14.9143 -14.9090 -14.9055 -14.9047 -14.9046
   -14.9044 -14.9044 -14.9044 -14.9042 -14.9040 -14.9039 -14.9039 -14.9022
   -14.8668 -14.8653 -14.8645 -14.8644 -14.8642 -14.8642 -14.8642 -14.8640
   -14.8639 -14.8638 -14.8637 -14.8619 -14.8226 -14.8201 -14.8194 -14.8192
   -14.8191 -14.8191 -14.8190 -14.8188 -14.8186 -14.8186 -14.8185 -14.8169
   -10.3450 -10.3376 -10.3355 -10.3352 -10.3348 -10.3347 -10.3344 -10.3338
   -10.3326 -10.3304 -10.3296 -10.3270 -10.3115 -10.3060 -10.3045 -10.3040
   -10.3027 -10.3016 -10.3011 -10.3001 -10.2979 -10.2906 -10.2895 -10.2877
   -10.2745 -10.2684 -10.2668 -10.2664 -10.2659 -10.2649 -10.2642 -10.2633
   -10.2624 -10.2591 -10.2583 -10.2564  -6.6534  -6.6500  -6.6497  -6.4066
    -6.3986  -6.3985  -6.3982  -6.3979  -6.3978  -6.2945  -6.2919  -6.1938
    -5.8655  -5.8526  -5.8502  -5.7505  -5.7481  -5.7475  -5.7325  -5.7314
    -5.7311  -5.7082  -5.7071  -5.6954  -5.6938  -5.6932  -5.6851  -5.6846
    -5.6835  -5.6448  -5.5439  -5.5407  -5.5404  -5.5310  -5.5288  -5.5284
    -5.5118  -5.4730  -5.4713  -5.4708  -5.4662  -5.4661  -5.4656  -5.3965
    -5.3962  -5.3019  -5.3012  -5.3001  -0.5437  -0.5152  -0.5140  -0.5130
    -0.3964  -0.3954  -0.3905  -0.3898  -0.3894  -0.3111  -0.3094  -0.3091
     1.4833   1.4849   1.4856   1.6731   1.6756   1.6768   1.6862   1.6868
     1.6887   1.7334   1.7350   1.7990   2.0803   2.0821   2.0824   2.0832
     2.0856   2.1431   2.1444   2.1455   2.2559   2.3963   2.3970   2.3976
     2.4931   2.4948   2.4954   2.5624   2.5635   2.5643   2.5964   2.5970
     2.7726   2.7746   2.7754   2.8353   2.8374   2.8418   2.8446   2.8453
     2.8485   2.8530   2.8532   2.8535   2.8693   3.0101   3.0108   3.0119
     3.0247   3.0257   3.0267   3.0627   3.1339   3.1347   3.1358   3.1975
     3.1978   3.1994   3.2601   3.2603   3.2614   3.2716   3.2724   3.3619
     3.3707   3.3715   3.3729   3.3732   3.4250   3.4262   3.4270   3.4872
     3.4886   3.5026   3.5035   3.5039   3.5300   3.5302   3.5308   3.5468
     3.5487   3.5793   3.5804   3.5815   3.6479   3.6512   3.6516   3.7186
     3.7213   3.7217   3.7282   3.7293   3.7568   3.8011   3.8022   3.8029
     3.9597   3.9602   3.9617   3.9866   3.9880   4.0295   4.0302   4.0318
     4.0841   4.0857   4.0863   4.1411   4.1513   4.1518   4.1522   4.2847
     4.2854   4.2940   4.3188   4.3193   4.3201   4.3215   4.3218   4.3238
     4.3856   4.3866   4.3879   4.4958   4.5153   4.5157   4.5200   4.5210
     4.5223   4.6535   4.6552   4.6566   5.1383   5.1447   5.1451   5.1461
     5.1740   5.1746   5.1881   5.1897   5.1901   5.1971   5.1980   5.1986
     5.2471   5.2482   5.2492   5.2663   5.2666   5.2676   5.2989   5.2992
     5.2999   5.3022   5.3036   5.3041   5.3145   5.3193   5.3202   5.3204
     5.3405   5.3413   5.3423   5.4031   5.4037   5.4052   5.4084   5.4091
     5.4557   5.4564   5.4576   5.4588   5.4836   5.4845   5.4850   5.4892
     5.4898   5.5359   5.5364   5.5373   5.5646   5.5655   5.5658   5.5713
     5.5720   5.5728   5.6418   5.6725   5.6737   5.6948   5.6959   5.6967
     5.7073   5.7079   5.7092   5.7805   5.7809   5.7819   5.7998   5.8006
     5.8009   5.8245   5.8253   5.8452   5.9306   5.9315   5.9321   6.0471
     6.0478   6.0483   6.0486   6.0497   6.1390   6.1397   6.1399   6.1591
     6.2188   6.2194   6.2205   6.2603   6.2608   6.2620   6.2842   6.2850
     6.3753   6.4102   6.4111   6.4117   6.4169   6.4173   6.4233   6.4517
     6.4528   6.4529   6.6150   6.6158   6.6165   6.6761   6.6770   6.6777
     6.7253   6.7404   6.7416   6.8054   6.8070   6.8075   6.8102   6.8105
     6.8112   6.9387   6.9392   6.9401

          k = 0.3333 0.5774 0.2714 (115827 PWs)   bands (ev):

   -28.2864 -28.2760 -28.2755 -28.2753 -28.2751 -28.2750 -28.2750 -28.2749
   -28.2747 -28.2746 -28.2734 -28.2679 -14.9280 -14.9234 -14.9227 -14.9225
   -14.9223 -14.9223 -14.9223 -14.9221 -14.9220 -14.9219 -14.9218 -14.9211
   -14.9199 -14.9176 -14.9168 -14.9166 -14.9165 -14.9165 -14.9164 -14.9162
   -14.9161 -14.9160 -14.9159 -14.9143 -14.9090 -14.9055 -14.9047 -14.9046
   -14.9044 -14.9044 -14.9044 -14.9042 -14.9040 -14.9039 -14.9039 -14.9022
   -14.8668 -14.8653 -14.8645 -14.8644 -14.8642 -14.8642 -14.8642 -14.8640
   -14.8639 -14.8638 -14.8637 -14.8619 -14.8226 -14.8201 -14.8194 -14.8192
   -14.8191 -14.8191 -14.8190 -14.8188 -14.8186 -14.8186 -14.8185 -14.8169
   -10.3452 -10.3381 -10.3371 -10.3364 -10.3359 -10.3337 -10.3330 -10.3327
   -10.3318 -10.3302 -10.3297 -10.3268 -10.3121 -10.3074 -10.3066 -10.3052
   -10.3018 -10.2999 -10.2982 -10.2971 -10.2959 -10.2918 -10.2914 -10.2893
   -10.2746 -10.2686 -10.2675 -10.2662 -10.2658 -10.2639 -10.2636 -10.2629
   -10.2619 -10.2598 -10.2593 -10.2569  -6.6214  -6.6178  -6.6176  -6.5278
    -6.5244  -6.5241  -6.3097  -6.2931  -6.2889  -6.2885  -6.2581  -6.2156
    -5.8751  -5.8574  -5.8465  -5.7801  -5.7789  -5.7782  -5.7434  -5.7415
    -5.7407  -5.7153  -5.6888  -5.6876  -5.6868  -5.6726  -5.6718  -5.6712
    -5.6706  -5.6436  -5.5593  -5.5558  -5.5554  -5.5264  -5.5242  -5.5237
    -5.5058  -5.5039  -5.5023  -5.5020  -5.4584  -5.3981  -5.3973  -5.3968
    -5.3575  -5.3229  -5.3222  -5.3210  -0.5200  -0.5063  -0.5050  -0.5042
    -0.4604  -0.4177  -0.4167  -0.4158  -0.3551  -0.2939  -0.2922  -0.2921
     1.4813   1.4830   1.4838   1.6374   1.6391   1.6405   1.6902   1.7739
     1.7766   1.7769   1.7779   1.7933   1.9803   1.9817   1.9834   2.0560
     2.1712   2.1913   2.1934   2.1940   2.2483   2.3963   2.3972   2.3980
     2.4878   2.4893   2.4897   2.5567   2.5868   2.5883   2.5894   2.5918
     2.6777   2.7346   2.7373   2.7383   2.8222   2.8235   2.8240   2.8270
     2.9006   2.9033   2.9038   2.9250   2.9372   2.9549   2.9554   2.9570
     3.0595   3.0610   3.0617   3.0883   3.0891   3.0894   3.1266   3.1815
     3.2445   3.2453   3.2457   3.2715   3.2719   3.2727   3.3223   3.3280
     3.3283   3.3296   3.3751   3.4075   3.4209   3.4658   3.4665   3.4668
     3.4930   3.4993   3.5000   3.5010   3.5358   3.5376   3.5382   3.5406
     3.5619   3.6141   3.6169   3.6176   3.6532   3.6555   3.6558   3.6971
     3.6983   3.6992   3.7196   3.7444   3.8217   3.8413   3.8417   3.8425
     3.9379   3.9413   3.9418   3.9426   4.0295   4.0307   4.0311   4.0406
     4.0676   4.0686   4.0695   4.1088   4.1139   4.1144   4.1149   4.1683
     4.2730   4.2737   4.2748   4.2905   4.3150   4.3612   4.3621   4.3631
     4.4161   4.4176   4.4191   4.4926   4.4941   4.4947   4.5073   4.5112
     4.5654   4.6669   4.6679   4.6682   5.1495   5.1578   5.1582   5.1585
     5.1598   5.1831   5.1836   5.1850   5.1987   5.1992   5.2001   5.2122
     5.2252   5.2261   5.2265   5.2525   5.2536   5.2541   5.2575   5.2695
     5.3020   5.3025   5.3037   5.3099   5.3293   5.3302   5.3313   5.3681
     5.3693   5.3696   5.3755   5.3943   5.3967   5.4092   5.4100   5.4106
     5.4337   5.4340   5.4349   5.4396   5.4851   5.4855   5.4867   5.4914
     5.5398   5.5406   5.5412   5.5441   5.5659   5.5672   5.5683   5.6062
     5.6066   5.6076   5.6387   5.6397   5.6726   5.6737   5.6747   5.7040
     5.7044   5.7055   5.7183   5.7595   5.7599   5.7609   5.8021   5.8083
     5.8221   5.8242   5.8249   5.8259   5.8905   5.8916   5.8922   6.0573
     6.0609   6.0612   6.0620   6.0780   6.1204   6.1211   6.1220   6.1359
     6.1961   6.2378   6.2382   6.2391   6.2843   6.3021   6.3029   6.3033
     6.3068   6.3858   6.3862   6.3865   6.4505   6.4682   6.4687   6.4694
     6.4915   6.4932   6.5596   6.5603   6.5604   6.6456   6.6854   6.6858
     6.6867   6.7608   6.7775   6.7785   6.7794   6.7930   6.8543   6.8550
     6.8561   6.9352   6.9364   6.9367

          k =-0.3333 0.1925 0.0000 (115797 PWs)   bands (ev):

   -28.2864 -28.2760 -28.2755 -28.2753 -28.2751 -28.2750 -28.2749 -28.2749
   -28.2747 -28.2746 -28.2734 -28.2679 -14.9280 -14.9234 -14.9228 -14.9225
   -14.9224 -14.9223 -14.9223 -14.9221 -14.9220 -14.9219 -14.9217 -14.9211
   -14.9199 -14.9176 -14.9169 -14.9166 -14.9165 -14.9165 -14.9164 -14.9162
   -14.9161 -14.9160 -14.9159 -14.9143 -14.9090 -14.9055 -14.9047 -14.9045
   -14.9044 -14.9044 -14.9044 -14.9042 -14.9040 -14.9040 -14.9039 -14.9022
   -14.8668 -14.8653 -14.8645 -14.8644 -14.8642 -14.8642 -14.8642 -14.8640
   -14.8639 -14.8638 -14.8637 -14.8619 -14.8226 -14.8201 -14.8194 -14.8192
   -14.8191 -14.8191 -14.8190 -14.8188 -14.8186 -14.8186 -14.8185 -14.8169
   -10.3451 -10.3377 -10.3366 -10.3361 -10.3354 -10.3353 -10.3343 -10.3330
   -10.3324 -10.3318 -10.3296 -10.3252 -10.3119 -10.3066 -10.3062 -10.3043
   -10.3032 -10.3015 -10.3014 -10.2996 -10.2955 -10.2935 -10.2895 -10.2843
   -10.2747 -10.2690 -10.2685 -10.2669 -10.2655 -10.2643 -10.2630 -10.2621
   -10.2616 -10.2597 -10.2582 -10.2548  -6.7887  -6.5910  -6.5015  -6.4978
    -6.4391  -6.4375  -6.3672  -6.3489  -6.2884  -6.2842  -6.2505  -6.2478
    -5.9135  -5.9107  -5.8211  -5.8187  -5.8179  -5.7768  -5.7678  -5.7672
    -5.7316  -5.7237  -5.7219  -5.6901  -5.6894  -5.6467  -5.6377  -5.6373
    -5.6289  -5.5944  -5.5851  -5.5838  -5.5705  -5.5290  -5.5188  -5.5182
    -5.5162  -5.5046  -5.4637  -5.4509  -5.4360  -5.4359  -5.4220  -5.4156
    -5.3476  -5.3472  -5.3129  -5.2700  -0.5718  -0.5697  -0.5613  -0.4351
    -0.4049  -0.4033  -0.3767  -0.3379  -0.3371  -0.3370  -0.3129  -0.3037
     1.4179   1.4880   1.4886   1.5013   1.6407   1.6524   1.6886   1.7241
     1.7253   1.8284   1.8761   1.8777   1.9529   1.9556   1.9574   2.0268
     2.1155   2.2068   2.2292   2.2300   2.3385   2.3628   2.3867   2.3877
     2.3935   2.4085   2.4493   2.5378   2.5386   2.6127   2.6136   2.6172
     2.6571   2.7349   2.8129   2.8143   2.8216   2.8396   2.8414   2.8442
     2.8546   2.8849   2.9072   2.9095   2.9147   2.9605   2.9632   3.0051
     3.0509   3.0557   3.0572   3.1250   3.1489   3.1767   3.2047   3.2123
     3.2132   3.2348   3.2614   3.2634   3.2691   3.3248   3.3312   3.3330
     3.3392   3.3723   3.3942   3.3959   3.4341   3.4401   3.4419   3.4502
     3.4977   3.4993   3.5010   3.5117   3.5122   3.5141   3.5232   3.5427
     3.5613   3.6012   3.6059   3.6118   3.6343   3.6465   3.6780   3.6806
     3.6939   3.7024   3.7038   3.7086   3.7794   3.7802   3.8493   3.8598
     3.8973   3.9745   3.9760   3.9792   3.9810   4.0301   4.0393   4.0401
     4.0933   4.1121   4.1212   4.1218   4.1256   4.1625   4.1638   4.1781
     4.2481   4.2669   4.2682   4.2826   4.3040   4.3229   4.3242   4.3680
     4.3798   4.4166   4.4180   4.4834   4.5178   4.5268   4.5285   4.5291
     4.5904   4.5925   4.6273   4.7488   5.1444   5.1456   5.1479   5.1556
     5.1609   5.1620   5.1700   5.1756   5.2158   5.2203   5.2208   5.2229
     5.2289   5.2384   5.2491   5.2507   5.2513   5.2622   5.2674   5.2729
     5.2737   5.2898   5.3048   5.3059   5.3140   5.3194   5.3282   5.3289
     5.3381   5.3505   5.3533   5.3539   5.3580   5.3665   5.4140   5.4156
     5.4347   5.4512   5.4616   5.4618   5.4865   5.4943   5.5006   5.5018
     5.5035   5.5141   5.5289   5.5456   5.5575   5.5580   5.5619   5.6037
     5.6045   5.6314   5.6318   5.6335   5.6684   5.6787   5.6961   5.6965
     5.6975   5.7182   5.7304   5.7574   5.7754   5.7764   5.8092   5.8197
     5.8202   5.8644   5.8766   5.8774   5.9502   5.9517   5.9657   5.9665
     5.9908   6.0076   6.0086   6.0216   6.1393   6.1404   6.1454   6.1612
     6.2259   6.2291   6.2306   6.2519   6.2714   6.2895   6.2902   6.3000
     6.3614   6.3630   6.3779   6.3901   6.3910   6.4412   6.4866   6.4874
     6.5241   6.5381   6.5393   6.5762   6.6048   6.6512   6.6840   6.6924
     6.6930   6.7299   6.7373   6.7383   6.7629   6.7783   6.7935   6.8118
     6.8131   6.9041   6.9094   7.0804

          k = 0.3333 0.1925 0.0000 (115797 PWs)   bands (ev):

   -28.2864 -28.2760 -28.2755 -28.2753 -28.2751 -28.2750 -28.2749 -28.2749
   -28.2747 -28.2746 -28.2734 -28.2679 -14.9280 -14.9234 -14.9227 -14.9225
   -14.9224 -14.9223 -14.9223 -14.9220 -14.9220 -14.9220 -14.9217 -14.9211
   -14.9199 -14.9176 -14.9168 -14.9167 -14.9165 -14.9165 -14.9164 -14.9162
   -14.9161 -14.9161 -14.9159 -14.9143 -14.9090 -14.9055 -14.9047 -14.9046
   -14.9044 -14.9044 -14.9043 -14.9041 -14.9040 -14.9040 -14.9038 -14.9022
   -14.8668 -14.8653 -14.8645 -14.8644 -14.8642 -14.8642 -14.8642 -14.8640
   -14.8639 -14.8638 -14.8637 -14.8619 -14.8226 -14.8201 -14.8194 -14.8192
   -14.8191 -14.8191 -14.8190 -14.8188 -14.8186 -14.8186 -14.8185 -14.8169
   -10.3453 -10.3373 -10.3370 -10.3362 -10.3361 -10.3349 -10.3340 -10.3333
   -10.3324 -10.3315 -10.3293 -10.3252 -10.3120 -10.3070 -10.3059 -10.3044
   -10.3030 -10.3018 -10.3014 -10.3002 -10.2942 -10.2923 -10.2907 -10.2846
   -10.2748 -10.2690 -10.2680 -10.2670 -10.2659 -10.2645 -10.2624 -10.2617
   -10.2607 -10.2599 -10.2589 -10.2555  -6.7886  -6.5908  -6.5016  -6.4977
    -6.4395  -6.4378  -6.3676  -6.3490  -6.2871  -6.2845  -6.2501  -6.2478
    -5.9126  -5.9099  -5.8208  -5.8184  -5.8177  -5.7779  -5.7678  -5.7673
    -5.7321  -5.7243  -5.7227  -5.6904  -5.6898  -5.6472  -5.6393  -5.6374
    -5.6293  -5.5951  -5.5856  -5.5837  -5.5679  -5.5273  -5.5201  -5.5182
    -5.5157  -5.5043  -5.4631  -5.4510  -5.4364  -5.4356  -5.4220  -5.4153
    -5.3481  -5.3473  -5.3125  -5.2699  -0.5706  -0.5694  -0.5621  -0.4357
    -0.4036  -0.4029  -0.3775  -0.3384  -0.3375  -0.3370  -0.3133  -0.3037
     1.4194   1.4862   1.4882   1.5017   1.6400   1.6529   1.6883   1.7226
     1.7250   1.8284   1.8770   1.8794   1.9544   1.9556   1.9576   2.0272
     2.1156   2.2060   2.2287   2.2305   2.3390   2.3639   2.3856   2.3871
     2.3938   2.4085   2.4494   2.5381   2.5388   2.6107   2.6137   2.6173
     2.6559   2.7350   2.8111   2.8135   2.8221   2.8413   2.8424   2.8446
     2.8536   2.8840   2.9077   2.9100   2.9143   2.9626   2.9634   3.0052
     3.0502   3.0563   3.0576   3.1243   3.1485   3.1760   3.2055   3.2123
     3.2143   3.2351   3.2612   3.2619   3.2703   3.3244   3.3312   3.3318
     3.3389   3.3731   3.3957   3.3972   3.4333   3.4398   3.4418   3.4499
     3.4975   3.4989   3.5013   3.5101   3.5121   3.5150   3.5226   3.5440
     3.5614   3.6028   3.6065   3.6113   3.6351   3.6458   3.6781   3.6804
     3.6935   3.7028   3.7040   3.7083   3.7790   3.7800   3.8495   3.8599
     3.8963   3.9738   3.9754   3.9789   3.9815   4.0312   4.0379   4.0396
     4.0937   4.1127   4.1206   4.1225   4.1265   4.1620   4.1640   4.1783
     4.2486   4.2668   4.2677   4.2829   4.3031   4.3224   4.3238   4.3689
     4.3781   4.4172   4.4176   4.4840   4.5181   4.5276   4.5286   4.5292
     4.5899   4.5932   4.6273   4.7488   5.1439   5.1456   5.1480   5.1552
     5.1612   5.1616   5.1705   5.1764   5.2161   5.2196   5.2205   5.2227
     5.2285   5.2380   5.2497   5.2502   5.2512   5.2619   5.2696   5.2725
     5.2736   5.2900   5.3047   5.3056   5.3155   5.3200   5.3273   5.3284
     5.3375   5.3500   5.3528   5.3541   5.3583   5.3661   5.4145   5.4150
     5.4340   5.4525   5.4619   5.4633   5.4858   5.4940   5.5007   5.5014
     5.5043   5.5133   5.5277   5.5439   5.5571   5.5579   5.5627   5.6034
     5.6045   5.6308   5.6323   5.6331   5.6686   5.6787   5.6954   5.6970
     5.6984   5.7185   5.7298   5.7572   5.7761   5.7774   5.8096   5.8196
     5.8203   5.8651   5.8762   5.8770   5.9507   5.9526   5.9654   5.9659
     5.9919   6.0071   6.0077   6.0210   6.1391   6.1403   6.1449   6.1617
     6.2256   6.2301   6.2305   6.2518   6.2716   6.2898   6.2907   6.2996
     6.3620   6.3630   6.3776   6.3896   6.3913   6.4413   6.4859   6.4870
     6.5244   6.5377   6.5385   6.5754   6.6051   6.6513   6.6843   6.6917
     6.6936   6.7301   6.7376   6.7384   6.7627   6.7780   6.7934   6.8118
     6.8127   6.9049   6.9092   7.0809

          k = 0.0000-0.3849 0.2714 (115773 PWs)   bands (ev):

   -28.2864 -28.2760 -28.2755 -28.2753 -28.2751 -28.2750 -28.2750 -28.2749
   -28.2747 -28.2746 -28.2734 -28.2679 -14.9280 -14.9234 -14.9227 -14.9226
   -14.9224 -14.9223 -14.9223 -14.9221 -14.9220 -14.9219 -14.9217 -14.9211
   -14.9199 -14.9176 -14.9168 -14.9167 -14.9165 -14.9165 -14.9164 -14.9162
   -14.9161 -14.9160 -14.9159 -14.9143 -14.9090 -14.9055 -14.9047 -14.9046
   -14.9044 -14.9044 -14.9044 -14.9042 -14.9040 -14.9039 -14.9039 -14.9022
   -14.8668 -14.8653 -14.8645 -14.8644 -14.8642 -14.8642 -14.8642 -14.8640
   -14.8639 -14.8638 -14.8637 -14.8619 -14.8226 -14.8201 -14.8194 -14.8192
   -14.8191 -14.8191 -14.8190 -14.8188 -14.8186 -14.8186 -14.8185 -14.8169
   -10.3455 -10.3385 -10.3377 -10.3369 -10.3357 -10.3343 -10.3340 -10.3331
   -10.3322 -10.3300 -10.3290 -10.3258 -10.3126 -10.3086 -10.3067 -10.3043
   -10.3030 -10.3016 -10.2978 -10.2961 -10.2948 -10.2940 -10.2915 -10.2862
   -10.2747 -10.2684 -10.2680 -10.2675 -10.2661 -10.2635 -10.2621 -10.2617
   -10.2614 -10.2601 -10.2592 -10.2557  -6.7516  -6.6474  -6.5615  -6.4698
    -6.4237  -6.4184  -6.3647  -6.3412  -6.3397  -6.2667  -6.2127  -6.2100
    -5.9138  -5.9127  -5.8242  -5.8231  -5.8187  -5.8169  -5.7659  -5.7635
    -5.7534  -5.7334  -5.6826  -5.6819  -5.6812  -5.6630  -5.6453  -5.6407
    -5.6376  -5.6072  -5.5853  -5.5850  -5.5726  -5.5317  -5.5279  -5.5264
    -5.5160  -5.4857  -5.4667  -5.4400  -5.4368  -5.4366  -5.3992  -5.3698
    -5.3438  -5.3429  -5.3311  -5.2959  -0.5621  -0.5614  -0.5509  -0.4340
    -0.4291  -0.4278  -0.4107  -0.3602  -0.3235  -0.3214  -0.2899  -0.2832
     1.4056   1.4929   1.4960   1.5157   1.6119   1.7108   1.7132   1.7222
     1.7386   1.7736   1.8452   1.8461   1.9660   1.9859   2.0212   2.0224
     2.1296   2.1977   2.2091   2.2096   2.2858   2.3343   2.3961   2.4270
     2.4287   2.5174   2.5292   2.5299   2.5552   2.5579   2.5586   2.5601
     2.5989   2.6783   2.7630   2.7655   2.8235   2.8245   2.8258   2.8297
     2.8493   2.8526   2.8957   2.8963   2.9063   3.0084   3.0185   3.0194
     3.0750   3.0784   3.1177   3.1191   3.1345   3.1813   3.1819   3.1888
     3.2149   3.2469   3.2670   3.2857   3.2867   3.2952   3.3308   3.3324
     3.3755   3.3773   3.3792   3.3796   3.4473   3.4489   3.4507   3.4777
     3.4804   3.4806   3.5065   3.5196   3.5348   3.5360   3.5371   3.5572
     3.5857   3.5879   3.6110   3.6305   3.6407   3.6435   3.6830   3.6843
     3.6874   3.6966   3.7035   3.7053   3.8344   3.8387   3.8789   3.8809
     3.9415   3.9460   3.9465   3.9492   3.9729   4.0325   4.0535   4.0570
     4.0601   4.0628   4.1003   4.1011   4.1221   4.1232   4.1304   4.1335
     4.2243   4.2409   4.2674   4.2715   4.2905   4.2933   4.3142   4.3676
     4.3927   4.4342   4.4354   4.4812   4.5215   4.5437   4.5447   4.5861
     4.5965   4.5974   4.6307   4.7292   5.1484   5.1489   5.1553   5.1659
     5.1688   5.1700   5.1707   5.1742   5.2006   5.2060   5.2132   5.2185
     5.2201   5.2298   5.2418   5.2425   5.2609   5.2643   5.2656   5.2661
     5.2683   5.2742   5.3104   5.3118   5.3198   5.3346   5.3469   5.3486
     5.3611   5.3632   5.3640   5.3693   5.3709   5.3816   5.3889   5.3905
     5.4106   5.4339   5.4485   5.4519   5.4529   5.4700   5.4975   5.4984
     5.5172   5.5249   5.5567   5.5580   5.5692   5.5700   5.6020   5.6037
     5.6084   5.6212   5.6319   5.6499   5.6515   5.6615   5.6753   5.7091
     5.7100   5.7398   5.7606   5.7612   5.7716   5.7851   5.8056   5.8071
     5.8151   5.8404   5.8674   5.8690   5.8759   5.8952   5.9700   5.9701
     6.0199   6.0261   6.0265   6.1018   6.1025   6.1126   6.1602   6.1880
     6.2023   6.2039   6.2050   6.2623   6.2639   6.2872   6.3187   6.3426
     6.3553   6.3698   6.3703   6.4134   6.4187   6.4205   6.4526   6.4812
     6.4829   6.5078   6.5585   6.5665   6.6071   6.6082   6.6479   6.6665
     6.6682   6.7376   6.7387   6.7398   6.7483   6.8043   6.8057   6.8510
     6.8663   6.9181   6.9455   7.0389

          k =-0.3333 0.1925 0.2714 (115773 PWs)   bands (ev):

   -28.2864 -28.2760 -28.2755 -28.2753 -28.2751 -28.2750 -28.2750 -28.2749
   -28.2747 -28.2746 -28.2734 -28.2679 -14.9280 -14.9234 -14.9228 -14.9225
   -14.9224 -14.9223 -14.9223 -14.9221 -14.9220 -14.9219 -14.9217 -14.9211
   -14.9199 -14.9176 -14.9169 -14.9166 -14.9165 -14.9165 -14.9164 -14.9162
   -14.9161 -14.9160 -14.9159 -14.9143 -14.9090 -14.9055 -14.9047 -14.9045
   -14.9044 -14.9044 -14.9044 -14.9042 -14.9040 -14.9040 -14.9039 -14.9022
   -14.8668 -14.8653 -14.8645 -14.8644 -14.8642 -14.8642 -14.8642 -14.8640
   -14.8639 -14.8638 -14.8637 -14.8619 -14.8226 -14.8201 -14.8194 -14.8192
   -14.8191 -14.8191 -14.8190 -14.8188 -14.8186 -14.8186 -14.8185 -14.8169
   -10.3453 -10.3386 -10.3374 -10.3364 -10.3362 -10.3347 -10.3336 -10.3331
   -10.3320 -10.3306 -10.3290 -10.3255 -10.3128 -10.3087 -10.3055 -10.3044
   -10.3032 -10.3017 -10.2982 -10.2964 -10.2947 -10.2941 -10.2916 -10.2858
   -10.2745 -10.2686 -10.2682 -10.2675 -10.2660 -10.2640 -10.2622 -10.2616
   -10.2614 -10.2603 -10.2587 -10.2555  -6.7518  -6.6473  -6.5626  -6.4692
    -6.4199  -6.4185  -6.3649  -6.3432  -6.3397  -6.2664  -6.2140  -6.2100
    -5.9159  -5.9133  -5.8242  -5.8212  -5.8197  -5.8172  -5.7648  -5.7642
    -5.7528  -5.7328  -5.6828  -5.6817  -5.6810  -5.6633  -5.6417  -5.6410
    -5.6371  -5.6066  -5.5861  -5.5853  -5.5748  -5.5305  -5.5272  -5.5265
    -5.5179  -5.4872  -5.4652  -5.4407  -5.4368  -5.4364  -5.3985  -5.3703
    -5.3435  -5.3431  -5.3314  -5.2957  -0.5629  -0.5609  -0.5510  -0.4326
    -0.4295  -0.4283  -0.4106  -0.3612  -0.3222  -0.3213  -0.2905  -0.2835
     1.4045   1.4949   1.4953   1.5156   1.6130   1.7117   1.7131   1.7232
     1.7372   1.7727   1.8450   1.8465   1.9664   1.9854   2.0198   2.0221
     2.1283   2.1992   2.2092   2.2101   2.2848   2.3339   2.3961   2.4269
     2.4277   2.5184   2.5287   2.5299   2.5570   2.5586   2.5593   2.5607
     2.5992   2.6781   2.7636   2.7651   2.8240   2.8245   2.8258   2.8298
     2.8499   2.8528   2.8928   2.8965   2.9067   3.0081   3.0176   3.0195
     3.0771   3.0789   3.1173   3.1188   3.1347   3.1802   3.1816   3.1891
     3.2146   3.2467   3.2666   3.2853   3.2873   3.2958   3.3312   3.3320
     3.3762   3.3772   3.3793   3.3822   3.4468   3.4485   3.4504   3.4777
     3.4789   3.4814   3.5064   3.5190   3.5347   3.5358   3.5369   3.5575
     3.5849   3.5873   3.6102   3.6316   3.6407   3.6447   3.6818   3.6842
     3.6869   3.6959   3.7030   3.7051   3.8369   3.8370   3.8785   3.8809
     3.9426   3.9458   3.9472   3.9494   3.9728   4.0319   4.0547   4.0557
     4.0607   4.0619   4.1002   4.1012   4.1221   4.1236   4.1298   4.1334
     4.2250   4.2404   4.2694   4.2698   4.2908   4.2928   4.3141   4.3684
     4.3915   4.4342   4.4354   4.4808   4.5210   4.5447   4.5455   4.5854
     4.5952   4.5983   4.6319   4.7300   5.1483   5.1490   5.1542   5.1656
     5.1691   5.1698   5.1706   5.1739   5.2005   5.2056   5.2138   5.2192
     5.2199   5.2294   5.2420   5.2428   5.2610   5.2654   5.2658   5.2662
     5.2667   5.2739   5.3105   5.3115   5.3193   5.3346   5.3476   5.3483
     5.3609   5.3636   5.3645   5.3690   5.3700   5.3808   5.3894   5.3903
     5.4112   5.4342   5.4485   5.4517   5.4526   5.4702   5.4979   5.4995
     5.5179   5.5252   5.5563   5.5587   5.5689   5.5698   5.6026   5.6028
     5.6089   5.6209   5.6323   5.6504   5.6509   5.6615   5.6757   5.7089
     5.7104   5.7402   5.7603   5.7610   5.7713   5.7857   5.8056   5.8068
     5.8148   5.8407   5.8682   5.8689   5.8759   5.8941   5.9693   5.9706
     6.0195   6.0259   6.0267   6.1018   6.1031   6.1123   6.1597   6.1877
     6.2034   6.2038   6.2042   6.2625   6.2633   6.2880   6.3192   6.3431
     6.3552   6.3687   6.3699   6.4129   6.4203   6.4208   6.4530   6.4821
     6.4831   6.5076   6.5584   6.5673   6.6068   6.6081   6.6471   6.6674
     6.6678   6.7366   6.7379   6.7402   6.7489   6.8047   6.8050   6.8513
     6.8661   6.9182   6.9458   7.0383

          k = 0.3333 0.1925 0.2714 (115773 PWs)   bands (ev):

   -28.2864 -28.2760 -28.2755 -28.2753 -28.2751 -28.2750 -28.2750 -28.2749
   -28.2747 -28.2746 -28.2734 -28.2679 -14.9280 -14.9234 -14.9227 -14.9225
   -14.9224 -14.9223 -14.9223 -14.9220 -14.9220 -14.9220 -14.9217 -14.9211
   -14.9199 -14.9176 -14.9168 -14.9167 -14.9165 -14.9165 -14.9164 -14.9162
   -14.9161 -14.9161 -14.9159 -14.9143 -14.9090 -14.9055 -14.9047 -14.9046
   -14.9044 -14.9044 -14.9043 -14.9041 -14.9040 -14.9040 -14.9038 -14.9022
   -14.8668 -14.8653 -14.8645 -14.8644 -14.8642 -14.8642 -14.8642 -14.8640
   -14.8639 -14.8638 -14.8637 -14.8619 -14.8226 -14.8201 -14.8194 -14.8192
   -14.8191 -14.8191 -14.8190 -14.8188 -14.8186 -14.8186 -14.8185 -14.8169
   -10.3455 -10.3382 -10.3378 -10.3369 -10.3364 -10.3346 -10.3338 -10.3326
   -10.3320 -10.3303 -10.3286 -10.3259 -10.3127 -10.3084 -10.3067 -10.3047
   -10.3029 -10.3022 -10.2979 -10.2951 -10.2947 -10.2933 -10.2920 -10.2866
   -10.2747 -10.2687 -10.2680 -10.2670 -10.2665 -10.2640 -10.2618 -10.2613
   -10.2610 -10.2601 -10.2585 -10.2568  -6.7518  -6.6474  -6.5624  -6.4694
    -6.4205  -6.4188  -6.3650  -6.3423  -6.3400  -6.2669  -6.2126  -6.2102
    -5.9151  -5.9125  -5.8243  -5.8221  -5.8176  -5.8170  -5.7656  -5.7643
    -5.7539  -5.7332  -5.6836  -5.6819  -5.6816  -5.6634  -5.6422  -5.6413
    -5.6376  -5.6074  -5.5875  -5.5852  -5.5725  -5.5301  -5.5281  -5.5268
    -5.5162  -5.4863  -5.4653  -5.4400  -5.4371  -5.4361  -5.3990  -5.3703
    -5.3439  -5.3433  -5.3308  -5.2956  -0.5618  -0.5607  -0.5516  -0.4334
    -0.4284  -0.4276  -0.4118  -0.3612  -0.3222  -0.3217  -0.2908  -0.2837
     1.4056   1.4929   1.4949   1.5159   1.6134   1.7113   1.7133   1.7227
     1.7368   1.7728   1.8441   1.8474   1.9671   1.9865   2.0223   2.0233
     2.1282   2.1984   2.2083   2.2099   2.2844   2.3341   2.3965   2.4260
     2.4276   2.5185   2.5281   2.5298   2.5565   2.5581   2.5592   2.5597
     2.5998   2.6778   2.7633   2.7652   2.8238   2.8248   2.8257   2.8292
     2.8505   2.8527   2.8951   2.8966   2.9062   3.0075   3.0177   3.0196
     3.0771   3.0784   3.1182   3.1196   3.1339   3.1809   3.1830   3.1892
     3.2141   3.2473   3.2672   3.2852   3.2865   3.2957   3.3312   3.3316
     3.3757   3.3775   3.3798   3.3806   3.4472   3.4481   3.4511   3.4774
     3.4793   3.4809   3.5058   3.5206   3.5340   3.5355   3.5375   3.5578
     3.5852   3.5878   3.6103   3.6314   3.6405   3.6443   3.6826   3.6841
     3.6865   3.6959   3.7030   3.7050   3.8363   3.8373   3.8784   3.8810
     3.9417   3.9449   3.9467   3.9491   3.9724   4.0335   4.0545   4.0571
     4.0603   4.0608   4.0999   4.1017   4.1215   4.1238   4.1307   4.1342
     4.2238   4.2402   4.2690   4.2693   4.2911   4.2922   4.3141   4.3673
     4.3924   4.4348   4.4352   4.4817   4.5219   4.5443   4.5454   4.5858
     4.5950   4.5985   4.6317   4.7299   5.1482   5.1496   5.1541   5.1652
     5.1690   5.1698   5.1713   5.1738   5.2006   5.2058   5.2135   5.2181
     5.2203   5.2306   5.2413   5.2424   5.2614   5.2647   5.2651   5.2659
     5.2669   5.2750   5.3106   5.3115   5.3192   5.3355   5.3467   5.3487
     5.3606   5.3636   5.3644   5.3686   5.3702   5.3820   5.3896   5.3900
     5.4108   5.4338   5.4484   5.4525   5.4532   5.4702   5.4967   5.4979
     5.5174   5.5242   5.5569   5.5580   5.5689   5.5705   5.6027   5.6033
     5.6076   5.6211   5.6315   5.6507   5.6519   5.6612   5.6755   5.7097
     5.7105   5.7400   5.7610   5.7620   5.7709   5.7851   5.8057   5.8066
     5.8158   5.8403   5.8676   5.8680   5.8758   5.8962   5.9692   5.9701
     6.0205   6.0256   6.0265   6.1016   6.1026   6.1123   6.1603   6.1881
     6.2031   6.2040   6.2047   6.2633   6.2636   6.2876   6.3183   6.3427
     6.3553   6.3691   6.3702   6.4137   6.4195   6.4205   6.4527   6.4809
     6.4827   6.5071   6.5582   6.5663   6.6073   6.6077   6.6483   6.6668
     6.6678   6.7368   6.7386   6.7397   6.7489   6.8040   6.8051   6.8511
     6.8670   6.9185   6.9460   7.0387

          k =-0.3333-0.1925 0.2714 (115773 PWs)   bands (ev):

   -28.2864 -28.2760 -28.2755 -28.2753 -28.2751 -28.2750 -28.2750 -28.2749
   -28.2747 -28.2746 -28.2734 -28.2679 -14.9280 -14.9234 -14.9227 -14.9225
   -14.9224 -14.9223 -14.9223 -14.9220 -14.9220 -14.9220 -14.9217 -14.9211
   -14.9199 -14.9176 -14.9168 -14.9167 -14.9165 -14.9165 -14.9164 -14.9162
   -14.9161 -14.9161 -14.9159 -14.9143 -14.9090 -14.9055 -14.9047 -14.9046
   -14.9044 -14.9044 -14.9043 -14.9041 -14.9040 -14.9040 -14.9038 -14.9022
   -14.8668 -14.8653 -14.8645 -14.8644 -14.8642 -14.8642 -14.8642 -14.8640
   -14.8639 -14.8638 -14.8637 -14.8619 -14.8226 -14.8201 -14.8194 -14.8192
   -14.8191 -14.8191 -14.8190 -14.8188 -14.8186 -14.8186 -14.8185 -14.8169
   -10.3455 -10.3380 -10.3379 -10.3369 -10.3367 -10.3344 -10.3334 -10.3327
   -10.3321 -10.3305 -10.3287 -10.3257 -10.3128 -10.3086 -10.3063 -10.3057
   -10.3018 -10.3005 -10.2996 -10.2962 -10.2949 -10.2931 -10.2911 -10.2867
   -10.2747 -10.2690 -10.2675 -10.2668 -10.2660 -10.2647 -10.2623 -10.2616
   -10.2605 -10.2598 -10.2589 -10.2566  -6.7516  -6.6475  -6.5615  -6.4730
    -6.4237  -6.4220  -6.3653  -6.3307  -6.3284  -6.2602  -6.2262  -6.2240
    -5.9063  -5.9039  -5.8230  -5.8211  -5.8082  -5.8072  -5.7926  -5.7608
    -5.7595  -5.7325  -5.7102  -5.7098  -5.6722  -5.6351  -5.6289  -5.6279
    -5.6270  -5.6077  -5.6015  -5.5993  -5.5690  -5.5283  -5.5234  -5.5217
    -5.5200  -5.4963  -5.4684  -5.4332  -5.4286  -5.4275  -5.4221  -5.3632
    -5.3477  -5.3470  -5.3214  -5.2992  -0.5597  -0.5582  -0.5570  -0.4354
    -0.4348  -0.4252  -0.3944  -0.3739  -0.3189  -0.3184  -0.2997  -0.2793
     1.4343   1.4842   1.4862   1.4878   1.6253   1.6421   1.7710   1.7735
     1.7830   1.7905   1.8003   1.8031   1.9143   1.9960   1.9976   2.0770
     2.1542   2.1998   2.2101   2.2470   2.2486   2.3601   2.3932   2.3936
     2.3984   2.4488   2.5114   2.5132   2.5470   2.5896   2.5912   2.6065
     2.6431   2.7108   2.7610   2.7667   2.7692   2.7891   2.8094   2.8098
     2.8390   2.8745   2.9154   2.9169   2.9183   2.9814   3.0233   3.0252
     3.0680   3.1066   3.1083   3.1324   3.1717   3.1932   3.1938   3.1953
     3.2003   3.2333   3.2649   3.2653   3.2778   3.3184   3.3222   3.3225
     3.3255   3.3898   3.3909   3.4103   3.4451   3.4468   3.4679   3.4703
     3.4724   3.4741   3.4767   3.4780   3.5345   3.5363   3.5378   3.5907
     3.6091   3.6125   3.6132   3.6334   3.6427   3.6478   3.6572   3.6601
     3.6671   3.7096   3.7118   3.7130   3.8358   3.8363   3.8805   3.8887
     3.9048   3.9493   3.9514   3.9757   3.9828   4.0199   4.0473   4.0486
     4.0497   4.0664   4.1107   4.1129   4.1214   4.1320   4.1340   4.1484
     4.1906   4.2554   4.2666   4.2676   4.2890   4.2900   4.2951   4.3874
     4.3981   4.4385   4.4388   4.4687   4.5244   4.5254   4.5363   4.5963
     4.6095   4.6125   4.6224   4.7215   5.1512   5.1530   5.1556   5.1580
     5.1728   5.1760   5.1771   5.1846   5.1920   5.1989   5.2021   5.2081
     5.2093   5.2349   5.2357   5.2367   5.2559   5.2645   5.2657   5.2671
     5.2806   5.2989   5.3084   5.3132   5.3143   5.3296   5.3369   5.3379
     5.3589   5.3596   5.3613   5.3637   5.3810   5.3935   5.4079   5.4088
     5.4132   5.4328   5.4340   5.4456   5.4457   5.4937   5.5022   5.5029
     5.5099   5.5164   5.5549   5.5601   5.5745   5.5758   5.6031   5.6115
     5.6120   5.6187   5.6258   5.6268   5.6435   5.6706   5.6829   5.7157
     5.7162   5.7175   5.7353   5.7731   5.7738   5.7751   5.8025   5.8036
     5.8109   5.8592   5.8756   5.8761   5.8800   5.9155   5.9596   5.9599
     6.0346   6.0351   6.0359   6.0608   6.0791   6.0801   6.1736   6.2073
     6.2136   6.2145   6.2670   6.2677   6.2701   6.2773   6.2860   6.3486
     6.3498   6.3658   6.3723   6.4153   6.4251   6.4255   6.4285   6.4712
     6.4975   6.4990   6.5457   6.5599   6.5952   6.5960   6.6668   6.6677
     6.6777   6.7202   6.7367   6.7371   6.7474   6.8132   6.8137   6.8448
     6.8697   6.9283   6.9371   7.0526

          k = 0.3333-0.1925 0.2714 (115773 PWs)   bands (ev):

   -28.2864 -28.2760 -28.2755 -28.2753 -28.2751 -28.2750 -28.2750 -28.2749
   -28.2747 -28.2746 -28.2734 -28.2679 -14.9280 -14.9234 -14.9228 -14.9225
   -14.9224 -14.9223 -14.9223 -14.9221 -14.9220 -14.9219 -14.9217 -14.9211
   -14.9199 -14.9176 -14.9169 -14.9166 -14.9165 -14.9165 -14.9164 -14.9162
   -14.9161 -14.9160 -14.9159 -14.9143 -14.9090 -14.9055 -14.9047 -14.9045
   -14.9044 -14.9044 -14.9044 -14.9042 -14.9040 -14.9040 -14.9039 -14.9022
   -14.8668 -14.8653 -14.8645 -14.8644 -14.8642 -14.8642 -14.8642 -14.8640
   -14.8639 -14.8638 -14.8637 -14.8619 -14.8226 -14.8201 -14.8194 -14.8192
   -14.8191 -14.8191 -14.8190 -14.8188 -14.8186 -14.8186 -14.8185 -14.8169
   -10.3453 -10.3385 -10.3374 -10.3367 -10.3363 -10.3348 -10.3336 -10.3329
   -10.3319 -10.3306 -10.3290 -10.3255 -10.3128 -10.3083 -10.3059 -10.3055
   -10.3022 -10.3005 -10.2998 -10.2970 -10.2953 -10.2934 -10.2900 -10.2866
   -10.2747 -10.2691 -10.2685 -10.2666 -10.2654 -10.2638 -10.2633 -10.2618
   -10.2613 -10.2598 -10.2584 -10.2557  -6.7517  -6.6475  -6.5618  -6.4727
    -6.4232  -6.4218  -6.3652  -6.3315  -6.3280  -6.2598  -6.2275  -6.2238
    -5.9074  -5.9046  -5.8224  -5.8211  -5.8109  -5.8073  -5.7915  -5.7597
    -5.7593  -5.7312  -5.7100  -5.7097  -5.6713  -5.6344  -5.6285  -5.6274
    -5.6266  -5.6076  -5.6003  -5.5990  -5.5710  -5.5282  -5.5232  -5.5221
    -5.5212  -5.4959  -5.4690  -5.4342  -5.4283  -5.4278  -5.4220  -5.3630
    -5.3472  -5.3468  -5.3218  -5.2994  -0.5595  -0.5587  -0.5573  -0.4365
    -0.4352  -0.4247  -0.3935  -0.3735  -0.3190  -0.3180  -0.2993  -0.2793
     1.4327   1.4861   1.4866   1.4876   1.6259   1.6426   1.7734   1.7739
     1.7821   1.7907   1.7993   1.8015   1.9138   1.9938   1.9970   2.0773
     2.1547   2.1990   2.2106   2.2478   2.2484   2.3600   2.3933   2.3940
     2.3978   2.4480   2.5110   2.5129   2.5471   2.5909   2.5914   2.6083
     2.6430   2.7111   2.7613   2.7684   2.7697   2.7889   2.8083   2.8098
     2.8389   2.8743   2.9133   2.9162   2.9197   2.9816   3.0237   3.0250
     3.0687   3.1045   3.1072   3.1330   3.1713   3.1929   3.1941   3.1947
     3.2007   3.2331   3.2644   3.2666   3.2773   3.3187   3.3220   3.3232
     3.3249   3.3893   3.3914   3.4117   3.4435   3.4463   3.4686   3.4707
     3.4728   3.4735   3.4758   3.4777   3.5341   3.5374   3.5380   3.5913
     3.6092   3.6127   3.6138   3.6329   3.6421   3.6484   3.6571   3.6600
     3.6673   3.7085   3.7117   3.7126   3.8362   3.8366   3.8800   3.8888
     3.9055   3.9499   3.9515   3.9741   3.9830   4.0205   4.0488   4.0497
     4.0513   4.0656   4.1105   4.1111   4.1189   4.1333   4.1343   4.1475
     4.1915   4.2568   4.2666   4.2684   4.2892   4.2904   4.2943   4.3883
     4.3971   4.4373   4.4386   4.4678   4.5251   4.5257   4.5352   4.5959
     4.6101   4.6122   4.6232   4.7217   5.1511   5.1520   5.1556   5.1577
     5.1724   5.1768   5.1776   5.1845   5.1911   5.1984   5.2023   5.2083
     5.2091   5.2350   5.2361   5.2368   5.2554   5.2652   5.2668   5.2674
     5.2793   5.2982   5.3081   5.3135   5.3151   5.3299   5.3373   5.3378
     5.3588   5.3595   5.3609   5.3649   5.3809   5.3931   5.4075   5.4081
     5.4147   5.4328   5.4343   5.4455   5.4465   5.4929   5.5027   5.5034
     5.5101   5.5165   5.5540   5.5612   5.5752   5.5760   5.6038   5.6115
     5.6123   5.6202   5.6250   5.6259   5.6443   5.6707   5.6828   5.7147
     5.7150   5.7179   5.7352   5.7731   5.7735   5.7740   5.8031   5.8036
     5.8100   5.8591   5.8761   5.8768   5.8784   5.9153   5.9596   5.9606
     6.0350   6.0357   6.0363   6.0594   6.0796   6.0802   6.1736   6.2070
     6.2129   6.2138   6.2664   6.2672   6.2702   6.2777   6.2861   6.3491
     6.3500   6.3663   6.3725   6.4154   6.4235   6.4254   6.4277   6.4716
     6.4992   6.4998   6.5467   6.5597   6.5958   6.5972   6.6666   6.6676
     6.6772   6.7195   6.7357   6.7372   6.7482   6.8129   6.8142   6.8450
     6.8687   6.9281   6.9374   7.0519

          k =-0.3333-0.5774 0.2714 (115827 PWs)   bands (ev):

   -28.2864 -28.2760 -28.2755 -28.2753 -28.2751 -28.2750 -28.2750 -28.2749
   -28.2747 -28.2746 -28.2734 -28.2679 -14.9280 -14.9234 -14.9227 -14.9225
   -14.9223 -14.9223 -14.9223 -14.9221 -14.9220 -14.9219 -14.9218 -14.9211
   -14.9199 -14.9176 -14.9168 -14.9166 -14.9165 -14.9165 -14.9164 -14.9162
   -14.9161 -14.9160 -14.9159 -14.9143 -14.9090 -14.9055 -14.9047 -14.9046
   -14.9044 -14.9044 -14.9044 -14.9042 -14.9040 -14.9039 -14.9039 -14.9022
   -14.8668 -14.8653 -14.8645 -14.8644 -14.8642 -14.8642 -14.8642 -14.8640
   -14.8639 -14.8638 -14.8637 -14.8619 -14.8226 -14.8201 -14.8194 -14.8192
   -14.8191 -14.8191 -14.8190 -14.8188 -14.8186 -14.8186 -14.8185 -14.8169
   -10.3452 -10.3378 -10.3374 -10.3364 -10.3359 -10.3340 -10.3328 -10.3327
   -10.3314 -10.3306 -10.3298 -10.3267 -10.3121 -10.3074 -10.3069 -10.3047
   -10.3021 -10.3000 -10.2980 -10.2971 -10.2956 -10.2924 -10.2911 -10.2891
   -10.2746 -10.2684 -10.2677 -10.2661 -10.2654 -10.2648 -10.2634 -10.2629
   -10.2617 -10.2600 -10.2591 -10.2569  -6.6214  -6.6178  -6.6176  -6.5278
    -6.5244  -6.5241  -6.3094  -6.2933  -6.2889  -6.2885  -6.2588  -6.2150
    -5.8758  -5.8587  -5.8444  -5.7797  -5.7789  -5.7783  -5.7436  -5.7415
    -5.7408  -5.7150  -5.6889  -5.6874  -5.6867  -5.6738  -5.6718  -5.6713
    -5.6705  -5.6430  -5.5593  -5.5559  -5.5554  -5.5266  -5.5241  -5.5239
    -5.5054  -5.5036  -5.5023  -5.5022  -5.4583  -5.3980  -5.3976  -5.3968
    -5.3575  -5.3228  -5.3221  -5.3211  -0.5197  -0.5064  -0.5051  -0.5042
    -0.4608  -0.4175  -0.4166  -0.4157  -0.3549  -0.2940  -0.2922  -0.2922
     1.4815   1.4831   1.4836   1.6375   1.6390   1.6399   1.6903   1.7742
     1.7762   1.7770   1.7778   1.7934   1.9805   1.9822   1.9837   2.0561
     2.1715   2.1917   2.1931   2.1941   2.2475   2.3957   2.3972   2.3980
     2.4878   2.4887   2.4896   2.5565   2.5867   2.5882   2.5889   2.5918
     2.6787   2.7367   2.7373   2.7384   2.8202   2.8235   2.8240   2.8274
     2.9016   2.9024   2.9039   2.9240   2.9373   2.9547   2.9561   2.9571
     3.0599   3.0606   3.0612   3.0875   3.0894   3.0903   3.1271   3.1815
     3.2452   3.2454   3.2467   3.2715   3.2716   3.2725   3.3224   3.3264
     3.3284   3.3294   3.3741   3.4077   3.4219   3.4656   3.4662   3.4671
     3.4922   3.4991   3.5001   3.5008   3.5370   3.5376   3.5383   3.5401
     3.5620   3.6152   3.6167   3.6174   3.6527   3.6553   3.6559   3.6974
     3.6984   3.6991   3.7206   3.7441   3.8213   3.8408   3.8419   3.8422
     3.9383   3.9411   3.9417   3.9435   4.0291   4.0303   4.0312   4.0399
     4.0670   4.0685   4.0688   4.1090   4.1142   4.1147   4.1160   4.1683
     4.2731   4.2740   4.2753   4.2900   4.3158   4.3614   4.3623   4.3627
     4.4153   4.4173   4.4188   4.4930   4.4937   4.4950   4.5071   4.5115
     4.5653   4.6668   4.6678   4.6687   5.1497   5.1575   5.1581   5.1585
     5.1594   5.1831   5.1840   5.1849   5.1980   5.1992   5.1999   5.2117
     5.2256   5.2261   5.2270   5.2523   5.2532   5.2543   5.2581   5.2694
     5.3022   5.3028   5.3039   5.3103   5.3293   5.3303   5.3308   5.3684
     5.3691   5.3705   5.3758   5.3941   5.3961   5.4097   5.4105   5.4110
     5.4334   5.4341   5.4348   5.4391   5.4842   5.4853   5.4865   5.4923
     5.5392   5.5397   5.5403   5.5443   5.5665   5.5676   5.5683   5.6065
     5.6068   5.6078   5.6384   5.6401   5.6726   5.6735   5.6737   5.7043
     5.7047   5.7058   5.7182   5.7599   5.7604   5.7613   5.8021   5.8090
     5.8213   5.8243   5.8250   5.8258   5.8901   5.8911   5.8923   6.0576
     6.0608   6.0612   6.0622   6.0778   6.1206   6.1208   6.1220   6.1355
     6.1957   6.2378   6.2389   6.2394   6.2846   6.3018   6.3030   6.3031
     6.3071   6.3854   6.3861   6.3868   6.4501   6.4679   6.4686   6.4690
     6.4922   6.4927   6.5593   6.5605   6.5611   6.6462   6.6848   6.6857
     6.6864   6.7605   6.7782   6.7787   6.7793   6.7928   6.8545   6.8552
     6.8559   6.9354   6.9359   6.9369

     highest occupied level (ev):     7.1807

!    total energy              =   -9077.18760511 Ry
     estimated scf accuracy    <          5.1E-10 Ry

     The total energy is the sum of the following terms:
     one-electron contribution =   -2776.73022764 Ry
     hartree contribution      =    2020.12957361 Ry
     xc contribution           =   -2269.39270764 Ry
     ewald contribution        =   -3895.39856696 Ry
     one-center paw contrib.   =   -2155.79567648 Ry

     convergence has been achieved in  21 iterations

     negative rho (up, down):  7.902E-01 0.000E+00

     Forces acting on atoms (cartesian axes, Ry/au):

     atom    1 type  1   force =    -0.00064275    0.00042923   -0.00057002
     atom    2 type  1   force =    -0.00011431    0.00026810   -0.00000362
     atom    3 type  1   force =    -0.00015205    0.00023999   -0.00002791
     atom    4 type  1   force =    -0.00010267    0.00037416    0.00001025
     atom    5 type  1   force =    -0.00017825   -0.00019229    0.00002235
     atom    6 type  1   force =    -0.00016577   -0.00027154   -0.00003260
     atom    7 type  1   force =    -0.00016226   -0.00024424    0.00000602
     atom    8 type  1   force =    -0.00018381   -0.00027417    0.00001774
     atom    9 type  1   force =     0.00031523   -0.00000498    0.00000814
     atom   10 type  1   force =     0.00030541    0.00000083    0.00002273
     atom   11 type  1   force =     0.00029412    0.00000701    0.00002143
     atom   12 type  1   force =     0.00030765   -0.00000086    0.00000366
     atom   13 type  2   force =    -0.00045615    0.00059533    0.00129260
     atom   14 type  2   force =     0.00026202   -0.00042608    0.00023128
     atom   15 type  2   force =     0.00022566   -0.00040731    0.00020443
     atom   16 type  2   force =     0.00016427   -0.00040132    0.00014707
     atom   17 type  2   force =     0.00022346    0.00036493    0.00019433
     atom   18 type  2   force =     0.00023527    0.00036676    0.00019328
     atom   19 type  2   force =     0.00023303    0.00037242    0.00019471
     atom   20 type  2   force =     0.00023034    0.00036785    0.00019203
     atom   21 type  2   force =    -0.00045221    0.00004414    0.00017013
     atom   22 type  2   force =    -0.00043319    0.00001439    0.00018874
     atom   23 type  2   force =    -0.00043360   -0.00000336    0.00012831
     atom   24 type  2   force =    -0.00040835    0.00001490    0.00020471
     atom   25 type  2   force =    -0.00043261   -0.00000936   -0.00017170
     atom   26 type  2   force =    -0.00040509   -0.00001846   -0.00017447
     atom   27 type  2   force =    -0.00041817    0.00001708   -0.00014402
     atom   28 type  2   force =    -0.00042567   -0.00001408   -0.00019113
     atom   29 type  2   force =    -0.00175609    0.00068590    0.00093999
     atom   30 type  2   force =     0.00026163    0.00039513   -0.00016207
     atom   31 type  2   force =     0.00020991    0.00039283   -0.00019509
     atom   32 type  2   force =     0.00015540    0.00036253   -0.00022094
     atom   33 type  2   force =     0.00023669   -0.00036279   -0.00018544
     atom   34 type  2   force =     0.00024252   -0.00037733   -0.00018018
     atom   35 type  2   force =     0.00023167   -0.00035167   -0.00018522
     atom   36 type  2   force =     0.00023331   -0.00037026   -0.00017997
     atom   37 type  3   force =     0.00028448   -0.00054346    0.00003669
     atom   38 type  3   force =     0.00031298   -0.00046050    0.00001360
     atom   39 type  3   force =     0.00025737   -0.00050068    0.00000347
     atom   40 type  3   force =     0.00028483   -0.00048915   -0.00000487
     atom   41 type  3   force =     0.00016493    0.00040653   -0.00006148
     atom   42 type  3   force =     0.00031745    0.00044456    0.00003469
     atom   43 type  3   force =     0.00026961    0.00044972   -0.00001481
     atom   44 type  3   force =     0.00028844    0.00049070    0.00003183
     atom   45 type  3   force =    -0.00048422   -0.00000858   -0.00001593
     atom   46 type  3   force =    -0.00439890   -0.00433704   -0.00002088
     atom   47 type  3   force =    -0.00045581    0.00010677   -0.00009369
     atom   48 type  3   force =    -0.00053861   -0.00027587   -0.00001601
     atom   49 type  4   force =     0.00035052   -0.00008546    0.00003750
     atom   50 type  4   force =     0.00034991   -0.00010205    0.00000729
     atom   51 type  4   force =     0.00035550   -0.00009069    0.00001050
     atom   52 type  4   force =     0.00035090   -0.00010226    0.00000942
     atom   53 type  4   force =    -0.00028868    0.00017610    0.00060485
     atom   54 type  4   force =    -0.00012492    0.00034460    0.00001607
     atom   55 type  4   force =    -0.00008883    0.00036383    0.00004260
     atom   56 type  4   force =    -0.00009141    0.00036709   -0.00000984
     atom   57 type  4   force =    -0.00034823   -0.00048605   -0.00004375
     atom   58 type  4   force =    -0.00033954   -0.00020376    0.00003099
     atom   59 type  4   force =    -0.00039426   -0.00016095    0.00002399
     atom   60 type  4   force =    -0.00018356   -0.00027721   -0.00016184
     atom   61 type  4   force =    -0.00074243    0.00040390    0.00023922
     atom   62 type  4   force =    -0.00057225   -0.00011519   -0.00004639
     atom   63 type  4   force =    -0.00027008    0.00020681    0.00001415
     atom   64 type  4   force =    -0.00028772    0.00029412    0.00000500
     atom   65 type  4   force =     0.00036842    0.00011115    0.00000023
     atom   66 type  4   force =     0.00034481    0.00010593   -0.00002119
     atom   67 type  4   force =     0.00035082    0.00010476   -0.00002276
     atom   68 type  4   force =     0.00035140    0.00009660   -0.00002158
     atom   69 type  4   force =    -0.00013631   -0.00035886   -0.00001922
     atom   70 type  4   force =    -0.00015030   -0.00020697    0.00041444
     atom   71 type  4   force =    -0.00012635   -0.00043144    0.00001336
     atom   72 type  4   force =    -0.00008421   -0.00035508   -0.00001309
     atom   73 type  4   force =     0.00993135    0.00331785   -0.00268710
     atom   74 type  4   force =     0.00000028    0.00016449   -0.00024594
     atom   75 type  4   force =    -0.00000822    0.00016317   -0.00022976
     atom   76 type  4   force =     0.00000430    0.00015475   -0.00023234
     atom   77 type  4   force =    -0.00016046   -0.00012116   -0.00032821
     atom   78 type  4   force =    -0.00014051   -0.00006667   -0.00025383
     atom   79 type  4   force =    -0.00015616   -0.00005868   -0.00025540
     atom   80 type  4   force =    -0.00013319   -0.00005822   -0.00024764
     atom   81 type  4   force =     0.00013462   -0.00004782   -0.00028498
     atom   82 type  4   force =     0.00012140   -0.00010076   -0.00025042
     atom   83 type  4   force =     0.00013137   -0.00009365   -0.00024148
     atom   84 type  4   force =     0.00011466   -0.00008001   -0.00028789
     atom   85 type  4   force =     0.00011589    0.00012587    0.00021093
     atom   86 type  4   force =     0.00012153    0.00007731    0.00024141
     atom   87 type  4   force =     0.00012438    0.00007844    0.00022997
     atom   88 type  4   force =     0.00011674    0.00008549    0.00025672
     atom   89 type  4   force =    -0.00085079   -0.00072643    0.00017176
     atom   90 type  4   force =    -0.00087977    0.00051755    0.00012741
     atom   91 type  4   force =     0.00001507   -0.00018075    0.00028601
     atom   92 type  4   force =     0.00004499    0.00017276    0.00027056
     atom   93 type  4   force =    -0.00017373    0.00005606    0.00026134
     atom   94 type  4   force =    -0.00012317    0.00004656    0.00022091
     atom   95 type  4   force =    -0.00014787    0.00004090    0.00024697
     atom   96 type  4   force =    -0.00014303    0.00006762    0.00024888

     Total force =     0.013456     Total SCF correction =     0.000057
     Message from routine punch:
     Nothing written, as per user request (disk_io='none')

     init_run     :     43.83s CPU     46.55s WALL (       1 calls)
     electrons    :   2167.93s CPU   2263.06s WALL (       1 calls)
     forces       :     19.88s CPU     20.31s WALL (       1 calls)

     Called by init_run:
     wfcinit      :     38.38s CPU     40.81s WALL (       1 calls)
     potinit      :      1.17s CPU      1.20s WALL (       1 calls)
     hinit0       :      1.22s CPU      1.25s WALL (       1 calls)

     Called by electrons:
     c_bands      :   1920.34s CPU   1996.42s WALL (      21 calls)
     sum_band     :    220.43s CPU    234.82s WALL (      21 calls)
     v_of_rho     :      4.40s CPU      4.70s WALL (      22 calls)
     newd         :     18.40s CPU     22.78s WALL (      22 calls)
     PAW_pot      :      5.33s CPU      5.35s WALL (      22 calls)
     mix_rho      :      0.67s CPU      0.74s WALL (      21 calls)

     Called by c_bands:
     init_us_2    :     26.01s CPU     26.23s WALL (     308 calls)
     cegterg      :   1828.66s CPU   1904.20s WALL (     147 calls)

     Called by *egterg:
     cdiaghg      :     96.49s CPU     99.26s WALL (     939 calls)
     h_psi        :    997.01s CPU   1057.94s WALL (     946 calls)
     s_psi        :    228.48s CPU    229.95s WALL (     946 calls)
     g_psi        :      3.44s CPU      3.47s WALL (     792 calls)

     Called by h_psi:
     h_psi:calbec :    230.95s CPU    233.30s WALL (     946 calls)
     vloc_psi     :    533.24s CPU    587.69s WALL (     946 calls)
     add_vuspsi   :    227.59s CPU    229.08s WALL (     946 calls)

     General routines
     calbec       :    317.44s CPU    320.69s WALL (    1121 calls)
     fft          :      4.93s CPU      5.28s WALL (     295 calls)
     ffts         :      0.76s CPU      0.78s WALL (      43 calls)
     fftw         :    431.36s CPU    482.13s WALL (  435302 calls)
     interpolate  :      0.96s CPU      1.00s WALL (      22 calls)

     Parallel routines

     PWSCF        :  37m11.92s CPU  38m50.59s WALL


   This run was terminated on:   2:22:14  21Aug2026            

=------------------------------------------------------------------------------=
   JOB DONE.
=------------------------------------------------------------------------------=
