
     Program PWSCF v.7.3.1 starts on 21Aug2026 at  1:39:49 

     This program is part of the open-source Quantum ESPRESSO suite
     for quantum simulation of materials; please cite
         "P. Giannozzi et al., J. Phys.:Condens. Matter 21 395502 (2009);
         "P. Giannozzi et al., J. Phys.:Condens. Matter 29 465901 (2017);
         "P. Giannozzi et al., J. Chem. Phys. 152 154105 (2020);
          URL http://www.quantum-espresso.org", 
     in publications or presentations arising from this work. More details at
     http://www.quantum-espresso.org/quote

     Parallel version (MPI & OpenMP), running on      32 processor cores
     Number of MPI processes:                32
     Threads/MPI process:                     1

     MPI processes distributed on     1 nodes
     488478 MiB available memory on the printing compute node when the environment starts

     Reading input from scf.in

     Current dimensions of program PWSCF are:
     Max number of different atomic species (ntypx) = 10
     Max number of k-points (npk) =  40000
     Max angular momentum in pseudopotentials (lmaxx) =  4
     file Cu.paw.z_11.ld1.psl.v1.0.0-low.upf: wavefunction(s)  4S 3D renormalized

     K-points division:     npool     =       2
     R & G space division:  proc/nbgrp/npool/nimage =      16
     Subspace diagonalization in iterative solution of the eigenvalue problem:
     one sub-group per band group will be used
     scalapack distributed-memory algorithm (size of sub-group:  4*  4 procs)


     Parallelization info
     --------------------
     sticks:   dense  smooth     PW     G-vecs:    dense   smooth      PW
     Min        1193     597    157               163743    57882    7779
     Max        1194     599    158               163747    57885    7784
     Sum       19099    9565   2515              2619931   926125  124485

     Using Slab Decomposition



     bravais-lattice index     =            0
     lattice parameter (alat)  =      24.0273  a.u.
     unit-cell volume          =   14752.0463 (a.u.)^3
     number of atoms/cell      =           96
     number of atomic types    =            4
     number of electrons       =       840.00
     number of Kohn-Sham states=          420
     kinetic-energy cutoff     =      60.0000  Ry
     charge density cutoff     =     480.0000  Ry
     scf convergence threshold =      1.0E-09
     mixing beta               =       0.3000
     number of iterations used =            8  plain     mixing
     Exchange-correlation=  SLA  PW   PBX  PBC
                           (   1   4   3   4   0   0   0)

     celldm(1)=  24.027274  celldm(2)=   0.000000  celldm(3)=   0.000000
     celldm(4)=   0.000000  celldm(5)=   0.000000  celldm(6)=   0.000000

     crystal axes: (cart. coord. in units of alat)
               a(1) = (   1.000000   0.000000   0.000000 )  
               a(2) = (  -0.500000   0.866025   0.000000 )  
               a(3) = (   0.000000   0.000000   1.228028 )  

     reciprocal axes: (cart. coord. in units 2 pi/alat)
               b(1) = (  1.000000  0.577351 -0.000000 )  
               b(2) = (  0.000000  1.154701  0.000000 )  
               b(3) = (  0.000000 -0.000000  0.814314 )  


     PseudoPot. # 1 for Sr read from file:
     /home/yuhansun/pseudos/SSSP-1.3.0-PBE-precision/Sr_pbe_v1.uspp.F.UPF
     MD5 check sum: 6b418c05fbe9db5448babca5e47b7a5b
     Pseudo is Ultrasoft + core correction, Zval = 10.0
     Generated by new atomic code, or converted to UPF format
     Using radial grid of  883 points,  6 beta functions with: 
                l(1) =   0
                l(2) =   0
                l(3) =   1
                l(4) =   1
                l(5) =   2
                l(6) =   2
     Q(r) pseudized with  6 coefficients,  rinner =    1.400   1.400   1.400
                                                       1.400   1.400

     PseudoPot. # 2 for Cu read from file:
     /home/yuhansun/pseudos/SSSP-1.3.0-PBE-precision/Cu.paw.z_11.ld1.psl.v1.0.0-low.upf
     MD5 check sum: 619f40885d92a09a85a8b37550532d0c
     Pseudo is Projector augmented-wave + core cor, Zval = 11.0
     Generated using &quot;atomic&quot; code by A. Dal Corso  v.6.3MaX
     Shape of augmentation charge: PSQ
     Using radial grid of 1199 points,  6 beta functions with: 
                l(1) =   0
                l(2) =   0
                l(3) =   1
                l(4) =   1
                l(5) =   2
                l(6) =   2
     Q(r) pseudized with 0 coefficients 


     PseudoPot. # 3 for Sn read from file:
     /home/yuhansun/pseudos/SSSP-1.3.0-PBE-precision/Sn_pbe_v1.uspp.F.UPF
     MD5 check sum: 4cf58ce39ec5d5d420df3dd08604eb00
     Pseudo is Ultrasoft + core correction, Zval = 14.0
     Generated by new atomic code, or converted to UPF format
     Using radial grid of  891 points,  6 beta functions with: 
                l(1) =   0
                l(2) =   0
                l(3) =   1
                l(4) =   1
                l(5) =   2
                l(6) =   2
     Q(r) pseudized with  6 coefficients,  rinner =    1.200   1.200   1.200
                                                       1.200   1.200

     PseudoPot. # 4 for S  read from file:
     /home/yuhansun/pseudos/SSSP-1.3.0-PBE-precision/s_pbe_v1.4.uspp.F.UPF
     MD5 check sum: 88d86576ff6df21479756cfb9bdac1df
     Pseudo is Ultrasoft + core correction, Zval =  6.0
     Generated by new atomic code, or converted to UPF format
     Using radial grid of  907 points,  6 beta functions with: 
                l(1) =   0
                l(2) =   0
                l(3) =   1
                l(4) =   1
                l(5) =   2
                l(6) =   2
     Q(r) pseudized with  8 coefficients,  rinner =    1.300   1.300   1.300
                                                       1.300   1.300

     atomic species   valence    mass     pseudopotential
     Sr               10.00    87.62000     Sr( 1.00)
     Cu               11.00    63.54600     Cu( 1.00)
     Sn               14.00   118.71000     Sn( 1.00)
     S                 6.00    32.06500     S ( 1.00)

     No symmetry found



   Cartesian axes

     site n.     atom                  positions (alat units)
         1        Sr     tau(   1) = (  -0.1405753   0.2434834   0.2046717  )
         2        Sr     tau(   2) = (   0.3594247   0.2434834   0.2046717  )
         3        Sr     tau(   3) = (  -0.3905753   0.6764960   0.2046717  )
         4        Sr     tau(   4) = (   0.1094247   0.6764960   0.2046717  )
         5        Sr     tau(   5) = (   0.1094247   0.1895292   0.6140139  )
         6        Sr     tau(   6) = (   0.6094247   0.1895292   0.6140139  )
         7        Sr     tau(   7) = (  -0.1405753   0.6225418   0.6140139  )
         8        Sr     tau(   8) = (   0.3594247   0.6225418   0.6140139  )
         9        Sr     tau(   9) = (   0.2811505   0.0000000   1.0233574  )
        10        Sr     tau(  10) = (   0.7811505   0.0000000   1.0233574  )
        11        Sr     tau(  11) = (   0.0311505   0.4330126   1.0233574  )
        12        Sr     tau(  12) = (   0.5311505   0.4330126   1.0233574  )
        13        Cu     tau(  13) = (  -0.1201816   0.2753211   0.5061747  )
        14        Cu     tau(  14) = (   0.3773212   0.2753211   0.5061747  )
        15        Cu     tau(  15) = (  -0.3726788   0.7083337   0.5061747  )
        16        Cu     tau(  16) = (   0.1273212   0.7083337   0.5061747  )
        17        Cu     tau(  17) = (   0.0729045   0.1891087   0.9155169  )
        18        Cu     tau(  18) = (   0.5729045   0.1891087   0.9155169  )
        19        Cu     tau(  19) = (  -0.1770956   0.6221213   0.9155169  )
        20        Cu     tau(  20) = (   0.3229044   0.6221213   0.9155169  )
        21        Cu     tau(  21) = (   0.0497750   0.4015949   0.0968325  )
        22        Cu     tau(  22) = (   0.5497750   0.4015949   0.0968325  )
        23        Cu     tau(  23) = (  -0.2002251   0.8346075   0.0968325  )
        24        Cu     tau(  24) = (   0.2997749   0.8346075   0.0968325  )
        25        Cu     tau(  25) = (   0.2997745   0.0314177   0.7218532  )
        26        Cu     tau(  26) = (   0.7997745   0.0314177   0.7218532  )
        27        Cu     tau(  27) = (   0.0497745   0.4644302   0.7218532  )
        28        Cu     tau(  28) = (   0.5497745   0.4644302   0.7218532  )
        29        Cu     tau(  29) = (   0.1273207   0.1576915   0.3125110  )
        30        Cu     tau(  30) = (   0.6273207   0.1576915   0.3125110  )
        31        Cu     tau(  31) = (  -0.1226793   0.5907041   0.3125110  )
        32        Cu     tau(  32) = (   0.3773207   0.5907041   0.3125110  )
        33        Cu     tau(  33) = (   0.3229040   0.2439039   1.1311954  )
        34        Cu     tau(  34) = (   0.8229040   0.2439039   1.1311954  )
        35        Cu     tau(  35) = (   0.0729039   0.6769164   1.1311954  )
        36        Cu     tau(  36) = (   0.5729039   0.6769164   1.1311954  )
        37        Sn     tau(  37) = (  -0.1762580   0.3052877   0.8186857  )
        38        Sn     tau(  38) = (   0.3237420   0.3052877   0.8186857  )
        39        Sn     tau(  39) = (  -0.4262581   0.7383003   0.8186857  )
        40        Sn     tau(  40) = (   0.0737419   0.7383003   0.8186857  )
        41        Sn     tau(  41) = (   0.0737420   0.1277249   0.0000000  )
        42        Sn     tau(  42) = (   0.5737420   0.1277249   0.0000000  )
        43        Sn     tau(  43) = (  -0.1762581   0.5607374   0.0000000  )
        44        Sn     tau(  44) = (   0.3237419   0.5607374   0.0000000  )
        45        Sn     tau(  45) = (   0.3525160   0.0000000   0.4093422  )
        46        Sn     tau(  46) = (   0.8525160   0.0000000   0.4093422  )
        47        Sn     tau(  47) = (   0.1025160   0.4330126   0.4093422  )
        48        Sn     tau(  48) = (   0.6025160   0.4330126   0.4093422  )
        49        S      tau(  49) = (  -0.0988203   0.2103164   0.9671149  )
        50        S      tau(  50) = (   0.4011797   0.2103164   0.9671149  )
        51        S      tau(  51) = (  -0.3488203   0.6433290   0.9671149  )
        52        S      tau(  52) = (   0.1511797   0.6433290   0.9671149  )
        53        S      tau(  53) = (   0.1172707   0.2422736   0.1484293  )
        54        S      tau(  54) = (   0.6172707   0.2422736   0.1484293  )
        55        S      tau(  55) = (  -0.1327293   0.6752862   0.1484293  )
        56        S      tau(  56) = (   0.3672707   0.6752862   0.1484293  )
        57        S      tau(  57) = (  -0.0184505   0.4134352   0.5577727  )
        58        S      tau(  58) = (   0.4815495   0.4134352   0.5577727  )
        59        S      tau(  59) = (  -0.2684506   0.8464478   0.5577727  )
        60        S      tau(  60) = (   0.2315494   0.8464478   0.5577727  )
        61        S      tau(  61) = (   0.2315495   0.0195774   0.2609129  )
        62        S      tau(  62) = (   0.7315495   0.0195774   0.2609129  )
        63        S      tau(  63) = (  -0.0184505   0.4525899   0.2609129  )
        64        S      tau(  64) = (   0.4815495   0.4525899   0.2609129  )
        65        S      tau(  65) = (   0.1511797   0.2226962   1.0795986  )
        66        S      tau(  66) = (   0.6511797   0.2226962   1.0795986  )
        67        S      tau(  67) = (  -0.0988203   0.6557088   1.0795986  )
        68        S      tau(  68) = (   0.4011797   0.6557088   1.0795986  )
        69        S      tau(  69) = (   0.3672707   0.1907390   0.6702552  )
        70        S      tau(  70) = (   0.8672707   0.1907390   0.6702552  )
        71        S      tau(  71) = (   0.1172707   0.6237516   0.6702552  )
        72        S      tau(  72) = (   0.6172707   0.6237516   0.6702552  )
        73        S      tau(  73) = (  -0.0296498   0.1532012   0.4035914  )
        74        S      tau(  74) = (   0.4703502   0.1532012   0.4035914  )
        75        S      tau(  75) = (  -0.2796498   0.5862137   0.4035914  )
        76        S      tau(  76) = (   0.2203502   0.5862137   0.4035914  )
        77        S      tau(  77) = (   0.1321490   0.3307341   0.8129336  )
        78        S      tau(  78) = (   0.6321490   0.3307341   0.8129336  )
        79        S      tau(  79) = (  -0.1178511   0.7637467   0.8129336  )
        80        S      tau(  80) = (   0.3821489   0.7637467   0.8129336  )
        81        S      tau(  81) = (  -0.1024985   0.3820894   1.2222770  )
        82        S      tau(  82) = (   0.3975015   0.3820894   1.2222770  )
        83        S      tau(  83) = (  -0.3524986   0.8151020   1.2222770  )
        84        S      tau(  84) = (   0.1475014   0.8151020   1.2222770  )
        85        S      tau(  85) = (   0.1475010   0.0509231   0.8244365  )
        86        S      tau(  86) = (   0.6475010   0.0509231   0.8244365  )
        87        S      tau(  87) = (  -0.1024990   0.4839357   0.8244365  )
        88        S      tau(  88) = (   0.3975010   0.4839357   0.8244365  )
        89        S      tau(  89) = (   0.2203497   0.2798114   0.4150943  )
        90        S      tau(  90) = (   0.7203497   0.2798114   0.4150943  )
        91        S      tau(  91) = (  -0.0296503   0.7128240   0.4150943  )
        92        S      tau(  92) = (   0.4703497   0.7128240   0.4150943  )
        93        S      tau(  93) = (   0.3821485   0.1022784   0.0057509  )
        94        S      tau(  94) = (   0.8821485   0.1022784   0.0057509  )
        95        S      tau(  95) = (   0.1321485   0.5352910   0.0057509  )
        96        S      tau(  96) = (   0.6321485   0.5352910   0.0057509  )

     number of k points=    14
                       cart. coord. in units 2pi/alat
        k(    1) = (   0.0000000   0.0000000   0.0000000), wk =   0.0740741
        k(    2) = (   0.0000000   0.0000000   0.2714379), wk =   0.1481481
        k(    3) = (   0.0000000   0.3849003   0.0000000), wk =   0.1481481
        k(    4) = (   0.0000000   0.3849003   0.2714379), wk =   0.1481481
        k(    5) = (   0.3333333   0.5773505   0.0000000), wk =   0.1481481
        k(    6) = (   0.3333333   0.5773505   0.2714379), wk =   0.1481481
        k(    7) = (  -0.3333333   0.1924501   0.0000000), wk =   0.1481481
        k(    8) = (   0.3333333   0.1924502   0.0000000), wk =   0.1481481
        k(    9) = (   0.0000000  -0.3849003   0.2714379), wk =   0.1481481
        k(   10) = (  -0.3333333   0.1924501   0.2714379), wk =   0.1481481
        k(   11) = (   0.3333333   0.1924502   0.2714379), wk =   0.1481481
        k(   12) = (  -0.3333333  -0.1924502   0.2714379), wk =   0.1481481
        k(   13) = (   0.3333333  -0.1924501   0.2714379), wk =   0.1481481
        k(   14) = (  -0.3333333  -0.5773505   0.2714379), wk =   0.1481481

     Dense  grid:  2619931 G-vectors     FFT dimensions: ( 180, 180, 216)

     Smooth grid:   926125 G-vectors     FFT dimensions: ( 120, 120, 150)

     Estimated max dynamical RAM per process >       1.07 GB

     Estimated total dynamical RAM >      33.54 GB

     Initial potential from superposition of free atoms

     starting charge     827.5884, renormalised to     840.0000

     negative rho (up, down):  7.777E-01 0.000E+00
     Starting wfcs are  672 randomized atomic wfcs
     Checking if some PAW data can be deallocated... 

     total cpu time spent up to now is       48.9 secs

     Self-consistent Calculation

     iteration #  1     ecut=    60.00 Ry     beta= 0.30
     Davidson diagonalization with overlap
     ethr =  1.00E-02,  avg # of iterations =  2.0

     negative rho (up, down):  7.747E-01 0.000E+00

     total cpu time spent up to now is      136.8 secs

     total energy              =   -9070.29367377 Ry
     estimated scf accuracy    <      21.97414014 Ry

     iteration #  2     ecut=    60.00 Ry     beta= 0.30
     Davidson diagonalization with overlap
     ethr =  2.62E-03,  avg # of iterations =  4.8

     negative rho (up, down):  7.752E-01 0.000E+00

     total cpu time spent up to now is      246.1 secs

     total energy              =   -9076.61422741 Ry
     estimated scf accuracy    <       8.23143074 Ry

     iteration #  3     ecut=    60.00 Ry     beta= 0.30
     Davidson diagonalization with overlap
     ethr =  9.80E-04,  avg # of iterations =  2.0

     negative rho (up, down):  7.804E-01 0.000E+00

     total cpu time spent up to now is      335.1 secs

     total energy              =   -9076.48861915 Ry
     estimated scf accuracy    <       1.62403825 Ry

     iteration #  4     ecut=    60.00 Ry     beta= 0.30
     Davidson diagonalization with overlap
     ethr =  1.93E-04,  avg # of iterations =  5.9

     negative rho (up, down):  7.829E-01 0.000E+00

     total cpu time spent up to now is      464.4 secs

     total energy              =   -9076.70072320 Ry
     estimated scf accuracy    <       2.07314130 Ry

     iteration #  5     ecut=    60.00 Ry     beta= 0.30
     Davidson diagonalization with overlap
     ethr =  1.93E-04,  avg # of iterations =  4.9

     negative rho (up, down):  7.883E-01 0.000E+00

     total cpu time spent up to now is      567.0 secs

     total energy              =   -9077.13458816 Ry
     estimated scf accuracy    <       0.14202914 Ry

     iteration #  6     ecut=    60.00 Ry     beta= 0.30
     Davidson diagonalization with overlap
     ethr =  1.69E-05,  avg # of iterations =  6.6

     negative rho (up, down):  7.902E-01 0.000E+00

     total cpu time spent up to now is      681.9 secs

     total energy              =   -9077.18483690 Ry
     estimated scf accuracy    <       0.01372736 Ry

     iteration #  7     ecut=    60.00 Ry     beta= 0.30
     Davidson diagonalization with overlap
     ethr =  1.63E-06,  avg # of iterations =  5.6

     negative rho (up, down):  7.907E-01 0.000E+00

     total cpu time spent up to now is      797.4 secs

     total energy              =   -9077.18928393 Ry
     estimated scf accuracy    <       0.00646191 Ry

     iteration #  8     ecut=    60.00 Ry     beta= 0.30
     Davidson diagonalization with overlap
     ethr =  7.69E-07,  avg # of iterations =  6.4

     negative rho (up, down):  7.911E-01 0.000E+00

     total cpu time spent up to now is      924.9 secs

     total energy              =   -9077.17997715 Ry
     estimated scf accuracy    <       0.04462863 Ry

     iteration #  9     ecut=    60.00 Ry     beta= 0.30
     Davidson diagonalization with overlap
     ethr =  7.69E-07,  avg # of iterations =  9.1

     negative rho (up, down):  7.911E-01 0.000E+00

     total cpu time spent up to now is     1062.6 secs

     total energy              =   -9077.18769167 Ry
     estimated scf accuracy    <       0.00158035 Ry

     iteration # 10     ecut=    60.00 Ry     beta= 0.30
     Davidson diagonalization with overlap
     ethr =  1.88E-07,  avg # of iterations =  3.5

     negative rho (up, down):  7.908E-01 0.000E+00

     total cpu time spent up to now is     1154.1 secs

     total energy              =   -9077.18752950 Ry
     estimated scf accuracy    <       0.00054413 Ry

     iteration # 11     ecut=    60.00 Ry     beta= 0.30
     Davidson diagonalization with overlap
     ethr =  6.48E-08,  avg # of iterations =  6.6

     negative rho (up, down):  7.905E-01 0.000E+00

     total cpu time spent up to now is     1278.9 secs

     total energy              =   -9077.18773088 Ry
     estimated scf accuracy    <       0.00025360 Ry

     iteration # 12     ecut=    60.00 Ry     beta= 0.30
     Davidson diagonalization with overlap
     ethr =  3.02E-08,  avg # of iterations =  4.4

     negative rho (up, down):  7.904E-01 0.000E+00

     total cpu time spent up to now is     1380.8 secs

     total energy              =   -9077.18776972 Ry
     estimated scf accuracy    <       0.00004045 Ry

     iteration # 13     ecut=    60.00 Ry     beta= 0.30
     Davidson diagonalization with overlap
     ethr =  4.82E-09,  avg # of iterations =  6.4

     negative rho (up, down):  7.903E-01 0.000E+00

     total cpu time spent up to now is     1504.4 secs

     total energy              =   -9077.18778086 Ry
     estimated scf accuracy    <       0.00000904 Ry

     iteration # 14     ecut=    60.00 Ry     beta= 0.30
     Davidson diagonalization with overlap
     ethr =  1.08E-09,  avg # of iterations =  5.6

     negative rho (up, down):  7.902E-01 0.000E+00

     total cpu time spent up to now is     1613.2 secs

     total energy              =   -9077.18778331 Ry
     estimated scf accuracy    <       0.00000054 Ry

     iteration # 15     ecut=    60.00 Ry     beta= 0.30
     Davidson diagonalization with overlap
     ethr =  6.39E-11,  avg # of iterations =  7.0

     negative rho (up, down):  7.902E-01 0.000E+00

     total cpu time spent up to now is     1754.1 secs

     total energy              =   -9077.18778379 Ry
     estimated scf accuracy    <       0.00000021 Ry

     iteration # 16     ecut=    60.00 Ry     beta= 0.30
     Davidson diagonalization with overlap
     ethr =  2.50E-11,  avg # of iterations =  4.4

     negative rho (up, down):  7.902E-01 0.000E+00

     total cpu time spent up to now is     1865.5 secs

     total energy              =   -9077.18778389 Ry
     estimated scf accuracy    <       0.00000002 Ry

     iteration # 17     ecut=    60.00 Ry     beta= 0.30
     Davidson diagonalization with overlap
     ethr =  2.67E-12,  avg # of iterations =  6.6

     negative rho (up, down):  7.902E-01 0.000E+00

     total cpu time spent up to now is     2003.2 secs

     total energy              =   -9077.18778393 Ry
     estimated scf accuracy    <       0.00000001 Ry

     iteration # 18     ecut=    60.00 Ry     beta= 0.30
     Davidson diagonalization with overlap
     ethr =  1.78E-12,  avg # of iterations =  2.3

     negative rho (up, down):  7.902E-01 0.000E+00

     total cpu time spent up to now is     2098.3 secs

     total energy              =   -9077.18778394 Ry
     estimated scf accuracy    <          3.9E-09 Ry

     iteration # 19     ecut=    60.00 Ry     beta= 0.30
     Davidson diagonalization with overlap
     ethr =  4.67E-13,  avg # of iterations =  6.8

     negative rho (up, down):  7.902E-01 0.000E+00

     total cpu time spent up to now is     2231.9 secs

     total energy              =   -9077.18778395 Ry
     estimated scf accuracy    <          4.9E-09 Ry

     iteration # 20     ecut=    60.00 Ry     beta= 0.30
     Davidson diagonalization with overlap
     ethr =  4.67E-13,  avg # of iterations =  2.1

     negative rho (up, down):  7.902E-01 0.000E+00

     total cpu time spent up to now is     2319.4 secs

     total energy              =   -9077.18778395 Ry
     estimated scf accuracy    <          1.4E-09 Ry

     iteration # 21     ecut=    60.00 Ry     beta= 0.30
     Davidson diagonalization with overlap
     ethr =  1.71E-13,  avg # of iterations =  7.4

     negative rho (up, down):  7.902E-01 0.000E+00

     total cpu time spent up to now is     2451.9 secs

     total energy              =   -9077.18778395 Ry
     estimated scf accuracy    <          2.2E-09 Ry

     iteration # 22     ecut=    60.00 Ry     beta= 0.30
     Davidson diagonalization with overlap
     ethr =  1.71E-13,  avg # of iterations =  5.4

     negative rho (up, down):  7.902E-01 0.000E+00

     total cpu time spent up to now is     2555.6 secs

     End of self-consistent calculation

          k = 0.0000 0.0000 0.0000 (115723 PWs)   bands (ev):

   -28.2769 -28.2755 -28.2754 -28.2753 -28.2752 -28.2752 -28.2752 -28.2752
   -28.2751 -28.2751 -28.2747 -28.2743 -14.9232 -14.9230 -14.9228 -14.9227
   -14.9227 -14.9225 -14.9224 -14.9223 -14.9221 -14.9220 -14.9218 -14.9213
   -14.9173 -14.9172 -14.9171 -14.9169 -14.9168 -14.9167 -14.9165 -14.9164
   -14.9163 -14.9162 -14.9159 -14.9156 -14.9052 -14.9050 -14.9048 -14.9048
   -14.9047 -14.9046 -14.9045 -14.9044 -14.9042 -14.9041 -14.9039 -14.9035
   -14.8650 -14.8648 -14.8646 -14.8646 -14.8645 -14.8644 -14.8643 -14.8642
   -14.8640 -14.8640 -14.8638 -14.8633 -14.8198 -14.8197 -14.8196 -14.8194
   -14.8193 -14.8192 -14.8192 -14.8190 -14.8189 -14.8188 -14.8185 -14.8183
   -10.3386 -10.3381 -10.3380 -10.3366 -10.3364 -10.3362 -10.3354 -10.3353
   -10.3352 -10.3307 -10.3306 -10.3241 -10.3093 -10.3089 -10.3087 -10.3042
   -10.3040 -10.3015 -10.3012 -10.3010 -10.2925 -10.2924 -10.2922 -10.2821
   -10.2706 -10.2703 -10.2702 -10.2649 -10.2647 -10.2647 -10.2625 -10.2624
   -10.2623 -10.2582 -10.2581 -10.2542  -6.8631  -6.5551  -6.5546  -6.4181
    -6.4168  -6.4160  -6.3003  -6.2999  -6.2973  -6.2194  -6.2179  -6.2170
    -5.9908  -5.9897  -5.9880  -5.8508  -5.8494  -5.8476  -5.7983  -5.7958
    -5.7942  -5.7379  -5.7365  -5.6208  -5.6187  -5.6180  -5.6153  -5.6133
    -5.6107  -5.6004  -5.5590  -5.5585  -5.5583  -5.5468  -5.5448  -5.5415
    -5.5180  -5.5161  -5.4329  -5.4296  -5.4285  -5.4276  -5.3727  -5.3715
    -5.3471  -5.3450  -5.3449  -5.2513  -0.6121  -0.6113  -0.6098  -0.3895
    -0.3889  -0.3875  -0.3506  -0.3162  -0.3153  -0.3149  -0.3010  -0.3004
     1.3846   1.3850   1.3854   1.5919   1.5945   1.6570   1.7165   1.7166
     1.7189   1.8040   1.8059   1.8078   2.0190   2.0395   2.0417   2.0834
     2.0836   2.0869   2.2462   2.2476   2.2489   2.3083   2.3108   2.4027
     2.4046   2.4054   2.4588   2.4606   2.4619   2.5487   2.5487   2.6606
     2.6627   2.6671   2.7825   2.7841   2.7852   2.8715   2.8719   2.9245
     2.9252   2.9258   2.9530   2.9534   2.9558   3.0256   3.0273   3.0285
     3.0453   3.0462   3.0489   3.1653   3.2138   3.2146   3.2162   3.2269
     3.2289   3.2568   3.2574   3.2612   3.3757   3.3776   3.3801   3.3917
     3.3939   3.4253   3.4264   3.4276   3.4340   3.4366   3.4378   3.4724
     3.4761   3.4765   3.4925   3.4945   3.4952   3.4961   3.5154   3.5173
     3.5832   3.5846   3.5864   3.6250   3.6269   3.6283   3.6881   3.6901
     3.6907   3.6910   3.6922   3.7059   3.7946   3.7955   3.8250   3.8251
     3.8271   3.9619   4.0189   4.0211   4.0215   4.0354   4.0359   4.0371
     4.1228   4.1245   4.1254   4.1277   4.1717   4.1740   4.1750   4.2017
     4.2082   4.2088   4.2126   4.2433   4.2443   4.2461   4.2812   4.2813
     4.4227   4.4247   4.4268   4.5163   4.5183   4.5194   4.5345   4.5364
     4.6187   4.6205   4.6217   4.8554   5.1252   5.1549   5.1557   5.1562
     5.1734   5.1747   5.1748   5.1785   5.1790   5.2218   5.2260   5.2274
     5.2278   5.2294   5.2296   5.2513   5.2522   5.2526   5.2661   5.2669
     5.2677   5.2780   5.2788   5.2792   5.3097   5.3113   5.3114   5.3126
     5.3131   5.3250   5.3371   5.3379   5.3382   5.3753   5.3758   5.3761
     5.4380   5.4390   5.4708   5.4719   5.4724   5.4745   5.4771   5.4774
     5.4782   5.4988   5.4997   5.6009   5.6016   5.6019   5.6181   5.6187
     5.6191   5.6264   5.6461   5.6469   5.6477   5.6595   5.6598   5.6601
     5.7253   5.7260   5.7447   5.7812   5.7830   5.7845   5.8203   5.8214
     5.8225   5.9035   5.9043   5.9051   5.9275   5.9281   5.9292   5.9964
     5.9964   6.0254   6.0262   6.0269   6.1498   6.1502   6.1515   6.1526
     6.2611   6.2621   6.2629   6.2631   6.2639   6.2642   6.2898   6.2906
     6.3344   6.3351   6.3357   6.3623   6.3635   6.3641   6.3879   6.3894
     6.3898   6.5525   6.5709   6.5711   6.5719   6.6366   6.6380   6.6382
     6.7471   6.7479   6.7481   6.7651   6.7657   6.7812   6.7819   6.7824
     6.8085   6.9647   7.1806   7.1808

          k = 0.0000 0.0000 0.2714 (115879 PWs)   bands (ev):

   -28.2769 -28.2755 -28.2754 -28.2753 -28.2752 -28.2752 -28.2752 -28.2752
   -28.2751 -28.2751 -28.2747 -28.2743 -14.9232 -14.9230 -14.9228 -14.9227
   -14.9227 -14.9225 -14.9224 -14.9223 -14.9221 -14.9220 -14.9218 -14.9213
   -14.9173 -14.9172 -14.9171 -14.9169 -14.9168 -14.9167 -14.9165 -14.9164
   -14.9163 -14.9162 -14.9159 -14.9156 -14.9052 -14.9050 -14.9048 -14.9048
   -14.9047 -14.9046 -14.9045 -14.9044 -14.9042 -14.9041 -14.9039 -14.9035
   -14.8650 -14.8648 -14.8646 -14.8646 -14.8645 -14.8644 -14.8643 -14.8642
   -14.8640 -14.8640 -14.8638 -14.8633 -14.8198 -14.8197 -14.8196 -14.8194
   -14.8193 -14.8192 -14.8192 -14.8190 -14.8189 -14.8188 -14.8185 -14.8183
   -10.3395 -10.3391 -10.3391 -10.3371 -10.3370 -10.3369 -10.3340 -10.3337
   -10.3336 -10.3322 -10.3279 -10.3252 -10.3121 -10.3078 -10.3074 -10.3073
   -10.3019 -10.3018 -10.3016 -10.2938 -10.2936 -10.2935 -10.2928 -10.2847
   -10.2700 -10.2698 -10.2696 -10.2656 -10.2654 -10.2654 -10.2620 -10.2619
   -10.2618 -10.2580 -10.2577 -10.2557  -6.8239  -6.7133  -6.4108  -6.4087
    -6.4082  -6.4065  -6.3049  -6.3042  -6.3021  -6.2313  -6.2301  -6.2298
    -5.9930  -5.9915  -5.9892  -5.8542  -5.8361  -5.8345  -5.8323  -5.7756
    -5.7730  -5.7716  -5.6586  -5.6559  -5.6554  -5.6519  -5.6150  -5.6124
    -5.6117  -5.6085  -5.5568  -5.5531  -5.5520  -5.5502  -5.5460  -5.5449
    -5.5413  -5.4542  -5.4368  -5.4344  -5.4341  -5.4321  -5.3745  -5.3458
    -5.3392  -5.3372  -5.3369  -5.2817  -0.6041  -0.6033  -0.6022  -0.4129
    -0.4123  -0.4112  -0.3480  -0.3323  -0.3016  -0.3010  -0.2997  -0.2739
     1.4085   1.4094   1.4099   1.5711   1.6151   1.6183   1.6187   1.6208
     1.6590   1.9335   1.9352   1.9372   2.0035   2.0456   2.0513   2.0524
     2.0552   2.0680   2.2744   2.2758   2.2770   2.3049   2.3879   2.3890
     2.3899   2.3907   2.4147   2.4165   2.4177   2.4559   2.6214   2.6229
     2.6271   2.6673   2.7185   2.7905   2.7969   2.7984   2.7991   2.8710
     2.8724   2.8731   2.9753   2.9758   2.9766   3.0451   3.0458   3.0481
     3.1065   3.1068   3.1094   3.1764   3.1992   3.2037   3.2045   3.2054
     3.2731   3.2744   3.2762   3.2841   3.3737   3.3825   3.3841   3.3864
     3.4177   3.4194   3.4210   3.4374   3.4406   3.4419   3.4478   3.4497
     3.4504   3.4763   3.4976   3.5171   3.5188   3.5190   3.5372   3.5442
     3.5493   3.5503   3.5511   3.6386   3.6427   3.6452   3.6459   3.6510
     3.6788   3.6810   3.6820   3.7731   3.8296   3.8750   3.8761   3.8775
     3.9079   3.9205   3.9940   3.9957   3.9962   4.0550   4.0558   4.0569
     4.0749   4.1160   4.1173   4.1195   4.1469   4.1488   4.1500   4.1653
     4.1707   4.1721   4.1733   4.2113   4.2495   4.2514   4.2535   4.2674
     4.4201   4.4219   4.4246   4.4828   4.5578   4.5598   4.5606   4.6035
     4.6055   4.6065   4.6762   4.8059   5.1364   5.1472   5.1539   5.1542
     5.1549   5.1647   5.1863   5.1871   5.1879   5.2159   5.2166   5.2170
     5.2176   5.2475   5.2482   5.2490   5.2581   5.2592   5.2595   5.2602
     5.2762   5.2769   5.2776   5.2778   5.3284   5.3293   5.3299   5.3327
     5.3341   5.3355   5.3414   5.3424   5.3434   5.3652   5.3744   5.3749
     5.3758   5.3897   5.4025   5.4199   5.4205   5.4209   5.5262   5.5322
     5.5325   5.5336   5.5822   5.5883   5.5885   5.5887   5.5898   5.6193
     5.6203   5.6206   5.6519   5.6523   5.6526   5.6611   5.6817   5.6820
     5.6831   5.7538   5.7555   5.7567   5.7911   5.7991   5.8168   5.8178
     5.8196   5.8708   5.8834   5.8840   5.8854   5.9883   5.9893   5.9902
     6.0414   6.0424   6.0433   6.0971   6.0980   6.0991   6.1753   6.1908
     6.1921   6.1926   6.2369   6.2687   6.2692   6.2697   6.3253   6.3260
     6.3268   6.3590   6.3601   6.3706   6.3712   6.3717   6.3953   6.4287
     6.4299   6.4304   6.4808   6.6402   6.6415   6.6418   6.6426   6.6434
     6.6436   6.6705   6.7088   6.7095   6.7099   6.7525   6.7533   6.7538
     6.9415   7.0053   7.0946   7.1701

          k = 0.0000 0.3849 0.0000 (115797 PWs)   bands (ev):

   -28.2769 -28.2755 -28.2754 -28.2753 -28.2752 -28.2752 -28.2752 -28.2752
   -28.2751 -28.2751 -28.2747 -28.2743 -14.9232 -14.9229 -14.9227 -14.9227
   -14.9227 -14.9225 -14.9224 -14.9223 -14.9221 -14.9221 -14.9218 -14.9214
   -14.9173 -14.9172 -14.9171 -14.9169 -14.9168 -14.9167 -14.9166 -14.9164
   -14.9163 -14.9162 -14.9160 -14.9157 -14.9052 -14.9050 -14.9048 -14.9048
   -14.9047 -14.9046 -14.9045 -14.9044 -14.9042 -14.9041 -14.9039 -14.9035
   -14.8650 -14.8648 -14.8646 -14.8646 -14.8645 -14.8644 -14.8643 -14.8642
   -14.8640 -14.8640 -14.8638 -14.8633 -14.8198 -14.8197 -14.8196 -14.8194
   -14.8193 -14.8192 -14.8192 -14.8190 -14.8189 -14.8188 -14.8185 -14.8183
   -10.3383 -10.3377 -10.3367 -10.3361 -10.3359 -10.3355 -10.3344 -10.3341
   -10.3325 -10.3323 -10.3316 -10.3264 -10.3074 -10.3070 -10.3062 -10.3042
   -10.3030 -10.3019 -10.3016 -10.3014 -10.2946 -10.2944 -10.2906 -10.2851
   -10.2697 -10.2692 -10.2689 -10.2666 -10.2663 -10.2637 -10.2627 -10.2625
   -10.2622 -10.2604 -10.2596 -10.2561  -6.7879  -6.5897  -6.4993  -6.4980
    -6.4393  -6.4373  -6.3654  -6.3489  -6.2851  -6.2841  -6.2486  -6.2476
    -5.9114  -5.9104  -5.8209  -5.8187  -5.8167  -5.7776  -5.7697  -5.7654
    -5.7322  -5.7242  -5.7224  -5.6916  -5.6886  -5.6472  -5.6389  -5.6365
    -5.6290  -5.5950  -5.5847  -5.5831  -5.5681  -5.5280  -5.5206  -5.5177
    -5.5156  -5.5042  -5.4623  -5.4520  -5.4365  -5.4359  -5.4211  -5.4147
    -5.3495  -5.3478  -5.3133  -5.2706  -0.5709  -0.5707  -0.5613  -0.4350
    -0.4037  -0.4035  -0.3770  -0.3393  -0.3382  -0.3349  -0.3123  -0.3030
     1.4188   1.4868   1.4885   1.5008   1.6396   1.6514   1.6899   1.7228
     1.7255   1.8276   1.8757   1.8775   1.9547   1.9560   1.9569   2.0280
     2.1151   2.2069   2.2295   2.2304   2.3390   2.3638   2.3851   2.3887
     2.3936   2.4083   2.4493   2.5368   2.5382   2.6106   2.6140   2.6178
     2.6567   2.7343   2.8115   2.8139   2.8223   2.8405   2.8421   2.8442
     2.8540   2.8843   2.9084   2.9087   2.9152   2.9624   2.9634   3.0042
     3.0486   3.0559   3.0577   3.1241   3.1490   3.1756   3.2046   3.2117
     3.2127   3.2357   3.2595   3.2628   3.2688   3.3224   3.3292   3.3324
     3.3388   3.3723   3.3950   3.3954   3.4333   3.4394   3.4411   3.4495
     3.4962   3.4977   3.5001   3.5095   3.5118   3.5139   3.5218   3.5430
     3.5616   3.6048   3.6057   3.6104   3.6337   3.6458   3.6785   3.6804
     3.6937   3.7024   3.7040   3.7086   3.7781   3.7802   3.8487   3.8590
     3.8960   3.9744   3.9749   3.9779   3.9807   4.0300   4.0371   4.0406
     4.0925   4.1112   4.1202   4.1227   4.1257   4.1625   4.1639   4.1782
     4.2476   4.2659   4.2703   4.2823   4.3027   4.3214   4.3237   4.3680
     4.3780   4.4156   4.4192   4.4825   4.5180   4.5256   4.5276   4.5288
     4.5901   4.5914   4.6265   4.7478   5.1440   5.1442   5.1472   5.1553
     5.1594   5.1607   5.1697   5.1747   5.2145   5.2191   5.2198   5.2213
     5.2276   5.2378   5.2486   5.2490   5.2504   5.2611   5.2674   5.2714
     5.2724   5.2895   5.3038   5.3044   5.3143   5.3190   5.3264   5.3275
     5.3366   5.3498   5.3524   5.3531   5.3573   5.3657   5.4136   5.4143
     5.4333   5.4514   5.4609   5.4615   5.4854   5.4936   5.5007   5.5011
     5.5025   5.5131   5.5272   5.5439   5.5562   5.5569   5.5613   5.6030
     5.6034   5.6305   5.6314   5.6319   5.6679   5.6783   5.6947   5.6961
     5.6965   5.7181   5.7298   5.7563   5.7750   5.7760   5.8092   5.8190
     5.8208   5.8642   5.8739   5.8774   5.9506   5.9516   5.9645   5.9663
     5.9907   6.0071   6.0078   6.0212   6.1384   6.1394   6.1460   6.1609
     6.2244   6.2297   6.2301   6.2512   6.2709   6.2892   6.2897   6.2991
     6.3612   6.3623   6.3769   6.3898   6.3906   6.4416   6.4854   6.4866
     6.5244   6.5379   6.5388   6.5757   6.6046   6.6506   6.6830   6.6925
     6.6931   6.7301   6.7375   6.7379   6.7625   6.7779   6.7931   6.8119
     6.8127   6.9043   6.9092   7.0807

          k = 0.0000 0.3849 0.2714 (115773 PWs)   bands (ev):

   -28.2769 -28.2755 -28.2754 -28.2753 -28.2752 -28.2752 -28.2752 -28.2752
   -28.2751 -28.2751 -28.2747 -28.2743 -14.9232 -14.9229 -14.9227 -14.9227
   -14.9227 -14.9225 -14.9224 -14.9223 -14.9221 -14.9221 -14.9218 -14.9214
   -14.9173 -14.9172 -14.9171 -14.9169 -14.9167 -14.9167 -14.9166 -14.9164
   -14.9163 -14.9162 -14.9160 -14.9157 -14.9052 -14.9050 -14.9048 -14.9048
   -14.9047 -14.9046 -14.9045 -14.9044 -14.9042 -14.9041 -14.9039 -14.9035
   -14.8650 -14.8648 -14.8646 -14.8646 -14.8645 -14.8644 -14.8643 -14.8642
   -14.8640 -14.8640 -14.8638 -14.8633 -14.8198 -14.8197 -14.8196 -14.8194
   -14.8193 -14.8192 -14.8192 -14.8190 -14.8189 -14.8188 -14.8185 -14.8183
   -10.3390 -10.3385 -10.3378 -10.3371 -10.3366 -10.3342 -10.3338 -10.3331
   -10.3328 -10.3319 -10.3297 -10.3272 -10.3104 -10.3069 -10.3064 -10.3059
   -10.3014 -10.3007 -10.3004 -10.2964 -10.2962 -10.2939 -10.2911 -10.2875
   -10.2698 -10.2693 -10.2681 -10.2667 -10.2663 -10.2640 -10.2624 -10.2622
   -10.2619 -10.2604 -10.2592 -10.2577  -6.7508  -6.6467  -6.5604  -6.4721
    -6.4237  -6.4215  -6.3638  -6.3289  -6.3279  -6.2587  -6.2247  -6.2235
    -5.9054  -5.9039  -5.8237  -5.8217  -5.8083  -5.8069  -5.7921  -5.7618
    -5.7578  -5.7317  -5.7111  -5.7107  -5.6716  -5.6349  -5.6298  -5.6280
    -5.6247  -5.6083  -5.6000  -5.5988  -5.5689  -5.5285  -5.5234  -5.5206
    -5.5201  -5.4958  -5.4675  -5.4325  -5.4285  -5.4280  -5.4235  -5.3634
    -5.3491  -5.3473  -5.3219  -5.3000  -0.5594  -0.5584  -0.5578  -0.4361
    -0.4352  -0.4243  -0.3935  -0.3732  -0.3195  -0.3177  -0.2990  -0.2787
     1.4335   1.4847   1.4863   1.4876   1.6253   1.6417   1.7711   1.7739
     1.7838   1.7899   1.8002   1.8006   1.9142   1.9960   1.9965   2.0778
     2.1548   2.1995   2.2108   2.2468   2.2494   2.3601   2.3922   2.3947
     2.3985   2.4481   2.5110   2.5129   2.5469   2.5877   2.5935   2.6074
     2.6419   2.7111   2.7620   2.7675   2.7695   2.7889   2.8090   2.8094
     2.8389   2.8734   2.9150   2.9168   2.9185   2.9817   3.0239   3.0247
     3.0666   3.1061   3.1072   3.1337   3.1707   3.1921   3.1932   3.1949
     3.2001   3.2323   3.2634   3.2661   3.2773   3.3164   3.3211   3.3231
     3.3247   3.3889   3.3898   3.4112   3.4443   3.4458   3.4672   3.4688
     3.4720   3.4741   3.4755   3.4764   3.5333   3.5350   3.5371   3.5897
     3.6100   3.6108   3.6138   3.6331   3.6422   3.6473   3.6585   3.6597
     3.6673   3.7104   3.7111   3.7122   3.8353   3.8366   3.8789   3.8876
     3.9046   3.9500   3.9507   3.9742   3.9822   4.0199   4.0463   4.0488
     4.0516   4.0659   4.1104   4.1118   4.1199   4.1325   4.1341   4.1478
     4.1900   4.2550   4.2657   4.2687   4.2880   4.2911   4.2949   4.3868
     4.3971   4.4362   4.4398   4.4672   4.5235   4.5246   4.5357   4.5958
     4.6095   4.6110   4.6220   4.7205   5.1508   5.1511   5.1546   5.1574
     5.1722   5.1749   5.1765   5.1833   5.1909   5.1974   5.2014   5.2074
     5.2078   5.2345   5.2346   5.2353   5.2543   5.2639   5.2653   5.2660
     5.2796   5.2986   5.3073   5.3120   5.3132   5.3284   5.3362   5.3375
     5.3579   5.3584   5.3600   5.3641   5.3803   5.3926   5.4067   5.4074
     5.4129   5.4323   5.4333   5.4445   5.4453   5.4921   5.5020   5.5022
     5.5087   5.5160   5.5537   5.5598   5.5743   5.5745   5.6027   5.6107
     5.6114   5.6193   5.6246   5.6256   5.6431   5.6699   5.6819   5.7137
     5.7149   5.7176   5.7339   5.7727   5.7733   5.7735   5.8025   5.8037
     5.8103   5.8587   5.8736   5.8772   5.8790   5.9147   5.9588   5.9606
     6.0343   6.0351   6.0358   6.0598   6.0782   6.0794   6.1733   6.2065
     6.2125   6.2129   6.2657   6.2672   6.2697   6.2767   6.2857   6.3490
     6.3502   6.3655   6.3726   6.4157   6.4244   6.4248   6.4274   6.4711
     6.4979   6.4989   6.5461   6.5592   6.5950   6.5965   6.6668   6.6674
     6.6764   6.7196   6.7363   6.7369   6.7465   6.8131   6.8140   6.8449
     6.8692   6.9283   6.9369   7.0522

          k = 0.3333 0.5774 0.0000 (115752 PWs)   bands (ev):

   -28.2769 -28.2755 -28.2754 -28.2753 -28.2752 -28.2752 -28.2752 -28.2752
   -28.2751 -28.2751 -28.2747 -28.2743 -14.9231 -14.9229 -14.9227 -14.9227
   -14.9226 -14.9225 -14.9224 -14.9223 -14.9221 -14.9221 -14.9219 -14.9214
   -14.9173 -14.9172 -14.9171 -14.9168 -14.9168 -14.9166 -14.9166 -14.9165
   -14.9163 -14.9162 -14.9160 -14.9157 -14.9052 -14.9050 -14.9048 -14.9047
   -14.9047 -14.9045 -14.9045 -14.9044 -14.9042 -14.9041 -14.9039 -14.9035
   -14.8650 -14.8648 -14.8646 -14.8646 -14.8645 -14.8644 -14.8643 -14.8642
   -14.8640 -14.8640 -14.8638 -14.8633 -14.8198 -14.8197 -14.8196 -14.8194
   -14.8193 -14.8192 -14.8192 -14.8190 -14.8189 -14.8188 -14.8185 -14.8183
   -10.3387 -10.3362 -10.3355 -10.3352 -10.3349 -10.3349 -10.3348 -10.3348
   -10.3342 -10.3305 -10.3301 -10.3298 -10.3072 -10.3051 -10.3047 -10.3044
   -10.3022 -10.3020 -10.3019 -10.3001 -10.2998 -10.2902 -10.2898 -10.2895
   -10.2696 -10.2673 -10.2670 -10.2669 -10.2658 -10.2657 -10.2643 -10.2640
   -10.2637 -10.2590 -10.2587 -10.2583  -6.6518  -6.6503  -6.6486  -6.4015
    -6.3992  -6.3987  -6.3984  -6.3980  -6.3955  -6.2930  -6.2919  -6.1926
    -5.8652  -5.8518  -5.8490  -5.7505  -5.7485  -5.7475  -5.7330  -5.7319
    -5.7312  -5.7090  -5.7066  -5.6957  -5.6942  -5.6921  -5.6852  -5.6847
    -5.6836  -5.6450  -5.5424  -5.5408  -5.5396  -5.5295  -5.5290  -5.5269
    -5.5118  -5.4726  -5.4725  -5.4696  -5.4673  -5.4664  -5.4646  -5.3976
    -5.3965  -5.3036  -5.3014  -5.3007  -0.5439  -0.5148  -0.5144  -0.5125
    -0.3965  -0.3958  -0.3906  -0.3899  -0.3886  -0.3102  -0.3094  -0.3088
     1.4832   1.4847   1.4859   1.6737   1.6753   1.6763   1.6855   1.6864
     1.6884   1.7331   1.7350   1.7988   2.0806   2.0815   2.0821   2.0826
     2.0860   2.1431   2.1447   2.1461   2.2558   2.3957   2.3970   2.3984
     2.4933   2.4945   2.4952   2.5627   2.5635   2.5649   2.5969   2.5975
     2.7727   2.7737   2.7762   2.8354   2.8374   2.8427   2.8439   2.8449
     2.8489   2.8517   2.8531   2.8557   2.8687   3.0090   3.0106   3.0127
     3.0232   3.0258   3.0262   3.0621   3.1320   3.1343   3.1355   3.1964
     3.1971   3.1998   3.2579   3.2596   3.2624   3.2706   3.2727   3.3615
     3.3695   3.3718   3.3723   3.3738   3.4241   3.4254   3.4260   3.4855
     3.4877   3.4996   3.5028   3.5039   3.5283   3.5296   3.5305   3.5471
     3.5482   3.5781   3.5801   3.5815   3.6480   3.6505   3.6522   3.7186
     3.7206   3.7217   3.7276   3.7293   3.7566   3.8012   3.8015   3.8022
     3.9578   3.9598   3.9605   3.9867   3.9875   4.0294   4.0300   4.0317
     4.0829   4.0849   4.0862   4.1410   4.1507   4.1510   4.1537   4.2835
     4.2855   4.2937   4.3164   4.3191   4.3194   4.3211   4.3213   4.3242
     4.3843   4.3867   4.3877   4.4958   4.5139   4.5159   4.5188   4.5207
     4.5221   4.6531   4.6546   4.6561   5.1373   5.1438   5.1443   5.1445
     5.1727   5.1735   5.1879   5.1884   5.1887   5.1963   5.1969   5.1974
     5.2465   5.2472   5.2477   5.2652   5.2658   5.2665   5.2978   5.2984
     5.2990   5.3010   5.3028   5.3032   5.3135   5.3184   5.3190   5.3195
     5.3396   5.3406   5.3409   5.4029   5.4033   5.4042   5.4079   5.4082
     5.4550   5.4553   5.4563   5.4579   5.4830   5.4837   5.4841   5.4884
     5.4892   5.5354   5.5359   5.5360   5.5639   5.5649   5.5653   5.5707
     5.5712   5.5719   5.6411   5.6718   5.6728   5.6946   5.6953   5.6958
     5.7069   5.7076   5.7083   5.7795   5.7804   5.7813   5.7993   5.8000
     5.8008   5.8240   5.8246   5.8445   5.9302   5.9309   5.9315   6.0461
     6.0468   6.0477   6.0481   6.0497   6.1381   6.1388   6.1398   6.1584
     6.2180   6.2189   6.2202   6.2600   6.2605   6.2612   6.2840   6.2847
     6.3751   6.4096   6.4104   6.4111   6.4164   6.4173   6.4229   6.4521
     6.4525   6.4528   6.6152   6.6153   6.6159   6.6762   6.6767   6.6770
     6.7248   6.7401   6.7413   6.8060   6.8066   6.8070   6.8096   6.8107
     6.8113   6.9388   6.9395   6.9399

          k = 0.3333 0.5774 0.2714 (115827 PWs)   bands (ev):

   -28.2769 -28.2755 -28.2754 -28.2753 -28.2752 -28.2752 -28.2752 -28.2752
   -28.2751 -28.2751 -28.2747 -28.2743 -14.9231 -14.9229 -14.9227 -14.9227
   -14.9226 -14.9225 -14.9224 -14.9223 -14.9221 -14.9221 -14.9219 -14.9214
   -14.9173 -14.9172 -14.9171 -14.9168 -14.9168 -14.9167 -14.9166 -14.9165
   -14.9163 -14.9162 -14.9160 -14.9157 -14.9052 -14.9050 -14.9048 -14.9047
   -14.9047 -14.9045 -14.9045 -14.9044 -14.9042 -14.9041 -14.9039 -14.9035
   -14.8650 -14.8648 -14.8646 -14.8646 -14.8645 -14.8644 -14.8643 -14.8642
   -14.8640 -14.8640 -14.8638 -14.8633 -14.8198 -14.8197 -14.8196 -14.8194
   -14.8193 -14.8192 -14.8192 -14.8190 -14.8189 -14.8188 -14.8185 -14.8183
   -10.3388 -10.3380 -10.3370 -10.3366 -10.3363 -10.3336 -10.3330 -10.3330
   -10.3327 -10.3305 -10.3302 -10.3299 -10.3080 -10.3076 -10.3073 -10.3049
   -10.3012 -10.3009 -10.2976 -10.2973 -10.2971 -10.2920 -10.2916 -10.2914
   -10.2696 -10.2687 -10.2667 -10.2664 -10.2662 -10.2642 -10.2638 -10.2637
   -10.2628 -10.2598 -10.2595 -10.2592  -6.6197  -6.6182  -6.6164  -6.5260
    -6.5248  -6.5230  -6.3084  -6.2904  -6.2893  -6.2870  -6.2577  -6.2143
    -5.8743  -5.8568  -5.8456  -5.7816  -5.7793  -5.7788  -5.7437  -5.7418
    -5.7402  -5.7153  -5.6885  -5.6876  -5.6869  -5.6730  -5.6722  -5.6716
    -5.6688  -5.6447  -5.5575  -5.5562  -5.5540  -5.5259  -5.5244  -5.5230
    -5.5048  -5.5038  -5.5028  -5.4986  -5.4591  -5.3996  -5.3978  -5.3970
    -5.3583  -5.3244  -5.3224  -5.3214  -0.5200  -0.5059  -0.5053  -0.5039
    -0.4608  -0.4175  -0.4169  -0.4151  -0.3549  -0.2936  -0.2926  -0.2912
     1.4816   1.4827   1.4839   1.6373   1.6387   1.6398   1.6901   1.7734
     1.7763   1.7765   1.7770   1.7936   1.9811   1.9817   1.9842   2.0556
     2.1721   2.1925   2.1927   2.1944   2.2466   2.3961   2.3970   2.3981
     2.4885   2.4890   2.4898   2.5570   2.5868   2.5877   2.5893   2.5922
     2.6791   2.7346   2.7369   2.7385   2.8224   2.8235   2.8241   2.8270
     2.9003   2.9026   2.9042   2.9243   2.9368   2.9533   2.9555   2.9580
     3.0600   3.0603   3.0612   3.0861   3.0885   3.0915   3.1259   3.1804
     3.2436   3.2443   3.2470   3.2693   3.2712   3.2733   3.3216   3.3268
     3.3279   3.3294   3.3735   3.4083   3.4209   3.4627   3.4659   3.4665
     3.4916   3.4971   3.4994   3.5006   3.5361   3.5366   3.5379   3.5398
     3.5608   3.6135   3.6164   3.6173   3.6531   3.6549   3.6558   3.6969
     3.6978   3.6988   3.7199   3.7436   3.8218   3.8405   3.8411   3.8422
     3.9376   3.9405   3.9411   3.9425   4.0287   4.0299   4.0308   4.0396
     4.0667   4.0681   4.0702   4.1095   4.1126   4.1143   4.1165   4.1674
     4.2711   4.2732   4.2751   4.2894   4.3152   4.3591   4.3617   4.3639
     4.4162   4.4170   4.4179   4.4906   4.4933   4.4944   4.5075   4.5110
     4.5651   4.6657   4.6675   4.6684   5.1486   5.1568   5.1573   5.1577
     5.1579   5.1824   5.1829   5.1834   5.1980   5.1983   5.1986   5.2107
     5.2243   5.2253   5.2256   5.2517   5.2525   5.2528   5.2565   5.2682
     5.3009   5.3018   5.3023   5.3094   5.3285   5.3297   5.3301   5.3676
     5.3683   5.3688   5.3747   5.3937   5.3954   5.4081   5.4093   5.4098
     5.4330   5.4333   5.4342   5.4384   5.4843   5.4849   5.4853   5.4906
     5.5391   5.5395   5.5399   5.5437   5.5658   5.5664   5.5671   5.6055
     5.6061   5.6069   5.6379   5.6391   5.6726   5.6729   5.6736   5.7035
     5.7038   5.7047   5.7179   5.7594   5.7597   5.7605   5.8014   5.8081
     5.8208   5.8241   5.8244   5.8253   5.8897   5.8908   5.8916   6.0569
     6.0602   6.0605   6.0625   6.0775   6.1193   6.1203   6.1208   6.1351
     6.1951   6.2378   6.2380   6.2393   6.2842   6.3016   6.3022   6.3030
     6.3065   6.3847   6.3854   6.3868   6.4505   6.4676   6.4684   6.4687
     6.4918   6.4924   6.5589   6.5596   6.5608   6.6454   6.6854   6.6856
     6.6861   6.7600   6.7781   6.7784   6.7789   6.7927   6.8542   6.8554
     6.8559   6.9354   6.9361   6.9367

          k =-0.3333 0.1925 0.0000 (115797 PWs)   bands (ev):

   -28.2769 -28.2755 -28.2754 -28.2753 -28.2752 -28.2752 -28.2752 -28.2752
   -28.2751 -28.2751 -28.2747 -28.2743 -14.9231 -14.9230 -14.9228 -14.9227
   -14.9226 -14.9225 -14.9224 -14.9223 -14.9222 -14.9221 -14.9219 -14.9214
   -14.9173 -14.9172 -14.9171 -14.9169 -14.9168 -14.9167 -14.9166 -14.9165
   -14.9163 -14.9162 -14.9160 -14.9156 -14.9052 -14.9050 -14.9048 -14.9048
   -14.9047 -14.9046 -14.9045 -14.9044 -14.9042 -14.9041 -14.9039 -14.9035
   -14.8650 -14.8648 -14.8646 -14.8646 -14.8645 -14.8644 -14.8643 -14.8642
   -14.8640 -14.8640 -14.8638 -14.8633 -14.8198 -14.8197 -14.8196 -14.8194
   -14.8193 -14.8192 -14.8192 -14.8190 -14.8189 -14.8188 -14.8185 -14.8183
   -10.3382 -10.3378 -10.3364 -10.3363 -10.3361 -10.3356 -10.3343 -10.3341
   -10.3323 -10.3322 -10.3317 -10.3264 -10.3073 -10.3071 -10.3063 -10.3041
   -10.3031 -10.3018 -10.3016 -10.3014 -10.2946 -10.2946 -10.2905 -10.2851
   -10.2696 -10.2693 -10.2689 -10.2665 -10.2665 -10.2636 -10.2632 -10.2623
   -10.2618 -10.2602 -10.2598 -10.2561  -6.7879  -6.5902  -6.4993  -6.4980
    -6.4384  -6.4370  -6.3657  -6.3489  -6.2858  -6.2834  -6.2490  -6.2471
    -5.9119  -5.9109  -5.8208  -5.8191  -5.8180  -5.7772  -5.7684  -5.7673
    -5.7321  -5.7246  -5.7209  -5.6903  -5.6892  -5.6477  -5.6379  -5.6371
    -5.6285  -5.5947  -5.5850  -5.5826  -5.5677  -5.5286  -5.5189  -5.5182
    -5.5165  -5.5041  -5.4621  -5.4517  -5.4379  -5.4357  -5.4215  -5.4145
    -5.3486  -5.3476  -5.3139  -5.2707  -0.5719  -0.5691  -0.5618  -0.4352
    -0.4050  -0.4023  -0.3770  -0.3379  -0.3374  -0.3368  -0.3127  -0.3029
     1.4188   1.4877   1.4879   1.5016   1.6405   1.6531   1.6884   1.7234
     1.7248   1.8274   1.8760   1.8784   1.9534   1.9548   1.9561   2.0265
     2.1158   2.2070   2.2287   2.2306   2.3381   2.3636   2.3865   2.3874
     2.3932   2.4079   2.4497   2.5377   2.5391   2.6126   2.6143   2.6173
     2.6574   2.7343   2.8127   2.8140   2.8202   2.8409   2.8427   2.8435
     2.8539   2.8856   2.9073   2.9092   2.9152   2.9610   2.9640   3.0050
     3.0506   3.0556   3.0575   3.1243   3.1481   3.1760   3.2044   3.2116
     3.2145   3.2349   3.2593   3.2612   3.2700   3.3237   3.3298   3.3311
     3.3386   3.3713   3.3933   3.3969   3.4337   3.4400   3.4404   3.4499
     3.4968   3.4981   3.4992   3.5108   3.5112   3.5127   3.5225   3.5407
     3.5614   3.6019   3.6057   3.6110   3.6348   3.6465   3.6792   3.6805
     3.6948   3.7026   3.7033   3.7084   3.7786   3.7795   3.8487   3.8590
     3.8964   3.9737   3.9768   3.9783   3.9801   4.0301   4.0381   4.0390
     4.0928   4.1111   4.1192   4.1220   4.1261   4.1599   4.1651   4.1784
     4.2492   4.2667   4.2675   4.2827   4.3025   4.3215   4.3236   4.3687
     4.3782   4.4161   4.4180   4.4837   4.5156   4.5262   4.5278   4.5292
     4.5896   4.5931   4.6268   4.7482   5.1427   5.1438   5.1472   5.1547
     5.1602   5.1607   5.1695   5.1745   5.2146   5.2189   5.2196   5.2219
     5.2279   5.2373   5.2485   5.2494   5.2499   5.2611   5.2667   5.2720
     5.2723   5.2888   5.3042   5.3048   5.3133   5.3183   5.3272   5.3278
     5.3370   5.3497   5.3523   5.3535   5.3572   5.3653   5.4136   5.4142
     5.4339   5.4510   5.4613   5.4620   5.4852   5.4935   5.4997   5.5008
     5.5033   5.5132   5.5277   5.5440   5.5568   5.5570   5.5612   5.6031
     5.6033   5.6305   5.6314   5.6317   5.6682   5.6787   5.6959   5.6963
     5.6973   5.7176   5.7290   5.7567   5.7746   5.7763   5.8091   5.8188
     5.8197   5.8639   5.8761   5.8764   5.9500   5.9512   5.9650   5.9661
     5.9904   6.0070   6.0078   6.0206   6.1390   6.1403   6.1443   6.1613
     6.2250   6.2289   6.2305   6.2508   6.2709   6.2888   6.2899   6.2995
     6.3610   6.3625   6.3775   6.3893   6.3904   6.4411   6.4862   6.4867
     6.5243   6.5375   6.5380   6.5753   6.6043   6.6512   6.6839   6.6921
     6.6929   6.7300   6.7372   6.7378   6.7624   6.7783   6.7936   6.8120
     6.8125   6.9048   6.9093   7.0811

          k = 0.3333 0.1925 0.0000 (115797 PWs)   bands (ev):

   -28.2769 -28.2755 -28.2754 -28.2753 -28.2752 -28.2752 -28.2752 -28.2752
   -28.2751 -28.2751 -28.2747 -28.2743 -14.9231 -14.9230 -14.9227 -14.9227
   -14.9227 -14.9225 -14.9224 -14.9223 -14.9221 -14.9221 -14.9218 -14.9214
   -14.9173 -14.9172 -14.9171 -14.9168 -14.9168 -14.9167 -14.9166 -14.9165
   -14.9163 -14.9162 -14.9160 -14.9156 -14.9052 -14.9050 -14.9048 -14.9047
   -14.9047 -14.9045 -14.9045 -14.9044 -14.9042 -14.9041 -14.9039 -14.9035
   -14.8650 -14.8648 -14.8646 -14.8646 -14.8645 -14.8644 -14.8643 -14.8642
   -14.8640 -14.8640 -14.8638 -14.8633 -14.8198 -14.8197 -14.8196 -14.8194
   -14.8193 -14.8192 -14.8192 -14.8190 -14.8189 -14.8188 -14.8185 -14.8183
   -10.3382 -10.3378 -10.3368 -10.3363 -10.3359 -10.3354 -10.3343 -10.3341
   -10.3324 -10.3323 -10.3317 -10.3264 -10.3074 -10.3070 -10.3062 -10.3042
   -10.3029 -10.3020 -10.3016 -10.3014 -10.2945 -10.2944 -10.2907 -10.2851
   -10.2696 -10.2693 -10.2688 -10.2666 -10.2664 -10.2637 -10.2626 -10.2624
   -10.2622 -10.2603 -10.2598 -10.2561  -6.7879  -6.5897  -6.4995  -6.4977
    -6.4388  -6.4379  -6.3654  -6.3486  -6.2859  -6.2843  -6.2484  -6.2480
    -5.9112  -5.9086  -5.8206  -5.8184  -5.8155  -5.7775  -5.7677  -5.7667
    -5.7323  -5.7254  -5.7231  -5.6908  -5.6898  -5.6487  -5.6391  -5.6377
    -5.6297  -5.5962  -5.5851  -5.5838  -5.5667  -5.5266  -5.5197  -5.5182
    -5.5152  -5.5034  -5.4614  -5.4513  -5.4382  -5.4357  -5.4221  -5.4138
    -5.3495  -5.3473  -5.3135  -5.2707  -0.5712  -0.5701  -0.5617  -0.4351
    -0.4042  -0.4031  -0.3768  -0.3383  -0.3377  -0.3365  -0.3124  -0.3028
     1.4191   1.4867   1.4879   1.5020   1.6401   1.6526   1.6876   1.7229
     1.7245   1.8282   1.8763   1.8775   1.9545   1.9559   1.9588   2.0283
     2.1155   2.2063   2.2287   2.2302   2.3390   2.3635   2.3854   2.3863
     2.3942   2.4088   2.4493   2.5369   2.5377   2.6116   2.6132   2.6168
     2.6565   2.7342   2.8121   2.8132   2.8238   2.8403   2.8420   2.8455
     2.8534   2.8837   2.9076   2.9090   2.9143   2.9618   2.9641   3.0050
     3.0498   3.0556   3.0574   3.1231   3.1482   3.1759   3.2044   3.2110
     3.2141   3.2337   3.2607   3.2630   3.2692   3.3229   3.3304   3.3330
     3.3388   3.3718   3.3951   3.3962   3.4323   3.4406   3.4411   3.4491
     3.4950   3.4987   3.5009   3.5084   3.5113   3.5145   3.5223   3.5433
     3.5611   3.6055   3.6067   3.6110   3.6346   3.6455   3.6781   3.6796
     3.6930   3.7027   3.7034   3.7081   3.7784   3.7795   3.8497   3.8607
     3.8955   3.9720   3.9752   3.9781   3.9804   4.0298   4.0387   4.0397
     4.0925   4.1110   4.1208   4.1222   4.1273   4.1628   4.1633   4.1784
     4.2475   4.2644   4.2674   4.2821   4.3025   4.3232   4.3244   4.3666
     4.3793   4.4163   4.4171   4.4832   4.5172   4.5265   4.5282   4.5296
     4.5896   4.5934   4.6259   4.7477   5.1437   5.1443   5.1468   5.1544
     5.1599   5.1609   5.1694   5.1749   5.2149   5.2185   5.2197   5.2218
     5.2277   5.2370   5.2489   5.2495   5.2496   5.2610   5.2679   5.2713
     5.2727   5.2891   5.3036   5.3045   5.3144   5.3191   5.3267   5.3275
     5.3364   5.3493   5.3523   5.3527   5.3574   5.3653   5.4140   5.4144
     5.4333   5.4511   5.4613   5.4622   5.4857   5.4932   5.5002   5.5007
     5.5029   5.5126   5.5273   5.5441   5.5565   5.5570   5.5615   5.6030
     5.6037   5.6302   5.6317   5.6324   5.6678   5.6777   5.6957   5.6960
     5.6966   5.7179   5.7301   5.7566   5.7753   5.7762   5.8092   5.8189
     5.8200   5.8647   5.8756   5.8763   5.9498   5.9515   5.9648   5.9653
     5.9909   6.0063   6.0075   6.0205   6.1389   6.1396   6.1450   6.1608
     6.2253   6.2286   6.2299   6.2515   6.2705   6.2894   6.2900   6.2995
     6.3620   6.3625   6.3778   6.3897   6.3904   6.4406   6.4862   6.4868
     6.5243   6.5377   6.5387   6.5758   6.6044   6.6507   6.6839   6.6911
     6.6931   6.7299   6.7376   6.7378   6.7628   6.7778   6.7933   6.8117
     6.8128   6.9042   6.9092   7.0808

          k = 0.0000-0.3849 0.2714 (115773 PWs)   bands (ev):

   -28.2769 -28.2755 -28.2754 -28.2753 -28.2752 -28.2752 -28.2752 -28.2752
   -28.2751 -28.2751 -28.2747 -28.2743 -14.9232 -14.9229 -14.9227 -14.9227
   -14.9227 -14.9225 -14.9224 -14.9223 -14.9221 -14.9221 -14.9218 -14.9214
   -14.9173 -14.9172 -14.9171 -14.9169 -14.9167 -14.9167 -14.9166 -14.9164
   -14.9163 -14.9162 -14.9160 -14.9157 -14.9052 -14.9050 -14.9048 -14.9048
   -14.9047 -14.9046 -14.9045 -14.9044 -14.9042 -14.9041 -14.9039 -14.9035
   -14.8650 -14.8648 -14.8646 -14.8646 -14.8645 -14.8644 -14.8643 -14.8642
   -14.8640 -14.8640 -14.8638 -14.8633 -14.8198 -14.8197 -14.8196 -14.8194
   -14.8193 -14.8192 -14.8192 -14.8190 -14.8189 -14.8188 -14.8185 -14.8183
   -10.3391 -10.3386 -10.3377 -10.3369 -10.3364 -10.3346 -10.3340 -10.3332
   -10.3329 -10.3314 -10.3296 -10.3274 -10.3101 -10.3080 -10.3054 -10.3050
   -10.3030 -10.3028 -10.2976 -10.2956 -10.2953 -10.2946 -10.2930 -10.2870
   -10.2693 -10.2688 -10.2685 -10.2672 -10.2670 -10.2629 -10.2621 -10.2620
   -10.2618 -10.2610 -10.2599 -10.2573  -6.7509  -6.6465  -6.5612  -6.4686
    -6.4205  -6.4182  -6.3634  -6.3403  -6.3398  -6.2655  -6.2109  -6.2098
    -5.9140  -5.9128  -5.8253  -5.8222  -5.8186  -5.8159  -5.7660  -5.7633
    -5.7530  -5.7337  -5.6835  -5.6826  -5.6816  -5.6633  -5.6444  -5.6397
    -5.6360  -5.6069  -5.5858  -5.5852  -5.5728  -5.5309  -5.5282  -5.5247
    -5.5163  -5.4863  -5.4646  -5.4392  -5.4371  -5.4363  -5.3998  -5.3707
    -5.3454  -5.3437  -5.3316  -5.2961  -0.5620  -0.5618  -0.5509  -0.4333
    -0.4289  -0.4275  -0.4109  -0.3604  -0.3228  -0.3210  -0.2900  -0.2832
     1.4050   1.4934   1.4955   1.5152   1.6121   1.7112   1.7129   1.7218
     1.7385   1.7731   1.8446   1.8458   1.9667   1.9860   2.0210   2.0224
     2.1292   2.1988   2.2085   2.2104   2.2849   2.3340   2.3967   2.4262
     2.4294   2.5179   2.5277   2.5307   2.5555   2.5573   2.5587   2.5602
     2.6000   2.6781   2.7626   2.7658   2.8232   2.8242   2.8273   2.8301
     2.8490   2.8524   2.8951   2.8964   2.9062   3.0078   3.0183   3.0188
     3.0747   3.0786   3.1173   3.1192   3.1342   3.1805   3.1813   3.1886
     3.2148   3.2468   3.2663   3.2845   3.2869   3.2941   3.3295   3.3332
     3.3749   3.3770   3.3787   3.3792   3.4449   3.4473   3.4504   3.4755
     3.4788   3.4811   3.5049   3.5192   3.5340   3.5348   3.5366   3.5571
     3.5848   3.5878   3.6103   3.6302   3.6394   3.6445   3.6826   3.6839
     3.6869   3.6958   3.7033   3.7050   3.8365   3.8373   3.8775   3.8798
     3.9414   3.9455   3.9461   3.9484   3.9722   4.0327   4.0531   4.0563
     4.0593   4.0622   4.0999   4.1019   4.1215   4.1234   4.1298   4.1339
     4.2230   4.2402   4.2679   4.2716   4.2900   4.2932   4.3134   4.3671
     4.3910   4.4328   4.4363   4.4803   4.5213   4.5428   4.5446   4.5850
     4.5956   4.5964   4.6312   4.7290   5.1477   5.1481   5.1538   5.1647
     5.1676   5.1689   5.1696   5.1730   5.1992   5.2050   5.2125   5.2180
     5.2189   5.2290   5.2408   5.2412   5.2602   5.2635   5.2644   5.2651
     5.2661   5.2734   5.3101   5.3104   5.3194   5.3339   5.3462   5.3473
     5.3607   5.3626   5.3631   5.3679   5.3696   5.3805   5.3889   5.3890
     5.4100   5.4326   5.4474   5.4514   5.4517   5.4692   5.4967   5.4971
     5.5167   5.5240   5.5559   5.5575   5.5687   5.5692   5.6021   5.6022
     5.6077   5.6204   5.6315   5.6494   5.6506   5.6609   5.6748   5.7085
     5.7091   5.7392   5.7597   5.7612   5.7711   5.7844   5.8053   5.8064
     5.8149   5.8401   5.8660   5.8691   5.8757   5.8949   5.9685   5.9702
     6.0195   6.0252   6.0260   6.1007   6.1022   6.1117   6.1599   6.1876
     6.2030   6.2032   6.2045   6.2619   6.2633   6.2871   6.3181   6.3421
     6.3546   6.3695   6.3700   6.4135   6.4187   6.4205   6.4520   6.4810
     6.4822   6.5075   6.5582   6.5660   6.6068   6.6079   6.6475   6.6667
     6.6674   6.7375   6.7380   6.7395   6.7481   6.8043   6.8050   6.8509
     6.8661   6.9184   6.9457   7.0387

          k =-0.3333 0.1925 0.2714 (115773 PWs)   bands (ev):

   -28.2769 -28.2755 -28.2754 -28.2753 -28.2752 -28.2752 -28.2752 -28.2752
   -28.2751 -28.2751 -28.2747 -28.2743 -14.9231 -14.9230 -14.9228 -14.9227
   -14.9226 -14.9225 -14.9224 -14.9223 -14.9222 -14.9221 -14.9219 -14.9214
   -14.9173 -14.9172 -14.9171 -14.9169 -14.9168 -14.9167 -14.9166 -14.9165
   -14.9163 -14.9162 -14.9160 -14.9156 -14.9052 -14.9050 -14.9048 -14.9048
   -14.9047 -14.9046 -14.9045 -14.9044 -14.9042 -14.9041 -14.9039 -14.9035
   -14.8650 -14.8648 -14.8646 -14.8646 -14.8645 -14.8644 -14.8643 -14.8642
   -14.8640 -14.8640 -14.8638 -14.8633 -14.8198 -14.8197 -14.8196 -14.8194
   -14.8193 -14.8192 -14.8192 -14.8190 -14.8189 -14.8188 -14.8185 -14.8183
   -10.3390 -10.3387 -10.3375 -10.3367 -10.3366 -10.3346 -10.3341 -10.3330
   -10.3330 -10.3313 -10.3296 -10.3274 -10.3101 -10.3081 -10.3051 -10.3050
   -10.3029 -10.3028 -10.2977 -10.2957 -10.2955 -10.2945 -10.2929 -10.2869
   -10.2692 -10.2689 -10.2686 -10.2672 -10.2672 -10.2630 -10.2626 -10.2618
   -10.2613 -10.2608 -10.2601 -10.2573  -6.7510  -6.6466  -6.5617  -6.4685
    -6.4191  -6.4183  -6.3634  -6.3415  -6.3385  -6.2656  -6.2118  -6.2092
    -5.9144  -5.9133  -5.8255  -5.8209  -5.8197  -5.8177  -5.7657  -5.7640
    -5.7524  -5.7336  -5.6829  -5.6823  -5.6803  -5.6629  -5.6422  -5.6409
    -5.6374  -5.6069  -5.5857  -5.5846  -5.5727  -5.5308  -5.5277  -5.5251
    -5.5164  -5.4862  -5.4654  -5.4397  -5.4377  -5.4368  -5.3991  -5.3700
    -5.3446  -5.3435  -5.3324  -5.2965  -0.5630  -0.5604  -0.5513  -0.4329
    -0.4294  -0.4276  -0.4110  -0.3604  -0.3225  -0.3212  -0.2903  -0.2830
     1.4052   1.4944   1.4947   1.5157   1.6133   1.7117   1.7125   1.7235
     1.7374   1.7717   1.8442   1.8459   1.9667   1.9852   2.0197   2.0221
     2.1291   2.1989   2.2092   2.2101   2.2848   2.3332   2.3957   2.4269
     2.4280   2.5185   2.5292   2.5299   2.5569   2.5577   2.5587   2.5602
     2.5996   2.6779   2.7642   2.7658   2.8239   2.8248   2.8258   2.8295
     2.8501   2.8524   2.8939   2.8965   2.9055   3.0091   3.0173   3.0199
     3.0766   3.0785   3.1178   3.1191   3.1346   3.1804   3.1823   3.1881
     3.2138   3.2475   3.2679   3.2835   3.2858   3.2947   3.3298   3.3311
     3.3738   3.3757   3.3776   3.3808   3.4464   3.4476   3.4496   3.4770
     3.4788   3.4806   3.5053   3.5167   3.5340   3.5347   3.5369   3.5571
     3.5850   3.5875   3.6113   3.6311   3.6402   3.6446   3.6822   3.6837
     3.6858   3.6963   3.7030   3.7047   3.8362   3.8371   3.8783   3.8797
     3.9417   3.9451   3.9471   3.9493   3.9720   4.0312   4.0543   4.0561
     4.0603   4.0611   4.0987   4.1011   4.1197   4.1238   4.1308   4.1346
     4.2239   4.2404   4.2679   4.2693   4.2903   4.2917   4.3130   4.3683
     4.3911   4.4335   4.4363   4.4800   4.5195   4.5441   4.5457   4.5847
     4.5947   4.5982   4.6312   4.7293   5.1465   5.1476   5.1534   5.1647
     5.1683   5.1688   5.1693   5.1730   5.1997   5.2047   5.2124   5.2177
     5.2188   5.2285   5.2410   5.2415   5.2600   5.2648   5.2649   5.2654
     5.2655   5.2728   5.3102   5.3105   5.3182   5.3339   5.3468   5.3474
     5.3596   5.3626   5.3637   5.3680   5.3692   5.3802   5.3887   5.3890
     5.4101   5.4331   5.4477   5.4512   5.4518   5.4694   5.4972   5.4976
     5.5174   5.5244   5.5560   5.5571   5.5685   5.5689   5.6016   5.6024
     5.6076   5.6209   5.6317   5.6502   5.6504   5.6609   5.6747   5.7086
     5.7100   5.7392   5.7598   5.7610   5.7708   5.7850   5.8051   5.8064
     5.8150   5.8397   5.8668   5.8677   5.8751   5.8940   5.9691   5.9702
     6.0191   6.0255   6.0266   6.1015   6.1022   6.1115   6.1595   6.1878
     6.2018   6.2039   6.2042   6.2615   6.2636   6.2875   6.3175   6.3427
     6.3550   6.3682   6.3693   6.4132   6.4197   6.4200   6.4525   6.4813
     6.4821   6.5067   6.5578   6.5666   6.6070   6.6072   6.6477   6.6669
     6.6671   6.7366   6.7380   6.7396   6.7490   6.8039   6.8051   6.8512
     6.8668   6.9183   6.9461   7.0389

          k = 0.3333 0.1925 0.2714 (115773 PWs)   bands (ev):

   -28.2769 -28.2755 -28.2754 -28.2753 -28.2752 -28.2752 -28.2752 -28.2752
   -28.2751 -28.2751 -28.2747 -28.2743 -14.9231 -14.9230 -14.9227 -14.9227
   -14.9227 -14.9225 -14.9224 -14.9223 -14.9221 -14.9221 -14.9218 -14.9214
   -14.9173 -14.9172 -14.9171 -14.9168 -14.9168 -14.9167 -14.9166 -14.9165
   -14.9163 -14.9162 -14.9160 -14.9156 -14.9052 -14.9050 -14.9048 -14.9047
   -14.9047 -14.9045 -14.9045 -14.9044 -14.9042 -14.9041 -14.9039 -14.9035
   -14.8650 -14.8648 -14.8646 -14.8646 -14.8645 -14.8644 -14.8643 -14.8642
   -14.8640 -14.8640 -14.8638 -14.8633 -14.8198 -14.8197 -14.8196 -14.8194
   -14.8193 -14.8192 -14.8192 -14.8190 -14.8189 -14.8188 -14.8185 -14.8183
   -10.3390 -10.3387 -10.3377 -10.3369 -10.3365 -10.3345 -10.3340 -10.3331
   -10.3329 -10.3314 -10.3296 -10.3274 -10.3101 -10.3079 -10.3055 -10.3051
   -10.3030 -10.3027 -10.2976 -10.2954 -10.2953 -10.2946 -10.2931 -10.2870
   -10.2693 -10.2689 -10.2685 -10.2672 -10.2671 -10.2629 -10.2621 -10.2619
   -10.2618 -10.2609 -10.2601 -10.2573  -6.7510  -6.6465  -6.5611  -6.4685
    -6.4198  -6.4188  -6.3634  -6.3414  -6.3397  -6.2651  -6.2110  -6.2099
    -5.9140  -5.9112  -5.8252  -5.8220  -5.8177  -5.8154  -5.7649  -5.7635
    -5.7541  -5.7348  -5.6839  -5.6832  -5.6810  -5.6637  -5.6422  -5.6413
    -5.6378  -5.6086  -5.5869  -5.5852  -5.5711  -5.5294  -5.5284  -5.5270
    -5.5146  -5.4850  -5.4650  -5.4396  -5.4386  -5.4355  -5.3994  -5.3702
    -5.3455  -5.3430  -5.3319  -5.2964  -0.5623  -0.5612  -0.5514  -0.4330
    -0.4290  -0.4280  -0.4105  -0.3605  -0.3222  -0.3215  -0.2901  -0.2830
     1.4054   1.4933   1.4948   1.5163   1.6126   1.7106   1.7125   1.7224
     1.7370   1.7733   1.8453   1.8472   1.9660   1.9858   2.0210   2.0234
     2.1295   2.1985   2.2084   2.2092   2.2854   2.3343   2.3964   2.4262
     2.4270   2.5184   2.5284   2.5290   2.5566   2.5579   2.5588   2.5605
     2.5992   2.6787   2.7639   2.7648   2.8228   2.8245   2.8249   2.8294
     2.8504   2.8516   2.8953   2.8958   2.9078   3.0065   3.0182   3.0189
     3.0757   3.0781   3.1175   3.1194   3.1334   3.1801   3.1822   3.1892
     3.2133   3.2458   3.2654   3.2849   3.2867   3.2943   3.3309   3.3312
     3.3751   3.3776   3.3792   3.3827   3.4462   3.4475   3.4500   3.4758
     3.4797   3.4811   3.5060   3.5197   3.5311   3.5352   3.5360   3.5579
     3.5862   3.5871   3.6101   3.6311   3.6396   3.6434   3.6824   3.6840
     3.6865   3.6950   3.7046   3.7048   3.8352   3.8366   3.8792   3.8812
     3.9404   3.9443   3.9467   3.9483   3.9715   4.0334   4.0527   4.0568
     4.0604   4.0620   4.1001   4.1016   4.1224   4.1227   4.1292   4.1337
     4.2232   4.2390   4.2677   4.2691   4.2905   4.2925   4.3134   4.3668
     4.3929   4.4342   4.4347   4.4802   4.5210   4.5432   4.5449   4.5855
     4.5951   4.5990   4.6304   4.7287   5.1477   5.1483   5.1534   5.1642
     5.1683   5.1689   5.1699   5.1727   5.1995   5.2045   5.2122   5.2185
     5.2187   5.2290   5.2405   5.2415   5.2600   5.2637   5.2644   5.2652
     5.2659   5.2733   5.3094   5.3105   5.3184   5.3341   5.3464   5.3472
     5.3599   5.3622   5.3638   5.3683   5.3695   5.3808   5.3887   5.3895
     5.4102   5.4331   5.4477   5.4513   5.4517   5.4695   5.4970   5.4974
     5.5164   5.5237   5.5561   5.5579   5.5688   5.5696   5.6018   5.6025
     5.6075   5.6202   5.6305   5.6502   5.6510   5.6606   5.6749   5.7087
     5.7096   5.7398   5.7598   5.7608   5.7710   5.7847   5.8050   5.8056
     5.8150   5.8397   5.8669   5.8683   5.8751   5.8953   5.9684   5.9694
     6.0196   6.0248   6.0259   6.1015   6.1025   6.1114   6.1592   6.1871
     6.2025   6.2036   6.2038   6.2626   6.2631   6.2872   6.3192   6.3424
     6.3551   6.3690   6.3695   6.4127   6.4196   6.4202   6.4521   6.4821
     6.4823   6.5069   6.5582   6.5665   6.6069   6.6075   6.6471   6.6666
     6.6677   6.7361   6.7379   6.7397   6.7485   6.8041   6.8048   6.8514
     6.8665   6.9182   6.9458   7.0387

          k =-0.3333-0.1925 0.2714 (115773 PWs)   bands (ev):

   -28.2769 -28.2755 -28.2754 -28.2753 -28.2752 -28.2752 -28.2752 -28.2752
   -28.2751 -28.2751 -28.2747 -28.2743 -14.9231 -14.9230 -14.9227 -14.9227
   -14.9227 -14.9225 -14.9224 -14.9223 -14.9221 -14.9221 -14.9218 -14.9214
   -14.9173 -14.9172 -14.9171 -14.9168 -14.9168 -14.9167 -14.9166 -14.9165
   -14.9163 -14.9162 -14.9160 -14.9156 -14.9052 -14.9050 -14.9048 -14.9047
   -14.9047 -14.9045 -14.9045 -14.9044 -14.9042 -14.9041 -14.9039 -14.9035
   -14.8650 -14.8648 -14.8646 -14.8646 -14.8645 -14.8644 -14.8643 -14.8642
   -14.8640 -14.8640 -14.8638 -14.8633 -14.8198 -14.8197 -14.8196 -14.8194
   -14.8193 -14.8192 -14.8192 -14.8190 -14.8189 -14.8188 -14.8185 -14.8183
   -10.3389 -10.3386 -10.3378 -10.3371 -10.3367 -10.3341 -10.3338 -10.3330
   -10.3328 -10.3320 -10.3297 -10.3272 -10.3103 -10.3069 -10.3065 -10.3059
   -10.3013 -10.3008 -10.3004 -10.2963 -10.2962 -10.2939 -10.2912 -10.2875
   -10.2697 -10.2694 -10.2680 -10.2667 -10.2664 -10.2640 -10.2624 -10.2620
   -10.2619 -10.2604 -10.2593 -10.2577  -6.7508  -6.6467  -6.5604  -6.4718
    -6.4231  -6.4222  -6.3637  -6.3297  -6.3279  -6.2586  -6.2249  -6.2237
    -5.9052  -5.9026  -5.8236  -5.8218  -5.8077  -5.8039  -5.7928  -5.7605
    -5.7599  -5.7334  -5.7110  -5.7098  -5.6721  -5.6371  -5.6298  -5.6278
    -5.6265  -5.6081  -5.6011  -5.5992  -5.5678  -5.5280  -5.5236  -5.5219
    -5.5176  -5.4967  -5.4666  -5.4322  -5.4294  -5.4278  -5.4221  -5.3638
    -5.3489  -5.3470  -5.3224  -5.2999  -0.5597  -0.5586  -0.5574  -0.4360
    -0.4352  -0.4248  -0.3934  -0.3729  -0.3189  -0.3183  -0.2990  -0.2787
     1.4339   1.4849   1.4858   1.4882   1.6257   1.6415   1.7704   1.7732
     1.7824   1.7899   1.7997   1.8028   1.9146   1.9955   1.9990   2.0779
     2.1557   2.1995   2.2100   2.2463   2.2482   2.3605   2.3924   2.3932
     2.3985   2.4488   2.5108   2.5116   2.5465   2.5903   2.5910   2.6068
     2.6432   2.7104   2.7614   2.7683   2.7697   2.7897   2.8081   2.8096
     2.8383   2.8735   2.9153   2.9163   2.9193   2.9819   3.0234   3.0244
     3.0668   3.1060   3.1073   3.1313   3.1720   3.1921   3.1936   3.1950
     3.1986   3.2327   3.2643   3.2665   3.2758   3.3168   3.3211   3.3225
     3.3260   3.3897   3.3915   3.4097   3.4449   3.4468   3.4662   3.4699
     3.4720   3.4739   3.4757   3.4774   3.5336   3.5344   3.5368   3.5912
     3.6085   3.6122   3.6131   3.6329   3.6418   3.6477   3.6590   3.6601
     3.6663   3.7102   3.7109   3.7130   3.8345   3.8362   3.8808   3.8885
     3.9037   3.9486   3.9508   3.9746   3.9819   4.0191   4.0477   4.0492
     4.0503   4.0677   4.1102   4.1123   4.1189   4.1327   4.1334   4.1468
     4.1899   4.2546   4.2662   4.2677   4.2883   4.2900   4.2947   4.3873
     4.3975   4.4375   4.4385   4.4673   4.5233   4.5247   4.5352   4.5960
     4.6095   4.6132   4.6218   4.7201   5.1510   5.1511   5.1544   5.1569
     5.1715   5.1756   5.1761   5.1835   5.1906   5.1976   5.2010   5.2072
     5.2085   5.2344   5.2351   5.2353   5.2548   5.2639   5.2650   5.2660
     5.2794   5.2974   5.3076   5.3125   5.3129   5.3290   5.3365   5.3368
     5.3578   5.3585   5.3601   5.3631   5.3801   5.3928   5.4066   5.4080
     5.4128   5.4319   5.4332   5.4448   5.4450   5.4924   5.5016   5.5021
     5.5093   5.5159   5.5537   5.5599   5.5745   5.5750   5.6022   5.6111
     5.6118   5.6182   5.6249   5.6259   5.6431   5.6702   5.6820   5.7144
     5.7148   5.7174   5.7349   5.7726   5.7732   5.7738   5.8024   5.8026
     5.8105   5.8584   5.8752   5.8760   5.8792   5.9147   5.9589   5.9592
     6.0337   6.0345   6.0353   6.0601   6.0785   6.0795   6.1731   6.2067
     6.2133   6.2134   6.2667   6.2673   6.2690   6.2776   6.2857   6.3488
     6.3494   6.3657   6.3719   6.4148   6.4240   6.4248   6.4280   6.4710
     6.4981   6.4990   6.5460   6.5591   6.5958   6.5963   6.6661   6.6676
     6.6772   6.7194   6.7355   6.7366   6.7475   6.8129   6.8138   6.8450
     6.8690   6.9283   6.9372   7.0524

          k = 0.3333-0.1925 0.2714 (115773 PWs)   bands (ev):

   -28.2769 -28.2755 -28.2754 -28.2753 -28.2752 -28.2752 -28.2752 -28.2752
   -28.2751 -28.2751 -28.2747 -28.2743 -14.9231 -14.9230 -14.9228 -14.9227
   -14.9226 -14.9225 -14.9224 -14.9223 -14.9222 -14.9221 -14.9219 -14.9214
   -14.9173 -14.9172 -14.9171 -14.9169 -14.9168 -14.9167 -14.9166 -14.9165
   -14.9163 -14.9162 -14.9160 -14.9156 -14.9052 -14.9050 -14.9048 -14.9048
   -14.9047 -14.9046 -14.9045 -14.9044 -14.9042 -14.9041 -14.9039 -14.9035
   -14.8650 -14.8648 -14.8646 -14.8646 -14.8645 -14.8644 -14.8643 -14.8642
   -14.8640 -14.8640 -14.8638 -14.8633 -14.8198 -14.8197 -14.8196 -14.8194
   -14.8193 -14.8192 -14.8192 -14.8190 -14.8189 -14.8188 -14.8185 -14.8183
   -10.3389 -10.3386 -10.3376 -10.3370 -10.3369 -10.3344 -10.3340 -10.3328
   -10.3327 -10.3319 -10.3297 -10.3272 -10.3104 -10.3067 -10.3065 -10.3059
   -10.3015 -10.3005 -10.3005 -10.2965 -10.2964 -10.2939 -10.2910 -10.2876
   -10.2697 -10.2694 -10.2682 -10.2665 -10.2665 -10.2639 -10.2629 -10.2620
   -10.2616 -10.2603 -10.2593 -10.2577  -6.7509  -6.6467  -6.5609  -6.4721
    -6.4225  -6.4214  -6.3639  -6.3297  -6.3270  -6.2588  -6.2255  -6.2230
    -5.9057  -5.9048  -5.8228  -5.8219  -5.8108  -5.8074  -5.7919  -5.7604
    -5.7590  -5.7305  -5.7107  -5.7098  -5.6716  -5.6348  -5.6293  -5.6277
    -5.6256  -5.6080  -5.6004  -5.5971  -5.5693  -5.5287  -5.5228  -5.5224
    -5.5191  -5.4962  -5.4675  -5.4327  -5.4299  -5.4279  -5.4219  -5.3637
    -5.3482  -5.3472  -5.3230  -5.2999  -0.5596  -0.5591  -0.5569  -0.4363
    -0.4346  -0.4248  -0.3937  -0.3731  -0.3192  -0.3179  -0.2992  -0.2787
     1.4335   1.4853   1.4861   1.4878   1.6260   1.6425   1.7729   1.7736
     1.7831   1.7902   1.7992   1.8014   1.9132   1.9940   1.9952   2.0762
     2.1544   2.2001   2.2111   2.2472   2.2495   2.3590   2.3929   2.3940
     2.3974   2.4483   2.5122   2.5130   2.5470   2.5907   2.5918   2.6082
     2.6429   2.7113   2.7608   2.7682   2.7688   2.7881   2.8085   2.8103
     2.8397   2.8748   2.9144   2.9171   2.9182   2.9821   3.0234   3.0254
     3.0679   3.1051   3.1071   3.1326   3.1704   3.1930   3.1936   3.1951
     3.2007   3.2333   3.2630   3.2644   3.2782   3.3173   3.3211   3.3221
     3.3240   3.3875   3.3906   3.4106   3.4437   3.4456   3.4679   3.4693
     3.4700   3.4729   3.4750   3.4777   3.5330   3.5360   3.5371   3.5905
     3.6098   3.6124   3.6140   3.6329   3.6416   3.6480   3.6569   3.6595
     3.6682   3.7090   3.7113   3.7125   3.8354   3.8366   3.8794   3.8884
     3.9045   3.9497   3.9525   3.9744   3.9821   4.0199   4.0460   4.0490
     4.0497   4.0652   4.1084   4.1121   4.1207   4.1311   4.1344   4.1495
     4.1913   4.2551   4.2663   4.2673   4.2879   4.2892   4.2943   4.3881
     4.3966   4.4371   4.4397   4.4673   4.5240   4.5258   4.5344   4.5948
     4.6094   4.6122   4.6220   4.7213   5.1494   5.1509   5.1547   5.1570
     5.1719   5.1759   5.1763   5.1835   5.1902   5.1977   5.2008   5.2070
     5.2077   5.2336   5.2349   5.2357   5.2544   5.2642   5.2659   5.2661
     5.2784   5.2972   5.3073   5.3131   5.3135   5.3290   5.3366   5.3370
     5.3582   5.3587   5.3602   5.3635   5.3796   5.3922   5.4065   5.4073
     5.4135   5.4320   5.4334   5.4449   5.4454   5.4928   5.5016   5.5027
     5.5094   5.5158   5.5536   5.5602   5.5744   5.5748   5.6030   5.6110
     5.6114   5.6189   5.6245   5.6254   5.6433   5.6699   5.6828   5.7144
     5.7152   5.7171   5.7342   5.7722   5.7733   5.7736   5.8024   5.8031
     5.8101   5.8583   5.8752   5.8759   5.8783   5.9147   5.9590   5.9602
     6.0340   6.0352   6.0361   6.0590   6.0789   6.0797   6.1730   6.2065
     6.2123   6.2141   6.2661   6.2670   6.2699   6.2769   6.2856   6.3480
     6.3492   6.3656   6.3724   6.4148   6.4241   6.4251   6.4274   6.4714
     6.4982   6.4990   6.5453   6.5598   6.5949   6.5954   6.6664   6.6674
     6.6774   6.7198   6.7362   6.7371   6.7475   6.8129   6.8137   6.8448
     6.8695   6.9283   6.9372   7.0527

          k =-0.3333-0.5774 0.2714 (115827 PWs)   bands (ev):

   -28.2769 -28.2755 -28.2754 -28.2753 -28.2752 -28.2752 -28.2752 -28.2752
   -28.2751 -28.2751 -28.2747 -28.2743 -14.9231 -14.9229 -14.9227 -14.9227
   -14.9226 -14.9225 -14.9224 -14.9223 -14.9221 -14.9221 -14.9219 -14.9214
   -14.9173 -14.9172 -14.9171 -14.9168 -14.9168 -14.9166 -14.9166 -14.9165
   -14.9163 -14.9162 -14.9160 -14.9157 -14.9052 -14.9050 -14.9048 -14.9047
   -14.9047 -14.9045 -14.9045 -14.9044 -14.9042 -14.9041 -14.9039 -14.9035
   -14.8650 -14.8648 -14.8646 -14.8646 -14.8645 -14.8644 -14.8643 -14.8642
   -14.8640 -14.8640 -14.8638 -14.8633 -14.8198 -14.8197 -14.8196 -14.8194
   -14.8193 -14.8192 -14.8192 -14.8190 -14.8189 -14.8188 -14.8185 -14.8183
   -10.3388 -10.3380 -10.3370 -10.3366 -10.3363 -10.3336 -10.3331 -10.3329
   -10.3327 -10.3305 -10.3302 -10.3299 -10.3080 -10.3076 -10.3073 -10.3049
   -10.3012 -10.3009 -10.2976 -10.2973 -10.2970 -10.2920 -10.2916 -10.2913
   -10.2696 -10.2687 -10.2667 -10.2664 -10.2663 -10.2642 -10.2638 -10.2636
   -10.2629 -10.2598 -10.2595 -10.2592  -6.6197  -6.6181  -6.6165  -6.5260
    -6.5248  -6.5230  -6.3085  -6.2904  -6.2893  -6.2870  -6.2576  -6.2143
    -5.8747  -5.8584  -5.8434  -5.7819  -5.7789  -5.7787  -5.7439  -5.7417
    -5.7401  -5.7148  -5.6899  -5.6880  -5.6859  -5.6744  -5.6718  -5.6713
    -5.6702  -5.6423  -5.5577  -5.5562  -5.5537  -5.5258  -5.5246  -5.5224
    -5.5063  -5.5032  -5.5026  -5.5001  -5.4587  -5.3992  -5.3976  -5.3967
    -5.3582  -5.3245  -5.3223  -5.3217  -0.5201  -0.5059  -0.5054  -0.5038
    -0.4606  -0.4176  -0.4169  -0.4151  -0.3550  -0.2936  -0.2926  -0.2912
     1.4812   1.4829   1.4837   1.6379   1.6385   1.6400   1.6899   1.7746
     1.7754   1.7767   1.7782   1.7926   1.9805   1.9815   1.9834   2.0559
     2.1698   2.1918   2.1934   2.1944   2.2489   2.3969   2.3976   2.3981
     2.4879   2.4889   2.4897   2.5567   2.5870   2.5877   2.5888   2.5926
     2.6784   2.7361   2.7366   2.7386   2.8214   2.8230   2.8237   2.8279
     2.9002   2.9025   2.9055   2.9241   2.9367   2.9544   2.9555   2.9570
     3.0578   3.0603   3.0619   3.0875   3.0887   3.0889   3.1268   3.1812
     3.2438   3.2447   3.2452   3.2699   3.2710   3.2747   3.3214   3.3271
     3.3276   3.3305   3.3739   3.4061   3.4196   3.4630   3.4658   3.4666
     3.4929   3.4969   3.4996   3.5007   3.5352   3.5373   3.5379   3.5400
     3.5612   3.6151   3.6159   3.6173   3.6526   3.6549   3.6558   3.6968
     3.6979   3.6984   3.7195   3.7444   3.8214   3.8408   3.8415   3.8422
     3.9378   3.9394   3.9412   3.9427   4.0279   4.0301   4.0315   4.0409
     4.0657   4.0680   4.0696   4.1082   4.1138   4.1141   4.1169   4.1673
     4.2716   4.2732   4.2748   4.2903   4.3148   4.3599   4.3617   4.3639
     4.4142   4.4172   4.4178   4.4913   4.4937   4.4942   4.5069   4.5116
     4.5653   4.6657   4.6672   4.6686   5.1486   5.1561   5.1574   5.1577
     5.1579   5.1825   5.1830   5.1835   5.1975   5.1979   5.1987   5.2110
     5.2245   5.2247   5.2257   5.2518   5.2522   5.2531   5.2567   5.2688
     5.3015   5.3018   5.3023   5.3093   5.3280   5.3294   5.3298   5.3679
     5.3686   5.3690   5.3746   5.3935   5.3950   5.4091   5.4094   5.4097
     5.4330   5.4331   5.4343   5.4382   5.4843   5.4848   5.4851   5.4912
     5.5384   5.5393   5.5398   5.5439   5.5662   5.5670   5.5674   5.6055
     5.6063   5.6066   5.6384   5.6388   5.6718   5.6727   5.6735   5.7037
     5.7041   5.7050   5.7170   5.7592   5.7595   5.7603   5.8016   5.8079
     5.8210   5.8239   5.8246   5.8253   5.8901   5.8908   5.8916   6.0566
     6.0599   6.0603   6.0616   6.0773   6.1201   6.1206   6.1218   6.1353
     6.1957   6.2373   6.2378   6.2388   6.2842   6.3018   6.3024   6.3031
     6.3064   6.3846   6.3858   6.3862   6.4499   6.4675   6.4682   6.4694
     6.4914   6.4928   6.5590   6.5599   6.5606   6.6458   6.6851   6.6857
     6.6861   6.7604   6.7776   6.7786   6.7791   6.7922   6.8542   6.8553
     6.8557   6.9355   6.9364   6.9366

     highest occupied level (ev):     7.1808

!    total energy              =   -9077.18778395 Ry
     estimated scf accuracy    <          3.6E-11 Ry

     The total energy is the sum of the following terms:
     one-electron contribution =   -2776.82951365 Ry
     hartree contribution      =    2020.17048519 Ry
     xc contribution           =   -2269.38844161 Ry
     ewald contribution        =   -3895.34364154 Ry
     one-center paw contrib.   =   -2155.79667234 Ry

     convergence has been achieved in  22 iterations

     negative rho (up, down):  7.902E-01 0.000E+00

     Forces acting on atoms (cartesian axes, Ry/au):

     atom    1 type  1   force =    -0.00028079    0.00032758   -0.00001251
     atom    2 type  1   force =    -0.00011874    0.00026324   -0.00000351
     atom    3 type  1   force =    -0.00015639    0.00025502   -0.00000620
     atom    4 type  1   force =    -0.00013858    0.00028130    0.00000034
     atom    5 type  1   force =     0.00026548   -0.00048410    0.00026903
     atom    6 type  1   force =    -0.00007631   -0.00022311   -0.00009260
     atom    7 type  1   force =    -0.00023123   -0.00016312    0.00002227
     atom    8 type  1   force =    -0.00014105   -0.00027201   -0.00000584
     atom    9 type  1   force =     0.00030674    0.00000210    0.00000422
     atom   10 type  1   force =     0.00031064    0.00000405    0.00000204
     atom   11 type  1   force =     0.00030644   -0.00000428    0.00001526
     atom   12 type  1   force =     0.00030942   -0.00000334    0.00000180
     atom   13 type  2   force =    -0.00417671   -0.00142359   -0.00093624
     atom   14 type  2   force =     0.00022013   -0.00040039    0.00018658
     atom   15 type  2   force =     0.00019905   -0.00038635    0.00018287
     atom   16 type  2   force =     0.00021349   -0.00038085    0.00017585
     atom   17 type  2   force =     0.00022526    0.00036322    0.00019112
     atom   18 type  2   force =     0.00023272    0.00037198    0.00019094
     atom   19 type  2   force =     0.00023383    0.00037424    0.00018770
     atom   20 type  2   force =     0.00023694    0.00036998    0.00018729
     atom   21 type  2   force =    -0.00043665    0.00002061    0.00018202
     atom   22 type  2   force =    -0.00042483    0.00000792    0.00018817
     atom   23 type  2   force =    -0.00043035    0.00001748    0.00018183
     atom   24 type  2   force =    -0.00043642    0.00001754    0.00019375
     atom   25 type  2   force =    -0.00043324   -0.00001791   -0.00018371
     atom   26 type  2   force =    -0.00038922   -0.00002152   -0.00016743
     atom   27 type  2   force =    -0.00038103   -0.00001572   -0.00007804
     atom   28 type  2   force =    -0.00042883   -0.00001947   -0.00019141
     atom   29 type  2   force =     0.00029820    0.00044411   -0.00019574
     atom   30 type  2   force =     0.00029819    0.00059996   -0.00008714
     atom   31 type  2   force =     0.00020059    0.00038130   -0.00019678
     atom   32 type  2   force =     0.00020478    0.00038994   -0.00018993
     atom   33 type  2   force =     0.00023535   -0.00036509   -0.00018560
     atom   34 type  2   force =     0.00023572   -0.00036860   -0.00019222
     atom   35 type  2   force =     0.00023323   -0.00036423   -0.00018661
     atom   36 type  2   force =     0.00023376   -0.00036746   -0.00018456
     atom   37 type  3   force =     0.00030467   -0.00056812   -0.00006693
     atom   38 type  3   force =     0.00030619   -0.00047693   -0.00001742
     atom   39 type  3   force =     0.00026606   -0.00047036   -0.00000132
     atom   40 type  3   force =     0.00024254   -0.00045081    0.00004974
     atom   41 type  3   force =     0.00025921    0.00045204   -0.00002213
     atom   42 type  3   force =     0.00028343    0.00051410    0.00003490
     atom   43 type  3   force =     0.00026333    0.00046785   -0.00000113
     atom   44 type  3   force =     0.00028273    0.00047157    0.00000688
     atom   45 type  3   force =    -0.00053232    0.00006411    0.00002205
     atom   46 type  3   force =    -0.00085144   -0.00023692    0.00002073
     atom   47 type  3   force =    -0.00025155    0.00014246   -0.00020723
     atom   48 type  3   force =    -0.00029127   -0.00047916   -0.00002802
     atom   49 type  4   force =     0.00035233   -0.00008518    0.00003683
     atom   50 type  4   force =     0.00034633   -0.00009705    0.00001239
     atom   51 type  4   force =     0.00035677   -0.00010116    0.00001268
     atom   52 type  4   force =     0.00035399   -0.00010265    0.00000265
     atom   53 type  4   force =    -0.00010667    0.00034554    0.00004952
     atom   54 type  4   force =    -0.00012223    0.00028585   -0.00006637
     atom   55 type  4   force =    -0.00008510    0.00035444    0.00002212
     atom   56 type  4   force =    -0.00009329    0.00035776    0.00000357
     atom   57 type  4   force =     0.00096556    0.00180664    0.00065904
     atom   58 type  4   force =    -0.00027284   -0.00022586   -0.00001056
     atom   59 type  4   force =    -0.00027861   -0.00025985    0.00001218
     atom   60 type  4   force =    -0.00024983   -0.00023961    0.00000167
     atom   61 type  4   force =    -0.00029666    0.00023974   -0.00002446
     atom   62 type  4   force =    -0.00027585    0.00021963   -0.00006184
     atom   63 type  4   force =    -0.00028368    0.00026283   -0.00001360
     atom   64 type  4   force =    -0.00025098    0.00027750    0.00002443
     atom   65 type  4   force =     0.00035569    0.00010411   -0.00001299
     atom   66 type  4   force =     0.00035017    0.00009733   -0.00003801
     atom   67 type  4   force =     0.00035311    0.00009861   -0.00001833
     atom   68 type  4   force =     0.00034948    0.00009998   -0.00001924
     atom   69 type  4   force =    -0.00009525   -0.00034571   -0.00000513
     atom   70 type  4   force =    -0.00029129   -0.00034014    0.00001629
     atom   71 type  4   force =    -0.00010445   -0.00042893   -0.00007983
     atom   72 type  4   force =    -0.00008303   -0.00036057   -0.00000944
     atom   73 type  4   force =     0.00066982   -0.00051348   -0.00102778
     atom   74 type  4   force =    -0.00004327    0.00008951   -0.00025362
     atom   75 type  4   force =    -0.00001032    0.00012485   -0.00024871
     atom   76 type  4   force =     0.00005329    0.00019516   -0.00025974
     atom   77 type  4   force =    -0.00016828   -0.00006170   -0.00025657
     atom   78 type  4   force =    -0.00014916   -0.00005587   -0.00022631
     atom   79 type  4   force =    -0.00014350   -0.00006691   -0.00025720
     atom   80 type  4   force =    -0.00014236   -0.00008312   -0.00023714
     atom   81 type  4   force =     0.00012895   -0.00009004   -0.00024528
     atom   82 type  4   force =     0.00012065   -0.00008668   -0.00025068
     atom   83 type  4   force =     0.00012148   -0.00009094   -0.00024880
     atom   84 type  4   force =     0.00012304   -0.00009070   -0.00025420
     atom   85 type  4   force =     0.00013463    0.00008667    0.00025003
     atom   86 type  4   force =     0.00013625    0.00007103    0.00023418
     atom   87 type  4   force =     0.00012030    0.00010361    0.00022066
     atom   88 type  4   force =     0.00011984    0.00008574    0.00024744
     atom   89 type  4   force =    -0.00003791   -0.00018697    0.00026297
     atom   90 type  4   force =     0.00197337    0.00003891    0.00150966
     atom   91 type  4   force =     0.00001037   -0.00017260    0.00025319
     atom   92 type  4   force =     0.00006482   -0.00014751    0.00024636
     atom   93 type  4   force =    -0.00015234    0.00005778    0.00024415
     atom   94 type  4   force =    -0.00013761    0.00006375    0.00025355
     atom   95 type  4   force =    -0.00014716    0.00005956    0.00024671
     atom   96 type  4   force =    -0.00013973    0.00006644    0.00024646

     Total force =     0.006992     Total SCF correction =     0.000012
     Message from routine punch:
     Nothing written, as per user request (disk_io='none')

     init_run     :     46.44s CPU     48.54s WALL (       1 calls)
     electrons    :   2411.20s CPU   2506.78s WALL (       1 calls)
     forces       :     20.18s CPU     20.70s WALL (       1 calls)

     Called by init_run:
     wfcinit      :     42.56s CPU     44.41s WALL (       1 calls)
     potinit      :      1.16s CPU      1.20s WALL (       1 calls)
     hinit0       :      1.06s CPU      1.08s WALL (       1 calls)

     Called by electrons:
     c_bands      :   2134.92s CPU   2212.51s WALL (      22 calls)
     sum_band     :    246.65s CPU    261.14s WALL (      22 calls)
     v_of_rho     :      4.91s CPU      5.35s WALL (      23 calls)
     newd         :     18.76s CPU     21.81s WALL (      23 calls)
     PAW_pot      :      6.03s CPU      6.05s WALL (      23 calls)
     mix_rho      :      0.76s CPU      0.82s WALL (      22 calls)

     Called by c_bands:
     init_us_2    :     29.04s CPU     29.29s WALL (     322 calls)
     cegterg      :   2064.13s CPU   2141.31s WALL (     154 calls)

     Called by *egterg:
     cdiaghg      :    106.84s CPU    109.47s WALL (    1008 calls)
     h_psi        :   1134.21s CPU   1199.20s WALL (    1015 calls)
     s_psi        :    268.03s CPU    269.56s WALL (    1015 calls)
     g_psi        :      4.35s CPU      4.38s WALL (     854 calls)

     Called by h_psi:
     h_psi:calbec :    265.42s CPU    268.69s WALL (    1015 calls)
     vloc_psi     :    594.04s CPU    652.25s WALL (    1015 calls)
     add_vuspsi   :    269.00s CPU    270.52s WALL (    1015 calls)

     General routines
     calbec       :    363.33s CPU    367.85s WALL (    1197 calls)
     fft          :      3.99s CPU      4.44s WALL (     308 calls)
     ffts         :      0.78s CPU      0.79s WALL (      45 calls)
     fftw         :    485.65s CPU    542.00s WALL (  451772 calls)
     interpolate  :      1.00s CPU      1.05s WALL (      23 calls)

     Parallel routines

     PWSCF        :  41m18.09s CPU  42m56.68s WALL


   This run was terminated on:   2:22:45  21Aug2026            

=------------------------------------------------------------------------------=
   JOB DONE.
=------------------------------------------------------------------------------=
