
     Program PWSCF v.7.3.1 starts on 21Aug2026 at  2:41:54 

     This program is part of the open-source Quantum ESPRESSO suite
     for quantum simulation of materials; please cite
         "P. Giannozzi et al., J. Phys.:Condens. Matter 21 395502 (2009);
         "P. Giannozzi et al., J. Phys.:Condens. Matter 29 465901 (2017);
         "P. Giannozzi et al., J. Chem. Phys. 152 154105 (2020);
          URL http://www.quantum-espresso.org", 
     in publications or presentations arising from this work. More details at
     http://www.quantum-espresso.org/quote

     Parallel version (MPI & OpenMP), running on      32 processor cores
     Number of MPI processes:                32
     Threads/MPI process:                     1

     MPI processes distributed on     1 nodes
     226009 MiB available memory on the printing compute node when the environment starts

     Reading input from scf.in

     Current dimensions of program PWSCF are:
     Max number of different atomic species (ntypx) = 10
     Max number of k-points (npk) =  40000
     Max angular momentum in pseudopotentials (lmaxx) =  4
     file Cu.paw.z_11.ld1.psl.v1.0.0-low.upf: wavefunction(s)  4S 3D renormalized

     R & G space division:  proc/nbgrp/npool/nimage =      32
     Subspace diagonalization in iterative solution of the eigenvalue problem:
     one sub-group per band group will be used
     scalapack distributed-memory algorithm (size of sub-group:  4*  4 procs)


     Parallelization info
     --------------------
     sticks:   dense  smooth     PW     G-vecs:    dense   smooth      PW
     Min         596     298     78                81870    28938    3888
     Max         597     299     79                81877    28945    3893
     Sum       19099    9565   2515              2619931   926125  124485

     Using Slab Decomposition



     bravais-lattice index     =            0
     lattice parameter (alat)  =      24.0273  a.u.
     unit-cell volume          =   14752.0463 (a.u.)^3
     number of atoms/cell      =           96
     number of atomic types    =            4
     number of electrons       =       840.00
     number of Kohn-Sham states=          420
     kinetic-energy cutoff     =      60.0000  Ry
     charge density cutoff     =     480.0000  Ry
     scf convergence threshold =      1.0E-09
     mixing beta               =       0.3000
     number of iterations used =            8  plain     mixing
     Exchange-correlation=  SLA  PW   PBX  PBC
                           (   1   4   3   4   0   0   0)

     celldm(1)=  24.027274  celldm(2)=   0.000000  celldm(3)=   0.000000
     celldm(4)=   0.000000  celldm(5)=   0.000000  celldm(6)=   0.000000

     crystal axes: (cart. coord. in units of alat)
               a(1) = (   1.000000   0.000000   0.000000 )  
               a(2) = (  -0.500000   0.866025   0.000000 )  
               a(3) = (   0.000000   0.000000   1.228028 )  

     reciprocal axes: (cart. coord. in units 2 pi/alat)
               b(1) = (  1.000000  0.577351 -0.000000 )  
               b(2) = (  0.000000  1.154701  0.000000 )  
               b(3) = (  0.000000 -0.000000  0.814314 )  


     PseudoPot. # 1 for Sr read from file:
     /home/yuhansun/pseudos/SSSP-1.3.0-PBE-precision/Sr_pbe_v1.uspp.F.UPF
     MD5 check sum: 6b418c05fbe9db5448babca5e47b7a5b
     Pseudo is Ultrasoft + core correction, Zval = 10.0
     Generated by new atomic code, or converted to UPF format
     Using radial grid of  883 points,  6 beta functions with: 
                l(1) =   0
                l(2) =   0
                l(3) =   1
                l(4) =   1
                l(5) =   2
                l(6) =   2
     Q(r) pseudized with  6 coefficients,  rinner =    1.400   1.400   1.400
                                                       1.400   1.400

     PseudoPot. # 2 for Cu read from file:
     /home/yuhansun/pseudos/SSSP-1.3.0-PBE-precision/Cu.paw.z_11.ld1.psl.v1.0.0-low.upf
     MD5 check sum: 619f40885d92a09a85a8b37550532d0c
     Pseudo is Projector augmented-wave + core cor, Zval = 11.0
     Generated using &quot;atomic&quot; code by A. Dal Corso  v.6.3MaX
     Shape of augmentation charge: PSQ
     Using radial grid of 1199 points,  6 beta functions with: 
                l(1) =   0
                l(2) =   0
                l(3) =   1
                l(4) =   1
                l(5) =   2
                l(6) =   2
     Q(r) pseudized with 0 coefficients 


     PseudoPot. # 3 for Sn read from file:
     /home/yuhansun/pseudos/SSSP-1.3.0-PBE-precision/Sn_pbe_v1.uspp.F.UPF
     MD5 check sum: 4cf58ce39ec5d5d420df3dd08604eb00
     Pseudo is Ultrasoft + core correction, Zval = 14.0
     Generated by new atomic code, or converted to UPF format
     Using radial grid of  891 points,  6 beta functions with: 
                l(1) =   0
                l(2) =   0
                l(3) =   1
                l(4) =   1
                l(5) =   2
                l(6) =   2
     Q(r) pseudized with  6 coefficients,  rinner =    1.200   1.200   1.200
                                                       1.200   1.200

     PseudoPot. # 4 for S  read from file:
     /home/yuhansun/pseudos/SSSP-1.3.0-PBE-precision/s_pbe_v1.4.uspp.F.UPF
     MD5 check sum: 88d86576ff6df21479756cfb9bdac1df
     Pseudo is Ultrasoft + core correction, Zval =  6.0
     Generated by new atomic code, or converted to UPF format
     Using radial grid of  907 points,  6 beta functions with: 
                l(1) =   0
                l(2) =   0
                l(3) =   1
                l(4) =   1
                l(5) =   2
                l(6) =   2
     Q(r) pseudized with  8 coefficients,  rinner =    1.300   1.300   1.300
                                                       1.300   1.300

     atomic species   valence    mass     pseudopotential
     Sr               10.00    87.62000     Sr( 1.00)
     Cu               11.00    63.54600     Cu( 1.00)
     Sn               14.00   118.71000     Sn( 1.00)
     S                 6.00    32.06500     S ( 1.00)

     No symmetry found



   Cartesian axes

     site n.     atom                  positions (alat units)
         1        Sr     tau(   1) = (  -0.1405753   0.2434834   0.2046717  )
         2        Sr     tau(   2) = (   0.3594247   0.2434834   0.2046717  )
         3        Sr     tau(   3) = (  -0.3905753   0.6764960   0.2046717  )
         4        Sr     tau(   4) = (   0.1094247   0.6764960   0.2046717  )
         5        Sr     tau(   5) = (   0.1094247   0.1895292   0.6140139  )
         6        Sr     tau(   6) = (   0.6094247   0.1895292   0.6140139  )
         7        Sr     tau(   7) = (  -0.1405753   0.6225418   0.6140139  )
         8        Sr     tau(   8) = (   0.3594247   0.6225418   0.6140139  )
         9        Sr     tau(   9) = (   0.2811505   0.0000000   1.0233574  )
        10        Sr     tau(  10) = (   0.7811505   0.0000000   1.0233574  )
        11        Sr     tau(  11) = (   0.0311505   0.4330126   1.0233574  )
        12        Sr     tau(  12) = (   0.5311505   0.4330126   1.0233574  )
        13        Cu     tau(  13) = (  -0.1201816   0.2753211   0.5036775  )
        14        Cu     tau(  14) = (   0.3773212   0.2753211   0.5061747  )
        15        Cu     tau(  15) = (  -0.3726788   0.7083337   0.5061747  )
        16        Cu     tau(  16) = (   0.1273212   0.7083337   0.5061747  )
        17        Cu     tau(  17) = (   0.0729045   0.1891087   0.9155169  )
        18        Cu     tau(  18) = (   0.5729045   0.1891087   0.9155169  )
        19        Cu     tau(  19) = (  -0.1770956   0.6221213   0.9155169  )
        20        Cu     tau(  20) = (   0.3229044   0.6221213   0.9155169  )
        21        Cu     tau(  21) = (   0.0497750   0.4015949   0.0968325  )
        22        Cu     tau(  22) = (   0.5497750   0.4015949   0.0968325  )
        23        Cu     tau(  23) = (  -0.2002251   0.8346075   0.0968325  )
        24        Cu     tau(  24) = (   0.2997749   0.8346075   0.0968325  )
        25        Cu     tau(  25) = (   0.2997745   0.0314177   0.7218532  )
        26        Cu     tau(  26) = (   0.7997745   0.0314177   0.7218532  )
        27        Cu     tau(  27) = (   0.0497745   0.4644302   0.7218532  )
        28        Cu     tau(  28) = (   0.5497745   0.4644302   0.7218532  )
        29        Cu     tau(  29) = (   0.1273207   0.1576915   0.3125110  )
        30        Cu     tau(  30) = (   0.6273207   0.1576915   0.3125110  )
        31        Cu     tau(  31) = (  -0.1226793   0.5907041   0.3125110  )
        32        Cu     tau(  32) = (   0.3773207   0.5907041   0.3125110  )
        33        Cu     tau(  33) = (   0.3229040   0.2439039   1.1311954  )
        34        Cu     tau(  34) = (   0.8229040   0.2439039   1.1311954  )
        35        Cu     tau(  35) = (   0.0729039   0.6769164   1.1311954  )
        36        Cu     tau(  36) = (   0.5729039   0.6769164   1.1311954  )
        37        Sn     tau(  37) = (  -0.1762580   0.3052877   0.8186857  )
        38        Sn     tau(  38) = (   0.3237420   0.3052877   0.8186857  )
        39        Sn     tau(  39) = (  -0.4262581   0.7383003   0.8186857  )
        40        Sn     tau(  40) = (   0.0737419   0.7383003   0.8186857  )
        41        Sn     tau(  41) = (   0.0737420   0.1277249   0.0000000  )
        42        Sn     tau(  42) = (   0.5737420   0.1277249   0.0000000  )
        43        Sn     tau(  43) = (  -0.1762581   0.5607374   0.0000000  )
        44        Sn     tau(  44) = (   0.3237419   0.5607374   0.0000000  )
        45        Sn     tau(  45) = (   0.3525160   0.0000000   0.4093422  )
        46        Sn     tau(  46) = (   0.8525160   0.0000000   0.4093422  )
        47        Sn     tau(  47) = (   0.1025160   0.4330126   0.4093422  )
        48        Sn     tau(  48) = (   0.6025160   0.4330126   0.4093422  )
        49        S      tau(  49) = (  -0.0988203   0.2103164   0.9671149  )
        50        S      tau(  50) = (   0.4011797   0.2103164   0.9671149  )
        51        S      tau(  51) = (  -0.3488203   0.6433290   0.9671149  )
        52        S      tau(  52) = (   0.1511797   0.6433290   0.9671149  )
        53        S      tau(  53) = (   0.1172707   0.2422736   0.1484293  )
        54        S      tau(  54) = (   0.6172707   0.2422736   0.1484293  )
        55        S      tau(  55) = (  -0.1327293   0.6752862   0.1484293  )
        56        S      tau(  56) = (   0.3672707   0.6752862   0.1484293  )
        57        S      tau(  57) = (  -0.0184505   0.4134352   0.5577727  )
        58        S      tau(  58) = (   0.4815495   0.4134352   0.5577727  )
        59        S      tau(  59) = (  -0.2684506   0.8464478   0.5577727  )
        60        S      tau(  60) = (   0.2315494   0.8464478   0.5577727  )
        61        S      tau(  61) = (   0.2315495   0.0195774   0.2609129  )
        62        S      tau(  62) = (   0.7315495   0.0195774   0.2609129  )
        63        S      tau(  63) = (  -0.0184505   0.4525899   0.2609129  )
        64        S      tau(  64) = (   0.4815495   0.4525899   0.2609129  )
        65        S      tau(  65) = (   0.1511797   0.2226962   1.0795986  )
        66        S      tau(  66) = (   0.6511797   0.2226962   1.0795986  )
        67        S      tau(  67) = (  -0.0988203   0.6557088   1.0795986  )
        68        S      tau(  68) = (   0.4011797   0.6557088   1.0795986  )
        69        S      tau(  69) = (   0.3672707   0.1907390   0.6702552  )
        70        S      tau(  70) = (   0.8672707   0.1907390   0.6702552  )
        71        S      tau(  71) = (   0.1172707   0.6237516   0.6702552  )
        72        S      tau(  72) = (   0.6172707   0.6237516   0.6702552  )
        73        S      tau(  73) = (  -0.0296498   0.1532012   0.4035914  )
        74        S      tau(  74) = (   0.4703502   0.1532012   0.4035914  )
        75        S      tau(  75) = (  -0.2796498   0.5862137   0.4035914  )
        76        S      tau(  76) = (   0.2203502   0.5862137   0.4035914  )
        77        S      tau(  77) = (   0.1321490   0.3307341   0.8129336  )
        78        S      tau(  78) = (   0.6321490   0.3307341   0.8129336  )
        79        S      tau(  79) = (  -0.1178511   0.7637467   0.8129336  )
        80        S      tau(  80) = (   0.3821489   0.7637467   0.8129336  )
        81        S      tau(  81) = (  -0.1024985   0.3820894   1.2222770  )
        82        S      tau(  82) = (   0.3975015   0.3820894   1.2222770  )
        83        S      tau(  83) = (  -0.3524986   0.8151020   1.2222770  )
        84        S      tau(  84) = (   0.1475014   0.8151020   1.2222770  )
        85        S      tau(  85) = (   0.1475010   0.0509231   0.8244365  )
        86        S      tau(  86) = (   0.6475010   0.0509231   0.8244365  )
        87        S      tau(  87) = (  -0.1024990   0.4839357   0.8244365  )
        88        S      tau(  88) = (   0.3975010   0.4839357   0.8244365  )
        89        S      tau(  89) = (   0.2203497   0.2798114   0.4150943  )
        90        S      tau(  90) = (   0.7203497   0.2798114   0.4150943  )
        91        S      tau(  91) = (  -0.0296503   0.7128240   0.4150943  )
        92        S      tau(  92) = (   0.4703497   0.7128240   0.4150943  )
        93        S      tau(  93) = (   0.3821485   0.1022784   0.0057509  )
        94        S      tau(  94) = (   0.8821485   0.1022784   0.0057509  )
        95        S      tau(  95) = (   0.1321485   0.5352910   0.0057509  )
        96        S      tau(  96) = (   0.6321485   0.5352910   0.0057509  )

     number of k points=    14
                       cart. coord. in units 2pi/alat
        k(    1) = (   0.0000000   0.0000000   0.0000000), wk =   0.0740741
        k(    2) = (   0.0000000   0.0000000   0.2714379), wk =   0.1481481
        k(    3) = (   0.0000000   0.3849003   0.0000000), wk =   0.1481481
        k(    4) = (   0.0000000   0.3849003   0.2714379), wk =   0.1481481
        k(    5) = (   0.3333333   0.5773505   0.0000000), wk =   0.1481481
        k(    6) = (   0.3333333   0.5773505   0.2714379), wk =   0.1481481
        k(    7) = (  -0.3333333   0.1924501   0.0000000), wk =   0.1481481
        k(    8) = (   0.3333333   0.1924502   0.0000000), wk =   0.1481481
        k(    9) = (   0.0000000  -0.3849003   0.2714379), wk =   0.1481481
        k(   10) = (  -0.3333333   0.1924501   0.2714379), wk =   0.1481481
        k(   11) = (   0.3333333   0.1924502   0.2714379), wk =   0.1481481
        k(   12) = (  -0.3333333  -0.1924502   0.2714379), wk =   0.1481481
        k(   13) = (   0.3333333  -0.1924501   0.2714379), wk =   0.1481481
        k(   14) = (  -0.3333333  -0.5773505   0.2714379), wk =   0.1481481

     Dense  grid:  2619931 G-vectors     FFT dimensions: ( 180, 180, 216)

     Smooth grid:   926125 G-vectors     FFT dimensions: ( 120, 120, 150)

     Estimated max dynamical RAM per process >     917.51 MB

     Estimated total dynamical RAM >      28.67 GB

     Initial potential from superposition of free atoms

     starting charge     827.5884, renormalised to     840.0000

     negative rho (up, down):  7.777E-01 0.000E+00
     Starting wfcs are  672 randomized atomic wfcs
     Checking if some PAW data can be deallocated... 

     total cpu time spent up to now is       43.8 secs

     Self-consistent Calculation

     iteration #  1     ecut=    60.00 Ry     beta= 0.30
     Davidson diagonalization with overlap
     ethr =  1.00E-02,  avg # of iterations =  2.0

     negative rho (up, down):  7.747E-01 0.000E+00

     total cpu time spent up to now is      122.7 secs

     total energy              =   -9070.28926201 Ry
     estimated scf accuracy    <      21.98378476 Ry

     iteration #  2     ecut=    60.00 Ry     beta= 0.30
     Davidson diagonalization with overlap
     ethr =  2.62E-03,  avg # of iterations =  4.9

     negative rho (up, down):  7.752E-01 0.000E+00

     total cpu time spent up to now is      225.2 secs

     total energy              =   -9076.61250030 Ry
     estimated scf accuracy    <       8.25171394 Ry

     iteration #  3     ecut=    60.00 Ry     beta= 0.30
     Davidson diagonalization with overlap
     ethr =  9.82E-04,  avg # of iterations =  2.0

     negative rho (up, down):  7.804E-01 0.000E+00

     total cpu time spent up to now is      304.6 secs

     total energy              =   -9076.48706198 Ry
     estimated scf accuracy    <       1.62689390 Ry

     iteration #  4     ecut=    60.00 Ry     beta= 0.30
     Davidson diagonalization with overlap
     ethr =  1.94E-04,  avg # of iterations =  6.0

     negative rho (up, down):  7.829E-01 0.000E+00

     total cpu time spent up to now is      420.4 secs

     total energy              =   -9076.70147961 Ry
     estimated scf accuracy    <       2.07641690 Ry

     iteration #  5     ecut=    60.00 Ry     beta= 0.30
     Davidson diagonalization with overlap
     ethr =  1.94E-04,  avg # of iterations =  5.0

     negative rho (up, down):  7.883E-01 0.000E+00

     total cpu time spent up to now is      514.7 secs

     total energy              =   -9077.13551078 Ry
     estimated scf accuracy    <       0.14005578 Ry

     iteration #  6     ecut=    60.00 Ry     beta= 0.30
     Davidson diagonalization with overlap
     ethr =  1.67E-05,  avg # of iterations =  6.7

     negative rho (up, down):  7.901E-01 0.000E+00

     total cpu time spent up to now is      617.0 secs

     total energy              =   -9077.18483192 Ry
     estimated scf accuracy    <       0.01393142 Ry

     iteration #  7     ecut=    60.00 Ry     beta= 0.30
     Davidson diagonalization with overlap
     ethr =  1.66E-06,  avg # of iterations =  5.4

     negative rho (up, down):  7.907E-01 0.000E+00

     total cpu time spent up to now is      720.7 secs

     total energy              =   -9077.18905906 Ry
     estimated scf accuracy    <       0.00631358 Ry

     iteration #  8     ecut=    60.00 Ry     beta= 0.30
     Davidson diagonalization with overlap
     ethr =  7.52E-07,  avg # of iterations =  6.3

     negative rho (up, down):  7.911E-01 0.000E+00

     total cpu time spent up to now is      841.8 secs

     total energy              =   -9077.17978941 Ry
     estimated scf accuracy    <       0.04637870 Ry

     iteration #  9     ecut=    60.00 Ry     beta= 0.30
     Davidson diagonalization with overlap
     ethr =  7.52E-07,  avg # of iterations =  7.5

     negative rho (up, down):  7.911E-01 0.000E+00

     total cpu time spent up to now is      971.5 secs

     total energy              =   -9077.18765834 Ry
     estimated scf accuracy    <       0.00193400 Ry

     iteration # 10     ecut=    60.00 Ry     beta= 0.30
     Davidson diagonalization with overlap
     ethr =  2.30E-07,  avg # of iterations =  2.0

     negative rho (up, down):  7.908E-01 0.000E+00

     total cpu time spent up to now is     1049.1 secs

     total energy              =   -9077.18742274 Ry
     estimated scf accuracy    <       0.00078453 Ry

     iteration # 11     ecut=    60.00 Ry     beta= 0.30
     Davidson diagonalization with overlap
     ethr =  9.34E-08,  avg # of iterations =  6.1

     negative rho (up, down):  7.905E-01 0.000E+00

     total cpu time spent up to now is     1160.6 secs

     total energy              =   -9077.18767206 Ry
     estimated scf accuracy    <       0.00022938 Ry

     iteration # 12     ecut=    60.00 Ry     beta= 0.30
     Davidson diagonalization with overlap
     ethr =  2.73E-08,  avg # of iterations =  3.2

     negative rho (up, down):  7.904E-01 0.000E+00

     total cpu time spent up to now is     1252.0 secs

     total energy              =   -9077.18769877 Ry
     estimated scf accuracy    <       0.00008354 Ry

     iteration # 13     ecut=    60.00 Ry     beta= 0.30
     Davidson diagonalization with overlap
     ethr =  9.95E-09,  avg # of iterations =  4.5

     negative rho (up, down):  7.903E-01 0.000E+00

     total cpu time spent up to now is     1346.5 secs

     total energy              =   -9077.18771074 Ry
     estimated scf accuracy    <       0.00000968 Ry

     iteration # 14     ecut=    60.00 Ry     beta= 0.30
     Davidson diagonalization with overlap
     ethr =  1.15E-09,  avg # of iterations =  5.3

     negative rho (up, down):  7.902E-01 0.000E+00

     total cpu time spent up to now is     1463.6 secs

     total energy              =   -9077.18771457 Ry
     estimated scf accuracy    <       0.00000140 Ry

     iteration # 15     ecut=    60.00 Ry     beta= 0.30
     Davidson diagonalization with overlap
     ethr =  1.67E-10,  avg # of iterations =  5.9

     negative rho (up, down):  7.902E-01 0.000E+00

     total cpu time spent up to now is     1569.0 secs

     total energy              =   -9077.18771511 Ry
     estimated scf accuracy    <       0.00000035 Ry

     iteration # 16     ecut=    60.00 Ry     beta= 0.30
     Davidson diagonalization with overlap
     ethr =  4.18E-11,  avg # of iterations =  6.4

     negative rho (up, down):  7.902E-01 0.000E+00

     total cpu time spent up to now is     1697.3 secs

     total energy              =   -9077.18771521 Ry
     estimated scf accuracy    <       0.00000070 Ry

     iteration # 17     ecut=    60.00 Ry     beta= 0.30
     Davidson diagonalization with overlap
     ethr =  4.18E-11,  avg # of iterations =  5.1

     negative rho (up, down):  7.902E-01 0.000E+00

     total cpu time spent up to now is     1794.8 secs

     total energy              =   -9077.18771525 Ry
     estimated scf accuracy    <       0.00000012 Ry

     iteration # 18     ecut=    60.00 Ry     beta= 0.30
     Davidson diagonalization with overlap
     ethr =  1.38E-11,  avg # of iterations =  5.3

     negative rho (up, down):  7.902E-01 0.000E+00

     total cpu time spent up to now is     1912.2 secs

     total energy              =   -9077.18771531 Ry
     estimated scf accuracy    <       0.00000004 Ry

     iteration # 19     ecut=    60.00 Ry     beta= 0.30
     Davidson diagonalization with overlap
     ethr =  5.02E-12,  avg # of iterations =  2.6

     negative rho (up, down):  7.902E-01 0.000E+00

     total cpu time spent up to now is     1998.7 secs

     total energy              =   -9077.18771532 Ry
     estimated scf accuracy    <       0.00000002 Ry

     iteration # 20     ecut=    60.00 Ry     beta= 0.30
     Davidson diagonalization with overlap
     ethr =  1.92E-12,  avg # of iterations =  2.2

     negative rho (up, down):  7.902E-01 0.000E+00

     total cpu time spent up to now is     2075.7 secs

     total energy              =   -9077.18771532 Ry
     estimated scf accuracy    <          5.8E-09 Ry

     iteration # 21     ecut=    60.00 Ry     beta= 0.30
     Davidson diagonalization with overlap
     ethr =  6.92E-13,  avg # of iterations =  5.7

     negative rho (up, down):  7.902E-01 0.000E+00

     total cpu time spent up to now is     2185.4 secs

     End of self-consistent calculation

          k = 0.0000 0.0000 0.0000 (115723 PWs)   bands (ev):

   -28.2771 -28.2767 -28.2759 -28.2758 -28.2757 -28.2753 -28.2750 -28.2750
   -28.2747 -28.2746 -28.2742 -28.2741 -14.9250 -14.9238 -14.9231 -14.9229
   -14.9226 -14.9226 -14.9223 -14.9222 -14.9219 -14.9216 -14.9215 -14.9192
   -14.9190 -14.9182 -14.9173 -14.9170 -14.9168 -14.9166 -14.9165 -14.9164
   -14.9160 -14.9157 -14.9157 -14.9130 -14.9071 -14.9059 -14.9052 -14.9049
   -14.9047 -14.9046 -14.9044 -14.9043 -14.9040 -14.9037 -14.9036 -14.9010
   -14.8668 -14.8656 -14.8650 -14.8647 -14.8645 -14.8644 -14.8643 -14.8641
   -14.8638 -14.8635 -14.8633 -14.8609 -14.8217 -14.8207 -14.8198 -14.8195
   -14.8193 -14.8192 -14.8191 -14.8189 -14.8186 -14.8183 -14.8183 -14.8155
   -10.3389 -10.3385 -10.3380 -10.3371 -10.3362 -10.3360 -10.3355 -10.3353
   -10.3347 -10.3311 -10.3303 -10.3241 -10.3096 -10.3089 -10.3086 -10.3047
   -10.3039 -10.3016 -10.3013 -10.3009 -10.2927 -10.2924 -10.2920 -10.2822
   -10.2713 -10.2702 -10.2699 -10.2654 -10.2650 -10.2643 -10.2627 -10.2624
   -10.2619 -10.2586 -10.2577 -10.2542  -6.8631  -6.5568  -6.5536  -6.4176
    -6.4171  -6.4154  -6.3017  -6.2997  -6.2965  -6.2201  -6.2181  -6.2151
    -5.9932  -5.9894  -5.9888  -5.8529  -5.8491  -5.8474  -5.7992  -5.7952
    -5.7939  -5.7372  -5.7356  -5.6207  -5.6197  -5.6172  -5.6146  -5.6123
    -5.6119  -5.6002  -5.5619  -5.5585  -5.5563  -5.5475  -5.5443  -5.5435
    -5.5165  -5.5151  -5.4338  -5.4298  -5.4285  -5.4243  -5.3747  -5.3721
    -5.3463  -5.3451  -5.3412  -5.2502  -0.6129  -0.6113  -0.6090  -0.3906
    -0.3885  -0.3870  -0.3505  -0.3174  -0.3155  -0.3136  -0.3016  -0.2995
     1.3839   1.3851   1.3860   1.5921   1.5930   1.6561   1.7162   1.7163
     1.7179   1.8025   1.8065   1.8089   2.0194   2.0402   2.0415   2.0823
     2.0844   2.0867   2.2472   2.2480   2.2507   2.3087   2.3111   2.4037
     2.4052   2.4054   2.4577   2.4614   2.4632   2.5475   2.5504   2.6589
     2.6634   2.6653   2.7809   2.7834   2.7861   2.8706   2.8722   2.9237
     2.9254   2.9269   2.9519   2.9526   2.9569   3.0244   3.0275   3.0294
     3.0457   3.0466   3.0476   3.1635   3.2134   3.2147   3.2159   3.2265
     3.2273   3.2563   3.2578   3.2601   3.3756   3.3777   3.3797   3.3907
     3.3956   3.4264   3.4270   3.4287   3.4334   3.4363   3.4386   3.4751
     3.4766   3.4789   3.4928   3.4940   3.4953   3.4986   3.5164   3.5185
     3.5819   3.5856   3.5870   3.6239   3.6271   3.6277   3.6869   3.6890
     3.6902   3.6913   3.6920   3.7066   3.7947   3.7975   3.8245   3.8256
     3.8274   3.9622   4.0169   4.0211   4.0222   4.0353   4.0369   4.0382
     4.1227   4.1249   4.1258   4.1273   4.1716   4.1739   4.1757   4.2015
     4.2078   4.2092   4.2123   4.2439   4.2448   4.2505   4.2795   4.2823
     4.4215   4.4247   4.4263   4.5151   4.5187   4.5204   4.5353   4.5368
     4.6184   4.6205   4.6219   4.8545   5.1252   5.1545   5.1556   5.1565
     5.1733   5.1745   5.1751   5.1785   5.1795   5.2219   5.2262   5.2267
     5.2281   5.2292   5.2302   5.2515   5.2523   5.2526   5.2658   5.2671
     5.2674   5.2777   5.2791   5.2794   5.3101   5.3109   5.3116   5.3131
     5.3138   5.3252   5.3375   5.3378   5.3384   5.3755   5.3760   5.3761
     5.4379   5.4394   5.4705   5.4716   5.4734   5.4742   5.4775   5.4777
     5.4781   5.4986   5.4991   5.6014   5.6019   5.6019   5.6171   5.6189
     5.6195   5.6268   5.6466   5.6471   5.6482   5.6590   5.6600   5.6605
     5.7252   5.7265   5.7453   5.7815   5.7836   5.7849   5.8212   5.8219
     5.8231   5.9035   5.9040   5.9045   5.9273   5.9279   5.9289   5.9957
     5.9963   6.0251   6.0257   6.0266   6.1492   6.1504   6.1516   6.1529
     6.2600   6.2616   6.2630   6.2633   6.2640   6.2645   6.2907   6.2910
     6.3343   6.3350   6.3355   6.3618   6.3636   6.3646   6.3874   6.3892
     6.3900   6.5525   6.5709   6.5717   6.5720   6.6367   6.6375   6.6388
     6.7465   6.7467   6.7481   6.7650   6.7659   6.7805   6.7813   6.7827
     6.8083   6.9644   7.1805   7.1808

          k = 0.0000 0.0000 0.2714 (115879 PWs)   bands (ev):

   -28.2771 -28.2767 -28.2759 -28.2758 -28.2757 -28.2753 -28.2750 -28.2750
   -28.2747 -28.2746 -28.2742 -28.2741 -14.9250 -14.9238 -14.9231 -14.9229
   -14.9226 -14.9226 -14.9223 -14.9222 -14.9219 -14.9216 -14.9215 -14.9192
   -14.9190 -14.9182 -14.9173 -14.9170 -14.9168 -14.9166 -14.9165 -14.9164
   -14.9160 -14.9158 -14.9157 -14.9130 -14.9071 -14.9059 -14.9052 -14.9049
   -14.9047 -14.9046 -14.9044 -14.9043 -14.9040 -14.9037 -14.9036 -14.9010
   -14.8668 -14.8656 -14.8650 -14.8647 -14.8645 -14.8644 -14.8643 -14.8641
   -14.8638 -14.8635 -14.8633 -14.8609 -14.8217 -14.8207 -14.8198 -14.8195
   -14.8193 -14.8192 -14.8191 -14.8189 -14.8186 -14.8183 -14.8183 -14.8155
   -10.3398 -10.3394 -10.3389 -10.3378 -10.3368 -10.3366 -10.3341 -10.3339
   -10.3333 -10.3322 -10.3279 -10.3251 -10.3122 -10.3082 -10.3074 -10.3071
   -10.3022 -10.3019 -10.3015 -10.2940 -10.2936 -10.2934 -10.2928 -10.2847
   -10.2707 -10.2697 -10.2694 -10.2661 -10.2656 -10.2650 -10.2623 -10.2619
   -10.2614 -10.2584 -10.2574 -10.2556  -6.8239  -6.7134  -6.4112  -6.4092
    -6.4080  -6.4057  -6.3064  -6.3042  -6.3013  -6.2324  -6.2302  -6.2272
    -5.9955  -5.9911  -5.9906  -5.8528  -5.8384  -5.8343  -5.8325  -5.7762
    -5.7729  -5.7707  -5.6574  -5.6561  -5.6543  -5.6500  -5.6175  -5.6120
    -5.6108  -5.6102  -5.5577  -5.5540  -5.5516  -5.5496  -5.5462  -5.5447
    -5.5426  -5.4540  -5.4370  -5.4342  -5.4340  -5.4295  -5.3759  -5.3459
    -5.3385  -5.3373  -5.3331  -5.2807  -0.6050  -0.6034  -0.6012  -0.4140
    -0.4120  -0.4103  -0.3480  -0.3322  -0.3027  -0.3010  -0.2987  -0.2737
     1.4079   1.4094   1.4104   1.5705   1.6144   1.6182   1.6185   1.6201
     1.6578   1.9325   1.9358   1.9372   2.0045   2.0459   2.0506   2.0531
     2.0551   2.0680   2.2756   2.2764   2.2785   2.3054   2.3872   2.3886
     2.3910   2.3924   2.4154   2.4169   2.4183   2.4562   2.6193   2.6236
     2.6249   2.6664   2.7186   2.7906   2.7957   2.7985   2.8000   2.8698
     2.8726   2.8730   2.9744   2.9760   2.9777   3.0440   3.0456   3.0484
     3.1060   3.1064   3.1085   3.1745   3.1973   3.2039   3.2050   3.2065
     3.2728   3.2747   3.2760   3.2834   3.3740   3.3831   3.3841   3.3868
     3.4171   3.4203   3.4228   3.4365   3.4403   3.4415   3.4489   3.4497
     3.4522   3.4776   3.4992   3.5175   3.5185   3.5213   3.5376   3.5435
     3.5490   3.5505   3.5532   3.6399   3.6416   3.6449   3.6462   3.6509
     3.6786   3.6807   3.6822   3.7740   3.8300   3.8752   3.8765   3.8781
     3.9078   3.9209   3.9921   3.9957   3.9961   4.0546   4.0565   4.0581
     4.0751   4.1146   4.1174   4.1184   4.1473   4.1487   4.1507   4.1643
     4.1715   4.1721   4.1755   4.2122   4.2496   4.2513   4.2555   4.2682
     4.4190   4.4220   4.4240   4.4839   4.5574   4.5595   4.5612   4.6036
     4.6053   4.6073   4.6760   4.8053   5.1365   5.1477   5.1538   5.1543
     5.1552   5.1648   5.1864   5.1869   5.1880   5.2155   5.2165   5.2171
     5.2176   5.2476   5.2482   5.2492   5.2583   5.2593   5.2598   5.2604
     5.2761   5.2768   5.2777   5.2783   5.3279   5.3291   5.3301   5.3332
     5.3342   5.3358   5.3411   5.3420   5.3443   5.3654   5.3744   5.3756
     5.3763   5.3897   5.4027   5.4196   5.4202   5.4215   5.5260   5.5323
     5.5327   5.5339   5.5821   5.5881   5.5884   5.5891   5.5902   5.6189
     5.6200   5.6208   5.6521   5.6529   5.6534   5.6610   5.6815   5.6826
     5.6835   5.7542   5.7562   5.7570   5.7913   5.7993   5.8173   5.8182
     5.8200   5.8706   5.8828   5.8841   5.8848   5.9883   5.9894   5.9901
     6.0413   6.0419   6.0432   6.0967   6.0982   6.0995   6.1750   6.1901
     6.1920   6.1928   6.2368   6.2678   6.2694   6.2701   6.3242   6.3260
     6.3271   6.3598   6.3603   6.3697   6.3710   6.3721   6.3954   6.4287
     6.4292   6.4306   6.4809   6.6405   6.6410   6.6421   6.6427   6.6435
     6.6443   6.6702   6.7073   6.7089   6.7098   6.7517   6.7530   6.7540
     6.9415   7.0053   7.0946   7.1700

          k = 0.0000 0.3849 0.0000 (115797 PWs)   bands (ev):

   -28.2771 -28.2767 -28.2759 -28.2758 -28.2757 -28.2753 -28.2750 -28.2750
   -28.2747 -28.2746 -28.2742 -28.2741 -14.9250 -14.9237 -14.9231 -14.9229
   -14.9226 -14.9226 -14.9223 -14.9222 -14.9219 -14.9216 -14.9215 -14.9192
   -14.9190 -14.9182 -14.9173 -14.9170 -14.9168 -14.9167 -14.9165 -14.9163
   -14.9161 -14.9158 -14.9157 -14.9130 -14.9071 -14.9059 -14.9052 -14.9049
   -14.9047 -14.9046 -14.9044 -14.9043 -14.9040 -14.9037 -14.9036 -14.9010
   -14.8668 -14.8656 -14.8650 -14.8647 -14.8645 -14.8644 -14.8643 -14.8641
   -14.8638 -14.8635 -14.8633 -14.8609 -14.8217 -14.8207 -14.8198 -14.8195
   -14.8193 -14.8192 -14.8191 -14.8189 -14.8186 -14.8183 -14.8183 -14.8155
   -10.3385 -10.3377 -10.3374 -10.3364 -10.3358 -10.3353 -10.3342 -10.3337
   -10.3329 -10.3322 -10.3314 -10.3264 -10.3077 -10.3070 -10.3062 -10.3047
   -10.3028 -10.3023 -10.3016 -10.3013 -10.2945 -10.2941 -10.2908 -10.2852
   -10.2703 -10.2693 -10.2686 -10.2671 -10.2660 -10.2640 -10.2624 -10.2623
   -10.2619 -10.2608 -10.2596 -10.2561  -6.7878  -6.5895  -6.4999  -6.4980
    -6.4391  -6.4379  -6.3644  -6.3504  -6.2856  -6.2829  -6.2492  -6.2469
    -5.9108  -5.9103  -5.8229  -5.8188  -5.8166  -5.7781  -5.7713  -5.7668
    -5.7312  -5.7245  -5.7200  -5.6927  -5.6892  -5.6463  -5.6400  -5.6367
    -5.6289  -5.5941  -5.5850  -5.5818  -5.5677  -5.5288  -5.5205  -5.5181
    -5.5159  -5.5047  -5.4618  -5.4523  -5.4366  -5.4327  -5.4235  -5.4145
    -5.3490  -5.3453  -5.3122  -5.2695  -0.5710  -0.5692  -0.5625  -0.4359
    -0.4035  -0.4022  -0.3765  -0.3414  -0.3383  -0.3359  -0.3112  -0.3018
     1.4191   1.4862   1.4884   1.5012   1.6396   1.6522   1.6882   1.7232
     1.7252   1.8284   1.8761   1.8778   1.9537   1.9560   1.9567   2.0276
     2.1155   2.2058   2.2297   2.2303   2.3399   2.3645   2.3845   2.3882
     2.3939   2.4081   2.4495   2.5376   2.5394   2.6080   2.6138   2.6167
     2.6572   2.7342   2.8102   2.8140   2.8216   2.8409   2.8422   2.8436
     2.8537   2.8852   2.9087   2.9103   2.9150   2.9632   2.9642   3.0037
     3.0489   3.0558   3.0580   3.1233   3.1465   3.1753   3.2048   3.2122
     3.2134   3.2338   3.2587   3.2623   3.2692   3.3231   3.3284   3.3319
     3.3403   3.3729   3.3952   3.3960   3.4336   3.4402   3.4413   3.4499
     3.4958   3.4998   3.5008   3.5096   3.5144   3.5152   3.5233   3.5434
     3.5619   3.6053   3.6057   3.6091   3.6337   3.6440   3.6785   3.6811
     3.6950   3.7016   3.7035   3.7099   3.7773   3.7807   3.8494   3.8600
     3.8965   3.9745   3.9753   3.9778   3.9820   4.0315   4.0364   4.0398
     4.0912   4.1112   4.1188   4.1216   4.1265   4.1625   4.1647   4.1783
     4.2468   4.2652   4.2720   4.2811   4.3037   4.3223   4.3237   4.3701
     4.3785   4.4144   4.4182   4.4839   4.5185   4.5262   4.5282   4.5296
     4.5906   4.5915   4.6245   4.7465   5.1442   5.1449   5.1469   5.1549
     5.1597   5.1604   5.1697   5.1751   5.2148   5.2193   5.2202   5.2210
     5.2271   5.2381   5.2488   5.2492   5.2505   5.2613   5.2675   5.2715
     5.2726   5.2896   5.3028   5.3044   5.3147   5.3188   5.3269   5.3273
     5.3369   5.3504   5.3523   5.3533   5.3571   5.3658   5.4138   5.4145
     5.4334   5.4509   5.4603   5.4612   5.4857   5.4936   5.5008   5.5015
     5.5026   5.5135   5.5271   5.5442   5.5565   5.5574   5.5613   5.6029
     5.6041   5.6308   5.6315   5.6329   5.6680   5.6783   5.6947   5.6963
     5.6971   5.7183   5.7299   5.7555   5.7750   5.7763   5.8095   5.8191
     5.8209   5.8646   5.8746   5.8771   5.9506   5.9518   5.9648   5.9656
     5.9906   6.0067   6.0077   6.0209   6.1384   6.1389   6.1460   6.1613
     6.2244   6.2296   6.2303   6.2517   6.2707   6.2894   6.2899   6.2993
     6.3607   6.3626   6.3771   6.3896   6.3905   6.4418   6.4849   6.4862
     6.5246   6.5374   6.5387   6.5757   6.6048   6.6507   6.6830   6.6922
     6.6929   6.7299   6.7361   6.7378   6.7626   6.7779   6.7925   6.8110
     6.8125   6.9048   6.9089   7.0808

          k = 0.0000 0.3849 0.2714 (115773 PWs)   bands (ev):

   -28.2771 -28.2767 -28.2759 -28.2758 -28.2757 -28.2753 -28.2750 -28.2750
   -28.2747 -28.2746 -28.2742 -28.2741 -14.9250 -14.9237 -14.9231 -14.9229
   -14.9226 -14.9226 -14.9223 -14.9222 -14.9219 -14.9216 -14.9215 -14.9192
   -14.9190 -14.9182 -14.9173 -14.9170 -14.9168 -14.9167 -14.9165 -14.9163
   -14.9161 -14.9158 -14.9157 -14.9130 -14.9071 -14.9059 -14.9052 -14.9049
   -14.9047 -14.9046 -14.9044 -14.9043 -14.9040 -14.9037 -14.9036 -14.9010
   -14.8668 -14.8656 -14.8650 -14.8647 -14.8645 -14.8644 -14.8643 -14.8641
   -14.8638 -14.8635 -14.8633 -14.8609 -14.8217 -14.8207 -14.8198 -14.8195
   -14.8193 -14.8192 -14.8191 -14.8189 -14.8186 -14.8183 -14.8183 -14.8155
   -10.3391 -10.3385 -10.3381 -10.3377 -10.3365 -10.3343 -10.3336 -10.3330
   -10.3324 -10.3321 -10.3297 -10.3272 -10.3105 -10.3072 -10.3065 -10.3059
   -10.3012 -10.3012 -10.3003 -10.2963 -10.2960 -10.2940 -10.2913 -10.2876
   -10.2702 -10.2694 -10.2677 -10.2672 -10.2660 -10.2644 -10.2623 -10.2620
   -10.2616 -10.2608 -10.2593 -10.2576  -6.7508  -6.6468  -6.5600  -6.4723
    -6.4238  -6.4222  -6.3644  -6.3288  -6.3271  -6.2593  -6.2247  -6.2233
    -5.9054  -5.9041  -5.8257  -5.8208  -5.8090  -5.8063  -5.7912  -5.7632
    -5.7590  -5.7302  -5.7119  -5.7100  -5.6710  -5.6350  -5.6310  -5.6272
    -5.6256  -5.6085  -5.5996  -5.5978  -5.5695  -5.5305  -5.5229  -5.5212
    -5.5199  -5.4977  -5.4670  -5.4322  -5.4286  -5.4247  -5.4229  -5.3642
    -5.3487  -5.3451  -5.3207  -5.2987  -0.5606  -0.5584  -0.5563  -0.4367
    -0.4347  -0.4255  -0.3926  -0.3723  -0.3211  -0.3182  -0.2981  -0.2780
     1.4341   1.4839   1.4868   1.4875   1.6251   1.6416   1.7719   1.7738
     1.7827   1.7895   1.7999   1.8006   1.9148   1.9963   1.9970   2.0768
     2.1552   2.2009   2.2093   2.2468   2.2484   2.3607   2.3921   2.3951
     2.3992   2.4478   2.5121   2.5134   2.5471   2.5858   2.5919   2.6086
     2.6409   2.7097   2.7608   2.7673   2.7693   2.7891   2.8092   2.8099
     2.8388   2.8741   2.9143   2.9174   2.9187   2.9811   3.0240   3.0259
     3.0660   3.1066   3.1077   3.1311   3.1712   3.1916   3.1931   3.1941
     3.2025   3.2319   3.2619   3.2666   3.2768   3.3169   3.3208   3.3236
     3.3242   3.3889   3.3902   3.4124   3.4450   3.4456   3.4673   3.4710
     3.4722   3.4737   3.4762   3.4770   3.5335   3.5357   3.5396   3.5871
     3.6097   3.6121   3.6140   3.6336   3.6429   3.6459   3.6587   3.6606
     3.6689   3.7100   3.7123   3.7135   3.8350   3.8366   3.8799   3.8881
     3.9052   3.9495   3.9508   3.9745   3.9821   4.0208   4.0448   4.0490
     4.0508   4.0666   4.1095   4.1118   4.1202   4.1318   4.1339   4.1477
     4.1889   4.2555   4.2663   4.2702   4.2875   4.2916   4.2947   4.3874
     4.3991   4.4358   4.4386   4.4687   4.5230   4.5259   4.5366   4.5961
     4.6104   4.6111   4.6197   4.7194   5.1511   5.1518   5.1545   5.1573
     5.1717   5.1750   5.1758   5.1834   5.1908   5.1973   5.2020   5.2079
     5.2082   5.2345   5.2349   5.2356   5.2543   5.2640   5.2651   5.2662
     5.2796   5.2987   5.3074   5.3117   5.3136   5.3281   5.3365   5.3369
     5.3580   5.3582   5.3599   5.3650   5.3802   5.3923   5.4067   5.4075
     5.4135   5.4323   5.4337   5.4447   5.4456   5.4920   5.5022   5.5024
     5.5084   5.5155   5.5539   5.5602   5.5741   5.5749   5.6028   5.6109
     5.6124   5.6187   5.6249   5.6267   5.6436   5.6695   5.6821   5.7141
     5.7151   5.7176   5.7340   5.7723   5.7734   5.7737   5.8025   5.8039
     5.8106   5.8585   5.8743   5.8767   5.8790   5.9150   5.9587   5.9603
     6.0338   6.0355   6.0361   6.0597   6.0781   6.0791   6.1730   6.2069
     6.2123   6.2134   6.2656   6.2673   6.2694   6.2770   6.2862   6.3491
     6.3502   6.3659   6.3727   6.4159   6.4234   6.4246   6.4274   6.4711
     6.4973   6.4980   6.5459   6.5588   6.5948   6.5963   6.6660   6.6673
     6.6765   6.7199   6.7351   6.7369   6.7465   6.8123   6.8139   6.8451
     6.8699   6.9284   6.9365   7.0524

          k = 0.3333 0.5774 0.0000 (115752 PWs)   bands (ev):

   -28.2771 -28.2767 -28.2759 -28.2758 -28.2757 -28.2753 -28.2750 -28.2750
   -28.2747 -28.2746 -28.2742 -28.2741 -14.9250 -14.9237 -14.9231 -14.9228
   -14.9226 -14.9225 -14.9224 -14.9222 -14.9219 -14.9216 -14.9215 -14.9192
   -14.9190 -14.9182 -14.9173 -14.9170 -14.9167 -14.9166 -14.9165 -14.9163
   -14.9161 -14.9158 -14.9157 -14.9130 -14.9071 -14.9059 -14.9052 -14.9049
   -14.9047 -14.9046 -14.9045 -14.9043 -14.9040 -14.9037 -14.9036 -14.9010
   -14.8668 -14.8656 -14.8650 -14.8647 -14.8645 -14.8644 -14.8643 -14.8641
   -14.8638 -14.8635 -14.8633 -14.8609 -14.8217 -14.8207 -14.8198 -14.8195
   -14.8193 -14.8192 -14.8191 -14.8189 -14.8186 -14.8183 -14.8183 -14.8155
   -10.3389 -10.3365 -10.3357 -10.3354 -10.3352 -10.3350 -10.3348 -10.3343
   -10.3340 -10.3305 -10.3301 -10.3297 -10.3074 -10.3052 -10.3050 -10.3045
   -10.3025 -10.3020 -10.3018 -10.3002 -10.2996 -10.2902 -10.2900 -10.2895
   -10.2697 -10.2679 -10.2672 -10.2667 -10.2660 -10.2655 -10.2643 -10.2638
   -10.2636 -10.2591 -10.2586 -10.2582  -6.6514  -6.6505  -6.6488  -6.4042
    -6.3997  -6.3984  -6.3982  -6.3974  -6.3949  -6.2934  -6.2908  -6.1926
    -5.8659  -5.8534  -5.8499  -5.7514  -5.7483  -5.7476  -5.7329  -5.7319
    -5.7297  -5.7095  -5.7065  -5.6965  -5.6942  -5.6919  -5.6852  -5.6845
    -5.6807  -5.6448  -5.5454  -5.5405  -5.5395  -5.5314  -5.5288  -5.5275
    -5.5113  -5.4742  -5.4717  -5.4701  -5.4670  -5.4663  -5.4626  -5.3975
    -5.3941  -5.3024  -5.3011  -5.2983  -0.5439  -0.5157  -0.5142  -0.5117
    -0.3977  -0.3948  -0.3914  -0.3896  -0.3878  -0.3116  -0.3095  -0.3073
     1.4828   1.4845   1.4859   1.6736   1.6757   1.6759   1.6851   1.6869
     1.6883   1.7340   1.7349   1.7989   2.0801   2.0818   2.0821   2.0828
     2.0845   2.1428   2.1440   2.1457   2.2551   2.3951   2.3975   2.3994
     2.4934   2.4948   2.4964   2.5628   2.5640   2.5654   2.5959   2.5973
     2.7719   2.7739   2.7765   2.8332   2.8387   2.8423   2.8445   2.8454
     2.8487   2.8514   2.8536   2.8546   2.8682   3.0077   3.0097   3.0120
     3.0251   3.0255   3.0278   3.0625   3.1321   3.1344   3.1363   3.1954
     3.1971   3.1990   3.2566   3.2601   3.2615   3.2703   3.2717   3.3616
     3.3704   3.3719   3.3728   3.3740   3.4245   3.4257   3.4276   3.4868
     3.4887   3.5014   3.5027   3.5055   3.5283   3.5298   3.5328   3.5473
     3.5487   3.5767   3.5803   3.5816   3.6468   3.6510   3.6526   3.7160
     3.7207   3.7221   3.7286   3.7289   3.7570   3.8007   3.8022   3.8048
     3.9584   3.9598   3.9617   3.9861   3.9872   4.0278   4.0299   4.0327
     4.0826   4.0850   4.0859   4.1399   4.1507   4.1514   4.1539   4.2848
     4.2864   4.2942   4.3148   4.3194   4.3198   4.3215   4.3219   4.3228
     4.3848   4.3866   4.3892   4.4964   4.5137   4.5149   4.5195   4.5210
     4.5236   4.6525   4.6541   4.6559   5.1372   5.1434   5.1442   5.1450
     5.1728   5.1736   5.1880   5.1886   5.1891   5.1958   5.1972   5.1978
     5.2462   5.2472   5.2478   5.2653   5.2656   5.2668   5.2972   5.2985
     5.2990   5.3010   5.3031   5.3034   5.3135   5.3181   5.3195   5.3198
     5.3398   5.3409   5.3411   5.4027   5.4034   5.4049   5.4074   5.4086
     5.4549   5.4556   5.4568   5.4581   5.4826   5.4838   5.4843   5.4886
     5.4897   5.5354   5.5362   5.5367   5.5638   5.5650   5.5655   5.5701
     5.5712   5.5722   5.6416   5.6718   5.6726   5.6944   5.6956   5.6965
     5.7067   5.7076   5.7094   5.7791   5.7800   5.7815   5.7989   5.7996
     5.8011   5.8242   5.8245   5.8444   5.9301   5.9312   5.9320   6.0449
     6.0468   6.0475   6.0484   6.0495   6.1373   6.1388   6.1403   6.1583
     6.2182   6.2198   6.2203   6.2599   6.2605   6.2614   6.2834   6.2850
     6.3754   6.4099   6.4103   6.4114   6.4157   6.4183   6.4227   6.4514
     6.4529   6.4537   6.6144   6.6156   6.6157   6.6757   6.6763   6.6769
     6.7245   6.7395   6.7413   6.8052   6.8063   6.8071   6.8089   6.8106
     6.8114   6.9385   6.9395   6.9402

          k = 0.3333 0.5774 0.2714 (115827 PWs)   bands (ev):

   -28.2771 -28.2767 -28.2759 -28.2758 -28.2757 -28.2753 -28.2750 -28.2750
   -28.2747 -28.2746 -28.2742 -28.2741 -14.9250 -14.9237 -14.9231 -14.9228
   -14.9226 -14.9225 -14.9224 -14.9222 -14.9219 -14.9216 -14.9215 -14.9192
   -14.9190 -14.9182 -14.9173 -14.9170 -14.9167 -14.9166 -14.9165 -14.9163
   -14.9161 -14.9158 -14.9157 -14.9130 -14.9071 -14.9059 -14.9052 -14.9049
   -14.9047 -14.9046 -14.9045 -14.9043 -14.9040 -14.9037 -14.9036 -14.9010
   -14.8668 -14.8656 -14.8650 -14.8647 -14.8645 -14.8644 -14.8643 -14.8641
   -14.8638 -14.8635 -14.8633 -14.8609 -14.8217 -14.8207 -14.8198 -14.8195
   -14.8193 -14.8192 -14.8191 -14.8189 -14.8186 -14.8183 -14.8183 -14.8155
   -10.3391 -10.3380 -10.3371 -10.3368 -10.3365 -10.3336 -10.3333 -10.3329
   -10.3326 -10.3306 -10.3302 -10.3297 -10.3081 -10.3078 -10.3075 -10.3050
   -10.3014 -10.3007 -10.2977 -10.2973 -10.2971 -10.2920 -10.2918 -10.2912
   -10.2699 -10.2688 -10.2671 -10.2664 -10.2662 -10.2642 -10.2638 -10.2636
   -10.2628 -10.2601 -10.2593 -10.2589  -6.6193  -6.6184  -6.6167  -6.5257
    -6.5249  -6.5232  -6.3082  -6.2911  -6.2893  -6.2876  -6.2575  -6.2141
    -5.8755  -5.8575  -5.8468  -5.7802  -5.7793  -5.7768  -5.7440  -5.7414
    -5.7408  -5.7157  -5.6891  -5.6879  -5.6863  -5.6733  -5.6723  -5.6705
    -5.6681  -5.6448  -5.5594  -5.5561  -5.5551  -5.5273  -5.5241  -5.5236
    -5.5043  -5.5032  -5.5025  -5.5009  -5.4585  -5.3992  -5.3976  -5.3950
    -5.3570  -5.3229  -5.3219  -5.3193  -0.5202  -0.5068  -0.5051  -0.5031
    -0.4607  -0.4183  -0.4164  -0.4147  -0.3549  -0.2944  -0.2926  -0.2902
     1.4813   1.4826   1.4838   1.6367   1.6387   1.6394   1.6906   1.7735
     1.7759   1.7768   1.7786   1.7938   1.9804   1.9815   1.9830   2.0554
     2.1717   2.1914   2.1933   2.1944   2.2463   2.3957   2.3977   2.3982
     2.4881   2.4896   2.4912   2.5573   2.5866   2.5875   2.5903   2.5916
     2.6790   2.7331   2.7372   2.7387   2.8220   2.8232   2.8241   2.8267
     2.8985   2.9031   2.9042   2.9246   2.9370   2.9533   2.9554   2.9580
     3.0595   3.0604   3.0628   3.0866   3.0885   3.0904   3.1259   3.1807
     3.2429   3.2445   3.2465   3.2679   3.2714   3.2725   3.3210   3.3272
     3.3280   3.3296   3.3746   3.4086   3.4220   3.4652   3.4661   3.4668
     3.4909   3.4988   3.4995   3.5022   3.5350   3.5375   3.5393   3.5410
     3.5619   3.6117   3.6168   3.6173   3.6522   3.6556   3.6568   3.6967
     3.6977   3.7001   3.7210   3.7435   3.8210   3.8405   3.8411   3.8435
     3.9373   3.9403   3.9413   3.9440   4.0271   4.0296   4.0327   4.0391
     4.0661   4.0683   4.0695   4.1085   4.1117   4.1147   4.1162   4.1685
     4.2702   4.2740   4.2752   4.2902   4.3166   4.3583   4.3618   4.3635
     4.4160   4.4171   4.4190   4.4920   4.4931   4.4961   4.5074   4.5113
     4.5647   4.6660   4.6665   4.6679   5.1483   5.1567   5.1573   5.1576
     5.1583   5.1825   5.1828   5.1838   5.1976   5.1986   5.1987   5.2108
     5.2241   5.2251   5.2255   5.2518   5.2526   5.2536   5.2568   5.2690
     5.3010   5.3016   5.3026   5.3090   5.3281   5.3299   5.3307   5.3677
     5.3685   5.3694   5.3752   5.3934   5.3956   5.4078   5.4093   5.4098
     5.4329   5.4336   5.4347   5.4382   5.4841   5.4850   5.4856   5.4905
     5.5383   5.5397   5.5402   5.5440   5.5658   5.5664   5.5669   5.6055
     5.6060   5.6080   5.6383   5.6394   5.6726   5.6730   5.6737   5.7032
     5.7041   5.7053   5.7179   5.7592   5.7599   5.7609   5.8011   5.8083
     5.8206   5.8241   5.8246   5.8251   5.8895   5.8910   5.8917   6.0559
     6.0598   6.0607   6.0630   6.0777   6.1190   6.1204   6.1210   6.1348
     6.1952   6.2372   6.2378   6.2397   6.2839   6.3019   6.3027   6.3033
     6.3065   6.3851   6.3857   6.3876   6.4510   6.4663   6.4685   6.4689
     6.4912   6.4930   6.5583   6.5598   6.5607   6.6448   6.6846   6.6854
     6.6859   6.7597   6.7773   6.7783   6.7789   6.7924   6.8540   6.8552
     6.8557   6.9352   6.9363   6.9368

          k =-0.3333 0.1925 0.0000 (115797 PWs)   bands (ev):

   -28.2771 -28.2767 -28.2759 -28.2758 -28.2757 -28.2753 -28.2750 -28.2750
   -28.2747 -28.2746 -28.2742 -28.2741 -14.9250 -14.9237 -14.9231 -14.9228
   -14.9226 -14.9225 -14.9224 -14.9222 -14.9219 -14.9216 -14.9215 -14.9192
   -14.9190 -14.9182 -14.9173 -14.9170 -14.9167 -14.9166 -14.9165 -14.9164
   -14.9161 -14.9158 -14.9157 -14.9130 -14.9071 -14.9059 -14.9052 -14.9049
   -14.9047 -14.9046 -14.9045 -14.9043 -14.9040 -14.9037 -14.9036 -14.9010
   -14.8668 -14.8656 -14.8650 -14.8647 -14.8645 -14.8644 -14.8643 -14.8641
   -14.8638 -14.8635 -14.8633 -14.8609 -14.8217 -14.8207 -14.8198 -14.8195
   -14.8193 -14.8192 -14.8191 -14.8189 -14.8186 -14.8183 -14.8183 -14.8155
   -10.3384 -10.3380 -10.3368 -10.3364 -10.3362 -10.3354 -10.3343 -10.3339
   -10.3327 -10.3319 -10.3317 -10.3264 -10.3077 -10.3071 -10.3062 -10.3045
   -10.3030 -10.3020 -10.3017 -10.3014 -10.2947 -10.2943 -10.2906 -10.2852
   -10.2702 -10.2691 -10.2688 -10.2671 -10.2661 -10.2639 -10.2632 -10.2620
   -10.2616 -10.2604 -10.2599 -10.2561  -6.7879  -6.5900  -6.5009  -6.4970
    -6.4385  -6.4369  -6.3664  -6.3485  -6.2866  -6.2827  -6.2496  -6.2459
    -5.9147  -5.9099  -5.8235  -5.8192  -5.8176  -5.7761  -5.7690  -5.7660
    -5.7317  -5.7237  -5.7211  -5.6906  -5.6889  -5.6471  -5.6385  -5.6365
    -5.6284  -5.5948  -5.5863  -5.5820  -5.5699  -5.5290  -5.5193  -5.5182
    -5.5145  -5.5051  -5.4633  -5.4508  -5.4378  -5.4325  -5.4215  -5.4159
    -5.3489  -5.3466  -5.3114  -5.2693  -0.5726  -0.5685  -0.5618  -0.4352
    -0.4058  -0.4017  -0.3769  -0.3383  -0.3374  -0.3364  -0.3126  -0.3026
     1.4192   1.4866   1.4882   1.5013   1.6395   1.6516   1.6885   1.7224
     1.7252   1.8275   1.8762   1.8795   1.9525   1.9545   1.9568   2.0270
     2.1157   2.2068   2.2295   2.2318   2.3395   2.3637   2.3859   2.3870
     2.3930   2.4093   2.4506   2.5370   2.5386   2.6129   2.6143   2.6175
     2.6580   2.7331   2.8116   2.8142   2.8186   2.8407   2.8417   2.8438
     2.8543   2.8850   2.9075   2.9103   2.9152   2.9598   2.9640   3.0041
     3.0497   3.0550   3.0585   3.1242   3.1474   3.1748   3.2032   3.2119
     3.2137   3.2338   3.2600   3.2628   3.2694   3.3233   3.3302   3.3324
     3.3386   3.3725   3.3950   3.3982   3.4342   3.4389   3.4415   3.4512
     3.4961   3.4982   3.5013   3.5103   3.5112   3.5161   3.5227   3.5453
     3.5616   3.5986   3.6058   3.6117   3.6342   3.6467   3.6785   3.6808
     3.6939   3.7019   3.7043   3.7081   3.7792   3.7808   3.8487   3.8585
     3.8964   3.9728   3.9760   3.9782   3.9804   4.0291   4.0377   4.0392
     4.0926   4.1113   4.1189   4.1226   4.1262   4.1612   4.1685   4.1789
     4.2489   4.2660   4.2677   4.2824   4.3021   4.3221   4.3256   4.3683
     4.3783   4.4150   4.4175   4.4835   4.5179   4.5257   4.5281   4.5312
     4.5886   4.5927   4.6264   4.7477   5.1423   5.1439   5.1474   5.1547
     5.1597   5.1609   5.1696   5.1747   5.2151   5.2190   5.2195   5.2220
     5.2278   5.2370   5.2483   5.2496   5.2499   5.2611   5.2679   5.2719
     5.2726   5.2888   5.3042   5.3045   5.3145   5.3185   5.3272   5.3277
     5.3374   5.3497   5.3526   5.3537   5.3575   5.3654   5.4130   5.4143
     5.4336   5.4506   5.4617   5.4629   5.4857   5.4936   5.4992   5.5010
     5.5037   5.5130   5.5276   5.5438   5.5565   5.5570   5.5616   5.6029
     5.6037   5.6308   5.6317   5.6323   5.6683   5.6792   5.6961   5.6964
     5.6971   5.7177   5.7292   5.7569   5.7751   5.7768   5.8091   5.8189
     5.8198   5.8636   5.8751   5.8763   5.9494   5.9520   5.9644   5.9660
     5.9901   6.0068   6.0076   6.0203   6.1389   6.1398   6.1440   6.1612
     6.2251   6.2287   6.2308   6.2518   6.2713   6.2891   6.2902   6.2997
     6.3610   6.3627   6.3777   6.3890   6.3905   6.4410   6.4859   6.4872
     6.5243   6.5368   6.5389   6.5751   6.6047   6.6509   6.6831   6.6923
     6.6937   6.7300   6.7370   6.7375   6.7619   6.7774   6.7933   6.8115
     6.8132   6.9040   6.9088   7.0806

          k = 0.3333 0.1925 0.0000 (115797 PWs)   bands (ev):

   -28.2771 -28.2767 -28.2759 -28.2758 -28.2757 -28.2753 -28.2750 -28.2750
   -28.2747 -28.2746 -28.2742 -28.2741 -14.9250 -14.9238 -14.9231 -14.9229
   -14.9226 -14.9225 -14.9224 -14.9222 -14.9219 -14.9216 -14.9215 -14.9192
   -14.9190 -14.9182 -14.9173 -14.9170 -14.9167 -14.9166 -14.9165 -14.9163
   -14.9160 -14.9158 -14.9157 -14.9130 -14.9071 -14.9059 -14.9052 -14.9049
   -14.9047 -14.9046 -14.9045 -14.9043 -14.9040 -14.9037 -14.9036 -14.9010
   -14.8668 -14.8656 -14.8650 -14.8647 -14.8645 -14.8644 -14.8643 -14.8641
   -14.8638 -14.8635 -14.8633 -14.8609 -14.8217 -14.8207 -14.8198 -14.8195
   -14.8193 -14.8192 -14.8191 -14.8189 -14.8186 -14.8183 -14.8183 -14.8155
   -10.3384 -10.3380 -10.3367 -10.3361 -10.3360 -10.3353 -10.3346 -10.3343
   -10.3329 -10.3319 -10.3316 -10.3264 -10.3076 -10.3070 -10.3064 -10.3042
   -10.3034 -10.3019 -10.3016 -10.3012 -10.2949 -10.2946 -10.2904 -10.2851
   -10.2699 -10.2692 -10.2690 -10.2666 -10.2664 -10.2637 -10.2631 -10.2626
   -10.2625 -10.2597 -10.2596 -10.2560  -6.7879  -6.5900  -6.5010  -6.4967
    -6.4384  -6.4366  -6.3666  -6.3475  -6.2864  -6.2846  -6.2494  -6.2473
    -5.9128  -5.9104  -5.8203  -5.8183  -5.8164  -5.7781  -5.7677  -5.7653
    -5.7318  -5.7261  -5.7227  -5.6906  -5.6883  -5.6476  -5.6406  -5.6371
    -5.6295  -5.5948  -5.5872  -5.5835  -5.5687  -5.5271  -5.5203  -5.5179
    -5.5131  -5.5033  -5.4635  -5.4497  -5.4380  -5.4356  -5.4220  -5.4151
    -5.3484  -5.3442  -5.3128  -5.2696  -0.5719  -0.5709  -0.5602  -0.4343
    -0.4050  -0.4037  -0.3774  -0.3382  -0.3373  -0.3334  -0.3135  -0.3039
     1.4179   1.4874   1.4892   1.5008   1.6402   1.6520   1.6882   1.7233
     1.7245   1.8286   1.8760   1.8777   1.9541   1.9553   1.9567   2.0280
     2.1152   2.2072   2.2273   2.2313   2.3384   2.3631   2.3854   2.3875
     2.3938   2.4101   2.4499   2.5377   2.5384   2.6098   2.6139   2.6177
     2.6561   2.7351   2.8117   2.8140   2.8234   2.8395   2.8426   2.8453
     2.8545   2.8834   2.9070   2.9082   2.9149   2.9603   2.9624   3.0043
     3.0519   3.0552   3.0577   3.1236   3.1485   3.1752   3.2028   3.2105
     3.2127   3.2345   3.2608   3.2630   3.2686   3.3240   3.3304   3.3334
     3.3390   3.3716   3.3933   3.3959   3.4327   3.4403   3.4427   3.4499
     3.4973   3.4985   3.5021   3.5112   3.5117   3.5137   3.5249   3.5426
     3.5605   3.6047   3.6061   3.6118   3.6343   3.6463   3.6778   3.6798
     3.6913   3.7031   3.7044   3.7078   3.7786   3.7804   3.8498   3.8614
     3.8968   3.9701   3.9754   3.9796   3.9804   4.0296   4.0390   4.0403
     4.0929   4.1111   4.1205   4.1219   4.1266   4.1621   4.1635   4.1789
     4.2476   4.2661   4.2673   4.2826   4.3018   4.3235   4.3261   4.3674
     4.3776   4.4158   4.4176   4.4836   4.5167   4.5264   4.5281   4.5318
     4.5885   4.5922   4.6269   4.7478   5.1430   5.1440   5.1469   5.1549
     5.1605   5.1608   5.1697   5.1748   5.2143   5.2188   5.2196   5.2220
     5.2283   5.2371   5.2487   5.2495   5.2499   5.2609   5.2675   5.2719
     5.2722   5.2889   5.3041   5.3046   5.3141   5.3195   5.3270   5.3278
     5.3371   5.3491   5.3524   5.3531   5.3574   5.3660   5.4138   5.4154
     5.4334   5.4514   5.4612   5.4628   5.4854   5.4933   5.4997   5.5010
     5.5029   5.5130   5.5276   5.5439   5.5569   5.5575   5.5615   5.6026
     5.6038   5.6300   5.6313   5.6325   5.6682   5.6783   5.6950   5.6964
     5.6970   5.7177   5.7307   5.7568   5.7753   5.7767   5.8093   5.8192
     5.8204   5.8639   5.8755   5.8766   5.9497   5.9515   5.9646   5.9655
     5.9905   6.0059   6.0072   6.0200   6.1388   6.1395   6.1452   6.1611
     6.2256   6.2284   6.2297   6.2521   6.2707   6.2889   6.2901   6.2997
     6.3624   6.3628   6.3775   6.3896   6.3903   6.4412   6.4857   6.4871
     6.5243   6.5377   6.5388   6.5754   6.6041   6.6503   6.6842   6.6902
     6.6932   6.7296   6.7368   6.7385   6.7627   6.7772   6.7936   6.8107
     6.8130   6.9041   6.9088   7.0810

          k = 0.0000-0.3849 0.2714 (115773 PWs)   bands (ev):

   -28.2771 -28.2767 -28.2759 -28.2758 -28.2757 -28.2753 -28.2750 -28.2750
   -28.2747 -28.2746 -28.2742 -28.2741 -14.9250 -14.9237 -14.9231 -14.9229
   -14.9226 -14.9226 -14.9223 -14.9222 -14.9219 -14.9216 -14.9215 -14.9192
   -14.9190 -14.9182 -14.9173 -14.9170 -14.9168 -14.9167 -14.9165 -14.9163
   -14.9161 -14.9158 -14.9157 -14.9130 -14.9071 -14.9059 -14.9052 -14.9049
   -14.9047 -14.9046 -14.9044 -14.9043 -14.9040 -14.9037 -14.9036 -14.9010
   -14.8668 -14.8656 -14.8650 -14.8647 -14.8645 -14.8644 -14.8643 -14.8641
   -14.8638 -14.8635 -14.8633 -14.8609 -14.8217 -14.8207 -14.8198 -14.8195
   -14.8193 -14.8192 -14.8191 -14.8189 -14.8186 -14.8183 -14.8183 -14.8155
   -10.3393 -10.3386 -10.3380 -10.3374 -10.3363 -10.3346 -10.3341 -10.3331
   -10.3326 -10.3315 -10.3295 -10.3275 -10.3102 -10.3080 -10.3058 -10.3051
   -10.3033 -10.3026 -10.2976 -10.2954 -10.2951 -10.2946 -10.2931 -10.2871
   -10.2699 -10.2691 -10.2683 -10.2676 -10.2665 -10.2632 -10.2621 -10.2618
   -10.2615 -10.2611 -10.2600 -10.2573  -6.7509  -6.6467  -6.5608  -6.4688
    -6.4207  -6.4190  -6.3641  -6.3404  -6.3385  -6.2660  -6.2110  -6.2097
    -5.9136  -5.9129  -5.8255  -5.8231  -5.8189  -5.8160  -5.7668  -5.7641
    -5.7530  -5.7318  -5.6837  -5.6827  -5.6802  -5.6626  -5.6473  -5.6406
    -5.6381  -5.6051  -5.5854  -5.5830  -5.5727  -5.5329  -5.5279  -5.5261
    -5.5160  -5.4858  -5.4668  -5.4400  -5.4372  -5.4330  -5.3998  -5.3699
    -5.3448  -5.3416  -5.3301  -5.2953  -0.5620  -0.5602  -0.5525  -0.4344
    -0.4294  -0.4270  -0.4098  -0.3597  -0.3245  -0.3214  -0.2892  -0.2824
     1.4054   1.4926   1.4953   1.5157   1.6125   1.7116   1.7131   1.7224
     1.7366   1.7723   1.8446   1.8460   1.9665   1.9865   2.0214   2.0228
     2.1295   2.1979   2.2088   2.2096   2.2851   2.3346   2.3970   2.4257
     2.4294   2.5164   2.5276   2.5320   2.5559   2.5576   2.5585   2.5597
     2.5990   2.6779   2.7615   2.7654   2.8227   2.8238   2.8261   2.8302
     2.8487   2.8532   2.8948   2.8982   2.9064   3.0081   3.0180   3.0206
     3.0739   3.0796   3.1168   3.1195   3.1335   3.1809   3.1822   3.1879
     3.2135   3.2454   3.2659   3.2837   3.2868   3.2945   3.3284   3.3331
     3.3759   3.3771   3.3792   3.3802   3.4462   3.4475   3.4509   3.4766
     3.4783   3.4820   3.5060   3.5195   3.5338   3.5368   3.5393   3.5568
     3.5851   3.5875   3.6116   3.6278   3.6397   3.6445   3.6832   3.6835
     3.6878   3.6965   3.7041   3.7057   3.8350   3.8379   3.8787   3.8803
     3.9410   3.9452   3.9466   3.9497   3.9726   4.0323   4.0533   4.0562
     4.0594   4.0618   4.0986   4.1011   4.1220   4.1234   4.1303   4.1334
     4.2212   4.2400   4.2682   4.2710   4.2902   4.2954   4.3148   4.3676
     4.3924   4.4322   4.4353   4.4814   4.5215   4.5429   4.5452   4.5858
     4.5965   4.5967   4.6295   4.7274   5.1479   5.1487   5.1540   5.1642
     5.1679   5.1685   5.1699   5.1728   5.1990   5.2050   5.2130   5.2188
     5.2190   5.2293   5.2412   5.2413   5.2601   5.2634   5.2642   5.2648
     5.2658   5.2735   5.3095   5.3108   5.3200   5.3341   5.3463   5.3477
     5.3610   5.3624   5.3632   5.3679   5.3697   5.3804   5.3888   5.3895
     5.4100   5.4328   5.4472   5.4511   5.4519   5.4692   5.4969   5.4977
     5.5174   5.5238   5.5554   5.5572   5.5688   5.5695   5.6022   5.6029
     5.6078   5.6208   5.6314   5.6499   5.6518   5.6613   5.6743   5.7085
     5.7091   5.7394   5.7597   5.7615   5.7712   5.7844   5.8053   5.8066
     5.8152   5.8405   5.8666   5.8687   5.8757   5.8952   5.9688   5.9696
     6.0193   6.0246   6.0264   6.1005   6.1022   6.1115   6.1595   6.1880
     6.2026   6.2037   6.2047   6.2622   6.2629   6.2867   6.3184   6.3420
     6.3550   6.3695   6.3705   6.4137   6.4182   6.4201   6.4524   6.4808
     6.4814   6.5074   6.5581   6.5656   6.6062   6.6077   6.6480   6.6652
     6.6669   6.7376   6.7378   6.7400   6.7480   6.8036   6.8046   6.8504
     6.8664   6.9186   6.9456   7.0391

          k =-0.3333 0.1925 0.2714 (115773 PWs)   bands (ev):

   -28.2771 -28.2767 -28.2759 -28.2758 -28.2757 -28.2753 -28.2750 -28.2750
   -28.2747 -28.2746 -28.2742 -28.2741 -14.9250 -14.9237 -14.9231 -14.9228
   -14.9226 -14.9225 -14.9224 -14.9222 -14.9219 -14.9216 -14.9215 -14.9192
   -14.9190 -14.9182 -14.9173 -14.9170 -14.9167 -14.9166 -14.9165 -14.9164
   -14.9161 -14.9158 -14.9157 -14.9130 -14.9071 -14.9059 -14.9052 -14.9049
   -14.9047 -14.9046 -14.9045 -14.9043 -14.9040 -14.9037 -14.9036 -14.9010
   -14.8668 -14.8656 -14.8650 -14.8647 -14.8645 -14.8644 -14.8643 -14.8641
   -14.8638 -14.8635 -14.8633 -14.8609 -14.8217 -14.8207 -14.8198 -14.8195
   -14.8193 -14.8192 -14.8191 -14.8189 -14.8186 -14.8183 -14.8183 -14.8155
   -10.3392 -10.3388 -10.3378 -10.3370 -10.3366 -10.3347 -10.3342 -10.3329
   -10.3328 -10.3313 -10.3296 -10.3274 -10.3102 -10.3081 -10.3057 -10.3049
   -10.3031 -10.3027 -10.2978 -10.2957 -10.2952 -10.2945 -10.2930 -10.2871
   -10.2699 -10.2688 -10.2684 -10.2677 -10.2667 -10.2633 -10.2626 -10.2615
   -10.2611 -10.2608 -10.2603 -10.2574  -6.7511  -6.6466  -6.5615  -6.4688
    -6.4194  -6.4181  -6.3641  -6.3416  -6.3379  -6.2659  -6.2125  -6.2084
    -5.9170  -5.9126  -5.8243  -5.8220  -5.8210  -5.8168  -5.7659  -5.7634
    -5.7518  -5.7328  -5.6831  -5.6819  -5.6808  -5.6623  -5.6425  -5.6399
    -5.6374  -5.6073  -5.5873  -5.5842  -5.5742  -5.5312  -5.5274  -5.5251
    -5.5174  -5.4866  -5.4652  -5.4407  -5.4380  -5.4339  -5.3989  -5.3702
    -5.3448  -5.3426  -5.3290  -5.2949  -0.5638  -0.5596  -0.5513  -0.4330
    -0.4301  -0.4270  -0.4107  -0.3603  -0.3228  -0.3208  -0.2904  -0.2827
     1.4054   1.4931   1.4951   1.5154   1.6123   1.7111   1.7132   1.7221
     1.7370   1.7723   1.8428   1.8472   1.9660   1.9861   2.0203   2.0231
     2.1285   2.1989   2.2094   2.2108   2.2852   2.3349   2.3973   2.4266
     2.4281   2.5188   2.5293   2.5299   2.5561   2.5577   2.5587   2.5607
     2.6001   2.6768   2.7634   2.7659   2.8231   2.8248   2.8261   2.8289
     2.8497   2.8525   2.8926   2.8960   2.9045   3.0087   3.0169   3.0200
     3.0763   3.0784   3.1170   3.1199   3.1335   3.1797   3.1821   3.1876
     3.2130   3.2461   3.2670   3.2838   3.2881   3.2955   3.3297   3.3325
     3.3739   3.3763   3.3788   3.3831   3.4462   3.4478   3.4518   3.4767
     3.4784   3.4808   3.5062   3.5207   3.5344   3.5352   3.5400   3.5568
     3.5830   3.5876   3.6102   3.6319   3.6407   3.6451   3.6809   3.6840
     3.6860   3.6963   3.7027   3.7052   3.8368   3.8386   3.8774   3.8794
     3.9419   3.9445   3.9472   3.9478   3.9717   4.0301   4.0540   4.0568
     4.0592   4.0608   4.0995   4.1014   4.1210   4.1262   4.1314   4.1332
     4.2242   4.2403   4.2679   4.2701   4.2899   4.2930   4.3131   4.3679
     4.3906   4.4328   4.4361   4.4817   4.5228   4.5437   4.5459   4.5850
     4.5936   4.5980   4.6310   4.7287   5.1462   5.1477   5.1533   5.1650
     5.1677   5.1688   5.1698   5.1731   5.1999   5.2048   5.2123   5.2171
     5.2193   5.2292   5.2403   5.2419   5.2602   5.2646   5.2649   5.2652
     5.2659   5.2735   5.3100   5.3110   5.3184   5.3345   5.3470   5.3477
     5.3599   5.3624   5.3638   5.3677   5.3695   5.3806   5.3890   5.3893
     5.4099   5.4332   5.4475   5.4508   5.4523   5.4698   5.4967   5.4978
     5.5174   5.5247   5.5564   5.5572   5.5680   5.5692   5.6017   5.6023
     5.6077   5.6209   5.6322   5.6503   5.6506   5.6614   5.6751   5.7088
     5.7096   5.7396   5.7601   5.7617   5.7712   5.7851   5.8052   5.8062
     5.8146   5.8395   5.8668   5.8676   5.8746   5.8937   5.9683   5.9701
     6.0192   6.0251   6.0267   6.1015   6.1025   6.1115   6.1596   6.1881
     6.2010   6.2034   6.2046   6.2611   6.2641   6.2875   6.3184   6.3425
     6.3554   6.3683   6.3697   6.4128   6.4194   6.4200   6.4531   6.4811
     6.4825   6.5065   6.5575   6.5664   6.6070   6.6080   6.6468   6.6664
     6.6673   6.7367   6.7381   6.7397   6.7485   6.8037   6.8052   6.8511
     6.8660   6.9177   6.9459   7.0384

          k = 0.3333 0.1925 0.2714 (115773 PWs)   bands (ev):

   -28.2771 -28.2767 -28.2759 -28.2758 -28.2757 -28.2753 -28.2750 -28.2750
   -28.2747 -28.2746 -28.2742 -28.2741 -14.9250 -14.9238 -14.9231 -14.9229
   -14.9226 -14.9225 -14.9224 -14.9222 -14.9219 -14.9216 -14.9215 -14.9192
   -14.9190 -14.9182 -14.9173 -14.9170 -14.9167 -14.9166 -14.9165 -14.9163
   -14.9160 -14.9158 -14.9157 -14.9130 -14.9071 -14.9059 -14.9052 -14.9049
   -14.9047 -14.9046 -14.9045 -14.9043 -14.9040 -14.9037 -14.9036 -14.9010
   -14.8668 -14.8656 -14.8650 -14.8647 -14.8645 -14.8644 -14.8643 -14.8641
   -14.8638 -14.8635 -14.8633 -14.8609 -14.8217 -14.8207 -14.8198 -14.8195
   -14.8193 -14.8192 -14.8191 -14.8189 -14.8186 -14.8183 -14.8183 -14.8155
   -10.3393 -10.3389 -10.3378 -10.3366 -10.3363 -10.3347 -10.3342 -10.3333
   -10.3331 -10.3311 -10.3298 -10.3272 -10.3102 -10.3083 -10.3054 -10.3049
   -10.3030 -10.3027 -10.2978 -10.2958 -10.2955 -10.2948 -10.2928 -10.2869
   -10.2694 -10.2689 -10.2686 -10.2674 -10.2671 -10.2631 -10.2625 -10.2622
   -10.2621 -10.2605 -10.2597 -10.2570  -6.7511  -6.6465  -6.5616  -6.4683
    -6.4192  -6.4173  -6.3641  -6.3417  -6.3405  -6.2653  -6.2114  -6.2102
    -5.9156  -5.9128  -5.8241  -5.8214  -5.8174  -5.8160  -5.7655  -5.7628
    -5.7554  -5.7334  -5.6854  -5.6827  -5.6788  -5.6648  -5.6420  -5.6409
    -5.6353  -5.6085  -5.5889  -5.5854  -5.5724  -5.5296  -5.5281  -5.5261
    -5.5161  -5.4858  -5.4646  -5.4406  -5.4385  -5.4360  -5.3969  -5.3699
    -5.3445  -5.3398  -5.3318  -5.2955  -0.5633  -0.5620  -0.5496  -0.4325
    -0.4291  -0.4272  -0.4117  -0.3612  -0.3219  -0.3197  -0.2908  -0.2835
     1.4042   1.4941   1.4964   1.5147   1.6123   1.7108   1.7119   1.7220
     1.7379   1.7743   1.8451   1.8468   1.9661   1.9854   2.0197   2.0225
     2.1290   2.1997   2.2073   2.2104   2.2858   2.3335   2.3956   2.4258
     2.4283   2.5196   2.5273   2.5302   2.5564   2.5591   2.5597   2.5617
     2.5987   2.6775   2.7624   2.7648   2.8227   2.8250   2.8267   2.8296
     2.8510   2.8529   2.8935   2.8954   2.9065   3.0060   3.0170   3.0181
     3.0779   3.0790   3.1171   3.1191   3.1328   3.1796   3.1808   3.1878
     3.2143   3.2446   3.2654   3.2848   3.2862   3.2953   3.3309   3.3331
     3.3760   3.3774   3.3779   3.3793   3.4468   3.4488   3.4527   3.4783
     3.4806   3.4820   3.5069   3.5190   3.5320   3.5349   3.5363   3.5576
     3.5865   3.5872   3.6084   3.6327   3.6412   3.6440   3.6826   3.6850
     3.6857   3.6950   3.7043   3.7049   3.8355   3.8374   3.8789   3.8818
     3.9407   3.9433   3.9472   3.9488   3.9731   4.0323   4.0528   4.0571
     4.0612   4.0618   4.0993   4.1009   4.1215   4.1231   4.1275   4.1332
     4.2254   4.2409   4.2684   4.2695   4.2917   4.2930   4.3129   4.3649
     4.3927   4.4336   4.4361   4.4805   4.5202   4.5441   4.5469   4.5844
     4.5944   4.5980   4.6313   4.7292   5.1473   5.1479   5.1538   5.1641
     5.1685   5.1689   5.1699   5.1730   5.1998   5.2046   5.2123   5.2180
     5.2190   5.2287   5.2405   5.2416   5.2604   5.2645   5.2650   5.2654
     5.2667   5.2729   5.3095   5.3101   5.3184   5.3338   5.3464   5.3479
     5.3595   5.3620   5.3643   5.3686   5.3700   5.3806   5.3887   5.3900
     5.4103   5.4331   5.4478   5.4512   5.4517   5.4693   5.4971   5.4978
     5.5168   5.5239   5.5562   5.5578   5.5687   5.5697   5.6019   5.6027
     5.6077   5.6207   5.6307   5.6499   5.6513   5.6610   5.6745   5.7087
     5.7093   5.7402   5.7602   5.7610   5.7709   5.7848   5.8053   5.8058
     5.8150   5.8398   5.8670   5.8687   5.8755   5.8945   5.9687   5.9697
     6.0193   6.0245   6.0255   6.1010   6.1025   6.1112   6.1588   6.1876
     6.2022   6.2034   6.2039   6.2627   6.2631   6.2879   6.3194   6.3426
     6.3551   6.3684   6.3701   6.4126   6.4197   6.4205   6.4523   6.4815
     6.4826   6.5068   6.5577   6.5661   6.6065   6.6077   6.6467   6.6655
     6.6682   6.7357   6.7379   6.7398   6.7483   6.8032   6.8051   6.8515
     6.8663   6.9178   6.9461   7.0387

          k =-0.3333-0.1925 0.2714 (115773 PWs)   bands (ev):

   -28.2771 -28.2767 -28.2759 -28.2758 -28.2757 -28.2753 -28.2750 -28.2750
   -28.2747 -28.2746 -28.2742 -28.2741 -14.9250 -14.9238 -14.9231 -14.9229
   -14.9226 -14.9225 -14.9224 -14.9222 -14.9219 -14.9216 -14.9215 -14.9192
   -14.9190 -14.9182 -14.9173 -14.9170 -14.9167 -14.9166 -14.9165 -14.9163
   -14.9160 -14.9158 -14.9157 -14.9130 -14.9071 -14.9059 -14.9052 -14.9049
   -14.9047 -14.9046 -14.9045 -14.9043 -14.9040 -14.9037 -14.9036 -14.9010
   -14.8668 -14.8656 -14.8650 -14.8647 -14.8645 -14.8644 -14.8643 -14.8641
   -14.8638 -14.8635 -14.8633 -14.8609 -14.8217 -14.8207 -14.8198 -14.8195
   -14.8193 -14.8192 -14.8191 -14.8189 -14.8186 -14.8183 -14.8183 -14.8155
   -10.3392 -10.3388 -10.3379 -10.3367 -10.3365 -10.3346 -10.3341 -10.3331
   -10.3330 -10.3315 -10.3298 -10.3271 -10.3105 -10.3068 -10.3064 -10.3062
   -10.3015 -10.3007 -10.3004 -10.2967 -10.2964 -10.2940 -10.2908 -10.2876
   -10.2697 -10.2694 -10.2688 -10.2665 -10.2663 -10.2636 -10.2633 -10.2623
   -10.2622 -10.2600 -10.2589 -10.2576  -6.7509  -6.6467  -6.5609  -6.4716
    -6.4228  -6.4204  -6.3644  -6.3305  -6.3281  -6.2588  -6.2252  -6.2239
    -5.9068  -5.9043  -5.8229  -5.8196  -5.8078  -5.8058  -5.7938  -5.7608
    -5.7589  -5.7339  -5.7106  -5.7066  -5.6729  -5.6367  -5.6307  -5.6276
    -5.6262  -5.6065  -5.6028  -5.5989  -5.5690  -5.5271  -5.5247  -5.5218
    -5.5192  -5.4950  -5.4687  -5.4340  -5.4295  -5.4280  -5.4197  -5.3626
    -5.3480  -5.3433  -5.3222  -5.2992  -0.5604  -0.5586  -0.5569  -0.4363
    -0.4348  -0.4232  -0.3944  -0.3738  -0.3187  -0.3165  -0.2997  -0.2792
     1.4323   1.4854   1.4863   1.4882   1.6263   1.6413   1.7716   1.7738
     1.7820   1.7902   1.7996   1.8011   1.9151   1.9938   1.9975   2.0780
     2.1552   2.1994   2.2111   2.2459   2.2486   2.3596   2.3932   2.3941
     2.3982   2.4503   2.5108   2.5123   2.5464   2.5887   2.5918   2.6061
     2.6449   2.7112   2.7614   2.7671   2.7698   2.7888   2.8080   2.8106
     2.8384   2.8746   2.9137   2.9159   2.9200   2.9804   3.0220   3.0235
     3.0697   3.1054   3.1070   3.1317   3.1699   3.1918   3.1936   3.1959
     3.1992   3.2312   3.2648   3.2657   3.2762   3.3175   3.3210   3.3227
     3.3253   3.3878   3.3902   3.4098   3.4452   3.4476   3.4689   3.4706
     3.4722   3.4741   3.4754   3.4804   3.5334   3.5365   3.5385   3.5925
     3.6077   3.6126   3.6134   3.6322   3.6417   3.6491   3.6586   3.6600
     3.6650   3.7095   3.7114   3.7140   3.8344   3.8372   3.8812   3.8896
     3.9045   3.9465   3.9510   3.9742   3.9829   4.0204   4.0482   4.0490
     4.0507   4.0672   4.1098   4.1114   4.1171   4.1325   4.1334   4.1459
     4.1916   4.2559   4.2672   4.2687   4.2890   4.2903   4.2947   4.3857
     4.3975   4.4374   4.4389   4.4680   4.5239   4.5266   4.5346   4.5952
     4.6085   4.6130   4.6226   4.7204   5.1502   5.1510   5.1544   5.1569
     5.1719   5.1760   5.1767   5.1834   5.1909   5.1976   5.2012   5.2069
     5.2080   5.2341   5.2351   5.2359   5.2550   5.2643   5.2652   5.2664
     5.2792   5.2971   5.3074   5.3125   5.3139   5.3295   5.3367   5.3377
     5.3577   5.3587   5.3603   5.3626   5.3802   5.3932   5.4063   5.4075
     5.4128   5.4315   5.4338   5.4443   5.4459   5.4926   5.5014   5.5029
     5.5096   5.5162   5.5533   5.5601   5.5745   5.5753   5.6023   5.6111
     5.6124   5.6179   5.6245   5.6254   5.6432   5.6700   5.6829   5.7146
     5.7148   5.7177   5.7348   5.7726   5.7733   5.7741   5.8026   5.8032
     5.8105   5.8584   5.8754   5.8763   5.8785   5.9150   5.9588   5.9595
     6.0327   6.0345   6.0353   6.0603   6.0780   6.0798   6.1728   6.2069
     6.2128   6.2135   6.2665   6.2671   6.2694   6.2773   6.2861   6.3490
     6.3495   6.3658   6.3723   6.4145   6.4237   6.4250   6.4284   6.4704
     6.4978   6.4992   6.5456   6.5593   6.5952   6.5967   6.6658   6.6674
     6.6770   6.7189   6.7349   6.7370   6.7479   6.8120   6.8138   6.8447
     6.8687   6.9281   6.9372   7.0526

          k = 0.3333-0.1925 0.2714 (115773 PWs)   bands (ev):

   -28.2771 -28.2767 -28.2759 -28.2758 -28.2757 -28.2753 -28.2750 -28.2750
   -28.2747 -28.2746 -28.2742 -28.2741 -14.9250 -14.9237 -14.9231 -14.9228
   -14.9226 -14.9225 -14.9224 -14.9222 -14.9219 -14.9216 -14.9215 -14.9192
   -14.9190 -14.9182 -14.9173 -14.9170 -14.9167 -14.9166 -14.9165 -14.9164
   -14.9161 -14.9158 -14.9157 -14.9130 -14.9071 -14.9059 -14.9052 -14.9049
   -14.9047 -14.9046 -14.9045 -14.9043 -14.9040 -14.9037 -14.9036 -14.9010
   -14.8668 -14.8656 -14.8650 -14.8647 -14.8645 -14.8644 -14.8643 -14.8641
   -14.8638 -14.8635 -14.8633 -14.8609 -14.8217 -14.8207 -14.8198 -14.8195
   -14.8193 -14.8192 -14.8191 -14.8189 -14.8186 -14.8183 -14.8183 -14.8155
   -10.3391 -10.3387 -10.3379 -10.3372 -10.3368 -10.3344 -10.3339 -10.3328
   -10.3325 -10.3320 -10.3297 -10.3272 -10.3105 -10.3070 -10.3065 -10.3060
   -10.3015 -10.3007 -10.3004 -10.2965 -10.2961 -10.2939 -10.2912 -10.2876
   -10.2703 -10.2692 -10.2680 -10.2671 -10.2661 -10.2642 -10.2629 -10.2616
   -10.2614 -10.2604 -10.2595 -10.2576  -6.7509  -6.6468  -6.5607  -6.4722
    -6.4227  -6.4213  -6.3645  -6.3299  -6.3265  -6.2593  -6.2262  -6.2221
    -5.9086  -5.9038  -5.8226  -5.8207  -5.8140  -5.8065  -5.7907  -5.7604
    -5.7582  -5.7312  -5.7107  -5.7088  -5.6712  -5.6347  -5.6299  -5.6276
    -5.6257  -5.6076  -5.6008  -5.5976  -5.5710  -5.5295  -5.5227  -5.5220
    -5.5196  -5.4959  -5.4685  -5.4342  -5.4297  -5.4257  -5.4212  -5.3631
    -5.3484  -5.3461  -5.3202  -5.2985  -0.5605  -0.5591  -0.5560  -0.4371
    -0.4340  -0.4248  -0.3936  -0.3728  -0.3196  -0.3175  -0.2991  -0.2785
     1.4338   1.4843   1.4862   1.4877   1.6253   1.6415   1.7720   1.7733
     1.7823   1.7896   1.7988   1.8029   1.9143   1.9939   1.9968   2.0766
     2.1545   2.1989   2.2106   2.2480   2.2498   2.3611   2.3927   2.3941
     2.3996   2.4477   2.5117   2.5130   2.5480   2.5906   2.5917   2.6082
     2.6424   2.7115   2.7599   2.7678   2.7686   2.7874   2.8079   2.8103
     2.8396   2.8747   2.9136   2.9164   2.9179   2.9809   3.0223   3.0257
     3.0677   3.1048   3.1090   3.1322   3.1684   3.1927   3.1937   3.1942
     3.2003   3.2316   3.2630   3.2670   3.2774   3.3173   3.3210   3.3228
     3.3250   3.3886   3.3916   3.4110   3.4421   3.4468   3.4682   3.4694
     3.4723   3.4743   3.4776   3.4791   3.5349   3.5358   3.5392   3.5898
     3.6083   3.6130   3.6140   3.6329   3.6437   3.6480   3.6555   3.6599
     3.6682   3.7073   3.7114   3.7131   3.8360   3.8375   3.8788   3.8881
     3.9040   3.9494   3.9518   3.9751   3.9818   4.0197   4.0449   4.0486
     4.0497   4.0653   4.1094   4.1131   4.1197   4.1314   4.1364   4.1492
     4.1912   4.2545   4.2663   4.2682   4.2880   4.2897   4.2954   4.3883
     4.3968   4.4363   4.4390   4.4684   4.5241   4.5260   4.5371   4.5952
     4.6082   4.6120   4.6218   4.7209   5.1488   5.1511   5.1549   5.1572
     5.1721   5.1757   5.1763   5.1839   5.1904   5.1978   5.2006   5.2068
     5.2079   5.2336   5.2347   5.2359   5.2546   5.2642   5.2657   5.2665
     5.2790   5.2973   5.3075   5.3130   5.3138   5.3292   5.3361   5.3375
     5.3583   5.3588   5.3607   5.3638   5.3798   5.3921   5.4067   5.4077
     5.4134   5.4321   5.4336   5.4446   5.4451   5.4932   5.5010   5.5026
     5.5097   5.5160   5.5545   5.5604   5.5744   5.5747   5.6031   5.6111
     5.6120   5.6186   5.6244   5.6252   5.6434   5.6697   5.6831   5.7143
     5.7159   5.7175   5.7350   5.7722   5.7736   5.7746   5.8020   5.8030
     5.8104   5.8583   5.8753   5.8757   5.8782   5.9141   5.9584   5.9602
     6.0336   6.0355   6.0362   6.0588   6.0785   6.0795   6.1725   6.2068
     6.2120   6.2142   6.2660   6.2676   6.2700   6.2771   6.2862   6.3475
     6.3495   6.3656   6.3725   6.4151   6.4242   6.4248   6.4279   6.4711
     6.4978   6.4994   6.5452   6.5595   6.5947   6.5957   6.6665   6.6682
     6.6769   6.7187   6.7363   6.7370   6.7476   6.8130   6.8137   6.8447
     6.8686   6.9278   6.9371   7.0522

          k =-0.3333-0.5774 0.2714 (115827 PWs)   bands (ev):

   -28.2771 -28.2767 -28.2759 -28.2758 -28.2757 -28.2753 -28.2750 -28.2750
   -28.2747 -28.2746 -28.2742 -28.2741 -14.9250 -14.9237 -14.9231 -14.9228
   -14.9226 -14.9225 -14.9224 -14.9222 -14.9219 -14.9216 -14.9215 -14.9192
   -14.9190 -14.9182 -14.9173 -14.9170 -14.9167 -14.9166 -14.9165 -14.9163
   -14.9161 -14.9158 -14.9157 -14.9130 -14.9071 -14.9059 -14.9052 -14.9049
   -14.9047 -14.9046 -14.9045 -14.9043 -14.9040 -14.9037 -14.9036 -14.9010
   -14.8668 -14.8656 -14.8650 -14.8647 -14.8645 -14.8644 -14.8643 -14.8641
   -14.8638 -14.8635 -14.8633 -14.8609 -14.8217 -14.8207 -14.8198 -14.8195
   -14.8193 -14.8192 -14.8191 -14.8189 -14.8186 -14.8183 -14.8183 -14.8155
   -10.3391 -10.3381 -10.3371 -10.3368 -10.3365 -10.3336 -10.3331 -10.3329
   -10.3327 -10.3306 -10.3301 -10.3298 -10.3081 -10.3078 -10.3075 -10.3050
   -10.3014 -10.3007 -10.2977 -10.2974 -10.2971 -10.2919 -10.2917 -10.2912
   -10.2699 -10.2687 -10.2670 -10.2666 -10.2661 -10.2642 -10.2638 -10.2635
   -10.2629 -10.2600 -10.2593 -10.2590  -6.6195  -6.6183  -6.6166  -6.5258
    -6.5250  -6.5231  -6.3083  -6.2912  -6.2893  -6.2876  -6.2574  -6.2142
    -5.8763  -5.8591  -5.8442  -5.7804  -5.7792  -5.7766  -5.7446  -5.7418
    -5.7398  -5.7148  -5.6910  -5.6880  -5.6852  -5.6746  -5.6718  -5.6714
    -5.6692  -5.6416  -5.5598  -5.5558  -5.5548  -5.5269  -5.5245  -5.5228
    -5.5064  -5.5038  -5.5022  -5.5018  -5.4574  -5.3984  -5.3976  -5.3948
    -5.3570  -5.3236  -5.3221  -5.3189  -0.5202  -0.5068  -0.5053  -0.5029
    -0.4606  -0.4184  -0.4165  -0.4146  -0.3549  -0.2944  -0.2926  -0.2902
     1.4809   1.4823   1.4839   1.6375   1.6388   1.6396   1.6904   1.7745
     1.7763   1.7770   1.7790   1.7927   1.9794   1.9817   1.9821   2.0555
     2.1699   2.1914   2.1937   2.1940   2.2482   2.3966   2.3978   2.3997
     2.4875   2.4895   2.4902   2.5569   2.5870   2.5874   2.5890   2.5924
     2.6780   2.7353   2.7372   2.7387   2.8199   2.8236   2.8246   2.8273
     2.9003   2.9024   2.9049   2.9244   2.9367   2.9534   2.9559   2.9567
     3.0585   3.0595   3.0616   3.0864   3.0889   3.0909   3.1276   3.1808
     3.2430   3.2446   3.2455   3.2693   3.2714   3.2734   3.3210   3.3267
     3.3281   3.3290   3.3749   3.4057   3.4204   3.4655   3.4658   3.4684
     3.4935   3.4978   3.5000   3.5018   3.5339   3.5376   3.5387   3.5422
     3.5622   3.6130   3.6173   3.6178   3.6516   3.6558   3.6564   3.6954
     3.6982   3.6997   3.7193   3.7453   3.8210   3.8405   3.8417   3.8441
     3.9368   3.9401   3.9414   3.9438   4.0276   4.0305   4.0313   4.0399
     4.0636   4.0681   4.0704   4.1068   4.1131   4.1140   4.1174   4.1689
     4.2710   4.2738   4.2748   4.2908   4.3156   4.3588   4.3624   4.3635
     4.4155   4.4175   4.4184   4.4923   4.4938   4.4948   4.5066   4.5124
     4.5647   4.6655   4.6670   4.6682   5.1486   5.1557   5.1573   5.1578
     5.1584   5.1822   5.1831   5.1838   5.1978   5.1983   5.1987   5.2111
     5.2246   5.2253   5.2259   5.2517   5.2523   5.2530   5.2565   5.2683
     5.3013   5.3018   5.3023   5.3099   5.3286   5.3292   5.3302   5.3677
     5.3684   5.3696   5.3748   5.3936   5.3951   5.4090   5.4094   5.4104
     5.4328   5.4334   5.4348   5.4385   5.4834   5.4847   5.4857   5.4910
     5.5387   5.5395   5.5403   5.5442   5.5660   5.5668   5.5672   5.6052
     5.6063   5.6070   5.6383   5.6392   5.6718   5.6731   5.6741   5.7033
     5.7044   5.7057   5.7169   5.7589   5.7596   5.7607   5.8016   5.8080
     5.8210   5.8233   5.8248   5.8254   5.8902   5.8912   5.8919   6.0568
     6.0597   6.0603   6.0620   6.0766   6.1197   6.1203   6.1216   6.1355
     6.1948   6.2373   6.2380   6.2396   6.2844   6.3015   6.3021   6.3038
     6.3065   6.3847   6.3860   6.3866   6.4497   6.4664   6.4687   6.4697
     6.4907   6.4938   6.5577   6.5601   6.5607   6.6456   6.6848   6.6854
     6.6859   6.7601   6.7771   6.7785   6.7790   6.7920   6.8543   6.8551
     6.8556   6.9349   6.9366   6.9367

     highest occupied level (ev):     7.1808

!    total energy              =   -9077.18771532 Ry
     estimated scf accuracy    <          4.6E-10 Ry

     The total energy is the sum of the following terms:
     one-electron contribution =   -2776.85285045 Ry
     hartree contribution      =    2020.18310814 Ry
     xc contribution           =   -2269.38807671 Ry
     ewald contribution        =   -3895.33331363 Ry
     one-center paw contrib.   =   -2155.79658267 Ry

     convergence has been achieved in  21 iterations

     negative rho (up, down):  7.902E-01 0.000E+00

     Forces acting on atoms (cartesian axes, Ry/au):

     atom    1 type  1   force =    -0.00031551    0.00032221   -0.00021239
     atom    2 type  1   force =    -0.00010733    0.00027541   -0.00002521
     atom    3 type  1   force =    -0.00015181    0.00023634   -0.00002515
     atom    4 type  1   force =    -0.00014047    0.00027923   -0.00001545
     atom    5 type  1   force =    -0.00005344   -0.00036347    0.00032377
     atom    6 type  1   force =     0.00003049   -0.00023786    0.00004864
     atom    7 type  1   force =    -0.00022523   -0.00018183    0.00003544
     atom    8 type  1   force =    -0.00014382   -0.00026088    0.00004188
     atom    9 type  1   force =     0.00030498   -0.00000062   -0.00001615
     atom   10 type  1   force =     0.00031942    0.00001683   -0.00003751
     atom   11 type  1   force =     0.00029222   -0.00001612   -0.00000498
     atom   12 type  1   force =     0.00031493   -0.00000677   -0.00002489
     atom   13 type  2   force =    -0.00319432   -0.00001789    0.00318401
     atom   14 type  2   force =     0.00022329   -0.00039311    0.00020608
     atom   15 type  2   force =     0.00020242   -0.00039673    0.00019613
     atom   16 type  2   force =     0.00022524   -0.00036340    0.00017279
     atom   17 type  2   force =     0.00022108    0.00036643    0.00018762
     atom   18 type  2   force =     0.00023839    0.00037112    0.00017809
     atom   19 type  2   force =     0.00023557    0.00037094    0.00018092
     atom   20 type  2   force =     0.00025197    0.00037859    0.00016618
     atom   21 type  2   force =    -0.00043941    0.00002652    0.00018373
     atom   22 type  2   force =    -0.00042982    0.00000697    0.00018998
     atom   23 type  2   force =    -0.00042837    0.00001914    0.00016879
     atom   24 type  2   force =    -0.00043637    0.00002107    0.00019112
     atom   25 type  2   force =    -0.00043276   -0.00001740   -0.00017601
     atom   26 type  2   force =    -0.00024361    0.00019325   -0.00011859
     atom   27 type  2   force =    -0.00037326    0.00001312   -0.00002450
     atom   28 type  2   force =    -0.00042226   -0.00002317   -0.00019455
     atom   29 type  2   force =     0.00039517    0.00052403   -0.00023572
     atom   30 type  2   force =     0.00028633    0.00056027   -0.00012603
     atom   31 type  2   force =     0.00019319    0.00038727   -0.00020848
     atom   32 type  2   force =     0.00020132    0.00038382   -0.00020296
     atom   33 type  2   force =     0.00023403   -0.00036264   -0.00018774
     atom   34 type  2   force =     0.00024911   -0.00036531   -0.00021223
     atom   35 type  2   force =     0.00022782   -0.00036497   -0.00019143
     atom   36 type  2   force =     0.00023348   -0.00037229   -0.00018943
     atom   37 type  3   force =     0.00041592   -0.00096108   -0.00053625
     atom   38 type  3   force =     0.00030845   -0.00044996   -0.00001848
     atom   39 type  3   force =     0.00021967   -0.00045485    0.00000606
     atom   40 type  3   force =     0.00023871   -0.00039622    0.00007516
     atom   41 type  3   force =     0.00025530    0.00044521   -0.00005346
     atom   42 type  3   force =     0.00028255    0.00052095    0.00001349
     atom   43 type  3   force =     0.00026565    0.00046787   -0.00001825
     atom   44 type  3   force =     0.00028759    0.00046386   -0.00000907
     atom   45 type  3   force =    -0.00052629    0.00001920    0.00005284
     atom   46 type  3   force =    -0.00115339   -0.00054998    0.00008508
     atom   47 type  3   force =    -0.00025190    0.00018775   -0.00004070
     atom   48 type  3   force =    -0.00046084   -0.00019964   -0.00001707
     atom   49 type  4   force =     0.00034995   -0.00003760    0.00014375
     atom   50 type  4   force =     0.00033567   -0.00009900    0.00001525
     atom   51 type  4   force =     0.00036352   -0.00010759    0.00001594
     atom   52 type  4   force =     0.00035100   -0.00010815    0.00000383
     atom   53 type  4   force =    -0.00011529    0.00035643    0.00006996
     atom   54 type  4   force =    -0.00011850    0.00030628   -0.00007484
     atom   55 type  4   force =    -0.00007977    0.00035934    0.00003795
     atom   56 type  4   force =    -0.00008989    0.00036654    0.00001900
     atom   57 type  4   force =     0.00026096    0.00060493   -0.00001442
     atom   58 type  4   force =    -0.00030831   -0.00023155    0.00002023
     atom   59 type  4   force =    -0.00027779   -0.00025476   -0.00000821
     atom   60 type  4   force =    -0.00026233   -0.00027786   -0.00002054
     atom   61 type  4   force =    -0.00033525    0.00025083   -0.00000985
     atom   62 type  4   force =    -0.00023089    0.00024939   -0.00006065
     atom   63 type  4   force =    -0.00027037    0.00028340   -0.00001735
     atom   64 type  4   force =    -0.00027556    0.00029105   -0.00000158
     atom   65 type  4   force =     0.00035597    0.00009572    0.00000387
     atom   66 type  4   force =     0.00034617    0.00008702   -0.00002014
     atom   67 type  4   force =     0.00035130    0.00009734   -0.00000060
     atom   68 type  4   force =     0.00034241    0.00008975   -0.00000072
     atom   69 type  4   force =    -0.00009784   -0.00035383   -0.00001627
     atom   70 type  4   force =    -0.00029618    0.00079804   -0.00165599
     atom   71 type  4   force =    -0.00011096   -0.00046340   -0.00010240
     atom   72 type  4   force =    -0.00007401   -0.00036785   -0.00002682
     atom   73 type  4   force =     0.00187485   -0.00170422   -0.00197425
     atom   74 type  4   force =     0.00000036    0.00014988   -0.00026864
     atom   75 type  4   force =     0.00000673    0.00013850   -0.00025339
     atom   76 type  4   force =     0.00001425    0.00016312   -0.00026020
     atom   77 type  4   force =    -0.00014417   -0.00006664   -0.00024354
     atom   78 type  4   force =    -0.00016567   -0.00004538   -0.00017897
     atom   79 type  4   force =    -0.00014735   -0.00006812   -0.00025977
     atom   80 type  4   force =    -0.00014729   -0.00015377   -0.00021993
     atom   81 type  4   force =     0.00012425   -0.00009065   -0.00021879
     atom   82 type  4   force =     0.00011818   -0.00008967   -0.00024087
     atom   83 type  4   force =     0.00012105   -0.00009132   -0.00023597
     atom   84 type  4   force =     0.00012180   -0.00009338   -0.00024276
     atom   85 type  4   force =     0.00015830    0.00008248    0.00025572
     atom   86 type  4   force =     0.00009698   -0.00000333    0.00022868
     atom   87 type  4   force =     0.00013992    0.00009729    0.00023755
     atom   88 type  4   force =     0.00010085    0.00007769    0.00024964
     atom   89 type  4   force =    -0.00006942   -0.00020072    0.00023076
     atom   90 type  4   force =     0.00091376   -0.00014750    0.00079815
     atom   91 type  4   force =     0.00001410   -0.00016436    0.00024721
     atom   92 type  4   force =     0.00009473   -0.00007973    0.00022805
     atom   93 type  4   force =    -0.00015233    0.00005740    0.00025775
     atom   94 type  4   force =    -0.00013183    0.00006640    0.00028569
     atom   95 type  4   force =    -0.00014453    0.00006082    0.00025771
     atom   96 type  4   force =    -0.00013567    0.00006955    0.00025566

     Total force =     0.007318     Total SCF correction =     0.000073
     Message from routine punch:
     Nothing written, as per user request (disk_io='none')

     init_run     :     37.22s CPU     43.41s WALL (       1 calls)
     electrons    :   1822.19s CPU   2141.66s WALL (       1 calls)
     forces       :     18.56s CPU     22.44s WALL (       1 calls)

     Called by init_run:
     wfcinit      :     33.47s CPU     39.01s WALL (       1 calls)
     potinit      :      0.94s CPU      1.07s WALL (       1 calls)
     hinit0       :      1.03s CPU      1.14s WALL (       1 calls)

     Called by electrons:
     c_bands      :   1624.32s CPU   1901.98s WALL (      21 calls)
     sum_band     :    176.25s CPU    210.61s WALL (      21 calls)
     v_of_rho     :      1.88s CPU      2.30s WALL (      22 calls)
     newd         :     15.83s CPU     22.32s WALL (      22 calls)
     PAW_pot      :      4.87s CPU      5.55s WALL (      22 calls)
     mix_rho      :      0.31s CPU      0.42s WALL (      21 calls)

     Called by c_bands:
     init_us_2    :     23.57s CPU     27.33s WALL (     616 calls)
     cegterg      :   1585.79s CPU   1857.38s WALL (     294 calls)

     Called by *egterg:
     cdiaghg      :    152.65s CPU    178.71s WALL (    1695 calls)
     h_psi        :    789.48s CPU    921.72s WALL (    1709 calls)
     s_psi        :    203.27s CPU    235.40s WALL (    1709 calls)
     g_psi        :      3.12s CPU      3.63s WALL (    1401 calls)

     Called by h_psi:
     h_psi:calbec :    211.27s CPU    246.02s WALL (    1709 calls)
     vloc_psi     :    368.38s CPU    430.19s WALL (    1709 calls)
     add_vuspsi   :    205.38s CPU    237.46s WALL (    1709 calls)

     General routines
     calbec       :    294.28s CPU    343.58s WALL (    2059 calls)
     fft          :      3.19s CPU      3.84s WALL (     295 calls)
     ffts         :      0.67s CPU      0.77s WALL (      43 calls)
     fftw         :    334.15s CPU    389.78s WALL (  840932 calls)
     interpolate  :      0.73s CPU      0.85s WALL (      22 calls)

     Parallel routines

     PWSCF        :  31m18.22s CPU  36m48.22s WALL


   This run was terminated on:   3:18:42  21Aug2026            

=------------------------------------------------------------------------------=
   JOB DONE.
=------------------------------------------------------------------------------=
