
     Program PWSCF v.7.5 starts on 30Jun2026 at  4: 5:25 
        Git branch: develop
        Last git commit: ea9b1b3d7915154c244e4a71786faaa0fdafa55c
        Last git commit date: Mon Mar 16 14:03:30 2026 +0000
        Last git commit subject: Merge branch 'dev_td_porting' into 'develop'

     This program is part of the open-source Quantum ESPRESSO suite
     for quantum simulation of materials; please cite
         "P. Giannozzi et al., J. Phys.:Condens. Matter 21 395502 (2009);
         "P. Giannozzi et al., J. Phys.:Condens. Matter 29 465901 (2017);
         "P. Giannozzi et al., J. Chem. Phys. 152 154105 (2020);
          URL http://www.quantum-espresso.org", 
     in publications or presentations arising from this work. More details at
     http://www.quantum-espresso.org/quote

     Parallel version (MPI), running on     4 processors

     MPI processes distributed on     1 nodes
     0 MiB available memory on the printing compute node when the environment starts

     Reading input from inputs/k_2x2x1.in
Warning: card &CELL ignored

     Current dimensions of program PWSCF are:
     Max number of different atomic species (ntypx) = 10
     Max number of k-points (npk) =  40000
     Max angular momentum in pseudopotentials (lmaxx) =  4
     file Cu.paw.z_11.ld1.psl.v1.0.0-low.upf: wavefunction(s)  4S 3D renormalized

     Exact exchange band parallelism type set to band_pairs

     Message from routine setup:
     using ibrav=0 with symmetry is DISCOURAGED, use correct ibrav instead

     R & G space division:  proc/nbgrp/npool/nimage =       4
     Subspace diagonalization in iterative solution of the eigenvalue problem:
     a serial algorithm will be used


     Parallelization info
     --------------------
     sticks:   dense  smooth     PW     G-vecs:    dense   smooth      PW
     Min        1786     892    238               299342   105806   14570
     Max        1787     893    239               299355   105815   14577
     Sum        7147    3571    955              1197401   423243   58297

     Using Slab Decomposition



     bravais-lattice index     =            0
     lattice parameter (alat)  =      11.9933  a.u.
     unit-cell volume          =    3670.3121 (a.u.)^3
     number of atoms/cell      =           24
     number of atomic types    =            4
     number of electrons       =       210.00
     number of Kohn-Sham states=          105
     kinetic-energy cutoff     =      90.0000  Ry
     charge density cutoff     =     720.0000  Ry
     scf convergence threshold =      1.0E-08
     mixing beta               =       0.3000
     number of iterations used =            8  plain     mixing
     Exchange-correlation= SLA  PW   PBE  PBE
                           (   1   4   3   4   0   0   0)

     celldm(1)=  11.993304  celldm(2)=   0.000000  celldm(3)=   0.000000
     celldm(4)=   0.000000  celldm(5)=   0.000000  celldm(6)=   0.000000

     crystal axes: (cart. coord. in units of alat)
               a(1) = (   1.000000   0.000000   0.000000 )  
               a(2) = (  -0.500000   0.866025   0.000000 )  
               a(3) = (   0.000000   0.000000   2.456722 )  

     reciprocal axes: (cart. coord. in units 2 pi/alat)
               b(1) = (  1.000000  0.577350 -0.000000 )  
               b(2) = (  0.000000  1.154701  0.000000 )  
               b(3) = (  0.000000 -0.000000  0.407047 )  


     PseudoPot. # 1 for Cu read from file:
     /Users/kaede/scientific-tools/pseudopotentials/SSSP/1.3.0/PBE/precision/Cu.paw.z_11.ld1.psl.v1.0.0-low.upf
     MD5 check sum: 619f40885d92a09a85a8b37550532d0c
     Pseudo is Projector augmented-wave + core cor, Zval = 11.0
     Generated using &quot;atomic&quot; code by A. Dal Corso  v.6.3MaX
     Shape of augmentation charge: PSQ
     Using radial grid of 1199 points,  6 beta functions with: 
                l(1) =   0
                l(2) =   0
                l(3) =   1
                l(4) =   1
                l(5) =   2
                l(6) =   2
     Q(r) pseudized with 0 coefficients 


     PseudoPot. # 2 for S  read from file:
     /Users/kaede/scientific-tools/pseudopotentials/SSSP/1.3.0/PBE/precision/s_pbe_v1.4.uspp.F.UPF
     MD5 check sum: 88d86576ff6df21479756cfb9bdac1df
     Pseudo is Ultrasoft + core correction, Zval =  6.0
     Generated by new atomic code, or converted to UPF format
     Using radial grid of  907 points,  6 beta functions with: 
                l(1) =   0
                l(2) =   0
                l(3) =   1
                l(4) =   1
                l(5) =   2
                l(6) =   2
     Q(r) pseudized with  8 coefficients,  rinner =    1.300   1.300   1.300
                                                       1.300   1.300

     PseudoPot. # 3 for Sn read from file:
     /Users/kaede/scientific-tools/pseudopotentials/SSSP/1.3.0/PBE/precision/Sn_pbe_v1.uspp.F.UPF
     MD5 check sum: 4cf58ce39ec5d5d420df3dd08604eb00
     Pseudo is Ultrasoft + core correction, Zval = 14.0
     Generated by new atomic code, or converted to UPF format
     Using radial grid of  891 points,  6 beta functions with: 
                l(1) =   0
                l(2) =   0
                l(3) =   1
                l(4) =   1
                l(5) =   2
                l(6) =   2
     Q(r) pseudized with  6 coefficients,  rinner =    1.200   1.200   1.200
                                                       1.200   1.200

     PseudoPot. # 4 for Sr read from file:
     /Users/kaede/scientific-tools/pseudopotentials/SSSP/1.3.0/PBE/precision/Sr_pbe_v1.uspp.F.UPF
     MD5 check sum: 6b418c05fbe9db5448babca5e47b7a5b
     Pseudo is Ultrasoft + core correction, Zval = 10.0
     Generated by new atomic code, or converted to UPF format
     Using radial grid of  883 points,  6 beta functions with: 
                l(1) =   0
                l(2) =   0
                l(3) =   1
                l(4) =   1
                l(5) =   2
                l(6) =   2
     Q(r) pseudized with  6 coefficients,  rinner =    1.400   1.400   1.400
                                                       1.400   1.400

     atomic species   valence    mass     pseudopotential
     Cu               11.00    63.54600     Cu( 1.00)
     S                 6.00    32.06500     S ( 1.00)
     Sn               14.00   118.71000     Sn( 1.00)
     Sr               10.00    87.62000     Sr( 1.00)

      6 Sym. Ops. (no inversion) found ( 4 have fractional translation)


                                    s                        frac. trans.

      isym =  1     identity                                     

 cryst.   s( 1) = (     1          0          0      )
                  (     0          1          0      )
                  (     0          0          1      )

 cart.    s( 1) = (  1.0000000  0.0000000  0.0000000 )
                  (  0.0000000  1.0000000  0.0000000 )
                  (  0.0000000  0.0000000  1.0000000 )


      isym =  2     180 deg rotation - cart. axis [1,0,0]        

 cryst.   s( 2) = (     1          0          0      )    f =( -0.0000000 )
                  (    -1         -1          0      )       (  0.0000000 )
                  (     0          0         -1      )       (  0.3333330 )

 cart.    s( 2) = (  1.0000000  0.0000002  0.0000000 )    f =( -0.0000000 )
                  (  0.0000000 -1.0000000  0.0000000 )       (  0.0000000 )
                  (  0.0000000  0.0000000 -1.0000000 )       (  0.8189064 )


      isym =  3     120 deg rotation - cryst. axis [0,0,1]       

 cryst.   s( 3) = (     0          1          0      )    f =(  0.0000000 )
                  (    -1         -1          0      )       (  0.0000000 )
                  (     0          0          1      )       ( -0.3333330 )

 cart.    s( 3) = ( -0.5000001 -0.8660256  0.0000000 )    f =(  0.0000000 )
                  (  0.8660252 -0.4999999  0.0000000 )       (  0.0000000 )
                  (  0.0000000  0.0000000  1.0000000 )       ( -0.8189064 )


      isym =  4     120 deg rotation - cryst. axis [0,0,-1]      

 cryst.   s( 4) = (    -1         -1          0      )    f =(  0.0000000 )
                  (     1          0          0      )       (  0.0000000 )
                  (     0          0          1      )       (  0.3333330 )

 cart.    s( 4) = ( -0.4999999  0.8660256  0.0000000 )    f =(  0.0000000 )
                  ( -0.8660252 -0.5000001  0.0000000 )       (  0.0000000 )
                  (  0.0000000  0.0000000  1.0000000 )       (  0.8189064 )


      isym =  5     180 deg rotation - cryst. axis [0,1,0]       

 cryst.   s( 5) = (    -1         -1          0      )    f =(  0.0000000 )
                  (     0          1          0      )       (  0.0000000 )
                  (     0          0         -1      )       ( -0.3333340 )

 cart.    s( 5) = ( -0.4999999 -0.8660257  0.0000000 )    f =(  0.0000000 )
                  ( -0.8660252  0.4999999  0.0000000 )       (  0.0000000 )
                  (  0.0000000  0.0000000 -1.0000000 )       ( -0.8189089 )


      isym =  6     180 deg rotation - cryst. axis [1,1,0]       

 cryst.   s( 6) = (     0          1          0      )
                  (     1          0          0      )
                  (     0          0         -1      )

 cart.    s( 6) = ( -0.5000001  0.8660255  0.0000000 )
                  (  0.8660252  0.5000001  0.0000000 )
                  (  0.0000000  0.0000000 -1.0000000 )


   Cartesian axes

     site n.     atom                  positions (alat units)
         1        Sr     tau(   1) = (  -0.2810720   0.4868309   0.4094544  )
         2        Sr     tau(   2) = (   0.2189280   0.3791943   1.2283608  )
         3        Sr     tau(   3) = (   0.5621440   0.0000000   2.0472697  )
         4        Cu     tau(   4) = (  -0.2454151   0.5509306   1.0124690  )
         5        Cu     tau(   5) = (   0.1455875   0.3780243   1.8313755  )
         6        Cu     tau(   6) = (   0.0998274   0.8030955   0.1935626  )
         7        Cu     tau(   7) = (   0.5998275   0.0629297   1.4442526  )
         8        Cu     tau(   8) = (   0.2545850   0.3150946   0.6253462  )
         9        Cu     tau(   9) = (   0.6455875   0.4880009   2.2631590  )
        10        Sn     tau(  10) = (  -0.3524466   0.6104551   1.6378153  )
        11        Sn     tau(  11) = (   0.1475535   0.2555701   0.0000000  )
        12        Sn     tau(  12) = (   0.7048930   0.0000000   0.8189064  )
        13        S      tau(  13) = (  -0.1978795   0.4210502   1.9339682  )
        14        S      tau(  14) = (   0.2342995   0.4841315   0.2961529  )
        15        S      tau(  15) = (  -0.0364201   0.8268688   1.1150617  )
        16        S      tau(  16) = (   0.4635800   0.0391565   0.5227535  )
        17        S      tau(  17) = (   0.3021205   0.4449750   2.1605688  )
        18        S      tau(  18) = (   0.7342995   0.3818937   1.3416599  )
        19        S      tau(  19) = (  -0.0595230   0.3059840   0.8074605  )
        20        S      tau(  20) = (   0.2647714   0.6614848   1.6263669  )
        21        S      tau(  21) = (  -0.2052486   0.7645816   2.4452758  )
        22        S      tau(  22) = (   0.2947515   0.1014436   1.6492611  )
        23        S      tau(  23) = (   0.4404769   0.5600412   0.8303547  )
        24        S      tau(  24) = (   0.7647715   0.2045404   0.0114459  )

   Crystallographic axes

     site n.     atom                  positions (cryst. coord.)
         1        Sr     tau(   1) = (  0.0000000  0.5621440  0.1666670  )
         2        Sr     tau(   2) = (  0.4378560  0.4378560  0.5000000  )
         3        Sr     tau(   3) = (  0.5621440  0.0000000  0.8333340  )
         4        Cu     tau(   4) = (  0.0726650  0.6361600  0.4121220  )
         5        Cu     tau(   5) = (  0.3638400  0.4365050  0.7454550  )
         6        Cu     tau(   6) = (  0.5634950  0.9273350  0.0787890  )
         7        Cu     tau(   7) = (  0.6361600  0.0726650  0.5878780  )
         8        Cu     tau(   8) = (  0.4365050  0.3638400  0.2545450  )
         9        Cu     tau(   9) = (  0.9273350  0.5634950  0.9212110  )
        10        Sn     tau(  10) = (  0.0000000  0.7048930  0.6666670  )
        11        Sn     tau(  11) = (  0.2951070  0.2951070  0.0000000  )
        12        Sn     tau(  12) = (  0.7048930  0.0000000  0.3333330  )
        13        S      tau(  13) = (  0.0452140  0.4861870  0.7872150  )
        14        S      tau(  14) = (  0.5138130  0.5590270  0.1205480  )
        15        S      tau(  15) = (  0.4409730  0.9547860  0.4538820  )
        16        S      tau(  16) = (  0.4861870  0.0452140  0.2127850  )
        17        S      tau(  17) = (  0.5590270  0.5138130  0.8794520  )
        18        S      tau(  18) = (  0.9547860  0.4409730  0.5461180  )
        19        S      tau(  19) = (  0.1171370  0.3533200  0.3286740  )
        20        S      tau(  20) = (  0.6466800  0.7638170  0.6620070  )
        21        S      tau(  21) = (  0.2361830  0.8828630  0.9953410  )
        22        S      tau(  22) = (  0.3533200  0.1171370  0.6713260  )
        23        S      tau(  23) = (  0.7638170  0.6466800  0.3379930  )
        24        S      tau(  24) = (  0.8828630  0.2361830  0.0046590  )

     number of k points=     2
                       cart. coord. in units 2pi/alat
        k(    1) = (   0.0000000   0.0000000   0.0000000), wk =   0.5000000
        k(    2) = (   0.0000000  -0.5773504   0.0000000), wk =   1.5000000

                       cryst. coord.
        k(    1) = (   0.0000000   0.0000000   0.0000000), wk =   0.5000000
        k(    2) = (   0.0000000  -0.5000000   0.0000000), wk =   1.5000000

     Dense  grid:  1197401 G-vectors     FFT dimensions: ( 108, 108, 270)

     Smooth grid:   423243 G-vectors     FFT dimensions: (  75,  75, 180)

     Dynamical RAM for                 wfc:      21.20 MB

     Dynamical RAM for     wfc (w. buffer):      63.59 MB

     Dynamical RAM for           str. fact:      18.27 MB

     Dynamical RAM for           local pot:       0.00 MB

     Dynamical RAM for          nlocal pot:      87.21 MB

     Dynamical RAM for                qrad:       8.61 MB

     Dynamical RAM for          rho,v,vnew:      31.86 MB

     Dynamical RAM for               rhoin:      10.62 MB

     Dynamical RAM for            rho*nmix:      73.08 MB

     Dynamical RAM for           G-vectors:      17.94 MB

     Dynamical RAM for          h,s,v(r/c):       2.02 MB

     Dynamical RAM for          <psi|beta>:       0.69 MB

     Dynamical RAM for                 psi:      42.39 MB

     Dynamical RAM for                hpsi:      42.39 MB

     Dynamical RAM for                spsi:      42.39 MB

     Dynamical RAM for      wfcinit/wfcrot:      42.65 MB

     Dynamical RAM for           addusdens:     904.41 MB

     Dynamical RAM for         addusstress:     918.11 MB

     Estimated static dynamical RAM per process >     291.19 MB

     Estimated max dynamical RAM per process >       1.25 GB

     Estimated total dynamical RAM >       5.01 GB

     Initial potential from superposition of free atoms

     starting charge     206.8971, renormalised to     210.0000

     negative rho (up, down):  1.944E-01 0.000E+00
     Starting wfcs are  168 randomized atomic wfcs
     Checking if some PAW data can be deallocated... 
       PAW data deallocated on    2 nodes for type:  1

     total cpu time spent up to now is        4.1 secs

     Self-consistent Calculation

     iteration #  1     ecut=    90.00 Ry     beta= 0.30
     Davidson diagonalization with overlap

---- Real-time Memory Report at c_bands before calling an iterative solver
             0 MiB given to the printing process from OS
             0 MiB allocation reported by mallinfo(arena+hblkhd)
             0 MiB available memory on the node where the printing process lives
------------------
     ethr =  1.00E-02,  avg # of iterations =  2.0

     negative rho (up, down):  1.938E-01 0.000E+00

     total cpu time spent up to now is       10.8 secs

     total energy              =   -2267.62222803 Ry
     estimated scf accuracy    <       5.40096362 Ry

     iteration #  2     ecut=    90.00 Ry     beta= 0.30
     Davidson diagonalization with overlap

---- Real-time Memory Report at c_bands before calling an iterative solver
             0 MiB given to the printing process from OS
             0 MiB allocation reported by mallinfo(arena+hblkhd)
             0 MiB available memory on the node where the printing process lives
------------------
     ethr =  2.57E-03,  avg # of iterations =  6.0

     negative rho (up, down):  1.939E-01 0.000E+00

     total cpu time spent up to now is       18.6 secs

     total energy              =   -2269.14956214 Ry
     estimated scf accuracy    <       2.06570342 Ry

     iteration #  3     ecut=    90.00 Ry     beta= 0.30
     Davidson diagonalization with overlap

---- Real-time Memory Report at c_bands before calling an iterative solver
             0 MiB given to the printing process from OS
             0 MiB allocation reported by mallinfo(arena+hblkhd)
             0 MiB available memory on the node where the printing process lives
------------------
     ethr =  9.84E-04,  avg # of iterations =  2.0

     negative rho (up, down):  1.953E-01 0.000E+00

     total cpu time spent up to now is       25.8 secs

     total energy              =   -2269.12051601 Ry
     estimated scf accuracy    <       0.40158994 Ry

     iteration #  4     ecut=    90.00 Ry     beta= 0.30
     Davidson diagonalization with overlap

---- Real-time Memory Report at c_bands before calling an iterative solver
             0 MiB given to the printing process from OS
             0 MiB allocation reported by mallinfo(arena+hblkhd)
             0 MiB available memory on the node where the printing process lives
------------------
     ethr =  1.91E-04,  avg # of iterations =  7.0

     negative rho (up, down):  1.959E-01 0.000E+00

     total cpu time spent up to now is       34.8 secs

     total energy              =   -2269.17533134 Ry
     estimated scf accuracy    <       0.53073758 Ry

     iteration #  5     ecut=    90.00 Ry     beta= 0.30
     Davidson diagonalization with overlap

---- Real-time Memory Report at c_bands before calling an iterative solver
             0 MiB given to the printing process from OS
             0 MiB allocation reported by mallinfo(arena+hblkhd)
             0 MiB available memory on the node where the printing process lives
------------------
     ethr =  1.91E-04,  avg # of iterations =  5.0

     negative rho (up, down):  1.976E-01 0.000E+00

     total cpu time spent up to now is       42.7 secs

     total energy              =   -2269.28216889 Ry
     estimated scf accuracy    <       0.03782550 Ry

     iteration #  6     ecut=    90.00 Ry     beta= 0.30
     Davidson diagonalization with overlap

---- Real-time Memory Report at c_bands before calling an iterative solver
             0 MiB given to the printing process from OS
             0 MiB allocation reported by mallinfo(arena+hblkhd)
             0 MiB available memory on the node where the printing process lives
------------------
     ethr =  1.80E-05,  avg # of iterations =  4.5

     negative rho (up, down):  1.980E-01 0.000E+00

     total cpu time spent up to now is       50.9 secs

     total energy              =   -2269.29243707 Ry
     estimated scf accuracy    <       0.00648124 Ry

     iteration #  7     ecut=    90.00 Ry     beta= 0.30
     Davidson diagonalization with overlap

---- Real-time Memory Report at c_bands before calling an iterative solver
             0 MiB given to the printing process from OS
             0 MiB allocation reported by mallinfo(arena+hblkhd)
             0 MiB available memory on the node where the printing process lives
------------------
     ethr =  3.09E-06,  avg # of iterations =  5.0

     negative rho (up, down):  1.980E-01 0.000E+00

     total cpu time spent up to now is       60.2 secs

     total energy              =   -2269.29379455 Ry
     estimated scf accuracy    <       0.00438011 Ry

     iteration #  8     ecut=    90.00 Ry     beta= 0.30
     Davidson diagonalization with overlap

---- Real-time Memory Report at c_bands before calling an iterative solver
             0 MiB given to the printing process from OS
             0 MiB allocation reported by mallinfo(arena+hblkhd)
             0 MiB available memory on the node where the printing process lives
------------------
     ethr =  2.09E-06,  avg # of iterations =  4.5

     negative rho (up, down):  1.982E-01 0.000E+00

     total cpu time spent up to now is       68.5 secs

     total energy              =   -2269.29452076 Ry
     estimated scf accuracy    <       0.00094750 Ry

     iteration #  9     ecut=    90.00 Ry     beta= 0.30
     Davidson diagonalization with overlap

---- Real-time Memory Report at c_bands before calling an iterative solver
             0 MiB given to the printing process from OS
             0 MiB allocation reported by mallinfo(arena+hblkhd)
             0 MiB available memory on the node where the printing process lives
------------------
     ethr =  4.51E-07,  avg # of iterations =  4.0

     negative rho (up, down):  1.981E-01 0.000E+00

     total cpu time spent up to now is       77.2 secs

     total energy              =   -2269.29482876 Ry
     estimated scf accuracy    <       0.00003764 Ry

     iteration # 10     ecut=    90.00 Ry     beta= 0.30
     Davidson diagonalization with overlap

---- Real-time Memory Report at c_bands before calling an iterative solver
             0 MiB given to the printing process from OS
             0 MiB allocation reported by mallinfo(arena+hblkhd)
             0 MiB available memory on the node where the printing process lives
------------------
     ethr =  1.79E-08,  avg # of iterations =  6.5

     negative rho (up, down):  1.980E-01 0.000E+00

     total cpu time spent up to now is       87.7 secs

     total energy              =   -2269.29483371 Ry
     estimated scf accuracy    <       0.00006777 Ry

     iteration # 11     ecut=    90.00 Ry     beta= 0.30
     Davidson diagonalization with overlap

---- Real-time Memory Report at c_bands before calling an iterative solver
             0 MiB given to the printing process from OS
             0 MiB allocation reported by mallinfo(arena+hblkhd)
             0 MiB available memory on the node where the printing process lives
------------------
     ethr =  1.79E-08,  avg # of iterations =  5.0

     negative rho (up, down):  1.979E-01 0.000E+00

     total cpu time spent up to now is       97.2 secs

     total energy              =   -2269.29486088 Ry
     estimated scf accuracy    <       0.00000765 Ry

     iteration # 12     ecut=    90.00 Ry     beta= 0.30
     Davidson diagonalization with overlap

---- Real-time Memory Report at c_bands before calling an iterative solver
             0 MiB given to the printing process from OS
             0 MiB allocation reported by mallinfo(arena+hblkhd)
             0 MiB available memory on the node where the printing process lives
------------------
     ethr =  3.64E-09,  avg # of iterations =  3.5

     negative rho (up, down):  1.979E-01 0.000E+00

     total cpu time spent up to now is      105.4 secs

     total energy              =   -2269.29486554 Ry
     estimated scf accuracy    <       0.00000057 Ry

     iteration # 13     ecut=    90.00 Ry     beta= 0.30
     Davidson diagonalization with overlap

---- Real-time Memory Report at c_bands before calling an iterative solver
             0 MiB given to the printing process from OS
             0 MiB allocation reported by mallinfo(arena+hblkhd)
             0 MiB available memory on the node where the printing process lives
------------------
     ethr =  2.70E-10,  avg # of iterations =  7.0

     negative rho (up, down):  1.979E-01 0.000E+00

     total cpu time spent up to now is      117.3 secs

     total energy              =   -2269.29486768 Ry
     estimated scf accuracy    <       0.00000102 Ry

     iteration # 14     ecut=    90.00 Ry     beta= 0.30
     Davidson diagonalization with overlap

---- Real-time Memory Report at c_bands before calling an iterative solver
             0 MiB given to the printing process from OS
             0 MiB allocation reported by mallinfo(arena+hblkhd)
             0 MiB available memory on the node where the printing process lives
------------------
     ethr =  2.70E-10,  avg # of iterations =  3.0

     negative rho (up, down):  1.979E-01 0.000E+00

     total cpu time spent up to now is      125.5 secs

     total energy              =   -2269.29486865 Ry
     estimated scf accuracy    <       0.00000008 Ry

     iteration # 15     ecut=    90.00 Ry     beta= 0.30
     Davidson diagonalization with overlap

---- Real-time Memory Report at c_bands before calling an iterative solver
             0 MiB given to the printing process from OS
             0 MiB allocation reported by mallinfo(arena+hblkhd)
             0 MiB available memory on the node where the printing process lives
------------------
     ethr =  3.98E-11,  avg # of iterations =  9.0

     negative rho (up, down):  1.979E-01 0.000E+00

     total cpu time spent up to now is      135.6 secs

     End of self-consistent calculation

          k = 0.0000 0.0000 0.0000 ( 52817 PWs)   bands (ev):

   -28.2202 -28.2201 -28.2200 -14.8703 -14.8702 -14.8701 -14.8665 -14.8664
   -14.8662 -14.8522 -14.8522 -14.8521 -14.8092 -14.8091 -14.8090 -14.7647
   -14.7646 -14.7645 -10.2776 -10.2775 -10.2708 -10.2510 -10.2509 -10.2279
   -10.2040 -10.2039 -10.2003  -6.8392  -6.5299  -6.5298  -5.6914  -5.6913
    -5.5582  -5.4744  -5.4743  -5.3912  -5.3311  -5.3309  -5.2026  -0.3133
    -0.2582  -0.2581   1.6275   1.6275   1.7008   2.0576   2.0785   2.0786
     2.3423   2.3456   2.5912   2.5913   2.9135   2.9136   3.2070   3.2723
     3.2724   3.4440   3.4441   3.5423   3.5606   3.5607   3.7349   3.7351
     3.7579   3.8443   3.8444   4.0152   4.1706   4.2505   4.3244   4.3244
     4.5860   4.5860   4.9010   5.1821   5.2359   5.2360   5.2786   5.2881
     5.2882   5.3718   5.3718   5.3820   5.4953   5.4953   5.5357   5.5539
     5.5539   5.6853   5.7823   5.7823   5.8020   6.0589   6.0589   6.2096
     6.3510   6.3511   6.6172   6.8264   6.8264   6.8654   7.0244   7.2426
     7.2426

     occupation numbers 
     1.0000   1.0000   1.0000   1.0000   1.0000   1.0000   1.0000   1.0000
     1.0000   1.0000   1.0000   1.0000   1.0000   1.0000   1.0000   1.0000
     1.0000   1.0000   1.0000   1.0000   1.0000   1.0000   1.0000   1.0000
     1.0000   1.0000   1.0000   1.0000   1.0000   1.0000   1.0000   1.0000
     1.0000   1.0000   1.0000   1.0000   1.0000   1.0000   1.0000   1.0000
     1.0000   1.0000   1.0000   1.0000   1.0000   1.0000   1.0000   1.0000
     1.0000   1.0000   1.0000   1.0000   1.0000   1.0000   1.0000   1.0000
     1.0000   1.0000   1.0000   1.0000   1.0000   1.0000   1.0000   1.0000
     1.0000   1.0000   1.0000   1.0000   1.0000   1.0000   1.0000   1.0000
     1.0000   1.0000   1.0000   1.0000   1.0000   1.0000   1.0000   1.0000
     1.0000   1.0000   1.0000   1.0000   1.0000   1.0000   1.0000   1.0000
     1.0000   1.0000   1.0000   1.0000   1.0000   1.0000   1.0000   1.0000
     1.0000   1.0000   1.0000   1.0000   1.0000   1.0000   1.0000   1.0000
     1.0000

          k = 0.0000-0.5774 0.0000 ( 52946 PWs)   bands (ev):

   -28.2202 -28.2201 -28.2199 -14.8699 -14.8698 -14.8697 -14.8664 -14.8661
   -14.8661 -14.8521 -14.8519 -14.8519 -14.8092 -14.8091 -14.8090 -14.7647
   -14.7645 -14.7644 -10.2853 -10.2833 -10.2824 -10.2554 -10.2476 -10.2384
   -10.2166 -10.2109 -10.2087  -6.3900  -6.2748  -6.1944  -5.9511  -5.8080
    -5.7568  -5.5723  -5.5718  -5.5174  -5.5038  -5.3805  -5.2979  -0.5684
    -0.3417  -0.2706   1.4201   1.7495   1.8473   2.1267   2.2843   2.4446
     2.4990   2.7042   2.8218   2.9671   2.9936   3.0704   3.0852   3.2540
     3.3014   3.4263   3.4787   3.4844   3.5268   3.5426   3.6326   3.6708
     3.7365   3.8733   4.0686   4.0887   4.1743   4.2209   4.2569   4.2980
     4.4725   4.5647   4.6689   5.2124   5.2311   5.2857   5.3104   5.3230
     5.3353   5.3690   5.3953   5.4342   5.5288   5.5358   5.6607   5.6779
     5.7071   5.7174   5.8433   5.8777   5.9615   5.9869   6.0863   6.2098
     6.3213   6.3228   6.3958   6.4247   6.4483   6.6304   6.6982   6.8081
     6.8412

     occupation numbers 
     1.0000   1.0000   1.0000   1.0000   1.0000   1.0000   1.0000   1.0000
     1.0000   1.0000   1.0000   1.0000   1.0000   1.0000   1.0000   1.0000
     1.0000   1.0000   1.0000   1.0000   1.0000   1.0000   1.0000   1.0000
     1.0000   1.0000   1.0000   1.0000   1.0000   1.0000   1.0000   1.0000
     1.0000   1.0000   1.0000   1.0000   1.0000   1.0000   1.0000   1.0000
     1.0000   1.0000   1.0000   1.0000   1.0000   1.0000   1.0000   1.0000
     1.0000   1.0000   1.0000   1.0000   1.0000   1.0000   1.0000   1.0000
     1.0000   1.0000   1.0000   1.0000   1.0000   1.0000   1.0000   1.0000
     1.0000   1.0000   1.0000   1.0000   1.0000   1.0000   1.0000   1.0000
     1.0000   1.0000   1.0000   1.0000   1.0000   1.0000   1.0000   1.0000
     1.0000   1.0000   1.0000   1.0000   1.0000   1.0000   1.0000   1.0000
     1.0000   1.0000   1.0000   1.0000   1.0000   1.0000   1.0000   1.0000
     1.0000   1.0000   1.0000   1.0000   1.0000   1.0000   1.0000   1.0000
     1.0000

     highest occupied level (ev):     7.2426

!    total energy              =   -2269.29486951 Ry
     estimated scf accuracy    <          3.4E-09 Ry

     The total energy is the sum of the following terms:
     one-electron contribution =    -691.87573932 Ry
     hartree contribution      =     504.31010890 Ry
     xc contribution           =    -567.41794774 Ry
     ewald contribution        =    -975.36458091 Ry
     one-center paw contrib.   =    -538.94671045 Ry
      -> PAW hartree energy AE =     295.27870368 Ry
      -> PAW hartree energy PS =    -293.09252556 Ry
      -> PAW xc energy AE      =    -404.98195816 Ry
      -> PAW xc energy PS      =     133.32242481 Ry
      -> total E_H with PAW    =     506.49628702 Ry
      -> total E_XC with PAW   =    -839.07748108 Ry

     convergence has been achieved in  15 iterations


     Computing stress (Cartesian axis) and pressure


     negative rho (up, down):  1.979E-01 0.000E+00
          total   stress  (Ry/bohr**3)                   (kbar)     P=        2.13
   0.00000821   0.00000000   0.00000000            1.21        0.00        0.00
   0.00000000   0.00000821  -0.00000000            0.00        1.21       -0.00
   0.00000000   0.00000000   0.00002701            0.00        0.00        3.97

     kinetic stress (kbar)   9018.72      0.00      0.00
                                0.00   9018.72     -0.00
                                0.00     -0.00   9042.82

     local   stress (kbar)  -2571.78      0.01     -0.01
                                0.01  -2571.77      0.01
                               -0.01      0.01  -3018.20

     nonloc. stress (kbar)   4101.74      0.00      0.00
                                0.00   4101.74      0.00
                                0.00      0.00   4099.98

     hartree stress (kbar)   6676.32     -0.00     -0.00
                               -0.00   6676.32      0.00
                               -0.00      0.00   6859.96

     exc-cor stress (kbar)   8558.17     -0.00      0.00
                               -0.00   8558.17     -0.00
                                0.00     -0.00   8558.56

     corecor stress (kbar) -12669.84      0.00     -0.00
                                0.00 -12669.84     -0.00
                               -0.00     -0.00 -12671.05

     ewald   stress (kbar) -13112.12     -0.01      0.01
                               -0.01 -13112.12     -0.01
                                0.01     -0.01 -12868.10

     hubbard stress (kbar)      0.00      0.00      0.00
                                0.00      0.00      0.00
                                0.00      0.00      0.00

     DFT-D   stress (kbar)      0.00      0.00      0.00
                                0.00      0.00      0.00
                                0.00      0.00      0.00

     XDM     stress (kbar)      0.00      0.00      0.00
                                0.00      0.00      0.00
                                0.00      0.00      0.00

     dft-nl  stress (kbar)      0.00      0.00      0.00
                                0.00      0.00      0.00
                                0.00      0.00      0.00

     TS-vdW  stress (kbar)      0.00      0.00      0.00
                                0.00      0.00      0.00
                                0.00      0.00      0.00

     MDB     stress (kbar)      0.00      0.00      0.00
                                0.00      0.00      0.00
                                0.00      0.00      0.00

     3D-RISM stress (kbar)      0.00      0.00      0.00
                                0.00      0.00      0.00
                                0.00      0.00      0.00


     Writing all to output data dir ./tmp/k_2x2x1/SrCu2SnS4_k_2x2x1.save/ :
     XML data file, charge density, pseudopotentials, collected wavefunctions

     init_run     :      3.86s CPU      3.93s WALL (       1 calls)
     electrons    :    130.54s CPU    131.46s WALL (       1 calls)
     stress       :     13.94s CPU     14.01s WALL (       1 calls)

     Called by init_run:
     wfcinit      :      2.14s CPU      2.16s WALL (       1 calls)
     wfcinit:atom :      0.00s CPU      0.01s WALL (       2 calls)
     wfcinit:wfcr :      2.05s CPU      2.06s WALL (       2 calls)
     potinit      :      0.37s CPU      0.38s WALL (       1 calls)
     hinit0       :      0.19s CPU      0.19s WALL (       1 calls)

     Called by electrons:
     c_bands      :     80.85s CPU     81.34s WALL (      15 calls)
     sum_band     :     26.98s CPU     27.27s WALL (      15 calls)
     v_of_rho     :      2.48s CPU      2.51s WALL (      16 calls)
     v_h          :      0.15s CPU      0.15s WALL (      16 calls)
     v_xc         :      2.47s CPU      2.50s WALL (      17 calls)
     newd         :     17.60s CPU     17.73s WALL (      16 calls)
     PAW_pot      :      3.37s CPU      3.39s WALL (      16 calls)
     mix_rho      :      0.34s CPU      0.35s WALL (      15 calls)

     Called by c_bands:
     init_us_2    :      0.38s CPU      0.38s WALL (      64 calls)
     cegterg      :     78.24s CPU     78.70s WALL (      30 calls)

     Called by sum_band:
     sum_band:wei :      0.00s CPU      0.00s WALL (      15 calls)
     sum_band:loo :      8.15s CPU      8.21s WALL (      15 calls)
     sum_band:buf :      0.03s CPU      0.03s WALL (      30 calls)
     sum_band:ini :      0.18s CPU      0.18s WALL (      30 calls)
     sum_band:cal :      3.40s CPU      3.42s WALL (      30 calls)
     sum_band:bec :      0.01s CPU      0.01s WALL (      30 calls)
     addusdens    :     18.24s CPU     18.47s WALL (      15 calls)
                                        0.00s GPU  (      15 calls)
     addusd:skk   :      0.09s CPU      0.09s WALL (      60 calls)
                                        0.00s GPU  (      60 calls)

     Called by *egterg:
     cdiaghg      :      1.23s CPU      1.23s WALL (     178 calls)
     cegterg:over :      6.18s CPU      6.21s WALL (     148 calls)
     cegterg:upda :      3.68s CPU      3.70s WALL (     148 calls)
     cegterg:last :      8.65s CPU      8.69s WALL (      75 calls)
     h_psi        :     47.38s CPU     47.69s WALL (     180 calls)
     s_psi        :     10.92s CPU     10.97s WALL (     180 calls)
     g_psi        :      0.06s CPU      0.07s WALL (     148 calls)

     Called by h_psi:
     h_psi:calbec :     10.75s CPU     10.81s WALL (     180 calls)
     vloc_psi     :     25.39s CPU     25.59s WALL (     180 calls)
                                        0.00s GPU  (     180 calls)
     add_vuspsi   :     11.15s CPU     11.21s WALL (     180 calls)

     General routines
     calbec       :     17.41s CPU     17.49s WALL (     236 calls)
     fft          :      1.94s CPU      1.95s WALL (     220 calls)
     ffts         :      0.08s CPU      0.08s WALL (      31 calls)
     fftw         :     27.64s CPU     27.82s WALL (   22426 calls)
     interpolate  :      0.18s CPU      0.18s WALL (      16 calls)

     Parallel routines

     PAW routines
     PAW_pot      :      3.37s CPU      3.39s WALL (      16 calls)
     PAW_symme    :      0.00s CPU      0.00s WALL (      31 calls)

     PWSCF        :   2m28.52s CPU   2m29.67s WALL


   This run was terminated on:   4: 7:55  30Jun2026            

=------------------------------------------------------------------------------=
   JOB DONE.
=------------------------------------------------------------------------------=
