
     Program PWSCF v.7.5 starts on 30Jun2026 at  4:23:15 
        Git branch: develop
        Last git commit: ea9b1b3d7915154c244e4a71786faaa0fdafa55c
        Last git commit date: Mon Mar 16 14:03:30 2026 +0000
        Last git commit subject: Merge branch 'dev_td_porting' into 'develop'

     This program is part of the open-source Quantum ESPRESSO suite
     for quantum simulation of materials; please cite
         "P. Giannozzi et al., J. Phys.:Condens. Matter 21 395502 (2009);
         "P. Giannozzi et al., J. Phys.:Condens. Matter 29 465901 (2017);
         "P. Giannozzi et al., J. Chem. Phys. 152 154105 (2020);
          URL http://www.quantum-espresso.org", 
     in publications or presentations arising from this work. More details at
     http://www.quantum-espresso.org/quote

     Parallel version (MPI), running on     4 processors

     MPI processes distributed on     1 nodes
     0 MiB available memory on the printing compute node when the environment starts

     Reading input from inputs/k_5x5x3.in
Warning: card &CELL ignored

     Current dimensions of program PWSCF are:
     Max number of different atomic species (ntypx) = 10
     Max number of k-points (npk) =  40000
     Max angular momentum in pseudopotentials (lmaxx) =  4
     file Cu.paw.z_11.ld1.psl.v1.0.0-low.upf: wavefunction(s)  4S 3D renormalized

     Exact exchange band parallelism type set to band_pairs

     Message from routine setup:
     using ibrav=0 with symmetry is DISCOURAGED, use correct ibrav instead

     R & G space division:  proc/nbgrp/npool/nimage =       4
     Subspace diagonalization in iterative solution of the eigenvalue problem:
     a serial algorithm will be used


     Parallelization info
     --------------------
     sticks:   dense  smooth     PW     G-vecs:    dense   smooth      PW
     Min        1786     892    238               299342   105806   14664
     Max        1787     893    239               299355   105815   14673
     Sum        7147    3571    955              1197401   423243   58683

     Using Slab Decomposition



     bravais-lattice index     =            0
     lattice parameter (alat)  =      11.9933  a.u.
     unit-cell volume          =    3670.3121 (a.u.)^3
     number of atoms/cell      =           24
     number of atomic types    =            4
     number of electrons       =       210.00
     number of Kohn-Sham states=          105
     kinetic-energy cutoff     =      90.0000  Ry
     charge density cutoff     =     720.0000  Ry
     scf convergence threshold =      1.0E-08
     mixing beta               =       0.3000
     number of iterations used =            8  plain     mixing
     Exchange-correlation= SLA  PW   PBE  PBE
                           (   1   4   3   4   0   0   0)

     celldm(1)=  11.993304  celldm(2)=   0.000000  celldm(3)=   0.000000
     celldm(4)=   0.000000  celldm(5)=   0.000000  celldm(6)=   0.000000

     crystal axes: (cart. coord. in units of alat)
               a(1) = (   1.000000   0.000000   0.000000 )  
               a(2) = (  -0.500000   0.866025   0.000000 )  
               a(3) = (   0.000000   0.000000   2.456722 )  

     reciprocal axes: (cart. coord. in units 2 pi/alat)
               b(1) = (  1.000000  0.577350 -0.000000 )  
               b(2) = (  0.000000  1.154701  0.000000 )  
               b(3) = (  0.000000 -0.000000  0.407047 )  


     PseudoPot. # 1 for Cu read from file:
     /Users/kaede/scientific-tools/pseudopotentials/SSSP/1.3.0/PBE/precision/Cu.paw.z_11.ld1.psl.v1.0.0-low.upf
     MD5 check sum: 619f40885d92a09a85a8b37550532d0c
     Pseudo is Projector augmented-wave + core cor, Zval = 11.0
     Generated using &quot;atomic&quot; code by A. Dal Corso  v.6.3MaX
     Shape of augmentation charge: PSQ
     Using radial grid of 1199 points,  6 beta functions with: 
                l(1) =   0
                l(2) =   0
                l(3) =   1
                l(4) =   1
                l(5) =   2
                l(6) =   2
     Q(r) pseudized with 0 coefficients 


     PseudoPot. # 2 for S  read from file:
     /Users/kaede/scientific-tools/pseudopotentials/SSSP/1.3.0/PBE/precision/s_pbe_v1.4.uspp.F.UPF
     MD5 check sum: 88d86576ff6df21479756cfb9bdac1df
     Pseudo is Ultrasoft + core correction, Zval =  6.0
     Generated by new atomic code, or converted to UPF format
     Using radial grid of  907 points,  6 beta functions with: 
                l(1) =   0
                l(2) =   0
                l(3) =   1
                l(4) =   1
                l(5) =   2
                l(6) =   2
     Q(r) pseudized with  8 coefficients,  rinner =    1.300   1.300   1.300
                                                       1.300   1.300

     PseudoPot. # 3 for Sn read from file:
     /Users/kaede/scientific-tools/pseudopotentials/SSSP/1.3.0/PBE/precision/Sn_pbe_v1.uspp.F.UPF
     MD5 check sum: 4cf58ce39ec5d5d420df3dd08604eb00
     Pseudo is Ultrasoft + core correction, Zval = 14.0
     Generated by new atomic code, or converted to UPF format
     Using radial grid of  891 points,  6 beta functions with: 
                l(1) =   0
                l(2) =   0
                l(3) =   1
                l(4) =   1
                l(5) =   2
                l(6) =   2
     Q(r) pseudized with  6 coefficients,  rinner =    1.200   1.200   1.200
                                                       1.200   1.200

     PseudoPot. # 4 for Sr read from file:
     /Users/kaede/scientific-tools/pseudopotentials/SSSP/1.3.0/PBE/precision/Sr_pbe_v1.uspp.F.UPF
     MD5 check sum: 6b418c05fbe9db5448babca5e47b7a5b
     Pseudo is Ultrasoft + core correction, Zval = 10.0
     Generated by new atomic code, or converted to UPF format
     Using radial grid of  883 points,  6 beta functions with: 
                l(1) =   0
                l(2) =   0
                l(3) =   1
                l(4) =   1
                l(5) =   2
                l(6) =   2
     Q(r) pseudized with  6 coefficients,  rinner =    1.400   1.400   1.400
                                                       1.400   1.400

     atomic species   valence    mass     pseudopotential
     Cu               11.00    63.54600     Cu( 1.00)
     S                 6.00    32.06500     S ( 1.00)
     Sn               14.00   118.71000     Sn( 1.00)
     Sr               10.00    87.62000     Sr( 1.00)

      6 Sym. Ops. (no inversion) found ( 4 have fractional translation)


                                    s                        frac. trans.

      isym =  1     identity                                     

 cryst.   s( 1) = (     1          0          0      )
                  (     0          1          0      )
                  (     0          0          1      )

 cart.    s( 1) = (  1.0000000  0.0000000  0.0000000 )
                  (  0.0000000  1.0000000  0.0000000 )
                  (  0.0000000  0.0000000  1.0000000 )


      isym =  2     180 deg rotation - cart. axis [1,0,0]        

 cryst.   s( 2) = (     1          0          0      )    f =( -0.0000000 )
                  (    -1         -1          0      )       (  0.0000000 )
                  (     0          0         -1      )       (  0.3333330 )

 cart.    s( 2) = (  1.0000000  0.0000002  0.0000000 )    f =( -0.0000000 )
                  (  0.0000000 -1.0000000  0.0000000 )       (  0.0000000 )
                  (  0.0000000  0.0000000 -1.0000000 )       (  0.8189064 )


      isym =  3     120 deg rotation - cryst. axis [0,0,1]       

 cryst.   s( 3) = (     0          1          0      )    f =(  0.0000000 )
                  (    -1         -1          0      )       (  0.0000000 )
                  (     0          0          1      )       ( -0.3333330 )

 cart.    s( 3) = ( -0.5000001 -0.8660256  0.0000000 )    f =(  0.0000000 )
                  (  0.8660252 -0.4999999  0.0000000 )       (  0.0000000 )
                  (  0.0000000  0.0000000  1.0000000 )       ( -0.8189064 )


      isym =  4     120 deg rotation - cryst. axis [0,0,-1]      

 cryst.   s( 4) = (    -1         -1          0      )    f =(  0.0000000 )
                  (     1          0          0      )       (  0.0000000 )
                  (     0          0          1      )       (  0.3333330 )

 cart.    s( 4) = ( -0.4999999  0.8660256  0.0000000 )    f =(  0.0000000 )
                  ( -0.8660252 -0.5000001  0.0000000 )       (  0.0000000 )
                  (  0.0000000  0.0000000  1.0000000 )       (  0.8189064 )


      isym =  5     180 deg rotation - cryst. axis [0,1,0]       

 cryst.   s( 5) = (    -1         -1          0      )    f =(  0.0000000 )
                  (     0          1          0      )       (  0.0000000 )
                  (     0          0         -1      )       ( -0.3333340 )

 cart.    s( 5) = ( -0.4999999 -0.8660257  0.0000000 )    f =(  0.0000000 )
                  ( -0.8660252  0.4999999  0.0000000 )       (  0.0000000 )
                  (  0.0000000  0.0000000 -1.0000000 )       ( -0.8189089 )


      isym =  6     180 deg rotation - cryst. axis [1,1,0]       

 cryst.   s( 6) = (     0          1          0      )
                  (     1          0          0      )
                  (     0          0         -1      )

 cart.    s( 6) = ( -0.5000001  0.8660255  0.0000000 )
                  (  0.8660252  0.5000001  0.0000000 )
                  (  0.0000000  0.0000000 -1.0000000 )


   Cartesian axes

     site n.     atom                  positions (alat units)
         1        Sr     tau(   1) = (  -0.2810720   0.4868309   0.4094544  )
         2        Sr     tau(   2) = (   0.2189280   0.3791943   1.2283608  )
         3        Sr     tau(   3) = (   0.5621440   0.0000000   2.0472697  )
         4        Cu     tau(   4) = (  -0.2454151   0.5509306   1.0124690  )
         5        Cu     tau(   5) = (   0.1455875   0.3780243   1.8313755  )
         6        Cu     tau(   6) = (   0.0998274   0.8030955   0.1935626  )
         7        Cu     tau(   7) = (   0.5998275   0.0629297   1.4442526  )
         8        Cu     tau(   8) = (   0.2545850   0.3150946   0.6253462  )
         9        Cu     tau(   9) = (   0.6455875   0.4880009   2.2631590  )
        10        Sn     tau(  10) = (  -0.3524466   0.6104551   1.6378153  )
        11        Sn     tau(  11) = (   0.1475535   0.2555701   0.0000000  )
        12        Sn     tau(  12) = (   0.7048930   0.0000000   0.8189064  )
        13        S      tau(  13) = (  -0.1978795   0.4210502   1.9339682  )
        14        S      tau(  14) = (   0.2342995   0.4841315   0.2961529  )
        15        S      tau(  15) = (  -0.0364201   0.8268688   1.1150617  )
        16        S      tau(  16) = (   0.4635800   0.0391565   0.5227535  )
        17        S      tau(  17) = (   0.3021205   0.4449750   2.1605688  )
        18        S      tau(  18) = (   0.7342995   0.3818937   1.3416599  )
        19        S      tau(  19) = (  -0.0595230   0.3059840   0.8074605  )
        20        S      tau(  20) = (   0.2647714   0.6614848   1.6263669  )
        21        S      tau(  21) = (  -0.2052486   0.7645816   2.4452758  )
        22        S      tau(  22) = (   0.2947515   0.1014436   1.6492611  )
        23        S      tau(  23) = (   0.4404769   0.5600412   0.8303547  )
        24        S      tau(  24) = (   0.7647715   0.2045404   0.0114459  )

   Crystallographic axes

     site n.     atom                  positions (cryst. coord.)
         1        Sr     tau(   1) = (  0.0000000  0.5621440  0.1666670  )
         2        Sr     tau(   2) = (  0.4378560  0.4378560  0.5000000  )
         3        Sr     tau(   3) = (  0.5621440  0.0000000  0.8333340  )
         4        Cu     tau(   4) = (  0.0726650  0.6361600  0.4121220  )
         5        Cu     tau(   5) = (  0.3638400  0.4365050  0.7454550  )
         6        Cu     tau(   6) = (  0.5634950  0.9273350  0.0787890  )
         7        Cu     tau(   7) = (  0.6361600  0.0726650  0.5878780  )
         8        Cu     tau(   8) = (  0.4365050  0.3638400  0.2545450  )
         9        Cu     tau(   9) = (  0.9273350  0.5634950  0.9212110  )
        10        Sn     tau(  10) = (  0.0000000  0.7048930  0.6666670  )
        11        Sn     tau(  11) = (  0.2951070  0.2951070  0.0000000  )
        12        Sn     tau(  12) = (  0.7048930  0.0000000  0.3333330  )
        13        S      tau(  13) = (  0.0452140  0.4861870  0.7872150  )
        14        S      tau(  14) = (  0.5138130  0.5590270  0.1205480  )
        15        S      tau(  15) = (  0.4409730  0.9547860  0.4538820  )
        16        S      tau(  16) = (  0.4861870  0.0452140  0.2127850  )
        17        S      tau(  17) = (  0.5590270  0.5138130  0.8794520  )
        18        S      tau(  18) = (  0.9547860  0.4409730  0.5461180  )
        19        S      tau(  19) = (  0.1171370  0.3533200  0.3286740  )
        20        S      tau(  20) = (  0.6466800  0.7638170  0.6620070  )
        21        S      tau(  21) = (  0.2361830  0.8828630  0.9953410  )
        22        S      tau(  22) = (  0.3533200  0.1171370  0.6713260  )
        23        S      tau(  23) = (  0.7638170  0.6466800  0.3379930  )
        24        S      tau(  24) = (  0.8828630  0.2361830  0.0046590  )

     number of k points=    12
                       cart. coord. in units 2pi/alat
        k(    1) = (   0.0000000   0.0000000   0.0000000), wk =   0.0266667
        k(    2) = (   0.0000000   0.0000000   0.1356822), wk =   0.0533333
        k(    3) = (   0.0000000   0.2309402   0.0000000), wk =   0.1600000
        k(    4) = (   0.0000000   0.2309402   0.1356822), wk =   0.1600000
        k(    5) = (   0.0000000   0.4618803   0.0000000), wk =   0.1600000
        k(    6) = (   0.0000000   0.4618803   0.1356822), wk =   0.1600000
        k(    7) = (   0.2000000   0.3464102   0.0000000), wk =   0.1600000
        k(    8) = (   0.2000000   0.3464102   0.1356822), wk =   0.3200000
        k(    9) = (   0.2000000   0.5773504   0.0000000), wk =   0.1600000
        k(   10) = (   0.2000000   0.5773504   0.1356822), wk =   0.3200000
        k(   11) = (   0.0000000   0.2309402  -0.1356822), wk =   0.1600000
        k(   12) = (   0.0000000   0.4618803  -0.1356822), wk =   0.1600000

                       cryst. coord.
        k(    1) = (   0.0000000   0.0000000   0.0000000), wk =   0.0266667
        k(    2) = (   0.0000000   0.0000000   0.3333333), wk =   0.0533333
        k(    3) = (   0.0000000   0.2000000   0.0000000), wk =   0.1600000
        k(    4) = (   0.0000000   0.2000000   0.3333333), wk =   0.1600000
        k(    5) = (   0.0000000   0.4000000   0.0000000), wk =   0.1600000
        k(    6) = (   0.0000000   0.4000000   0.3333333), wk =   0.1600000
        k(    7) = (   0.2000000   0.2000000   0.0000000), wk =   0.1600000
        k(    8) = (   0.2000000   0.2000000   0.3333333), wk =   0.3200000
        k(    9) = (   0.2000000   0.4000000   0.0000000), wk =   0.1600000
        k(   10) = (   0.2000000   0.4000000   0.3333333), wk =   0.3200000
        k(   11) = (   0.0000000   0.2000000  -0.3333333), wk =   0.1600000
        k(   12) = (   0.0000000   0.4000000  -0.3333333), wk =   0.1600000

     Dense  grid:  1197401 G-vectors     FFT dimensions: ( 108, 108, 270)

     Smooth grid:   423243 G-vectors     FFT dimensions: (  75,  75, 180)

     Dynamical RAM for                 wfc:      21.20 MB

     Dynamical RAM for     wfc (w. buffer):     275.56 MB

     Dynamical RAM for           str. fact:      18.27 MB

     Dynamical RAM for           local pot:       0.00 MB

     Dynamical RAM for          nlocal pot:      87.21 MB

     Dynamical RAM for                qrad:       8.61 MB

     Dynamical RAM for          rho,v,vnew:      31.86 MB

     Dynamical RAM for               rhoin:      10.62 MB

     Dynamical RAM for            rho*nmix:      73.08 MB

     Dynamical RAM for           G-vectors:      17.94 MB

     Dynamical RAM for          h,s,v(r/c):       2.02 MB

     Dynamical RAM for          <psi|beta>:       0.69 MB

     Dynamical RAM for                 psi:      42.39 MB

     Dynamical RAM for                hpsi:      42.39 MB

     Dynamical RAM for                spsi:      42.39 MB

     Dynamical RAM for      wfcinit/wfcrot:      42.65 MB

     Dynamical RAM for           addusdens:     904.41 MB

     Dynamical RAM for         addusstress:     918.11 MB

     Estimated static dynamical RAM per process >     503.16 MB

     Estimated max dynamical RAM per process >       1.46 GB

     Estimated total dynamical RAM >       5.84 GB

     Initial potential from superposition of free atoms

     starting charge     206.8971, renormalised to     210.0000

     negative rho (up, down):  1.944E-01 0.000E+00
     Starting wfcs are  168 randomized atomic wfcs
     Checking if some PAW data can be deallocated... 
       PAW data deallocated on    2 nodes for type:  1

     total cpu time spent up to now is       17.2 secs

     Self-consistent Calculation

     iteration #  1     ecut=    90.00 Ry     beta= 0.30
     Davidson diagonalization with overlap

---- Real-time Memory Report at c_bands before calling an iterative solver
             0 MiB given to the printing process from OS
             0 MiB allocation reported by mallinfo(arena+hblkhd)
             0 MiB available memory on the node where the printing process lives
------------------
     ethr =  1.00E-02,  avg # of iterations =  2.0

     negative rho (up, down):  1.938E-01 0.000E+00

     total cpu time spent up to now is       47.5 secs

     total energy              =   -2267.66554511 Ry
     estimated scf accuracy    <       5.27735875 Ry

     iteration #  2     ecut=    90.00 Ry     beta= 0.30
     Davidson diagonalization with overlap

---- Real-time Memory Report at c_bands before calling an iterative solver
             0 MiB given to the printing process from OS
             0 MiB allocation reported by mallinfo(arena+hblkhd)
             0 MiB available memory on the node where the printing process lives
------------------
     ethr =  2.51E-03,  avg # of iterations =  4.8

     negative rho (up, down):  1.939E-01 0.000E+00

     total cpu time spent up to now is       84.7 secs

     total energy              =   -2269.15320871 Ry
     estimated scf accuracy    <       1.94642332 Ry

     iteration #  3     ecut=    90.00 Ry     beta= 0.30
     Davidson diagonalization with overlap

---- Real-time Memory Report at c_bands before calling an iterative solver
             0 MiB given to the printing process from OS
             0 MiB allocation reported by mallinfo(arena+hblkhd)
             0 MiB available memory on the node where the printing process lives
------------------
     ethr =  9.27E-04,  avg # of iterations =  2.0

     negative rho (up, down):  1.953E-01 0.000E+00

     total cpu time spent up to now is      115.6 secs

     total energy              =   -2269.13683484 Ry
     estimated scf accuracy    <       0.36956795 Ry

     iteration #  4     ecut=    90.00 Ry     beta= 0.30
     Davidson diagonalization with overlap

---- Real-time Memory Report at c_bands before calling an iterative solver
             0 MiB given to the printing process from OS
             0 MiB allocation reported by mallinfo(arena+hblkhd)
             0 MiB available memory on the node where the printing process lives
------------------
     ethr =  1.76E-04,  avg # of iterations =  6.3

     negative rho (up, down):  1.960E-01 0.000E+00

     total cpu time spent up to now is      158.9 secs

     total energy              =   -2269.18450200 Ry
     estimated scf accuracy    <       0.49530743 Ry

     iteration #  5     ecut=    90.00 Ry     beta= 0.30
     Davidson diagonalization with overlap

---- Real-time Memory Report at c_bands before calling an iterative solver
             0 MiB given to the printing process from OS
             0 MiB allocation reported by mallinfo(arena+hblkhd)
             0 MiB available memory on the node where the printing process lives
------------------
     ethr =  1.76E-04,  avg # of iterations =  4.8

     negative rho (up, down):  1.975E-01 0.000E+00

     total cpu time spent up to now is      214.7 secs

     total energy              =   -2269.28789130 Ry
     estimated scf accuracy    <       0.03844118 Ry

     iteration #  6     ecut=    90.00 Ry     beta= 0.30
     Davidson diagonalization with overlap

---- Real-time Memory Report at c_bands before calling an iterative solver
             0 MiB given to the printing process from OS
             0 MiB allocation reported by mallinfo(arena+hblkhd)
             0 MiB available memory on the node where the printing process lives
------------------
     ethr =  1.83E-05,  avg # of iterations =  4.4

     negative rho (up, down):  1.980E-01 0.000E+00

     total cpu time spent up to now is      275.9 secs

     total energy              =   -2269.29783623 Ry
     estimated scf accuracy    <       0.00764335 Ry

     iteration #  7     ecut=    90.00 Ry     beta= 0.30
     Davidson diagonalization with overlap

---- Real-time Memory Report at c_bands before calling an iterative solver
             0 MiB given to the printing process from OS
             0 MiB allocation reported by mallinfo(arena+hblkhd)
             0 MiB available memory on the node where the printing process lives
------------------
     ethr =  3.64E-06,  avg # of iterations =  4.8

     negative rho (up, down):  1.980E-01 0.000E+00

     total cpu time spent up to now is      345.8 secs

     total energy              =   -2269.29955965 Ry
     estimated scf accuracy    <       0.00662741 Ry

     iteration #  8     ecut=    90.00 Ry     beta= 0.30
     Davidson diagonalization with overlap

---- Real-time Memory Report at c_bands before calling an iterative solver
             0 MiB given to the printing process from OS
             0 MiB allocation reported by mallinfo(arena+hblkhd)
             0 MiB available memory on the node where the printing process lives
------------------
     ethr =  3.16E-06,  avg # of iterations =  2.8

     negative rho (up, down):  1.982E-01 0.000E+00

     total cpu time spent up to now is      402.5 secs

     total energy              =   -2269.30054601 Ry
     estimated scf accuracy    <       0.00070388 Ry

     iteration #  9     ecut=    90.00 Ry     beta= 0.30
     Davidson diagonalization with overlap

---- Real-time Memory Report at c_bands before calling an iterative solver
             0 MiB given to the printing process from OS
             0 MiB allocation reported by mallinfo(arena+hblkhd)
             0 MiB available memory on the node where the printing process lives
------------------
     ethr =  3.35E-07,  avg # of iterations =  4.4

     negative rho (up, down):  1.981E-01 0.000E+00

     total cpu time spent up to now is      469.5 secs

     total energy              =   -2269.30082505 Ry
     estimated scf accuracy    <       0.00003241 Ry

     iteration # 10     ecut=    90.00 Ry     beta= 0.30
     Davidson diagonalization with overlap

---- Real-time Memory Report at c_bands before calling an iterative solver
             0 MiB given to the printing process from OS
             0 MiB allocation reported by mallinfo(arena+hblkhd)
             0 MiB available memory on the node where the printing process lives
------------------
     ethr =  1.54E-08,  avg # of iterations =  9.1

     negative rho (up, down):  1.979E-01 0.000E+00

     total cpu time spent up to now is      565.9 secs

     total energy              =   -2269.30083161 Ry
     estimated scf accuracy    <       0.00007781 Ry

     iteration # 11     ecut=    90.00 Ry     beta= 0.30
     Davidson diagonalization with overlap

---- Real-time Memory Report at c_bands before calling an iterative solver
             0 MiB given to the printing process from OS
             0 MiB allocation reported by mallinfo(arena+hblkhd)
             0 MiB available memory on the node where the printing process lives
------------------
     ethr =  1.54E-08,  avg # of iterations =  6.0

     negative rho (up, down):  1.979E-01 0.000E+00

     total cpu time spent up to now is     2350.4 secs

     total energy              =   -2269.30086274 Ry
     estimated scf accuracy    <       0.00007946 Ry

     iteration # 12     ecut=    90.00 Ry     beta= 0.30
     Davidson diagonalization with overlap

---- Real-time Memory Report at c_bands before calling an iterative solver
             0 MiB given to the printing process from OS
             0 MiB allocation reported by mallinfo(arena+hblkhd)
             0 MiB available memory on the node where the printing process lives
------------------
     ethr =  1.54E-08,  avg # of iterations =  4.0

     negative rho (up, down):  1.979E-01 0.000E+00

     total cpu time spent up to now is     2411.8 secs

     total energy              =   -2269.30087161 Ry
     estimated scf accuracy    <       0.00000742 Ry

     iteration # 13     ecut=    90.00 Ry     beta= 0.30
     Davidson diagonalization with overlap

---- Real-time Memory Report at c_bands before calling an iterative solver
             0 MiB given to the printing process from OS
             0 MiB allocation reported by mallinfo(arena+hblkhd)
             0 MiB available memory on the node where the printing process lives
------------------
     ethr =  3.53E-09,  avg # of iterations =  4.9

     negative rho (up, down):  1.979E-01 0.000E+00

     total cpu time spent up to now is     2482.6 secs

     total energy              =   -2269.30087614 Ry
     estimated scf accuracy    <       0.00000132 Ry

     iteration # 14     ecut=    90.00 Ry     beta= 0.30
     Davidson diagonalization with overlap

---- Real-time Memory Report at c_bands before calling an iterative solver
             0 MiB given to the printing process from OS
             0 MiB allocation reported by mallinfo(arena+hblkhd)
             0 MiB available memory on the node where the printing process lives
------------------
     ethr =  6.29E-10,  avg # of iterations =  2.0

     negative rho (up, down):  1.978E-01 0.000E+00

     total cpu time spent up to now is     2535.5 secs

     total energy              =   -2269.30087710 Ry
     estimated scf accuracy    <       0.00000014 Ry

     iteration # 15     ecut=    90.00 Ry     beta= 0.30
     Davidson diagonalization with overlap

---- Real-time Memory Report at c_bands before calling an iterative solver
             0 MiB given to the printing process from OS
             0 MiB allocation reported by mallinfo(arena+hblkhd)
             0 MiB available memory on the node where the printing process lives
------------------
     ethr =  6.62E-11,  avg # of iterations =  8.0

     negative rho (up, down):  1.978E-01 0.000E+00

     total cpu time spent up to now is     2610.5 secs

     total energy              =   -2269.30087750 Ry
     estimated scf accuracy    <       0.00000132 Ry

     iteration # 16     ecut=    90.00 Ry     beta= 0.30
     Davidson diagonalization with overlap

---- Real-time Memory Report at c_bands before calling an iterative solver
             0 MiB given to the printing process from OS
             0 MiB allocation reported by mallinfo(arena+hblkhd)
             0 MiB available memory on the node where the printing process lives
------------------
     ethr =  6.62E-11,  avg # of iterations =  6.5

     negative rho (up, down):  1.978E-01 0.000E+00

     total cpu time spent up to now is     2656.0 secs

     total energy              =   -2269.30087785 Ry
     estimated scf accuracy    <       0.00000001 Ry

     iteration # 17     ecut=    90.00 Ry     beta= 0.30
     Davidson diagonalization with overlap

---- Real-time Memory Report at c_bands before calling an iterative solver
             0 MiB given to the printing process from OS
             0 MiB allocation reported by mallinfo(arena+hblkhd)
             0 MiB available memory on the node where the printing process lives
------------------
     ethr =  6.50E-12,  avg # of iterations =  6.4

     negative rho (up, down):  1.978E-01 0.000E+00

     total cpu time spent up to now is     2705.5 secs

     total energy              =   -2269.30087796 Ry
     estimated scf accuracy    <       0.00000002 Ry

     iteration # 18     ecut=    90.00 Ry     beta= 0.30
     Davidson diagonalization with overlap

---- Real-time Memory Report at c_bands before calling an iterative solver
             0 MiB given to the printing process from OS
             0 MiB allocation reported by mallinfo(arena+hblkhd)
             0 MiB available memory on the node where the printing process lives
------------------
     ethr =  6.50E-12,  avg # of iterations =  2.0

     negative rho (up, down):  1.978E-01 0.000E+00

     total cpu time spent up to now is     2737.1 secs

     End of self-consistent calculation

          k = 0.0000 0.0000 0.0000 ( 52817 PWs)   bands (ev):

   -28.2092 -28.2091 -28.2090 -14.8718 -14.8718 -14.8716 -14.8673 -14.8673
   -14.8671 -14.8538 -14.8537 -14.8536 -14.8109 -14.8109 -14.8107 -14.7657
   -14.7656 -14.7655 -10.2663 -10.2662 -10.2595 -10.2409 -10.2407 -10.2180
   -10.1943 -10.1942 -10.1902  -6.8415  -6.5310  -6.5309  -5.6972  -5.6972
    -5.5611  -5.4807  -5.4806  -5.3898  -5.3280  -5.3277  -5.2092  -0.3168
    -0.2624  -0.2623   1.6264   1.6265   1.6991   2.0521   2.0755   2.0755
     2.3391   2.3408   2.5856   2.5856   2.9106   2.9107   3.2065   3.2705
     3.2706   3.4387   3.4388   3.5355   3.5548   3.5549   3.7351   3.7353
     3.7543   3.8379   3.8380   4.0098   4.1648   4.2492   4.3228   4.3229
     4.5812   4.5813   4.9002   5.1748   5.2278   5.2279   5.2732   5.2801
     5.2802   5.3638   5.3639   5.3761   5.4894   5.4894   5.5260   5.5500
     5.5500   5.6786   5.7775   5.7776   5.7965   6.0514   6.0515   6.2046
     6.3451   6.3452   6.6115   6.8209   6.8209   6.8581   7.0196   7.2369
     7.2369

     occupation numbers 
     1.0000   1.0000   1.0000   1.0000   1.0000   1.0000   1.0000   1.0000
     1.0000   1.0000   1.0000   1.0000   1.0000   1.0000   1.0000   1.0000
     1.0000   1.0000   1.0000   1.0000   1.0000   1.0000   1.0000   1.0000
     1.0000   1.0000   1.0000   1.0000   1.0000   1.0000   1.0000   1.0000
     1.0000   1.0000   1.0000   1.0000   1.0000   1.0000   1.0000   1.0000
     1.0000   1.0000   1.0000   1.0000   1.0000   1.0000   1.0000   1.0000
     1.0000   1.0000   1.0000   1.0000   1.0000   1.0000   1.0000   1.0000
     1.0000   1.0000   1.0000   1.0000   1.0000   1.0000   1.0000   1.0000
     1.0000   1.0000   1.0000   1.0000   1.0000   1.0000   1.0000   1.0000
     1.0000   1.0000   1.0000   1.0000   1.0000   1.0000   1.0000   1.0000
     1.0000   1.0000   1.0000   1.0000   1.0000   1.0000   1.0000   1.0000
     1.0000   1.0000   1.0000   1.0000   1.0000   1.0000   1.0000   1.0000
     1.0000   1.0000   1.0000   1.0000   1.0000   1.0000   1.0000   1.0000
     1.0000

          k = 0.0000 0.0000 0.1357 ( 52835 PWs)   bands (ev):

   -28.2092 -28.2091 -28.2090 -14.8718 -14.8718 -14.8716 -14.8674 -14.8672
   -14.8671 -14.8538 -14.8537 -14.8536 -14.8109 -14.8108 -14.8107 -14.7657
   -14.7656 -14.7655 -10.2679 -10.2634 -10.2606 -10.2490 -10.2291 -10.2206
   -10.1940 -10.1938 -10.1918  -6.8019  -6.6904  -6.3832  -5.8151  -5.6118
    -5.5731  -5.5198  -5.4150  -5.3918  -5.3300  -5.3027  -5.2398  -0.3135
    -0.2959  -0.2340   1.6070   1.6550   1.6900   2.0395   2.0799   2.1027
     2.3365   2.4235   2.4874   2.7071   2.7528   2.8336   3.2176   3.2411
     3.3261   3.4185   3.5237   3.5412   3.5807   3.5852   3.6739   3.6987
     3.8151   3.8742   3.9524   3.9672   4.1188   4.2083   4.2557   4.3103
     4.5286   4.7213   4.8508   5.1860   5.1973   5.2141   5.2668   5.3100
     5.3274   5.3839   5.3846   5.3871   5.4156   5.4416   5.4535   5.5770
     5.6334   5.6396   5.7119   5.8434   5.8514   5.9266   6.2298   6.2910
     6.4142   6.4167   6.4512   6.5358   6.7287   6.9951   7.0614   7.1500
     7.2265

     occupation numbers 
     1.0000   1.0000   1.0000   1.0000   1.0000   1.0000   1.0000   1.0000
     1.0000   1.0000   1.0000   1.0000   1.0000   1.0000   1.0000   1.0000
     1.0000   1.0000   1.0000   1.0000   1.0000   1.0000   1.0000   1.0000
     1.0000   1.0000   1.0000   1.0000   1.0000   1.0000   1.0000   1.0000
     1.0000   1.0000   1.0000   1.0000   1.0000   1.0000   1.0000   1.0000
     1.0000   1.0000   1.0000   1.0000   1.0000   1.0000   1.0000   1.0000
     1.0000   1.0000   1.0000   1.0000   1.0000   1.0000   1.0000   1.0000
     1.0000   1.0000   1.0000   1.0000   1.0000   1.0000   1.0000   1.0000
     1.0000   1.0000   1.0000   1.0000   1.0000   1.0000   1.0000   1.0000
     1.0000   1.0000   1.0000   1.0000   1.0000   1.0000   1.0000   1.0000
     1.0000   1.0000   1.0000   1.0000   1.0000   1.0000   1.0000   1.0000
     1.0000   1.0000   1.0000   1.0000   1.0000   1.0000   1.0000   1.0000
     1.0000   1.0000   1.0000   1.0000   1.0000   1.0000   1.0000   1.0000
     1.0000

          k = 0.0000 0.2309 0.0000 ( 52893 PWs)   bands (ev):

   -28.2092 -28.2091 -28.2090 -14.8717 -14.8716 -14.8716 -14.8673 -14.8672
   -14.8670 -14.8537 -14.8537 -14.8536 -14.8110 -14.8109 -14.8107 -14.7657
   -14.7656 -14.7655 -10.2688 -10.2687 -10.2630 -10.2410 -10.2391 -10.2223
   -10.2004 -10.1971 -10.1929  -6.7336  -6.4523  -6.4498  -5.6940  -5.6806
    -5.6043  -5.5880  -5.4775  -5.4347  -5.3945  -5.3883  -5.2365  -0.4269
    -0.3073  -0.2663   1.5138   1.6849   1.7454   2.0545   2.1980   2.2965
     2.4112   2.4770   2.7398   2.8321   2.8747   2.9357   3.1651   3.2138
     3.2353   3.3435   3.4038   3.4753   3.5552   3.5802   3.6422   3.6814
     3.7508   3.9021   3.9619   4.0319   4.1497   4.2142   4.3234   4.3592
     4.5086   4.5590   4.7621   5.2058   5.2237   5.2722   5.2820   5.2931
     5.3185   5.3692   5.3932   5.4236   5.4883   5.5053   5.5466   5.5694
     5.6123   5.7260   5.7452   5.7733   5.8764   5.9916   6.0806   6.2251
     6.2966   6.3528   6.5635   6.5700   6.7649   6.8042   6.8274   6.9404
     7.0991

     occupation numbers 
     1.0000   1.0000   1.0000   1.0000   1.0000   1.0000   1.0000   1.0000
     1.0000   1.0000   1.0000   1.0000   1.0000   1.0000   1.0000   1.0000
     1.0000   1.0000   1.0000   1.0000   1.0000   1.0000   1.0000   1.0000
     1.0000   1.0000   1.0000   1.0000   1.0000   1.0000   1.0000   1.0000
     1.0000   1.0000   1.0000   1.0000   1.0000   1.0000   1.0000   1.0000
     1.0000   1.0000   1.0000   1.0000   1.0000   1.0000   1.0000   1.0000
     1.0000   1.0000   1.0000   1.0000   1.0000   1.0000   1.0000   1.0000
     1.0000   1.0000   1.0000   1.0000   1.0000   1.0000   1.0000   1.0000
     1.0000   1.0000   1.0000   1.0000   1.0000   1.0000   1.0000   1.0000
     1.0000   1.0000   1.0000   1.0000   1.0000   1.0000   1.0000   1.0000
     1.0000   1.0000   1.0000   1.0000   1.0000   1.0000   1.0000   1.0000
     1.0000   1.0000   1.0000   1.0000   1.0000   1.0000   1.0000   1.0000
     1.0000   1.0000   1.0000   1.0000   1.0000   1.0000   1.0000   1.0000
     1.0000

          k = 0.0000 0.2309 0.1357 ( 52903 PWs)   bands (ev):

   -28.2092 -28.2091 -28.2090 -14.8717 -14.8716 -14.8716 -14.8673 -14.8672
   -14.8670 -14.8537 -14.8537 -14.8536 -14.8110 -14.8109 -14.8107 -14.7657
   -14.7656 -14.7655 -10.2705 -10.2662 -10.2636 -10.2466 -10.2306 -10.2249
   -10.2001 -10.1961 -10.1946  -6.6972  -6.5951  -6.3219  -5.7698  -5.6467
    -5.5984  -5.5923  -5.4710  -5.4396  -5.4075  -5.3285  -5.2658  -0.4161
    -0.3454  -0.2404   1.4970   1.6908   1.8572   1.9210   2.2185   2.2942
     2.4454   2.5252   2.6811   2.7808   2.8589   2.9531   3.1529   3.1837
     3.2595   3.3483   3.4344   3.5049   3.5213   3.6375   3.6471   3.6881
     3.7586   3.9306   3.9632   4.0296   4.0917   4.1895   4.3050   4.3524
     4.5087   4.6074   4.7435   5.2114   5.2313   5.2434   5.2605   5.3068
     5.3112   5.3711   5.4120   5.4372   5.4790   5.4937   5.5507   5.5911
     5.6174   5.7031   5.7334   5.8181   5.8695   5.9046   6.2088   6.2517
     6.3444   6.3824   6.4486   6.4915   6.6172   6.8575   6.9489   6.9528
     7.0744

     occupation numbers 
     1.0000   1.0000   1.0000   1.0000   1.0000   1.0000   1.0000   1.0000
     1.0000   1.0000   1.0000   1.0000   1.0000   1.0000   1.0000   1.0000
     1.0000   1.0000   1.0000   1.0000   1.0000   1.0000   1.0000   1.0000
     1.0000   1.0000   1.0000   1.0000   1.0000   1.0000   1.0000   1.0000
     1.0000   1.0000   1.0000   1.0000   1.0000   1.0000   1.0000   1.0000
     1.0000   1.0000   1.0000   1.0000   1.0000   1.0000   1.0000   1.0000
     1.0000   1.0000   1.0000   1.0000   1.0000   1.0000   1.0000   1.0000
     1.0000   1.0000   1.0000   1.0000   1.0000   1.0000   1.0000   1.0000
     1.0000   1.0000   1.0000   1.0000   1.0000   1.0000   1.0000   1.0000
     1.0000   1.0000   1.0000   1.0000   1.0000   1.0000   1.0000   1.0000
     1.0000   1.0000   1.0000   1.0000   1.0000   1.0000   1.0000   1.0000
     1.0000   1.0000   1.0000   1.0000   1.0000   1.0000   1.0000   1.0000
     1.0000   1.0000   1.0000   1.0000   1.0000   1.0000   1.0000   1.0000
     1.0000

          k = 0.0000 0.4619 0.0000 ( 52932 PWs)   bands (ev):

   -28.2092 -28.2091 -28.2089 -14.8715 -14.8714 -14.8713 -14.8672 -14.8670
   -14.8670 -14.8536 -14.8535 -14.8535 -14.8110 -14.8109 -14.8107 -14.7657
   -14.7656 -14.7654 -10.2732 -10.2720 -10.2696 -10.2444 -10.2377 -10.2280
   -10.2063 -10.2007 -10.1975  -6.4744  -6.2956  -6.2568  -5.8727  -5.7816
    -5.7180  -5.5953  -5.5560  -5.4984  -5.4921  -5.4001  -5.2908  -0.5549
    -0.3424  -0.2738   1.4296   1.6995   1.8986   2.0021   2.3474   2.4507
     2.5227   2.6575   2.8545   2.9522   2.9770   3.0215   3.1148   3.1735
     3.3108   3.3643   3.4234   3.5003   3.5260   3.5426   3.6068   3.6895
     3.7321   3.8876   4.0444   4.1124   4.1310   4.1720   4.2759   4.3648
     4.4485   4.5725   4.6583   5.1958   5.2246   5.2815   5.2969   5.3210
     5.3365   5.3647   5.3909   5.4195   5.5366   5.5472   5.6254   5.6408
     5.6906   5.7380   5.7981   5.8490   5.9482   6.0067   6.0338   6.1982
     6.2785   6.3259   6.4003   6.4825   6.5280   6.6541   6.7004   6.7987
     6.8978

     occupation numbers 
     1.0000   1.0000   1.0000   1.0000   1.0000   1.0000   1.0000   1.0000
     1.0000   1.0000   1.0000   1.0000   1.0000   1.0000   1.0000   1.0000
     1.0000   1.0000   1.0000   1.0000   1.0000   1.0000   1.0000   1.0000
     1.0000   1.0000   1.0000   1.0000   1.0000   1.0000   1.0000   1.0000
     1.0000   1.0000   1.0000   1.0000   1.0000   1.0000   1.0000   1.0000
     1.0000   1.0000   1.0000   1.0000   1.0000   1.0000   1.0000   1.0000
     1.0000   1.0000   1.0000   1.0000   1.0000   1.0000   1.0000   1.0000
     1.0000   1.0000   1.0000   1.0000   1.0000   1.0000   1.0000   1.0000
     1.0000   1.0000   1.0000   1.0000   1.0000   1.0000   1.0000   1.0000
     1.0000   1.0000   1.0000   1.0000   1.0000   1.0000   1.0000   1.0000
     1.0000   1.0000   1.0000   1.0000   1.0000   1.0000   1.0000   1.0000
     1.0000   1.0000   1.0000   1.0000   1.0000   1.0000   1.0000   1.0000
     1.0000   1.0000   1.0000   1.0000   1.0000   1.0000   1.0000   1.0000
     1.0000

          k = 0.0000 0.4619 0.1357 ( 52918 PWs)   bands (ev):

   -28.2092 -28.2091 -28.2089 -14.8715 -14.8714 -14.8713 -14.8672 -14.8670
   -14.8670 -14.8536 -14.8535 -14.8535 -14.8110 -14.8109 -14.8107 -14.7657
   -14.7656 -14.7654 -10.2745 -10.2719 -10.2685 -10.2444 -10.2360 -10.2300
   -10.2059 -10.2004 -10.1978  -6.4544  -6.3566  -6.2176  -5.8687  -5.7639
    -5.6912  -5.6605  -5.5524  -5.4993  -5.4948  -5.3745  -5.2978  -0.5451
    -0.3737  -0.2535   1.4305   1.7228   1.8506   2.0733   2.3196   2.3923
     2.5184   2.6989   2.8538   2.8929   3.0085   3.0388   3.1308   3.1821
     3.2878   3.3520   3.4437   3.4937   3.5468   3.5678   3.5802   3.6929
     3.7223   3.9223   4.0486   4.0695   4.1396   4.1754   4.2566   4.3594
     4.4475   4.5870   4.6597   5.2106   5.2320   5.2516   5.2918   5.3096
     5.3295   5.3921   5.4089   5.4312   5.4620   5.6098   5.6216   5.6493
     5.7016   5.7217   5.8128   5.8710   5.9227   5.9898   6.0592   6.1449
     6.2515   6.3112   6.3871   6.5228   6.5535   6.7031   6.7316   6.7709
     6.8430

     occupation numbers 
     1.0000   1.0000   1.0000   1.0000   1.0000   1.0000   1.0000   1.0000
     1.0000   1.0000   1.0000   1.0000   1.0000   1.0000   1.0000   1.0000
     1.0000   1.0000   1.0000   1.0000   1.0000   1.0000   1.0000   1.0000
     1.0000   1.0000   1.0000   1.0000   1.0000   1.0000   1.0000   1.0000
     1.0000   1.0000   1.0000   1.0000   1.0000   1.0000   1.0000   1.0000
     1.0000   1.0000   1.0000   1.0000   1.0000   1.0000   1.0000   1.0000
     1.0000   1.0000   1.0000   1.0000   1.0000   1.0000   1.0000   1.0000
     1.0000   1.0000   1.0000   1.0000   1.0000   1.0000   1.0000   1.0000
     1.0000   1.0000   1.0000   1.0000   1.0000   1.0000   1.0000   1.0000
     1.0000   1.0000   1.0000   1.0000   1.0000   1.0000   1.0000   1.0000
     1.0000   1.0000   1.0000   1.0000   1.0000   1.0000   1.0000   1.0000
     1.0000   1.0000   1.0000   1.0000   1.0000   1.0000   1.0000   1.0000
     1.0000   1.0000   1.0000   1.0000   1.0000   1.0000   1.0000   1.0000
     1.0000

          k = 0.2000 0.3464 0.0000 ( 52910 PWs)   bands (ev):

   -28.2092 -28.2091 -28.2090 -14.8716 -14.8715 -14.8713 -14.8673 -14.8671
   -14.8669 -14.8537 -14.8536 -14.8534 -14.8110 -14.8109 -14.8108 -14.7657
   -14.7656 -14.7655 -10.2720 -10.2716 -10.2676 -10.2420 -10.2383 -10.2284
   -10.2044 -10.2021 -10.1963  -6.5458  -6.3209  -6.3178  -5.7639  -5.7065
    -5.6931  -5.6601  -5.5296  -5.5258  -5.4520  -5.4223  -5.2783  -0.4999
    -0.3643  -0.2786   1.5339   1.7067   1.7628   2.1151   2.2058   2.4211
     2.5872   2.6909   2.7809   2.8886   2.9301   2.9876   3.1527   3.1533
     3.2645   3.3119   3.4163   3.4916   3.5419   3.5604   3.6175   3.7076
     3.7757   3.8225   4.0102   4.1075   4.1140   4.1987   4.3493   4.3952
     4.4100   4.5691   4.6684   5.1879   5.2302   5.2537   5.2977   5.3265
     5.3499   5.3782   5.3938   5.4666   5.5202   5.5570   5.6125   5.6211
     5.6358   5.7539   5.7878   5.8464   5.8849   5.9939   6.0889   6.1445
     6.2757   6.3221   6.4677   6.4725   6.6128   6.6741   6.8085   6.8592
     6.9261

     occupation numbers 
     1.0000   1.0000   1.0000   1.0000   1.0000   1.0000   1.0000   1.0000
     1.0000   1.0000   1.0000   1.0000   1.0000   1.0000   1.0000   1.0000
     1.0000   1.0000   1.0000   1.0000   1.0000   1.0000   1.0000   1.0000
     1.0000   1.0000   1.0000   1.0000   1.0000   1.0000   1.0000   1.0000
     1.0000   1.0000   1.0000   1.0000   1.0000   1.0000   1.0000   1.0000
     1.0000   1.0000   1.0000   1.0000   1.0000   1.0000   1.0000   1.0000
     1.0000   1.0000   1.0000   1.0000   1.0000   1.0000   1.0000   1.0000
     1.0000   1.0000   1.0000   1.0000   1.0000   1.0000   1.0000   1.0000
     1.0000   1.0000   1.0000   1.0000   1.0000   1.0000   1.0000   1.0000
     1.0000   1.0000   1.0000   1.0000   1.0000   1.0000   1.0000   1.0000
     1.0000   1.0000   1.0000   1.0000   1.0000   1.0000   1.0000   1.0000
     1.0000   1.0000   1.0000   1.0000   1.0000   1.0000   1.0000   1.0000
     1.0000   1.0000   1.0000   1.0000   1.0000   1.0000   1.0000   1.0000
     1.0000

          k = 0.2000 0.3464 0.1357 ( 52932 PWs)   bands (ev):

   -28.2092 -28.2091 -28.2090 -14.8716 -14.8715 -14.8713 -14.8673 -14.8671
   -14.8669 -14.8537 -14.8536 -14.8534 -14.8110 -14.8109 -14.8108 -14.7657
   -14.7656 -14.7655 -10.2736 -10.2705 -10.2671 -10.2432 -10.2354 -10.2301
   -10.2041 -10.2018 -10.1968  -6.5173  -6.4290  -6.2285  -5.7599  -5.7279
    -5.6872  -5.6584  -5.5494  -5.5155  -5.4782  -5.3712  -5.2934  -0.4897
    -0.3918  -0.2616   1.5274   1.7076   1.8067   2.0362   2.2408   2.4555
     2.5772   2.6583   2.7555   2.8913   2.9542   2.9973   3.1335   3.1529
     3.2786   3.3191   3.3940   3.5073   3.5390   3.5694   3.6579   3.7020
     3.7388   3.8775   3.9869   4.0984   4.1211   4.1615   4.3343   4.3956
     4.4389   4.5431   4.6889   5.2036   5.2283   5.2553   5.2729   5.3184
     5.3593   5.3894   5.4151   5.4709   5.4898   5.5400   5.6182   5.6381
     5.6764   5.7431   5.7814   5.8199   5.9111   5.9646   6.0663   6.1430
     6.2771   6.3397   6.4291   6.5352   6.6164   6.6586   6.7722   6.8701
     6.9445

     occupation numbers 
     1.0000   1.0000   1.0000   1.0000   1.0000   1.0000   1.0000   1.0000
     1.0000   1.0000   1.0000   1.0000   1.0000   1.0000   1.0000   1.0000
     1.0000   1.0000   1.0000   1.0000   1.0000   1.0000   1.0000   1.0000
     1.0000   1.0000   1.0000   1.0000   1.0000   1.0000   1.0000   1.0000
     1.0000   1.0000   1.0000   1.0000   1.0000   1.0000   1.0000   1.0000
     1.0000   1.0000   1.0000   1.0000   1.0000   1.0000   1.0000   1.0000
     1.0000   1.0000   1.0000   1.0000   1.0000   1.0000   1.0000   1.0000
     1.0000   1.0000   1.0000   1.0000   1.0000   1.0000   1.0000   1.0000
     1.0000   1.0000   1.0000   1.0000   1.0000   1.0000   1.0000   1.0000
     1.0000   1.0000   1.0000   1.0000   1.0000   1.0000   1.0000   1.0000
     1.0000   1.0000   1.0000   1.0000   1.0000   1.0000   1.0000   1.0000
     1.0000   1.0000   1.0000   1.0000   1.0000   1.0000   1.0000   1.0000
     1.0000   1.0000   1.0000   1.0000   1.0000   1.0000   1.0000   1.0000
     1.0000

          k = 0.2000 0.5774 0.0000 ( 52974 PWs)   bands (ev):

   -28.2092 -28.2091 -28.2089 -14.8714 -14.8713 -14.8713 -14.8672 -14.8670
   -14.8669 -14.8536 -14.8535 -14.8534 -14.8110 -14.8109 -14.8107 -14.7657
   -14.7656 -14.7654 -10.2743 -10.2718 -10.2711 -10.2442 -10.2380 -10.2326
   -10.2057 -10.2030 -10.2000  -6.3405  -6.2501  -6.1863  -5.8978  -5.7904
    -5.7623  -5.6510  -5.6415  -5.5641  -5.4786  -5.3796  -5.3270  -0.5276
    -0.3608  -0.3152   1.5565   1.8552   1.8735   2.0465   2.1537   2.4190
     2.5511   2.6474   2.8647   2.8696   2.9497   2.9673   3.0810   3.2852
     3.3215   3.4102   3.4244   3.4834   3.5486   3.5499   3.6711   3.7362
     3.7448   3.8154   4.0207   4.0693   4.1828   4.2817   4.2829   4.3588
     4.4941   4.5655   4.6191   5.1973   5.2080   5.2518   5.3136   5.3392
     5.3642   5.3715   5.4209   5.4559   5.5212   5.5266   5.5917   5.6745
     5.7081   5.7403   5.8531   5.8691   5.9272   6.0532   6.0787   6.2271
     6.3110   6.3428   6.3808   6.4352   6.5111   6.5432   6.7433   6.7886
     6.8326

     occupation numbers 
     1.0000   1.0000   1.0000   1.0000   1.0000   1.0000   1.0000   1.0000
     1.0000   1.0000   1.0000   1.0000   1.0000   1.0000   1.0000   1.0000
     1.0000   1.0000   1.0000   1.0000   1.0000   1.0000   1.0000   1.0000
     1.0000   1.0000   1.0000   1.0000   1.0000   1.0000   1.0000   1.0000
     1.0000   1.0000   1.0000   1.0000   1.0000   1.0000   1.0000   1.0000
     1.0000   1.0000   1.0000   1.0000   1.0000   1.0000   1.0000   1.0000
     1.0000   1.0000   1.0000   1.0000   1.0000   1.0000   1.0000   1.0000
     1.0000   1.0000   1.0000   1.0000   1.0000   1.0000   1.0000   1.0000
     1.0000   1.0000   1.0000   1.0000   1.0000   1.0000   1.0000   1.0000
     1.0000   1.0000   1.0000   1.0000   1.0000   1.0000   1.0000   1.0000
     1.0000   1.0000   1.0000   1.0000   1.0000   1.0000   1.0000   1.0000
     1.0000   1.0000   1.0000   1.0000   1.0000   1.0000   1.0000   1.0000
     1.0000   1.0000   1.0000   1.0000   1.0000   1.0000   1.0000   1.0000
     1.0000

          k = 0.2000 0.5774 0.1357 ( 52957 PWs)   bands (ev):

   -28.2092 -28.2091 -28.2089 -14.8714 -14.8713 -14.8713 -14.8672 -14.8670
   -14.8669 -14.8536 -14.8535 -14.8534 -14.8110 -14.8109 -14.8107 -14.7657
   -14.7656 -14.7654 -10.2748 -10.2734 -10.2691 -10.2423 -10.2386 -10.2338
   -10.2058 -10.2041 -10.1988  -6.3355  -6.2433  -6.2035  -5.9004  -5.7818
    -5.7596  -5.6601  -5.6184  -5.5741  -5.4774  -5.4037  -5.3114  -0.5149
    -0.3955  -0.2937   1.5593   1.8153   1.9207   2.0041   2.2445   2.4213
     2.5351   2.5686   2.8083   2.8765   2.9218   3.0316   3.1569   3.2515
     3.3437   3.4123   3.4383   3.4654   3.5083   3.5832   3.6342   3.7412
     3.7725   3.8754   3.9862   4.1012   4.1552   4.2027   4.3033   4.3399
     4.5047   4.5934   4.6277   5.1989   5.2149   5.2675   5.3010   5.3147
     5.3606   5.3938   5.4217   5.4573   5.4937   5.5413   5.6180   5.6710
     5.6950   5.7721   5.8326   5.8549   5.9129   6.0695   6.1012   6.1919
     6.2365   6.3169   6.4063   6.4601   6.4995   6.6413   6.7124   6.7855
     6.8383

     occupation numbers 
     1.0000   1.0000   1.0000   1.0000   1.0000   1.0000   1.0000   1.0000
     1.0000   1.0000   1.0000   1.0000   1.0000   1.0000   1.0000   1.0000
     1.0000   1.0000   1.0000   1.0000   1.0000   1.0000   1.0000   1.0000
     1.0000   1.0000   1.0000   1.0000   1.0000   1.0000   1.0000   1.0000
     1.0000   1.0000   1.0000   1.0000   1.0000   1.0000   1.0000   1.0000
     1.0000   1.0000   1.0000   1.0000   1.0000   1.0000   1.0000   1.0000
     1.0000   1.0000   1.0000   1.0000   1.0000   1.0000   1.0000   1.0000
     1.0000   1.0000   1.0000   1.0000   1.0000   1.0000   1.0000   1.0000
     1.0000   1.0000   1.0000   1.0000   1.0000   1.0000   1.0000   1.0000
     1.0000   1.0000   1.0000   1.0000   1.0000   1.0000   1.0000   1.0000
     1.0000   1.0000   1.0000   1.0000   1.0000   1.0000   1.0000   1.0000
     1.0000   1.0000   1.0000   1.0000   1.0000   1.0000   1.0000   1.0000
     1.0000   1.0000   1.0000   1.0000   1.0000   1.0000   1.0000   1.0000
     1.0000

          k = 0.0000 0.2309-0.1357 ( 52903 PWs)   bands (ev):

   -28.2092 -28.2091 -28.2090 -14.8717 -14.8716 -14.8716 -14.8673 -14.8672
   -14.8670 -14.8537 -14.8537 -14.8536 -14.8110 -14.8109 -14.8107 -14.7657
   -14.7656 -14.7655 -10.2706 -10.2659 -10.2640 -10.2460 -10.2320 -10.2239
   -10.1996 -10.1971 -10.1941  -6.6975  -6.5949  -6.3212  -5.7755  -5.6340
    -5.6166  -5.5847  -5.4564  -5.4367  -5.4166  -5.3397  -5.2602  -0.4249
    -0.3302  -0.2465   1.5257   1.6650   1.7695   2.0470   2.1735   2.2826
     2.4546   2.5791   2.6533   2.7272   2.8916   2.9386   3.1600   3.2047
     3.2833   3.3225   3.3913   3.5196   3.5517   3.6445   3.6779   3.6833
     3.7154   3.9304   3.9971   4.0028   4.1019   4.1701   4.2656   4.3743
     4.5299   4.5918   4.7529   5.2055   5.2192   5.2479   5.2754   5.3210
     5.3262   5.3740   5.3923   5.4244   5.4958   5.5181   5.5417   5.5693
     5.6169   5.6763   5.7333   5.8164   5.8686   5.9370   6.1950   6.2214
     6.3636   6.4016   6.4396   6.5057   6.6095   6.8701   6.9251   6.9748
     7.0570

     occupation numbers 
     1.0000   1.0000   1.0000   1.0000   1.0000   1.0000   1.0000   1.0000
     1.0000   1.0000   1.0000   1.0000   1.0000   1.0000   1.0000   1.0000
     1.0000   1.0000   1.0000   1.0000   1.0000   1.0000   1.0000   1.0000
     1.0000   1.0000   1.0000   1.0000   1.0000   1.0000   1.0000   1.0000
     1.0000   1.0000   1.0000   1.0000   1.0000   1.0000   1.0000   1.0000
     1.0000   1.0000   1.0000   1.0000   1.0000   1.0000   1.0000   1.0000
     1.0000   1.0000   1.0000   1.0000   1.0000   1.0000   1.0000   1.0000
     1.0000   1.0000   1.0000   1.0000   1.0000   1.0000   1.0000   1.0000
     1.0000   1.0000   1.0000   1.0000   1.0000   1.0000   1.0000   1.0000
     1.0000   1.0000   1.0000   1.0000   1.0000   1.0000   1.0000   1.0000
     1.0000   1.0000   1.0000   1.0000   1.0000   1.0000   1.0000   1.0000
     1.0000   1.0000   1.0000   1.0000   1.0000   1.0000   1.0000   1.0000
     1.0000   1.0000   1.0000   1.0000   1.0000   1.0000   1.0000   1.0000
     1.0000

          k = 0.0000 0.4619-0.1357 ( 52918 PWs)   bands (ev):

   -28.2092 -28.2091 -28.2089 -14.8715 -14.8714 -14.8713 -14.8672 -14.8670
   -14.8670 -14.8536 -14.8535 -14.8535 -14.8110 -14.8109 -14.8107 -14.7657
   -14.7656 -14.7654 -10.2747 -10.2713 -10.2690 -10.2421 -10.2396 -10.2286
   -10.2054 -10.2014 -10.1975  -6.4513  -6.3678  -6.2023  -5.8784  -5.7804
    -5.7128  -5.6017  -5.5520  -5.5076  -5.4942  -5.3933  -5.2900  -0.5503
    -0.3607  -0.2607   1.4568   1.6309   1.9338   2.0757   2.2755   2.4152
     2.5469   2.6616   2.8728   2.8994   2.9554   3.0317   3.1564   3.1980
     3.3172   3.3691   3.3992   3.5065   3.5362   3.5549   3.6178   3.6792
     3.7170   3.9233   4.0436   4.0908   4.1308   4.1706   4.2197   4.3685
     4.4615   4.6123   4.6322   5.2022   5.2292   5.2671   5.2853   5.3259
     5.3386   5.3675   5.4119   5.4533   5.4610   5.5857   5.6134   5.6699
     5.6989   5.7453   5.7670   5.8512   5.9570   5.9932   6.0651   6.1171
     6.2855   6.3178   6.4128   6.5057   6.5389   6.6904   6.7258   6.7483
     6.8707

     occupation numbers 
     1.0000   1.0000   1.0000   1.0000   1.0000   1.0000   1.0000   1.0000
     1.0000   1.0000   1.0000   1.0000   1.0000   1.0000   1.0000   1.0000
     1.0000   1.0000   1.0000   1.0000   1.0000   1.0000   1.0000   1.0000
     1.0000   1.0000   1.0000   1.0000   1.0000   1.0000   1.0000   1.0000
     1.0000   1.0000   1.0000   1.0000   1.0000   1.0000   1.0000   1.0000
     1.0000   1.0000   1.0000   1.0000   1.0000   1.0000   1.0000   1.0000
     1.0000   1.0000   1.0000   1.0000   1.0000   1.0000   1.0000   1.0000
     1.0000   1.0000   1.0000   1.0000   1.0000   1.0000   1.0000   1.0000
     1.0000   1.0000   1.0000   1.0000   1.0000   1.0000   1.0000   1.0000
     1.0000   1.0000   1.0000   1.0000   1.0000   1.0000   1.0000   1.0000
     1.0000   1.0000   1.0000   1.0000   1.0000   1.0000   1.0000   1.0000
     1.0000   1.0000   1.0000   1.0000   1.0000   1.0000   1.0000   1.0000
     1.0000   1.0000   1.0000   1.0000   1.0000   1.0000   1.0000   1.0000
     1.0000

     highest occupied level (ev):     7.2369

!    total energy              =   -2269.30087806 Ry
     estimated scf accuracy    <          3.2E-09 Ry

     The total energy is the sum of the following terms:
     one-electron contribution =    -691.85355573 Ry
     hartree contribution      =     504.27697256 Ry
     xc contribution           =    -567.41131830 Ry
     ewald contribution        =    -975.36458091 Ry
     one-center paw contrib.   =    -538.94839567 Ry
      -> PAW hartree energy AE =     295.26124189 Ry
      -> PAW hartree energy PS =    -293.07597479 Ry
      -> PAW xc energy AE      =    -404.97917859 Ry
      -> PAW xc energy PS      =     133.31971365 Ry
      -> total E_H with PAW    =     506.46223967 Ry
      -> total E_XC with PAW   =    -839.07078324 Ry

     convergence has been achieved in  18 iterations


     Computing stress (Cartesian axis) and pressure


     negative rho (up, down):  1.978E-01 0.000E+00
          total   stress  (Ry/bohr**3)                   (kbar)     P=        3.35
   0.00002322   0.00000000   0.00000000            3.42        0.00        0.00
   0.00000000   0.00002322   0.00000000            0.00        3.42        0.00
   0.00000000   0.00000000   0.00002191            0.00        0.00        3.22

     kinetic stress (kbar)   9018.69      0.00      0.00
                                0.00   9018.69      0.00
                                0.00     -0.00   9041.43

     local   stress (kbar)  -2570.94      0.01     -0.01
                                0.01  -2570.93      0.01
                               -0.01      0.01  -3019.85

     nonloc. stress (kbar)   4103.50      0.00      0.00
                                0.00   4103.50     -0.00
                                0.00     -0.00   4102.69

     hartree stress (kbar)   6675.93     -0.00     -0.00
                               -0.00   6675.93      0.00
                               -0.00      0.00   6859.41

     exc-cor stress (kbar)   8558.23     -0.00      0.00
                               -0.00   8558.23     -0.00
                                0.00     -0.00   8558.66

     corecor stress (kbar) -12669.89      0.00     -0.00
                                0.00 -12669.89     -0.00
                               -0.00     -0.00 -12671.02

     ewald   stress (kbar) -13112.12     -0.01      0.01
                               -0.01 -13112.12     -0.01
                                0.01     -0.01 -12868.10

     hubbard stress (kbar)      0.00      0.00      0.00
                                0.00      0.00      0.00
                                0.00      0.00      0.00

     DFT-D   stress (kbar)      0.00      0.00      0.00
                                0.00      0.00      0.00
                                0.00      0.00      0.00

     XDM     stress (kbar)      0.00      0.00      0.00
                                0.00      0.00      0.00
                                0.00      0.00      0.00

     dft-nl  stress (kbar)      0.00      0.00      0.00
                                0.00      0.00      0.00
                                0.00      0.00      0.00

     TS-vdW  stress (kbar)      0.00      0.00      0.00
                                0.00      0.00      0.00
                                0.00      0.00      0.00

     MDB     stress (kbar)      0.00      0.00      0.00
                                0.00      0.00      0.00
                                0.00      0.00      0.00

     3D-RISM stress (kbar)      0.00      0.00      0.00
                                0.00      0.00      0.00
                                0.00      0.00      0.00


     Writing all to output data dir ./tmp/k_5x5x3/SrCu2SnS4_k_5x5x3.save/ :
     XML data file, charge density, pseudopotentials, collected wavefunctions

     init_run     :     16.76s CPU     16.97s WALL (       1 calls)
     electrons    :   1012.27s CPU   2719.99s WALL (       1 calls)
     stress       :     31.50s CPU     31.72s WALL (       1 calls)

     Called by init_run:
     wfcinit      :     14.80s CPU     14.93s WALL (       1 calls)
     wfcinit:atom :      0.03s CPU      0.03s WALL (      12 calls)
     wfcinit:wfcr :     14.23s CPU     14.34s WALL (      12 calls)
     potinit      :      0.41s CPU      0.42s WALL (       1 calls)
     hinit0       :      0.20s CPU      0.21s WALL (       1 calls)

     Called by electrons:
     c_bands      :    857.91s CPU   2561.05s WALL (      18 calls)
     sum_band     :    113.61s CPU    117.01s WALL (      18 calls)
     v_of_rho     :      4.51s CPU      4.73s WALL (      19 calls)
     v_h          :      0.30s CPU      0.31s WALL (      19 calls)
     v_xc         :      4.35s CPU      4.57s WALL (      20 calls)
     newd         :     30.57s CPU     31.29s WALL (      19 calls)
     PAW_pot      :      5.97s CPU      6.07s WALL (      19 calls)
     mix_rho      :      0.75s CPU      0.91s WALL (      18 calls)

     Called by c_bands:
     init_us_2    :      3.62s CPU      3.69s WALL (     456 calls)
     cegterg      :    832.29s CPU   2535.02s WALL (     216 calls)

     Called by sum_band:
     sum_band:wei :      0.00s CPU      0.00s WALL (      18 calls)
     sum_band:loo :     81.92s CPU     83.97s WALL (      18 calls)
     sum_band:buf :      0.25s CPU      1.22s WALL (     216 calls)
     sum_band:ini :      1.74s CPU      1.77s WALL (     216 calls)
     sum_band:cal :     33.45s CPU     33.89s WALL (     216 calls)
     sum_band:bec :      0.05s CPU      0.05s WALL (     216 calls)
     addusdens    :     30.49s CPU     31.78s WALL (      18 calls)
                                        0.00s GPU  (      18 calls)
     addusd:skk   :      0.17s CPU      0.21s WALL (      72 calls)
                                        0.00s GPU  (      72 calls)

     Called by *egterg:
     cdiaghg      :     12.53s CPU     12.64s WALL (    1238 calls)
     cegterg:over :     65.58s CPU     66.40s WALL (    1022 calls)
     cegterg:upda :     38.60s CPU     39.26s WALL (    1022 calls)
     cegterg:last :     94.39s CPU     95.27s WALL (     596 calls)
     h_psi        :    501.99s CPU   2200.92s WALL (    1250 calls)
     s_psi        :    111.16s CPU    112.28s WALL (    1250 calls)
     g_psi        :      0.70s CPU      0.70s WALL (    1022 calls)

     Called by h_psi:
     h_psi:calbec :    110.48s CPU    111.95s WALL (    1250 calls)
     vloc_psi     :    278.40s CPU   1974.78s WALL (    1250 calls)
                                        0.00s GPU  (    1250 calls)
     add_vuspsi   :    112.36s CPU    113.41s WALL (    1250 calls)

     General routines
     calbec       :    163.68s CPU    165.66s WALL (    1622 calls)
     fft          :      3.50s CPU      3.57s WALL (     259 calls)
     ffts         :      0.16s CPU      0.17s WALL (      37 calls)
     fftw         :    300.80s CPU   1997.32s WALL (  167718 calls)
     interpolate  :      0.36s CPU      0.39s WALL (      19 calls)

     Parallel routines

     PAW routines
     PAW_pot      :      5.97s CPU      6.07s WALL (      19 calls)
     PAW_symme    :      0.00s CPU      0.00s WALL (      37 calls)

     PWSCF        :  17m40.82s CPU  46m 9.17s WALL


   This run was terminated on:   5: 9:24  30Jun2026            

=------------------------------------------------------------------------------=
   JOB DONE.
=------------------------------------------------------------------------------=
