
     Program PWSCF v.7.3.1 starts on 21Aug2026 at  2:19:55 

     This program is part of the open-source Quantum ESPRESSO suite
     for quantum simulation of materials; please cite
         "P. Giannozzi et al., J. Phys.:Condens. Matter 21 395502 (2009);
         "P. Giannozzi et al., J. Phys.:Condens. Matter 29 465901 (2017);
         "P. Giannozzi et al., J. Chem. Phys. 152 154105 (2020);
          URL http://www.quantum-espresso.org", 
     in publications or presentations arising from this work. More details at
     http://www.quantum-espresso.org/quote

     Parallel version (MPI & OpenMP), running on      32 processor cores
     Number of MPI processes:                32
     Threads/MPI process:                     1

     MPI processes distributed on     1 nodes
     248282 MiB available memory on the printing compute node when the environment starts

     Reading input from scf.in

     Current dimensions of program PWSCF are:
     Max number of different atomic species (ntypx) = 10
     Max number of k-points (npk) =  40000
     Max angular momentum in pseudopotentials (lmaxx) =  4
     file Cu.paw.z_11.ld1.psl.v1.0.0-low.upf: wavefunction(s)  4S 3D renormalized

     K-points division:     npool     =       2
     R & G space division:  proc/nbgrp/npool/nimage =      16
     Subspace diagonalization in iterative solution of the eigenvalue problem:
     one sub-group per band group will be used
     scalapack distributed-memory algorithm (size of sub-group:  4*  4 procs)


     Parallelization info
     --------------------
     sticks:   dense  smooth     PW     G-vecs:    dense   smooth      PW
     Min        1193     597    157               163743    57882    7779
     Max        1194     599    158               163747    57885    7784
     Sum       19099    9565   2515              2619931   926125  124485

     Using Slab Decomposition



     bravais-lattice index     =            0
     lattice parameter (alat)  =      24.0273  a.u.
     unit-cell volume          =   14752.0463 (a.u.)^3
     number of atoms/cell      =           96
     number of atomic types    =            4
     number of electrons       =       840.00
     number of Kohn-Sham states=          420
     kinetic-energy cutoff     =      60.0000  Ry
     charge density cutoff     =     480.0000  Ry
     scf convergence threshold =      1.0E-09
     mixing beta               =       0.3000
     number of iterations used =            8  plain     mixing
     Exchange-correlation=  SLA  PW   PBX  PBC
                           (   1   4   3   4   0   0   0)

     celldm(1)=  24.027274  celldm(2)=   0.000000  celldm(3)=   0.000000
     celldm(4)=   0.000000  celldm(5)=   0.000000  celldm(6)=   0.000000

     crystal axes: (cart. coord. in units of alat)
               a(1) = (   1.000000   0.000000   0.000000 )  
               a(2) = (  -0.500000   0.866025   0.000000 )  
               a(3) = (   0.000000   0.000000   1.228028 )  

     reciprocal axes: (cart. coord. in units 2 pi/alat)
               b(1) = (  1.000000  0.577351 -0.000000 )  
               b(2) = (  0.000000  1.154701  0.000000 )  
               b(3) = (  0.000000 -0.000000  0.814314 )  


     PseudoPot. # 1 for Sr read from file:
     /home/yuhansun/pseudos/SSSP-1.3.0-PBE-precision/Sr_pbe_v1.uspp.F.UPF
     MD5 check sum: 6b418c05fbe9db5448babca5e47b7a5b
     Pseudo is Ultrasoft + core correction, Zval = 10.0
     Generated by new atomic code, or converted to UPF format
     Using radial grid of  883 points,  6 beta functions with: 
                l(1) =   0
                l(2) =   0
                l(3) =   1
                l(4) =   1
                l(5) =   2
                l(6) =   2
     Q(r) pseudized with  6 coefficients,  rinner =    1.400   1.400   1.400
                                                       1.400   1.400

     PseudoPot. # 2 for Cu read from file:
     /home/yuhansun/pseudos/SSSP-1.3.0-PBE-precision/Cu.paw.z_11.ld1.psl.v1.0.0-low.upf
     MD5 check sum: 619f40885d92a09a85a8b37550532d0c
     Pseudo is Projector augmented-wave + core cor, Zval = 11.0
     Generated using &quot;atomic&quot; code by A. Dal Corso  v.6.3MaX
     Shape of augmentation charge: PSQ
     Using radial grid of 1199 points,  6 beta functions with: 
                l(1) =   0
                l(2) =   0
                l(3) =   1
                l(4) =   1
                l(5) =   2
                l(6) =   2
     Q(r) pseudized with 0 coefficients 


     PseudoPot. # 3 for Sn read from file:
     /home/yuhansun/pseudos/SSSP-1.3.0-PBE-precision/Sn_pbe_v1.uspp.F.UPF
     MD5 check sum: 4cf58ce39ec5d5d420df3dd08604eb00
     Pseudo is Ultrasoft + core correction, Zval = 14.0
     Generated by new atomic code, or converted to UPF format
     Using radial grid of  891 points,  6 beta functions with: 
                l(1) =   0
                l(2) =   0
                l(3) =   1
                l(4) =   1
                l(5) =   2
                l(6) =   2
     Q(r) pseudized with  6 coefficients,  rinner =    1.200   1.200   1.200
                                                       1.200   1.200

     PseudoPot. # 4 for S  read from file:
     /home/yuhansun/pseudos/SSSP-1.3.0-PBE-precision/s_pbe_v1.4.uspp.F.UPF
     MD5 check sum: 88d86576ff6df21479756cfb9bdac1df
     Pseudo is Ultrasoft + core correction, Zval =  6.0
     Generated by new atomic code, or converted to UPF format
     Using radial grid of  907 points,  6 beta functions with: 
                l(1) =   0
                l(2) =   0
                l(3) =   1
                l(4) =   1
                l(5) =   2
                l(6) =   2
     Q(r) pseudized with  8 coefficients,  rinner =    1.300   1.300   1.300
                                                       1.300   1.300

     atomic species   valence    mass     pseudopotential
     Sr               10.00    87.62000     Sr( 1.00)
     Cu               11.00    63.54600     Cu( 1.00)
     Sn               14.00   118.71000     Sn( 1.00)
     S                 6.00    32.06500     S ( 1.00)

     No symmetry found



   Cartesian axes

     site n.     atom                  positions (alat units)
         1        Sr     tau(   1) = (  -0.1380781   0.2434834   0.2071689  )
         2        Sr     tau(   2) = (   0.3594247   0.2434834   0.2046717  )
         3        Sr     tau(   3) = (  -0.3905753   0.6764960   0.2046717  )
         4        Sr     tau(   4) = (   0.1094247   0.6764960   0.2046717  )
         5        Sr     tau(   5) = (   0.1094247   0.1895292   0.6140139  )
         6        Sr     tau(   6) = (   0.6094247   0.1895292   0.6140139  )
         7        Sr     tau(   7) = (  -0.1405753   0.6225418   0.6140139  )
         8        Sr     tau(   8) = (   0.3594247   0.6225418   0.6140139  )
         9        Sr     tau(   9) = (   0.2811505   0.0000000   1.0233574  )
        10        Sr     tau(  10) = (   0.7811505   0.0000000   1.0233574  )
        11        Sr     tau(  11) = (   0.0311505   0.4330126   1.0233574  )
        12        Sr     tau(  12) = (   0.5311505   0.4330126   1.0233574  )
        13        Cu     tau(  13) = (  -0.1226788   0.2753211   0.5061747  )
        14        Cu     tau(  14) = (   0.3773212   0.2753211   0.5061747  )
        15        Cu     tau(  15) = (  -0.3726788   0.7083337   0.5061747  )
        16        Cu     tau(  16) = (   0.1273212   0.7083337   0.5061747  )
        17        Cu     tau(  17) = (   0.0729045   0.1891087   0.9155169  )
        18        Cu     tau(  18) = (   0.5729045   0.1891087   0.9155169  )
        19        Cu     tau(  19) = (  -0.1770956   0.6221213   0.9155169  )
        20        Cu     tau(  20) = (   0.3229044   0.6221213   0.9155169  )
        21        Cu     tau(  21) = (   0.0497750   0.4015949   0.0968325  )
        22        Cu     tau(  22) = (   0.5497750   0.4015949   0.0968325  )
        23        Cu     tau(  23) = (  -0.2002251   0.8346075   0.0968325  )
        24        Cu     tau(  24) = (   0.2997749   0.8346075   0.0968325  )
        25        Cu     tau(  25) = (   0.2997745   0.0314177   0.7218532  )
        26        Cu     tau(  26) = (   0.7997745   0.0314177   0.7218532  )
        27        Cu     tau(  27) = (   0.0497745   0.4644302   0.7218532  )
        28        Cu     tau(  28) = (   0.5497745   0.4644302   0.7218532  )
        29        Cu     tau(  29) = (   0.1273207   0.1576915   0.3125110  )
        30        Cu     tau(  30) = (   0.6273207   0.1576915   0.3125110  )
        31        Cu     tau(  31) = (  -0.1226793   0.5907041   0.3125110  )
        32        Cu     tau(  32) = (   0.3773207   0.5907041   0.3125110  )
        33        Cu     tau(  33) = (   0.3229040   0.2439039   1.1311954  )
        34        Cu     tau(  34) = (   0.8229040   0.2439039   1.1311954  )
        35        Cu     tau(  35) = (   0.0729039   0.6769164   1.1311954  )
        36        Cu     tau(  36) = (   0.5729039   0.6769164   1.1311954  )
        37        Sn     tau(  37) = (  -0.1762580   0.3052877   0.8186857  )
        38        Sn     tau(  38) = (   0.3237420   0.3052877   0.8186857  )
        39        Sn     tau(  39) = (  -0.4262581   0.7383003   0.8186857  )
        40        Sn     tau(  40) = (   0.0737419   0.7383003   0.8186857  )
        41        Sn     tau(  41) = (   0.0737420   0.1277249   0.0000000  )
        42        Sn     tau(  42) = (   0.5737420   0.1277249   0.0000000  )
        43        Sn     tau(  43) = (  -0.1762581   0.5607374   0.0000000  )
        44        Sn     tau(  44) = (   0.3237419   0.5607374   0.0000000  )
        45        Sn     tau(  45) = (   0.3525160   0.0000000   0.4093422  )
        46        Sn     tau(  46) = (   0.8525160   0.0000000   0.4093422  )
        47        Sn     tau(  47) = (   0.1025160   0.4330126   0.4093422  )
        48        Sn     tau(  48) = (   0.6025160   0.4330126   0.4093422  )
        49        S      tau(  49) = (  -0.0988203   0.2103164   0.9671149  )
        50        S      tau(  50) = (   0.4011797   0.2103164   0.9671149  )
        51        S      tau(  51) = (  -0.3488203   0.6433290   0.9671149  )
        52        S      tau(  52) = (   0.1511797   0.6433290   0.9671149  )
        53        S      tau(  53) = (   0.1172707   0.2422736   0.1484293  )
        54        S      tau(  54) = (   0.6172707   0.2422736   0.1484293  )
        55        S      tau(  55) = (  -0.1327293   0.6752862   0.1484293  )
        56        S      tau(  56) = (   0.3672707   0.6752862   0.1484293  )
        57        S      tau(  57) = (  -0.0184505   0.4134352   0.5577727  )
        58        S      tau(  58) = (   0.4815495   0.4134352   0.5577727  )
        59        S      tau(  59) = (  -0.2684506   0.8464478   0.5577727  )
        60        S      tau(  60) = (   0.2315494   0.8464478   0.5577727  )
        61        S      tau(  61) = (   0.2315495   0.0195774   0.2609129  )
        62        S      tau(  62) = (   0.7315495   0.0195774   0.2609129  )
        63        S      tau(  63) = (  -0.0184505   0.4525899   0.2609129  )
        64        S      tau(  64) = (   0.4815495   0.4525899   0.2609129  )
        65        S      tau(  65) = (   0.1511797   0.2226962   1.0795986  )
        66        S      tau(  66) = (   0.6511797   0.2226962   1.0795986  )
        67        S      tau(  67) = (  -0.0988203   0.6557088   1.0795986  )
        68        S      tau(  68) = (   0.4011797   0.6557088   1.0795986  )
        69        S      tau(  69) = (   0.3672707   0.1907390   0.6702552  )
        70        S      tau(  70) = (   0.8672707   0.1907390   0.6702552  )
        71        S      tau(  71) = (   0.1172707   0.6237516   0.6702552  )
        72        S      tau(  72) = (   0.6172707   0.6237516   0.6702552  )
        73        S      tau(  73) = (  -0.0296498   0.1532012   0.4035914  )
        74        S      tau(  74) = (   0.4703502   0.1532012   0.4035914  )
        75        S      tau(  75) = (  -0.2796498   0.5862137   0.4035914  )
        76        S      tau(  76) = (   0.2203502   0.5862137   0.4035914  )
        77        S      tau(  77) = (   0.1321490   0.3307341   0.8129336  )
        78        S      tau(  78) = (   0.6321490   0.3307341   0.8129336  )
        79        S      tau(  79) = (  -0.1178511   0.7637467   0.8129336  )
        80        S      tau(  80) = (   0.3821489   0.7637467   0.8129336  )
        81        S      tau(  81) = (  -0.1024985   0.3820894   1.2222770  )
        82        S      tau(  82) = (   0.3975015   0.3820894   1.2222770  )
        83        S      tau(  83) = (  -0.3524986   0.8151020   1.2222770  )
        84        S      tau(  84) = (   0.1475014   0.8151020   1.2222770  )
        85        S      tau(  85) = (   0.1475010   0.0509231   0.8244365  )
        86        S      tau(  86) = (   0.6475010   0.0509231   0.8244365  )
        87        S      tau(  87) = (  -0.1024990   0.4839357   0.8244365  )
        88        S      tau(  88) = (   0.3975010   0.4839357   0.8244365  )
        89        S      tau(  89) = (   0.2203497   0.2798114   0.4150943  )
        90        S      tau(  90) = (   0.7203497   0.2798114   0.4150943  )
        91        S      tau(  91) = (  -0.0296503   0.7128240   0.4150943  )
        92        S      tau(  92) = (   0.4703497   0.7128240   0.4150943  )
        93        S      tau(  93) = (   0.3821485   0.1022784   0.0057509  )
        94        S      tau(  94) = (   0.8821485   0.1022784   0.0057509  )
        95        S      tau(  95) = (   0.1321485   0.5352910   0.0057509  )
        96        S      tau(  96) = (   0.6321485   0.5352910   0.0057509  )

     number of k points=    14
                       cart. coord. in units 2pi/alat
        k(    1) = (   0.0000000   0.0000000   0.0000000), wk =   0.0740741
        k(    2) = (   0.0000000   0.0000000   0.2714379), wk =   0.1481481
        k(    3) = (   0.0000000   0.3849003   0.0000000), wk =   0.1481481
        k(    4) = (   0.0000000   0.3849003   0.2714379), wk =   0.1481481
        k(    5) = (   0.3333333   0.5773505   0.0000000), wk =   0.1481481
        k(    6) = (   0.3333333   0.5773505   0.2714379), wk =   0.1481481
        k(    7) = (  -0.3333333   0.1924501   0.0000000), wk =   0.1481481
        k(    8) = (   0.3333333   0.1924502   0.0000000), wk =   0.1481481
        k(    9) = (   0.0000000  -0.3849003   0.2714379), wk =   0.1481481
        k(   10) = (  -0.3333333   0.1924501   0.2714379), wk =   0.1481481
        k(   11) = (   0.3333333   0.1924502   0.2714379), wk =   0.1481481
        k(   12) = (  -0.3333333  -0.1924502   0.2714379), wk =   0.1481481
        k(   13) = (   0.3333333  -0.1924501   0.2714379), wk =   0.1481481
        k(   14) = (  -0.3333333  -0.5773505   0.2714379), wk =   0.1481481

     Dense  grid:  2619931 G-vectors     FFT dimensions: ( 180, 180, 216)

     Smooth grid:   926125 G-vectors     FFT dimensions: ( 120, 120, 150)

     Estimated max dynamical RAM per process >       1.07 GB

     Estimated total dynamical RAM >      33.54 GB

     Initial potential from superposition of free atoms

     starting charge     827.5884, renormalised to     840.0000

     negative rho (up, down):  7.777E-01 0.000E+00
     Starting wfcs are  672 randomized atomic wfcs
     Checking if some PAW data can be deallocated... 

     total cpu time spent up to now is       45.1 secs

     Self-consistent Calculation

     iteration #  1     ecut=    60.00 Ry     beta= 0.30
     Davidson diagonalization with overlap
     ethr =  1.00E-02,  avg # of iterations =  2.0

     negative rho (up, down):  7.747E-01 0.000E+00

     total cpu time spent up to now is      125.7 secs

     total energy              =   -9070.29148800 Ry
     estimated scf accuracy    <      21.97862087 Ry

     iteration #  2     ecut=    60.00 Ry     beta= 0.30
     Davidson diagonalization with overlap
     ethr =  2.62E-03,  avg # of iterations =  4.8

     negative rho (up, down):  7.752E-01 0.000E+00

     total cpu time spent up to now is      227.3 secs

     total energy              =   -9076.61375905 Ry
     estimated scf accuracy    <       8.23460920 Ry

     iteration #  3     ecut=    60.00 Ry     beta= 0.30
     Davidson diagonalization with overlap
     ethr =  9.80E-04,  avg # of iterations =  2.0

     negative rho (up, down):  7.804E-01 0.000E+00

     total cpu time spent up to now is      308.5 secs

     total energy              =   -9076.48816366 Ry
     estimated scf accuracy    <       1.62475815 Ry

     iteration #  4     ecut=    60.00 Ry     beta= 0.30
     Davidson diagonalization with overlap
     ethr =  1.93E-04,  avg # of iterations =  5.6

     negative rho (up, down):  7.829E-01 0.000E+00

     total cpu time spent up to now is      424.7 secs

     total energy              =   -9076.70175346 Ry
     estimated scf accuracy    <       2.06359779 Ry

     iteration #  5     ecut=    60.00 Ry     beta= 0.30
     Davidson diagonalization with overlap
     ethr =  1.93E-04,  avg # of iterations =  5.2

     negative rho (up, down):  7.884E-01 0.000E+00

     total cpu time spent up to now is      539.2 secs

     total energy              =   -9077.13600680 Ry
     estimated scf accuracy    <       0.14549695 Ry

     iteration #  6     ecut=    60.00 Ry     beta= 0.30
     Davidson diagonalization with overlap
     ethr =  1.73E-05,  avg # of iterations =  6.2

     negative rho (up, down):  7.902E-01 0.000E+00

     total cpu time spent up to now is      662.1 secs

     total energy              =   -9077.18449986 Ry
     estimated scf accuracy    <       0.01334835 Ry

     iteration #  7     ecut=    60.00 Ry     beta= 0.30
     Davidson diagonalization with overlap
     ethr =  1.59E-06,  avg # of iterations =  5.4

     negative rho (up, down):  7.907E-01 0.000E+00

     total cpu time spent up to now is      793.4 secs

     total energy              =   -9077.18888936 Ry
     estimated scf accuracy    <       0.00594080 Ry

     iteration #  8     ecut=    60.00 Ry     beta= 0.30
     Davidson diagonalization with overlap
     ethr =  7.07E-07,  avg # of iterations =  6.6

     negative rho (up, down):  7.912E-01 0.000E+00

     total cpu time spent up to now is      933.8 secs

     total energy              =   -9077.17991903 Ry
     estimated scf accuracy    <       0.04477807 Ry

     iteration #  9     ecut=    60.00 Ry     beta= 0.30
     Davidson diagonalization with overlap
     ethr =  7.07E-07,  avg # of iterations =  7.0

     negative rho (up, down):  7.911E-01 0.000E+00

     total cpu time spent up to now is     1074.1 secs

     total energy              =   -9077.18759755 Ry
     estimated scf accuracy    <       0.00216337 Ry

     iteration # 10     ecut=    60.00 Ry     beta= 0.30
     Davidson diagonalization with overlap
     ethr =  2.58E-07,  avg # of iterations =  2.0

     negative rho (up, down):  7.908E-01 0.000E+00

     total cpu time spent up to now is     1160.7 secs

     total energy              =   -9077.18744222 Ry
     estimated scf accuracy    <       0.00068012 Ry

     iteration # 11     ecut=    60.00 Ry     beta= 0.30
     Davidson diagonalization with overlap
     ethr =  8.10E-08,  avg # of iterations =  6.7

     negative rho (up, down):  7.905E-01 0.000E+00

     total cpu time spent up to now is     1276.2 secs

     total energy              =   -9077.18767430 Ry
     estimated scf accuracy    <       0.00019139 Ry

     iteration # 12     ecut=    60.00 Ry     beta= 0.30
     Davidson diagonalization with overlap
     ethr =  2.28E-08,  avg # of iterations =  6.3

     negative rho (up, down):  7.904E-01 0.000E+00

     total cpu time spent up to now is     1377.5 secs

     total energy              =   -9077.18770079 Ry
     estimated scf accuracy    <       0.00009857 Ry

     iteration # 13     ecut=    60.00 Ry     beta= 0.30
     Davidson diagonalization with overlap
     ethr =  1.17E-08,  avg # of iterations =  2.9

     negative rho (up, down):  7.903E-01 0.000E+00

     total cpu time spent up to now is     1465.7 secs

     total energy              =   -9077.18770588 Ry
     estimated scf accuracy    <       0.00002240 Ry

     iteration # 14     ecut=    60.00 Ry     beta= 0.30
     Davidson diagonalization with overlap
     ethr =  2.67E-09,  avg # of iterations =  6.1

     negative rho (up, down):  7.903E-01 0.000E+00

     total cpu time spent up to now is     1566.1 secs

     total energy              =   -9077.18771113 Ry
     estimated scf accuracy    <       0.00000108 Ry

     iteration # 15     ecut=    60.00 Ry     beta= 0.30
     Davidson diagonalization with overlap
     ethr =  1.28E-10,  avg # of iterations =  6.0

     negative rho (up, down):  7.902E-01 0.000E+00

     total cpu time spent up to now is     1711.8 secs

     total energy              =   -9077.18771190 Ry
     estimated scf accuracy    <       0.00000084 Ry

     iteration # 16     ecut=    60.00 Ry     beta= 0.30
     Davidson diagonalization with overlap
     ethr =  9.99E-11,  avg # of iterations =  4.8

     negative rho (up, down):  7.902E-01 0.000E+00

     total cpu time spent up to now is     1808.6 secs

     total energy              =   -9077.18771213 Ry
     estimated scf accuracy    <       0.00000015 Ry

     iteration # 17     ecut=    60.00 Ry     beta= 0.30
     Davidson diagonalization with overlap
     ethr =  1.81E-11,  avg # of iterations =  5.6

     negative rho (up, down):  7.902E-01 0.000E+00

     total cpu time spent up to now is     1912.6 secs

     total energy              =   -9077.18771216 Ry
     estimated scf accuracy    <       0.00000008 Ry

     iteration # 18     ecut=    60.00 Ry     beta= 0.30
     Davidson diagonalization with overlap
     ethr =  9.47E-12,  avg # of iterations =  2.9

     negative rho (up, down):  7.902E-01 0.000E+00

     total cpu time spent up to now is     2005.7 secs

     total energy              =   -9077.18771218 Ry
     estimated scf accuracy    <       0.00000001 Ry

     iteration # 19     ecut=    60.00 Ry     beta= 0.30
     Davidson diagonalization with overlap
     ethr =  1.29E-12,  avg # of iterations =  7.3

     negative rho (up, down):  7.902E-01 0.000E+00

     total cpu time spent up to now is     2126.8 secs

     total energy              =   -9077.18771219 Ry
     estimated scf accuracy    <          4.2E-09 Ry

     iteration # 20     ecut=    60.00 Ry     beta= 0.30
     Davidson diagonalization with overlap
     ethr =  4.98E-13,  avg # of iterations =  2.4

     negative rho (up, down):  7.902E-01 0.000E+00

     total cpu time spent up to now is     2217.1 secs

     total energy              =   -9077.18771220 Ry
     estimated scf accuracy    <          1.9E-09 Ry

     iteration # 21     ecut=    60.00 Ry     beta= 0.30
     Davidson diagonalization with overlap
     ethr =  2.29E-13,  avg # of iterations =  5.4

     negative rho (up, down):  7.902E-01 0.000E+00

     total cpu time spent up to now is     2311.5 secs

     End of self-consistent calculation

          k = 0.0000 0.0000 0.0000 (115723 PWs)   bands (ev):

   -28.2805 -28.2773 -28.2772 -28.2771 -28.2769 -28.2753 -28.2743 -28.2735
   -28.2734 -28.2720 -28.2717 -28.2713 -14.9291 -14.9284 -14.9254 -14.9246
   -14.9232 -14.9230 -14.9227 -14.9226 -14.9225 -14.9223 -14.9211 -14.9206
   -14.9195 -14.9187 -14.9173 -14.9170 -14.9168 -14.9167 -14.9165 -14.9153
   -14.9148 -14.9145 -14.9115 -14.9110 -14.9105 -14.9087 -14.9073 -14.9066
   -14.9049 -14.9047 -14.9046 -14.9045 -14.9031 -14.9026 -14.8995 -14.8968
   -14.8708 -14.8703 -14.8672 -14.8665 -14.8647 -14.8646 -14.8644 -14.8643
   -14.8630 -14.8624 -14.8593 -14.8565 -14.8257 -14.8252 -14.8220 -14.8213
   -14.8195 -14.8194 -14.8193 -14.8191 -14.8178 -14.8172 -14.8141 -14.8113
   -10.3414 -10.3391 -10.3386 -10.3378 -10.3358 -10.3350 -10.3346 -10.3336
   -10.3330 -10.3321 -10.3290 -10.3232 -10.3110 -10.3085 -10.3081 -10.3056
   -10.3027 -10.3020 -10.3006 -10.3000 -10.2930 -10.2917 -10.2906 -10.2817
   -10.2730 -10.2702 -10.2685 -10.2667 -10.2654 -10.2639 -10.2627 -10.2608
   -10.2605 -10.2598 -10.2566 -10.2532  -6.8632  -6.5573  -6.5525  -6.4190
    -6.4174  -6.4143  -6.3007  -6.2999  -6.2971  -6.2208  -6.2179  -6.2150
    -5.9938  -5.9898  -5.9858  -5.8510  -5.8502  -5.8474  -5.7976  -5.7962
    -5.7941  -5.7372  -5.7367  -5.6201  -5.6195  -5.6183  -5.6155  -5.6128
    -5.6106  -5.6006  -5.5634  -5.5587  -5.5542  -5.5477  -5.5438  -5.5420
    -5.5178  -5.5158  -5.4335  -5.4307  -5.4286  -5.4256  -5.3758  -5.3692
    -5.3474  -5.3460  -5.3421  -5.2508  -0.6154  -0.6113  -0.6078  -0.3900
    -0.3891  -0.3876  -0.3511  -0.3177  -0.3160  -0.3125  -0.3034  -0.2984
     1.3831   1.3848   1.3868   1.5902   1.5939   1.6562   1.7150   1.7171
     1.7189   1.8045   1.8058   1.8075   2.0193   2.0407   2.0414   2.0838
     2.0852   2.0861   2.2466   2.2483   2.2487   2.3086   2.3107   2.4021
     2.4045   2.4068   2.4601   2.4607   2.4621   2.5484   2.5504   2.6607
     2.6631   2.6651   2.7834   2.7844   2.7846   2.8700   2.8733   2.9218
     2.9252   2.9286   2.9526   2.9538   2.9548   3.0260   3.0272   3.0292
     3.0446   3.0464   3.0472   3.1644   3.2122   3.2148   3.2170   3.2265
     3.2288   3.2568   3.2573   3.2588   3.3768   3.3777   3.3785   3.3925
     3.3937   3.4265   3.4269   3.4282   3.4355   3.4362   3.4368   3.4745
     3.4758   3.4781   3.4928   3.4938   3.4951   3.4970   3.5171   3.5176
     3.5840   3.5848   3.5862   3.6247   3.6272   3.6291   3.6874   3.6890
     3.6904   3.6912   3.6942   3.7064   3.7939   3.7967   3.8249   3.8258
     3.8262   3.9629   4.0176   4.0210   4.0236   4.0344   4.0365   4.0375
     4.1226   4.1238   4.1262   4.1275   4.1720   4.1732   4.1753   4.2007
     4.2095   4.2098   4.2105   4.2432   4.2437   4.2468   4.2790   4.2836
     4.4216   4.4253   4.4276   4.5167   4.5186   4.5195   4.5353   4.5373
     4.6181   4.6217   4.6227   4.8566   5.1246   5.1541   5.1555   5.1565
     5.1734   5.1743   5.1748   5.1767   5.1808   5.2221   5.2257   5.2267
     5.2286   5.2295   5.2309   5.2516   5.2521   5.2525   5.2658   5.2671
     5.2679   5.2774   5.2788   5.2801   5.3097   5.3099   5.3122   5.3133
     5.3140   5.3247   5.3367   5.3378   5.3387   5.3740   5.3761   5.3770
     5.4389   5.4389   5.4710   5.4714   5.4718   5.4744   5.4768   5.4775
     5.4781   5.4987   5.4992   5.6007   5.6012   5.6021   5.6184   5.6186
     5.6189   5.6266   5.6464   5.6474   5.6484   5.6573   5.6598   5.6622
     5.7243   5.7262   5.7446   5.7820   5.7827   5.7839   5.8192   5.8218
     5.8231   5.9019   5.9037   5.9056   5.9269   5.9277   5.9285   5.9947
     5.9977   6.0264   6.0268   6.0271   6.1492   6.1507   6.1514   6.1519
     6.2615   6.2621   6.2626   6.2630   6.2639   6.2642   6.2883   6.2923
     6.3336   6.3351   6.3363   6.3627   6.3638   6.3643   6.3882   6.3891
     6.3915   6.5523   6.5692   6.5716   6.5736   6.6344   6.6380   6.6416
     6.7460   6.7473   6.7493   6.7642   6.7662   6.7805   6.7815   6.7826
     6.8084   6.9645   7.1798   7.1813

          k = 0.0000 0.0000 0.2714 (115879 PWs)   bands (ev):

   -28.2805 -28.2773 -28.2772 -28.2771 -28.2769 -28.2753 -28.2743 -28.2735
   -28.2734 -28.2720 -28.2717 -28.2713 -14.9291 -14.9284 -14.9254 -14.9246
   -14.9232 -14.9230 -14.9227 -14.9226 -14.9226 -14.9223 -14.9211 -14.9206
   -14.9195 -14.9187 -14.9173 -14.9170 -14.9168 -14.9167 -14.9165 -14.9153
   -14.9148 -14.9145 -14.9115 -14.9110 -14.9105 -14.9087 -14.9073 -14.9066
   -14.9049 -14.9047 -14.9046 -14.9045 -14.9031 -14.9026 -14.8995 -14.8968
   -14.8708 -14.8703 -14.8672 -14.8665 -14.8647 -14.8646 -14.8644 -14.8643
   -14.8630 -14.8624 -14.8593 -14.8565 -14.8257 -14.8252 -14.8220 -14.8213
   -14.8195 -14.8194 -14.8193 -14.8191 -14.8178 -14.8172 -14.8141 -14.8113
   -10.3419 -10.3399 -10.3390 -10.3385 -10.3360 -10.3356 -10.3342 -10.3325
   -10.3323 -10.3319 -10.3276 -10.3240 -10.3124 -10.3097 -10.3070 -10.3059
   -10.3029 -10.3017 -10.3004 -10.2944 -10.2930 -10.2924 -10.2919 -10.2840
   -10.2724 -10.2696 -10.2680 -10.2670 -10.2661 -10.2642 -10.2625 -10.2606
   -10.2602 -10.2597 -10.2565 -10.2542  -6.8240  -6.7133  -6.4113  -6.4094
    -6.4074  -6.4059  -6.3056  -6.3046  -6.3012  -6.2340  -6.2303  -6.2266
    -5.9951  -5.9915  -5.9881  -5.8537  -5.8363  -5.8354  -5.8322  -5.7744
    -5.7732  -5.7719  -5.6580  -5.6565  -5.6544  -5.6516  -5.6158  -5.6126
    -5.6116  -5.6091  -5.5569  -5.5557  -5.5517  -5.5503  -5.5448  -5.5430
    -5.5426  -5.4547  -5.4376  -5.4345  -5.4338  -5.4308  -5.3752  -5.3458
    -5.3395  -5.3382  -5.3339  -5.2811  -0.6079  -0.6035  -0.5996  -0.4144
    -0.4130  -0.4097  -0.3487  -0.3322  -0.3025  -0.3018  -0.2980  -0.2738
     1.4069   1.4090   1.4116   1.5701   1.6142   1.6185   1.6188   1.6194
     1.6579   1.9347   1.9353   1.9362   2.0040   2.0462   2.0525   2.0531
     2.0539   2.0685   2.2748   2.2766   2.2774   2.3053   2.3881   2.3887
     2.3909   2.3915   2.4147   2.4166   2.4186   2.4559   2.6203   2.6228
     2.6252   2.6676   2.7183   2.7912   2.7978   2.7981   2.7991   2.8700
     2.8724   2.8750   2.9741   2.9758   2.9776   3.0438   3.0463   3.0480
     3.1047   3.1070   3.1086   3.1754   3.1990   3.2036   3.2051   3.2056
     3.2736   3.2743   3.2748   3.2841   3.3747   3.3829   3.3838   3.3857
     3.4188   3.4199   3.4210   3.4390   3.4405   3.4411   3.4486   3.4497
     3.4504   3.4769   3.4987   3.5181   3.5190   3.5194   3.5378   3.5439
     3.5496   3.5501   3.5516   3.6387   3.6434   3.6453   3.6461   3.6509
     3.6792   3.6813   3.6822   3.7731   3.8299   3.8757   3.8763   3.8765
     3.9080   3.9214   3.9934   3.9954   3.9969   4.0543   4.0562   4.0573
     4.0749   4.1149   4.1175   4.1196   4.1474   4.1483   4.1509   4.1648
     4.1707   4.1720   4.1741   4.2115   4.2504   4.2513   4.2522   4.2677
     4.4191   4.4227   4.4245   4.4833   4.5571   4.5607   4.5616   4.6033
     4.6065   4.6076   4.6768   4.8069   5.1356   5.1472   5.1536   5.1544
     5.1546   5.1647   5.1860   5.1874   5.1881   5.2156   5.2161   5.2175
     5.2182   5.2476   5.2481   5.2491   5.2580   5.2587   5.2601   5.2614
     5.2761   5.2768   5.2775   5.2788   5.3281   5.3296   5.3310   5.3323
     5.3335   5.3356   5.3412   5.3422   5.3438   5.3657   5.3734   5.3748
     5.3757   5.3897   5.4028   5.4196   5.4208   5.4216   5.5260   5.5324
     5.5326   5.5333   5.5820   5.5877   5.5887   5.5890   5.5897   5.6196
     5.6204   5.6210   5.6498   5.6522   5.6543   5.6609   5.6816   5.6823
     5.6829   5.7546   5.7554   5.7558   5.7904   5.7991   5.8159   5.8179
     5.8197   5.8707   5.8819   5.8838   5.8857   5.9879   5.9887   5.9901
     6.0427   6.0428   6.0432   6.0974   6.0979   6.0990   6.1750   6.1905
     6.1923   6.1937   6.2363   6.2675   6.2690   6.2707   6.3247   6.3260
     6.3276   6.3577   6.3616   6.3703   6.3714   6.3725   6.3951   6.4290
     6.4297   6.4309   6.4805   6.6391   6.6398   6.6420   6.6432   6.6438
     6.6468   6.6704   6.7072   6.7089   6.7115   6.7522   6.7525   6.7545
     6.9412   7.0052   7.0944   7.1701

          k = 0.0000 0.3849 0.0000 (115797 PWs)   bands (ev):

   -28.2805 -28.2773 -28.2772 -28.2771 -28.2769 -28.2753 -28.2743 -28.2735
   -28.2734 -28.2720 -28.2717 -28.2713 -14.9290 -14.9284 -14.9254 -14.9246
   -14.9231 -14.9229 -14.9227 -14.9226 -14.9225 -14.9223 -14.9211 -14.9206
   -14.9195 -14.9187 -14.9173 -14.9170 -14.9169 -14.9167 -14.9165 -14.9153
   -14.9147 -14.9146 -14.9115 -14.9110 -14.9105 -14.9087 -14.9073 -14.9066
   -14.9049 -14.9048 -14.9046 -14.9045 -14.9031 -14.9026 -14.8995 -14.8968
   -14.8708 -14.8703 -14.8672 -14.8665 -14.8647 -14.8646 -14.8644 -14.8643
   -14.8630 -14.8624 -14.8593 -14.8565 -14.8257 -14.8252 -14.8220 -14.8213
   -14.8195 -14.8194 -14.8193 -14.8191 -14.8178 -14.8172 -14.8141 -14.8113
   -10.3408 -10.3385 -10.3378 -10.3373 -10.3352 -10.3346 -10.3337 -10.3327
   -10.3324 -10.3310 -10.3301 -10.3255 -10.3090 -10.3068 -10.3064 -10.3054
   -10.3030 -10.3017 -10.3009 -10.3000 -10.2936 -10.2928 -10.2907 -10.2848
   -10.2719 -10.2694 -10.2682 -10.2673 -10.2656 -10.2645 -10.2623 -10.2612
   -10.2606 -10.2602 -10.2592 -10.2556  -6.7878  -6.5893  -6.5005  -6.4968
    -6.4397  -6.4386  -6.3638  -6.3508  -6.2851  -6.2833  -6.2490  -6.2467
    -5.9107  -5.9072  -5.8233  -5.8186  -5.8165  -5.7770  -5.7698  -5.7690
    -5.7312  -5.7243  -5.7208  -5.6927  -5.6911  -5.6480  -5.6396  -5.6368
    -5.6290  -5.5964  -5.5842  -5.5812  -5.5659  -5.5288  -5.5204  -5.5179
    -5.5161  -5.5043  -5.4601  -5.4527  -5.4362  -5.4344  -5.4247  -5.4128
    -5.3496  -5.3479  -5.3122  -5.2701  -0.5707  -0.5681  -0.5653  -0.4376
    -0.4032  -0.4015  -0.3763  -0.3417  -0.3403  -0.3370  -0.3103  -0.3009
     1.4207   1.4851   1.4868   1.5029   1.6398   1.6531   1.6855   1.7231
     1.7241   1.8279   1.8771   1.8778   1.9543   1.9570   1.9578   2.0281
     2.1161   2.2046   2.2301   2.2305   2.3403   2.3647   2.3845   2.3852
     2.3934   2.4084   2.4501   2.5368   2.5388   2.6113   2.6129   2.6161
     2.6581   2.7332   2.8116   2.8125   2.8212   2.8408   2.8421   2.8445
     2.8540   2.8858   2.9093   2.9103   2.9138   2.9632   2.9641   3.0046
     3.0492   3.0567   3.0580   3.1223   3.1461   3.1757   3.2059   3.2122
     3.2139   3.2325   3.2605   3.2611   3.2700   3.3240   3.3299   3.3311
     3.3374   3.3718   3.3963   3.3970   3.4329   3.4406   3.4416   3.4501
     3.4976   3.4980   3.5003   3.5102   3.5107   3.5156   3.5213   3.5445
     3.5621   3.6061   3.6073   3.6106   3.6346   3.6439   3.6792   3.6803
     3.6949   3.7017   3.7030   3.7095   3.7782   3.7790   3.8500   3.8602
     3.8947   3.9749   3.9763   3.9777   3.9812   4.0307   4.0369   4.0380
     4.0915   4.1119   4.1200   4.1210   4.1275   4.1633   4.1637   4.1774
     4.2467   4.2647   4.2676   4.2800   4.3047   4.3229   4.3236   4.3685
     4.3806   4.4145   4.4180   4.4833   4.5190   4.5261   4.5287   4.5309
     4.5915   4.5943   4.6242   4.7477   5.1447   5.1449   5.1461   5.1525
     5.1602   5.1604   5.1693   5.1758   5.2156   5.2195   5.2198   5.2213
     5.2270   5.2371   5.2489   5.2494   5.2501   5.2611   5.2686   5.2721
     5.2728   5.2891   5.3035   5.3039   5.3149   5.3188   5.3264   5.3272
     5.3371   5.3490   5.3520   5.3524   5.3570   5.3645   5.4139   5.4152
     5.4334   5.4511   5.4608   5.4617   5.4856   5.4936   5.5012   5.5015
     5.5028   5.5124   5.5259   5.5445   5.5565   5.5571   5.5619   5.6028
     5.6036   5.6311   5.6318   5.6330   5.6679   5.6788   5.6953   5.6965
     5.6973   5.7173   5.7300   5.7560   5.7754   5.7775   5.8090   5.8178
     5.8189   5.8653   5.8744   5.8747   5.9510   5.9528   5.9640   5.9647
     5.9911   6.0064   6.0077   6.0198   6.1382   6.1394   6.1446   6.1605
     6.2251   6.2297   6.2305   6.2524   6.2707   6.2901   6.2908   6.2979
     6.3612   6.3617   6.3769   6.3892   6.3901   6.4411   6.4854   6.4862
     6.5245   6.5382   6.5388   6.5757   6.6052   6.6506   6.6816   6.6925
     6.6954   6.7293   6.7372   6.7382   6.7622   6.7786   6.7918   6.8116
     6.8128   6.9050   6.9093   7.0814

          k = 0.0000 0.3849 0.2714 (115773 PWs)   bands (ev):

   -28.2805 -28.2773 -28.2772 -28.2771 -28.2769 -28.2753 -28.2743 -28.2735
   -28.2734 -28.2720 -28.2717 -28.2713 -14.9290 -14.9284 -14.9254 -14.9246
   -14.9231 -14.9229 -14.9227 -14.9226 -14.9225 -14.9223 -14.9211 -14.9206
   -14.9195 -14.9187 -14.9173 -14.9170 -14.9169 -14.9167 -14.9165 -14.9153
   -14.9147 -14.9146 -14.9115 -14.9110 -14.9105 -14.9087 -14.9073 -14.9066
   -14.9049 -14.9048 -14.9046 -14.9045 -14.9031 -14.9026 -14.8995 -14.8968
   -14.8708 -14.8703 -14.8672 -14.8665 -14.8647 -14.8646 -14.8644 -14.8643
   -14.8630 -14.8624 -14.8593 -14.8565 -14.8257 -14.8252 -14.8220 -14.8213
   -14.8195 -14.8194 -14.8193 -14.8191 -14.8178 -14.8172 -14.8141 -14.8113
   -10.3411 -10.3390 -10.3386 -10.3379 -10.3358 -10.3349 -10.3327 -10.3322
   -10.3314 -10.3308 -10.3293 -10.3261 -10.3106 -10.3084 -10.3064 -10.3059
   -10.3019 -10.3002 -10.2996 -10.2950 -10.2947 -10.2938 -10.2914 -10.2868
   -10.2717 -10.2693 -10.2684 -10.2665 -10.2656 -10.2647 -10.2624 -10.2612
   -10.2604 -10.2601 -10.2591 -10.2568  -6.7507  -6.6467  -6.5596  -6.4725
    -6.4245  -6.4231  -6.3639  -6.3278  -6.3274  -6.2591  -6.2244  -6.2233
    -5.9050  -5.9014  -5.8269  -5.8218  -5.8081  -5.8052  -5.7906  -5.7620
    -5.7608  -5.7304  -5.7126  -5.7114  -5.6705  -5.6355  -5.6306  -5.6284
    -5.6266  -5.6099  -5.5985  -5.5975  -5.5690  -5.5310  -5.5228  -5.5209
    -5.5176  -5.4996  -5.4652  -5.4301  -5.4281  -5.4267  -5.4235  -5.3657
    -5.3494  -5.3474  -5.3208  -5.2988  -0.5632  -0.5581  -0.5550  -0.4371
    -0.4347  -0.4281  -0.3919  -0.3715  -0.3210  -0.3202  -0.2974  -0.2776
     1.4358   1.4832   1.4845   1.4894   1.6254   1.6408   1.7707   1.7721
     1.7817   1.7894   1.8007   1.8019   1.9149   1.9973   1.9986   2.0770
     2.1564   2.2004   2.2083   2.2475   2.2479   2.3619   2.3918   2.3925
     2.3996   2.4481   2.5115   2.5133   2.5477   2.5882   2.5904   2.6082
     2.6411   2.7093   2.7601   2.7675   2.7695   2.7892   2.8085   2.8102
     2.8379   2.8744   2.9165   2.9169   2.9194   2.9822   3.0246   3.0254
     3.0653   3.1074   3.1082   3.1303   3.1726   3.1914   3.1926   3.1944
     3.1998   3.2329   3.2643   3.2652   3.2761   3.3173   3.3212   3.3222
     3.3250   3.3905   3.3913   3.4108   3.4455   3.4463   3.4676   3.4685
     3.4714   3.4735   3.4771   3.4781   3.5342   3.5360   3.5370   3.5893
     3.6109   3.6121   3.6127   3.6341   3.6427   3.6451   3.6594   3.6606
     3.6689   3.7103   3.7117   3.7127   3.8347   3.8357   3.8799   3.8882
     3.9036   3.9508   3.9517   3.9759   3.9806   4.0187   4.0453   4.0487
     4.0492   4.0676   4.1110   4.1122   4.1219   4.1323   4.1331   4.1482
     4.1880   4.2547   4.2661   4.2670   4.2873   4.2898   4.2952   4.3892
     4.3984   4.4360   4.4394   4.4677   4.5240   4.5247   4.5372   4.5973
     4.6106   4.6137   4.6199   4.7203   5.1520   5.1524   5.1541   5.1554
     5.1702   5.1747   5.1756   5.1836   5.1908   5.1977   5.2019   5.2083
     5.2091   5.2343   5.2351   5.2360   5.2545   5.2624   5.2653   5.2664
     5.2793   5.2988   5.3079   5.3126   5.3132   5.3285   5.3350   5.3362
     5.3579   5.3580   5.3601   5.3636   5.3801   5.3918   5.4075   5.4084
     5.4129   5.4321   5.4328   5.4452   5.4456   5.4926   5.5020   5.5026
     5.5083   5.5155   5.5540   5.5603   5.5744   5.5749   5.6035   5.6112
     5.6119   5.6189   5.6251   5.6256   5.6424   5.6708   5.6823   5.7143
     5.7153   5.7165   5.7355   5.7716   5.7731   5.7752   5.8013   5.8018
     5.8114   5.8583   5.8734   5.8742   5.8803   5.9153   5.9583   5.9589
     6.0344   6.0348   6.0358   6.0608   6.0784   6.0794   6.1728   6.2078
     6.2125   6.2139   6.2660   6.2669   6.2690   6.2773   6.2845   6.3477
     6.3487   6.3641   6.3716   6.4158   6.4241   6.4255   6.4284   6.4715
     6.4976   6.4989   6.5459   6.5590   6.5961   6.5963   6.6670   6.6687
     6.6767   6.7198   6.7359   6.7373   6.7454   6.8130   6.8138   6.8439
     6.8706   6.9286   6.9366   7.0530

          k = 0.3333 0.5774 0.0000 (115752 PWs)   bands (ev):

   -28.2805 -28.2773 -28.2772 -28.2771 -28.2769 -28.2753 -28.2743 -28.2735
   -28.2734 -28.2720 -28.2717 -28.2713 -14.9290 -14.9284 -14.9254 -14.9246
   -14.9231 -14.9229 -14.9227 -14.9226 -14.9226 -14.9224 -14.9211 -14.9205
   -14.9195 -14.9187 -14.9173 -14.9170 -14.9168 -14.9167 -14.9166 -14.9153
   -14.9148 -14.9146 -14.9115 -14.9110 -14.9105 -14.9087 -14.9073 -14.9066
   -14.9049 -14.9047 -14.9046 -14.9045 -14.9031 -14.9026 -14.8995 -14.8968
   -14.8708 -14.8703 -14.8672 -14.8665 -14.8647 -14.8646 -14.8644 -14.8643
   -14.8630 -14.8624 -14.8593 -14.8565 -14.8257 -14.8252 -14.8220 -14.8213
   -14.8195 -14.8194 -14.8193 -14.8191 -14.8178 -14.8172 -14.8141 -14.8113
   -10.3405 -10.3379 -10.3366 -10.3361 -10.3358 -10.3345 -10.3338 -10.3333
   -10.3320 -10.3297 -10.3293 -10.3283 -10.3082 -10.3063 -10.3053 -10.3045
   -10.3028 -10.3014 -10.3008 -10.2996 -10.2980 -10.2901 -10.2894 -10.2884
   -10.2708 -10.2691 -10.2677 -10.2664 -10.2662 -10.2647 -10.2637 -10.2635
   -10.2625 -10.2590 -10.2581 -10.2568  -6.6521  -6.6501  -6.6488  -6.4028
    -6.4007  -6.3995  -6.3977  -6.3966  -6.3941  -6.2947  -6.2901  -6.1926
    -5.8660  -5.8527  -5.8483  -5.7510  -5.7491  -5.7466  -5.7345  -5.7318
    -5.7298  -5.7097  -5.7063  -5.6958  -5.6937  -5.6922  -5.6860  -5.6846
    -5.6823  -5.6447  -5.5446  -5.5417  -5.5382  -5.5330  -5.5288  -5.5245
    -5.5117  -5.4739  -5.4718  -5.4693  -5.4678  -5.4661  -5.4638  -5.3983
    -5.3950  -5.3041  -5.3014  -5.2988  -0.5443  -0.5161  -0.5153  -0.5117
    -0.3989  -0.3935  -0.3921  -0.3907  -0.3871  -0.3135  -0.3096  -0.3057
     1.4811   1.4844   1.4874   1.6734   1.6749   1.6768   1.6849   1.6866
     1.6884   1.7324   1.7360   1.7996   2.0789   2.0812   2.0823   2.0836
     2.0849   2.1426   2.1445   2.1466   2.2553   2.3962   2.3971   2.3984
     2.4932   2.4940   2.4965   2.5628   2.5638   2.5645   2.5964   2.5985
     2.7730   2.7745   2.7758   2.8360   2.8379   2.8431   2.8444   2.8457
     2.8495   2.8516   2.8531   2.8541   2.8683   3.0089   3.0106   3.0114
     3.0243   3.0257   3.0270   3.0621   3.1321   3.1343   3.1366   3.1960
     3.1976   3.1984   3.2589   3.2601   3.2604   3.2697   3.2725   3.3615
     3.3692   3.3706   3.3728   3.3746   3.4248   3.4256   3.4263   3.4869
     3.4874   3.5006   3.5027   3.5048   3.5285   3.5300   3.5317   3.5472
     3.5482   3.5786   3.5802   3.5814   3.6491   3.6508   3.6524   3.7182
     3.7210   3.7232   3.7279   3.7290   3.7565   3.8001   3.8015   3.8032
     3.9578   3.9592   3.9616   3.9855   3.9884   4.0285   4.0305   4.0317
     4.0821   4.0848   4.0874   4.1405   4.1500   4.1516   4.1523   4.2842
     4.2849   4.2939   4.3152   4.3191   4.3199   4.3209   4.3215   4.3258
     4.3839   4.3868   4.3892   4.4960   4.5125   4.5165   4.5185   4.5209
     4.5250   4.6525   4.6551   4.6576   5.1375   5.1435   5.1440   5.1448
     5.1733   5.1735   5.1870   5.1882   5.1892   5.1960   5.1970   5.1981
     5.2460   5.2470   5.2488   5.2653   5.2661   5.2666   5.2969   5.2987
     5.3004   5.3007   5.3025   5.3035   5.3139   5.3174   5.3192   5.3207
     5.3390   5.3405   5.3420   5.4023   5.4028   5.4042   5.4080   5.4086
     5.4545   5.4552   5.4568   5.4583   5.4826   5.4840   5.4847   5.4885
     5.4889   5.5344   5.5358   5.5367   5.5641   5.5646   5.5652   5.5706
     5.5712   5.5717   5.6411   5.6711   5.6737   5.6932   5.6952   5.6968
     5.7062   5.7076   5.7085   5.7794   5.7804   5.7816   5.7982   5.7998
     5.8012   5.8231   5.8252   5.8446   5.9298   5.9313   5.9321   6.0454
     6.0469   6.0474   6.0483   6.0498   6.1376   6.1387   6.1400   6.1584
     6.2186   6.2194   6.2197   6.2593   6.2602   6.2614   6.2836   6.2848
     6.3747   6.4095   6.4104   6.4115   6.4156   6.4179   6.4233   6.4511
     6.4525   6.4535   6.6142   6.6155   6.6167   6.6757   6.6765   6.6773
     6.7251   6.7405   6.7417   6.8046   6.8064   6.8078   6.8093   6.8109
     6.8124   6.9382   6.9394   6.9405

          k = 0.3333 0.5774 0.2714 (115827 PWs)   bands (ev):

   -28.2805 -28.2773 -28.2772 -28.2771 -28.2769 -28.2753 -28.2743 -28.2735
   -28.2734 -28.2720 -28.2717 -28.2713 -14.9290 -14.9284 -14.9254 -14.9246
   -14.9231 -14.9229 -14.9227 -14.9226 -14.9226 -14.9224 -14.9211 -14.9205
   -14.9195 -14.9187 -14.9173 -14.9170 -14.9168 -14.9167 -14.9166 -14.9153
   -14.9148 -14.9146 -14.9115 -14.9110 -14.9105 -14.9087 -14.9073 -14.9066
   -14.9049 -14.9047 -14.9046 -14.9045 -14.9031 -14.9026 -14.8995 -14.8968
   -14.8708 -14.8703 -14.8672 -14.8665 -14.8647 -14.8646 -14.8644 -14.8643
   -14.8630 -14.8624 -14.8593 -14.8565 -14.8257 -14.8252 -14.8220 -14.8213
   -14.8195 -14.8194 -14.8193 -14.8191 -14.8178 -14.8172 -14.8141 -14.8113
   -10.3409 -10.3384 -10.3375 -10.3371 -10.3365 -10.3335 -10.3330 -10.3324
   -10.3314 -10.3299 -10.3293 -10.3280 -10.3089 -10.3079 -10.3073 -10.3056
   -10.3015 -10.2993 -10.2980 -10.2969 -10.2962 -10.2917 -10.2911 -10.2900
   -10.2712 -10.2686 -10.2676 -10.2672 -10.2662 -10.2639 -10.2635 -10.2624
   -10.2620 -10.2599 -10.2589 -10.2573  -6.6202  -6.6178  -6.6166  -6.5261
    -6.5249  -6.5228  -6.3084  -6.2902  -6.2889  -6.2877  -6.2576  -6.2143
    -5.8752  -5.8573  -5.8451  -5.7820  -5.7794  -5.7771  -5.7438  -5.7426
    -5.7397  -5.7153  -5.6895  -5.6876  -5.6863  -5.6736  -5.6722  -5.6712
    -5.6692  -5.6431  -5.5592  -5.5562  -5.5542  -5.5267  -5.5249  -5.5220
    -5.5056  -5.5046  -5.5021  -5.4992  -5.4585  -5.4001  -5.3980  -5.3953
    -5.3578  -5.3251  -5.3223  -5.3193  -0.5205  -0.5075  -0.5063  -0.5025
    -0.4610  -0.4178  -0.4172  -0.4152  -0.3550  -0.2955  -0.2923  -0.2897
     1.4790   1.4823   1.4859   1.6362   1.6389   1.6403   1.6901   1.7740
     1.7753   1.7769   1.7786   1.7939   1.9801   1.9816   1.9830   2.0551
     2.1709   2.1911   2.1936   2.1948   2.2470   2.3956   2.3975   2.3995
     2.4876   2.4894   2.4906   2.5571   2.5875   2.5881   2.5886   2.5926
     2.6786   2.7360   2.7374   2.7379   2.8225   2.8232   2.8242   2.8276
     2.9001   2.9034   2.9038   2.9240   2.9366   2.9543   2.9554   2.9572
     3.0583   3.0606   3.0616   3.0874   3.0887   3.0905   3.1268   3.1806
     3.2439   3.2449   3.2459   3.2700   3.2716   3.2717   3.3214   3.3265
     3.3274   3.3296   3.3739   3.4074   3.4207   3.4638   3.4655   3.4676
     3.4927   3.4979   3.4997   3.5011   3.5359   3.5370   3.5388   3.5402
     3.5611   3.6146   3.6166   3.6180   3.6536   3.6550   3.6565   3.6966
     3.6983   3.6993   3.7197   3.7441   3.8214   3.8397   3.8413   3.8431
     3.9375   3.9399   3.9409   3.9430   4.0280   4.0293   4.0311   4.0406
     4.0656   4.0686   4.0707   4.1091   4.1121   4.1141   4.1165   4.1679
     4.2712   4.2734   4.2754   4.2888   4.3154   4.3597   4.3620   4.3639
     4.4141   4.4182   4.4190   4.4907   4.4927   4.4966   4.5076   4.5123
     4.5645   4.6655   4.6676   4.6699   5.1486   5.1564   5.1570   5.1576
     5.1587   5.1819   5.1829   5.1838   5.1969   5.1986   5.1992   5.2110
     5.2239   5.2257   5.2261   5.2512   5.2525   5.2532   5.2567   5.2687
     5.3004   5.3019   5.3036   5.3092   5.3278   5.3297   5.3305   5.3675
     5.3684   5.3690   5.3747   5.3934   5.3958   5.4084   5.4092   5.4107
     5.4327   5.4329   5.4341   5.4385   5.4839   5.4849   5.4859   5.4911
     5.5384   5.5391   5.5408   5.5438   5.5660   5.5666   5.5673   5.6051
     5.6062   5.6066   5.6377   5.6397   5.6719   5.6724   5.6742   5.7031
     5.7039   5.7046   5.7176   5.7578   5.7599   5.7607   5.8010   5.8078
     5.8211   5.8225   5.8246   5.8261   5.8895   5.8907   5.8923   6.0566
     6.0600   6.0609   6.0616   6.0773   6.1194   6.1206   6.1211   6.1350
     6.1954   6.2374   6.2381   6.2393   6.2842   6.3016   6.3024   6.3032
     6.3063   6.3848   6.3854   6.3866   6.4500   6.4666   6.4688   6.4694
     6.4918   6.4926   6.5587   6.5592   6.5612   6.6460   6.6838   6.6859
     6.6865   6.7609   6.7771   6.7783   6.7800   6.7927   6.8534   6.8544
     6.8572   6.9347   6.9366   6.9373

          k =-0.3333 0.1925 0.0000 (115797 PWs)   bands (ev):

   -28.2805 -28.2773 -28.2772 -28.2771 -28.2769 -28.2753 -28.2743 -28.2735
   -28.2734 -28.2720 -28.2717 -28.2713 -14.9291 -14.9284 -14.9254 -14.9246
   -14.9232 -14.9229 -14.9227 -14.9226 -14.9226 -14.9223 -14.9211 -14.9205
   -14.9195 -14.9187 -14.9173 -14.9170 -14.9168 -14.9167 -14.9165 -14.9153
   -14.9147 -14.9146 -14.9115 -14.9110 -14.9105 -14.9087 -14.9073 -14.9066
   -14.9049 -14.9047 -14.9047 -14.9045 -14.9031 -14.9026 -14.8995 -14.8968
   -14.8708 -14.8703 -14.8672 -14.8665 -14.8647 -14.8646 -14.8644 -14.8643
   -14.8630 -14.8624 -14.8593 -14.8565 -14.8257 -14.8252 -14.8220 -14.8213
   -14.8195 -14.8194 -14.8193 -14.8191 -14.8178 -14.8172 -14.8141 -14.8113
   -10.3405 -10.3385 -10.3377 -10.3364 -10.3355 -10.3343 -10.3340 -10.3336
   -10.3326 -10.3307 -10.3303 -10.3255 -10.3085 -10.3071 -10.3065 -10.3048
   -10.3025 -10.3020 -10.3003 -10.3001 -10.2952 -10.2942 -10.2892 -10.2845
   -10.2715 -10.2695 -10.2683 -10.2668 -10.2661 -10.2645 -10.2633 -10.2621
   -10.2618 -10.2588 -10.2583 -10.2549  -6.7880  -6.5905  -6.5017  -6.4956
    -6.4382  -6.4359  -6.3676  -6.3463  -6.2867  -6.2841  -6.2493  -6.2469
    -5.9152  -5.9111  -5.8213  -5.8180  -5.8172  -5.7774  -5.7667  -5.7646
    -5.7326  -5.7245  -5.7234  -5.6895  -5.6871  -5.6470  -5.6389  -5.6363
    -5.6292  -5.5939  -5.5866  -5.5836  -5.5708  -5.5286  -5.5197  -5.5175
    -5.5149  -5.5030  -5.4650  -5.4500  -5.4387  -5.4361  -5.4206  -5.4147
    -5.3493  -5.3450  -5.3138  -5.2703  -0.5745  -0.5710  -0.5588  -0.4334
    -0.4066  -0.4043  -0.3782  -0.3372  -0.3367  -0.3321  -0.3147  -0.3052
     1.4167   1.4875   1.4903   1.4994   1.6397   1.6502   1.6909   1.7240
     1.7250   1.8281   1.8763   1.8768   1.9540   1.9549   1.9552   2.0268
     2.1149   2.2088   2.2293   2.2300   2.3374   2.3626   2.3872   2.3889
     2.3934   2.4090   2.4494   2.5370   2.5390   2.6135   2.6145   2.6181
     2.6568   2.7361   2.8140   2.8148   2.8220   2.8398   2.8421   2.8451
     2.8539   2.8839   2.9068   2.9076   2.9160   2.9603   2.9620   3.0038
     3.0513   3.0558   3.0572   3.1258   3.1500   3.1756   3.2026   3.2102
     3.2120   3.2357   3.2603   3.2620   3.2681   3.3231   3.3301   3.3320
     3.3398   3.3724   3.3935   3.3943   3.4343   3.4396   3.4420   3.4493
     3.4971   3.4983   3.5008   3.5109   3.5116   3.5124   3.5244   3.5414
     3.5611   3.6026   3.6050   3.6113   3.6351   3.6488   3.6789   3.6804
     3.6935   3.7031   3.7052   3.7077   3.7792   3.7801   3.8481   3.8586
     3.8974   3.9720   3.9735   3.9791   3.9805   4.0293   4.0390   4.0416
     4.0936   4.1110   4.1202   4.1223   4.1244   4.1619   4.1627   4.1780
     4.2495   4.2669   4.2688   4.2850   4.3011   4.3226   4.3235   4.3681
     4.3764   4.4169   4.4191   4.4833   4.5162   4.5263   4.5273   4.5311
     4.5881   4.5913   4.6295   4.7496   5.1422   5.1436   5.1475   5.1561
     5.1602   5.1612   5.1698   5.1736   5.2137   5.2189   5.2192   5.2222
     5.2290   5.2377   5.2481   5.2493   5.2503   5.2612   5.2665   5.2715
     5.2721   5.2894   5.3046   5.3055   5.3128   5.3187   5.3269   5.3289
     5.3366   5.3500   5.3528   5.3538   5.3583   5.3667   5.4126   5.4146
     5.4337   5.4511   5.4604   5.4622   5.4857   5.4931   5.4990   5.4997
     5.5027   5.5131   5.5293   5.5432   5.5565   5.5573   5.5607   5.6033
     5.6041   5.6289   5.6314   5.6316   5.6681   5.6775   5.6950   5.6955
     5.6969   5.7180   5.7294   5.7567   5.7732   5.7756   5.8086   5.8201
     5.8207   5.8623   5.8770   5.8779   5.9494   5.9509   5.9653   5.9666
     5.9896   6.0058   6.0084   6.0215   6.1390   6.1402   6.1451   6.1605
     6.2256   6.2287   6.2304   6.2502   6.2706   6.2877   6.2890   6.3006
     6.3616   6.3627   6.3777   6.3898   6.3917   6.4410   6.4864   6.4874
     6.5237   6.5370   6.5386   6.5759   6.6041   6.6514   6.6856   6.6903
     6.6931   6.7302   6.7365   6.7389   6.7629   6.7771   6.7939   6.8119
     6.8134   6.9035   6.9089   7.0801

          k = 0.3333 0.1925 0.0000 (115797 PWs)   bands (ev):

   -28.2805 -28.2773 -28.2772 -28.2771 -28.2769 -28.2753 -28.2743 -28.2735
   -28.2734 -28.2720 -28.2717 -28.2713 -14.9290 -14.9284 -14.9254 -14.9246
   -14.9231 -14.9228 -14.9227 -14.9226 -14.9225 -14.9224 -14.9211 -14.9206
   -14.9195 -14.9187 -14.9173 -14.9170 -14.9168 -14.9167 -14.9165 -14.9153
   -14.9148 -14.9145 -14.9115 -14.9110 -14.9105 -14.9087 -14.9073 -14.9066
   -14.9049 -14.9047 -14.9046 -14.9045 -14.9031 -14.9026 -14.8995 -14.8968
   -14.8708 -14.8703 -14.8672 -14.8665 -14.8647 -14.8646 -14.8644 -14.8643
   -14.8630 -14.8624 -14.8593 -14.8565 -14.8257 -14.8252 -14.8220 -14.8213
   -14.8195 -14.8194 -14.8193 -14.8191 -14.8178 -14.8172 -14.8141 -14.8113
   -10.3408 -10.3388 -10.3377 -10.3364 -10.3355 -10.3345 -10.3338 -10.3332
   -10.3327 -10.3309 -10.3301 -10.3255 -10.3090 -10.3071 -10.3062 -10.3050
   -10.3023 -10.3020 -10.3010 -10.3002 -10.2946 -10.2929 -10.2900 -10.2846
   -10.2719 -10.2693 -10.2686 -10.2669 -10.2649 -10.2643 -10.2633 -10.2620
   -10.2610 -10.2600 -10.2587 -10.2551  -6.7879  -6.5899  -6.5010  -6.4962
    -6.4391  -6.4372  -6.3656  -6.3486  -6.2866  -6.2833  -6.2503  -6.2457
    -5.9142  -5.9078  -5.8200  -5.8199  -5.8162  -5.7780  -5.7687  -5.7663
    -5.7319  -5.7243  -5.7225  -5.6906  -5.6897  -5.6475  -5.6413  -5.6353
    -5.6289  -5.5952  -5.5874  -5.5815  -5.5683  -5.5271  -5.5202  -5.5177
    -5.5157  -5.5041  -5.4629  -5.4513  -5.4379  -5.4346  -5.4221  -5.4140
    -5.3489  -5.3469  -5.3132  -5.2701  -0.5739  -0.5684  -0.5619  -0.4354
    -0.4055  -0.4022  -0.3774  -0.3389  -0.3373  -0.3368  -0.3122  -0.3027
     1.4184   1.4857   1.4896   1.5008   1.6399   1.6517   1.6883   1.7231
     1.7250   1.8282   1.8762   1.8772   1.9545   1.9558   1.9567   2.0277
     2.1154   2.2069   2.2294   2.2302   2.3390   2.3637   2.3859   2.3870
     2.3935   2.4087   2.4497   2.5361   2.5397   2.6120   2.6138   2.6170
     2.6573   2.7348   2.8126   2.8139   2.8221   2.8397   2.8430   2.8447
     2.8538   2.8845   2.9076   2.9093   2.9148   2.9623   2.9627   3.0041
     3.0502   3.0560   3.0576   3.1240   3.1481   3.1756   3.2041   3.2103
     3.2138   3.2341   3.2607   3.2614   3.2689   3.3237   3.3305   3.3312
     3.3389   3.3721   3.3945   3.3959   3.4333   3.4403   3.4420   3.4496
     3.4976   3.4979   3.5002   3.5109   3.5115   3.5137   3.5224   3.5432
     3.5614   3.6047   3.6063   3.6110   3.6347   3.6462   3.6794   3.6802
     3.6941   3.7023   3.7041   3.7087   3.7787   3.7795   3.8493   3.8598
     3.8960   3.9735   3.9748   3.9783   3.9807   4.0300   4.0381   4.0395
     4.0926   4.1112   4.1209   4.1215   4.1258   4.1618   4.1634   4.1778
     4.2478   4.2663   4.2681   4.2822   4.3032   4.3225   4.3238   4.3681
     4.3787   4.4150   4.4189   4.4835   4.5154   4.5265   4.5290   4.5318
     4.5893   4.5937   4.6268   4.7486   5.1437   5.1440   5.1469   5.1545
     5.1600   5.1607   5.1692   5.1746   5.2148   5.2192   5.2197   5.2218
     5.2279   5.2374   5.2488   5.2493   5.2502   5.2610   5.2675   5.2717
     5.2724   5.2892   5.3042   5.3046   5.3140   5.3188   5.3271   5.3277
     5.3367   5.3498   5.3526   5.3530   5.3574   5.3656   5.4127   5.4152
     5.4337   5.4511   5.4612   5.4616   5.4854   5.4935   5.5002   5.5005
     5.5027   5.5127   5.5277   5.5437   5.5563   5.5575   5.5613   5.6026
     5.6041   5.6304   5.6314   5.6321   5.6681   5.6783   5.6945   5.6959
     5.6980   5.7176   5.7294   5.7564   5.7738   5.7772   5.8088   5.8192
     5.8196   5.8638   5.8759   5.8761   5.9500   5.9519   5.9650   5.9655
     5.9904   6.0064   6.0078   6.0207   6.1390   6.1394   6.1447   6.1606
     6.2254   6.2293   6.2303   6.2511   6.2708   6.2887   6.2903   6.2993
     6.3616   6.3621   6.3774   6.3894   6.3907   6.4411   6.4860   6.4868
     6.5241   6.5379   6.5383   6.5756   6.6047   6.6510   6.6837   6.6904
     6.6953   6.7299   6.7373   6.7382   6.7624   6.7778   6.7930   6.8114
     6.8135   6.9037   6.9095   7.0806

          k = 0.0000-0.3849 0.2714 (115773 PWs)   bands (ev):

   -28.2805 -28.2773 -28.2772 -28.2771 -28.2769 -28.2753 -28.2743 -28.2735
   -28.2734 -28.2720 -28.2717 -28.2713 -14.9290 -14.9284 -14.9254 -14.9246
   -14.9231 -14.9229 -14.9227 -14.9226 -14.9225 -14.9223 -14.9211 -14.9206
   -14.9195 -14.9187 -14.9173 -14.9170 -14.9169 -14.9167 -14.9165 -14.9153
   -14.9147 -14.9146 -14.9115 -14.9110 -14.9105 -14.9087 -14.9073 -14.9066
   -14.9049 -14.9048 -14.9046 -14.9045 -14.9031 -14.9026 -14.8995 -14.8968
   -14.8708 -14.8703 -14.8672 -14.8665 -14.8647 -14.8646 -14.8644 -14.8643
   -14.8630 -14.8624 -14.8593 -14.8565 -14.8257 -14.8252 -14.8220 -14.8213
   -14.8195 -14.8194 -14.8193 -14.8191 -14.8178 -14.8172 -14.8141 -14.8113
   -10.3412 -10.3390 -10.3384 -10.3380 -10.3357 -10.3349 -10.3335 -10.3319
   -10.3314 -10.3305 -10.3288 -10.3265 -10.3104 -10.3080 -10.3069 -10.3049
   -10.3040 -10.3016 -10.2970 -10.2947 -10.2943 -10.2935 -10.2927 -10.2868
   -10.2716 -10.2691 -10.2686 -10.2674 -10.2658 -10.2637 -10.2623 -10.2611
   -10.2604 -10.2601 -10.2591 -10.2570  -6.7509  -6.6466  -6.5604  -6.4691
    -6.4215  -6.4199  -6.3635  -6.3395  -6.3387  -6.2657  -6.2107  -6.2095
    -5.9134  -5.9101  -5.8253  -5.8244  -5.8185  -5.8164  -5.7658  -5.7651
    -5.7521  -5.7332  -5.6843  -5.6828  -5.6804  -5.6620  -5.6456  -5.6430
    -5.6396  -5.6066  -5.5843  -5.5824  -5.5715  -5.5333  -5.5280  -5.5265
    -5.5138  -5.4848  -5.4677  -5.4386  -5.4366  -5.4350  -5.4015  -5.3696
    -5.3456  -5.3437  -5.3296  -5.2959  -0.5617  -0.5587  -0.5556  -0.4361
    -0.4295  -0.4276  -0.4089  -0.3592  -0.3243  -0.3235  -0.2885  -0.2821
     1.4069   1.4915   1.4935   1.5175   1.6124   1.7114   1.7118   1.7232
     1.7350   1.7724   1.8457   1.8470   1.9655   1.9860   2.0226   2.0236
     2.1304   2.1976   2.2085   2.2091   2.2857   2.3357   2.3974   2.4254
     2.4267   2.5167   2.5293   2.5302   2.5563   2.5572   2.5579   2.5592
     2.5994   2.6791   2.7635   2.7657   2.8220   2.8235   2.8247   2.8287
     2.8493   2.8524   2.8966   2.8970   2.9073   3.0084   3.0191   3.0200
     3.0744   3.0774   3.1182   3.1193   3.1334   3.1815   3.1827   3.1889
     3.2120   3.2460   3.2662   3.2856   3.2858   3.2944   3.3298   3.3306
     3.3755   3.3772   3.3803   3.3813   3.4465   3.4469   3.4505   3.4754
     3.4799   3.4807   3.5059   3.5211   3.5341   3.5349   3.5381   3.5579
     3.5864   3.5879   3.6121   3.6295   3.6389   3.6425   3.6824   3.6833
     3.6877   3.6962   3.7040   3.7060   3.8352   3.8360   3.8786   3.8812
     3.9401   3.9464   3.9476   3.9493   3.9707   4.0331   4.0522   4.0573
     4.0591   4.0600   4.0998   4.1011   4.1224   4.1234   4.1313   4.1345
     4.2206   4.2380   4.2663   4.2702   4.2904   4.2922   4.3153   4.3697
     4.3924   4.4326   4.4356   4.4813   4.5225   4.5435   4.5445   4.5871
     4.5963   4.5998   4.6292   4.7281   5.1481   5.1488   5.1516   5.1636
     5.1683   5.1686   5.1704   5.1720   5.1993   5.2046   5.2136   5.2185
     5.2199   5.2299   5.2409   5.2415   5.2605   5.2627   5.2638   5.2646
     5.2654   5.2744   5.3102   5.3107   5.3186   5.3348   5.3460   5.3466
     5.3603   5.3627   5.3632   5.3671   5.3685   5.3810   5.3887   5.3895
     5.4103   5.4324   5.4476   5.4518   5.4528   5.4696   5.4964   5.4980
     5.5168   5.5229   5.5562   5.5576   5.5688   5.5694   5.6024   5.6025
     5.6074   5.6199   5.6321   5.6497   5.6508   5.6604   5.6754   5.7090
     5.7103   5.7404   5.7599   5.7612   5.7704   5.7844   5.8039   5.8049
     5.8153   5.8399   5.8662   5.8668   5.8753   5.8968   5.9680   5.9690
     6.0199   6.0250   6.0262   6.1013   6.1019   6.1113   6.1602   6.1866
     6.2018   6.2033   6.2049   6.2619   6.2636   6.2862   6.3194   6.3410
     6.3552   6.3700   6.3715   6.4127   6.4178   6.4187   6.4522   6.4813
     6.4824   6.5073   6.5576   6.5657   6.6067   6.6084   6.6472   6.6661
     6.6674   6.7376   6.7385   6.7405   6.7483   6.8035   6.8052   6.8508
     6.8673   6.9177   6.9454   7.0399

          k =-0.3333 0.1925 0.2714 (115773 PWs)   bands (ev):

   -28.2805 -28.2773 -28.2772 -28.2771 -28.2769 -28.2753 -28.2743 -28.2735
   -28.2734 -28.2720 -28.2717 -28.2713 -14.9291 -14.9284 -14.9254 -14.9246
   -14.9232 -14.9229 -14.9227 -14.9226 -14.9226 -14.9223 -14.9211 -14.9205
   -14.9195 -14.9187 -14.9173 -14.9170 -14.9168 -14.9167 -14.9165 -14.9153
   -14.9147 -14.9146 -14.9115 -14.9110 -14.9105 -14.9087 -14.9073 -14.9066
   -14.9049 -14.9047 -14.9047 -14.9045 -14.9031 -14.9026 -14.8995 -14.8968
   -14.8708 -14.8703 -14.8672 -14.8665 -14.8647 -14.8646 -14.8644 -14.8643
   -14.8630 -14.8624 -14.8593 -14.8565 -14.8257 -14.8252 -14.8220 -14.8213
   -14.8195 -14.8194 -14.8193 -14.8191 -14.8178 -14.8172 -14.8141 -14.8113
   -10.3411 -10.3393 -10.3384 -10.3365 -10.3355 -10.3347 -10.3341 -10.3329
   -10.3321 -10.3300 -10.3296 -10.3258 -10.3105 -10.3089 -10.3055 -10.3047
   -10.3026 -10.3016 -10.2976 -10.2963 -10.2951 -10.2945 -10.2916 -10.2858
   -10.2709 -10.2692 -10.2684 -10.2672 -10.2664 -10.2643 -10.2629 -10.2617
   -10.2614 -10.2593 -10.2587 -10.2556  -6.7512  -6.6464  -6.5624  -6.4680
    -6.4190  -6.4161  -6.3635  -6.3421  -6.3404  -6.2652  -6.2114  -6.2101
    -5.9174  -5.9135  -5.8254  -5.8201  -5.8185  -5.8165  -5.7643  -5.7632
    -5.7541  -5.7338  -5.6830  -5.6826  -5.6798  -5.6649  -5.6410  -5.6384
    -5.6339  -5.6082  -5.5887  -5.5863  -5.5747  -5.5291  -5.5266  -5.5256
    -5.5177  -5.4881  -5.4633  -5.4400  -5.4392  -5.4369  -5.3970  -5.3708
    -5.3455  -5.3406  -5.3329  -5.2957  -0.5660  -0.5623  -0.5477  -0.4313
    -0.4302  -0.4272  -0.4132  -0.3621  -0.3220  -0.3177  -0.2919  -0.2841
     1.4031   1.4943   1.4976   1.5132   1.6121   1.7115   1.7125   1.7218
     1.7389   1.7732   1.8436   1.8459   1.9671   1.9853   2.0204   2.0206
     2.1281   2.2004   2.2092   2.2104   2.2848   2.3322   2.3957   2.4273
     2.4290   2.5196   2.5287   2.5297   2.5572   2.5587   2.5600   2.5610
     2.5997   2.6774   2.7631   2.7654   2.8244   2.8256   2.8275   2.8302
     2.8510   2.8534   2.8941   2.8951   2.9042   3.0079   3.0166   3.0181
     3.0779   3.0797   3.1175   3.1189   3.1340   3.1788   3.1806   3.1876
     3.2150   3.2462   3.2664   3.2843   3.2858   3.2959   3.3311   3.3322
     3.3745   3.3762   3.3773   3.3781   3.4468   3.4488   3.4497   3.4784
     3.4799   3.4805   3.5061   3.5174   3.5340   3.5350   3.5354   3.5581
     3.5853   3.5873   3.6095   3.6330   3.6414   3.6465   3.6828   3.6849
     3.6856   3.6958   3.7028   3.7048   3.8368   3.8377   3.8769   3.8799
     3.9425   3.9441   3.9450   3.9481   3.9732   4.0309   4.0542   4.0561
     4.0612   4.0628   4.1001   4.1012   4.1215   4.1225   4.1283   4.1331
     4.2267   4.2422   4.2683   4.2714   4.2898   4.2922   4.3121   4.3648
     4.3914   4.4345   4.4370   4.4801   4.5200   4.5440   4.5467   4.5839
     4.5931   4.5972   4.6336   4.7314   5.1464   5.1473   5.1549   5.1649
     5.1678   5.1688   5.1695   5.1735   5.2000   5.2051   5.2114   5.2169
     5.2190   5.2282   5.2406   5.2418   5.2600   5.2649   5.2654   5.2661
     5.2672   5.2725   5.3097   5.3104   5.3185   5.3331   5.3464   5.3480
     5.3597   5.3629   5.3632   5.3693   5.3707   5.3804   5.3882   5.3896
     5.4098   5.4340   5.4475   5.4506   5.4517   5.4686   5.4964   5.4982
     5.5168   5.5253   5.5559   5.5573   5.5681   5.5691   5.6016   5.6024
     5.6077   5.6206   5.6301   5.6501   5.6505   5.6612   5.6742   5.7075
     5.7090   5.7381   5.7591   5.7607   5.7708   5.7845   5.8061   5.8069
     5.8139   5.8396   5.8683   5.8690   5.8751   5.8927   5.9691   5.9705
     6.0184   6.0246   6.0264   6.1013   6.1020   6.1123   6.1589   6.1879
     6.2020   6.2037   6.2048   6.2623   6.2637   6.2885   6.3172   6.3434
     6.3541   6.3670   6.3691   6.4129   6.4208   6.4222   6.4521   6.4816
     6.4822   6.5068   6.5583   6.5672   6.6058   6.6079   6.6476   6.6667
     6.6685   6.7351   6.7380   6.7409   6.7485   6.8033   6.8060   6.8512
     6.8653   6.9187   6.9461   7.0377

          k = 0.3333 0.1925 0.2714 (115773 PWs)   bands (ev):

   -28.2805 -28.2773 -28.2772 -28.2771 -28.2769 -28.2753 -28.2743 -28.2735
   -28.2734 -28.2720 -28.2717 -28.2713 -14.9290 -14.9284 -14.9254 -14.9246
   -14.9231 -14.9228 -14.9227 -14.9226 -14.9225 -14.9224 -14.9211 -14.9206
   -14.9195 -14.9187 -14.9173 -14.9170 -14.9168 -14.9167 -14.9165 -14.9153
   -14.9148 -14.9145 -14.9115 -14.9110 -14.9105 -14.9087 -14.9073 -14.9066
   -14.9049 -14.9047 -14.9046 -14.9045 -14.9031 -14.9026 -14.8995 -14.8968
   -14.8708 -14.8703 -14.8672 -14.8665 -14.8647 -14.8646 -14.8644 -14.8643
   -14.8630 -14.8624 -14.8593 -14.8565 -14.8257 -14.8252 -14.8220 -14.8213
   -14.8195 -14.8194 -14.8193 -14.8191 -14.8178 -14.8172 -14.8141 -14.8113
   -10.3412 -10.3393 -10.3384 -10.3368 -10.3358 -10.3348 -10.3339 -10.3326
   -10.3315 -10.3301 -10.3291 -10.3262 -10.3104 -10.3082 -10.3071 -10.3049
   -10.3022 -10.3017 -10.2979 -10.2961 -10.2942 -10.2935 -10.2921 -10.2865
   -10.2716 -10.2692 -10.2686 -10.2668 -10.2655 -10.2641 -10.2627 -10.2617
   -10.2608 -10.2601 -10.2592 -10.2559  -6.7511  -6.6465  -6.5614  -6.4684
    -6.4204  -6.4179  -6.3635  -6.3411  -6.3395  -6.2654  -6.2114  -6.2094
    -5.9166  -5.9105  -5.8249  -5.8217  -5.8194  -5.8154  -5.7653  -5.7638
    -5.7537  -5.7335  -5.6834  -5.6822  -5.6814  -5.6634  -5.6434  -5.6401
    -5.6377  -5.6072  -5.5876  -5.5838  -5.5728  -5.5304  -5.5285  -5.5262
    -5.5151  -5.4865  -5.4651  -5.4394  -5.4385  -5.4351  -5.3992  -5.3702
    -5.3448  -5.3432  -5.3312  -5.2957  -0.5654  -0.5591  -0.5515  -0.4332
    -0.4309  -0.4266  -0.4111  -0.3608  -0.3226  -0.3213  -0.2900  -0.2831
     1.4047   1.4923   1.4965   1.5150   1.6123   1.7111   1.7127   1.7224
     1.7369   1.7729   1.8444   1.8466   1.9665   1.9857   2.0213   2.0223
     2.1292   2.1992   2.2089   2.2093   2.2852   2.3341   2.3966   2.4259
     2.4282   2.5182   2.5289   2.5301   2.5570   2.5573   2.5588   2.5606
     2.5994   2.6782   2.7623   2.7665   2.8235   2.8250   2.8253   2.8295
     2.8503   2.8528   2.8953   2.8960   2.9060   3.0078   3.0176   3.0193
     3.0766   3.0783   3.1174   3.1192   3.1336   3.1800   3.1818   3.1883
     3.2135   3.2460   3.2660   3.2853   3.2854   3.2952   3.3305   3.3315
     3.3751   3.3771   3.3783   3.3804   3.4472   3.4474   3.4499   3.4769
     3.4796   3.4809   3.5059   3.5193   3.5342   3.5348   3.5367   3.5582
     3.5857   3.5878   3.6105   3.6314   3.6400   3.6444   3.6830   3.6839
     3.6867   3.6956   3.7032   3.7061   3.8361   3.8366   3.8785   3.8804
     3.9413   3.9452   3.9462   3.9488   3.9718   4.0326   4.0527   4.0569
     4.0600   4.0614   4.0990   4.1017   4.1209   4.1236   4.1296   4.1340
     4.2237   4.2402   4.2684   4.2697   4.2910   4.2919   4.3137   4.3666
     4.3926   4.4326   4.4366   4.4803   4.5213   4.5441   4.5455   4.5857
     4.5949   4.5984   4.6314   4.7298   5.1473   5.1481   5.1533   5.1642
     5.1677   5.1693   5.1695   5.1729   5.1994   5.2050   5.2125   5.2175
     5.2198   5.2290   5.2405   5.2419   5.2605   5.2644   5.2649   5.2650
     5.2658   5.2733   5.3099   5.3107   5.3185   5.3339   5.3466   5.3469
     5.3600   5.3628   5.3633   5.3681   5.3696   5.3805   5.3883   5.3897
     5.4100   5.4331   5.4476   5.4510   5.4524   5.4692   5.4956   5.4989
     5.5170   5.5242   5.5560   5.5573   5.5685   5.5690   5.6022   5.6025
     5.6075   5.6204   5.6311   5.6499   5.6505   5.6609   5.6748   5.7074
     5.7106   5.7391   5.7597   5.7611   5.7707   5.7845   5.8042   5.8068
     5.8145   5.8395   5.8673   5.8677   5.8751   5.8949   5.9684   5.9702
     6.0192   6.0254   6.0257   6.1015   6.1019   6.1118   6.1594   6.1873
     6.2026   6.2036   6.2041   6.2613   6.2642   6.2873   6.3180   6.3423
     6.3548   6.3679   6.3708   6.4131   6.4195   6.4201   6.4522   6.4813
     6.4823   6.5069   6.5578   6.5665   6.6056   6.6090   6.6474   6.6661
     6.6683   6.7349   6.7396   6.7408   6.7484   6.8025   6.8067   6.8510
     6.8662   6.9182   6.9457   7.0387

          k =-0.3333-0.1925 0.2714 (115773 PWs)   bands (ev):

   -28.2805 -28.2773 -28.2772 -28.2771 -28.2769 -28.2753 -28.2743 -28.2735
   -28.2734 -28.2720 -28.2717 -28.2713 -14.9290 -14.9284 -14.9254 -14.9246
   -14.9231 -14.9228 -14.9227 -14.9226 -14.9225 -14.9224 -14.9211 -14.9206
   -14.9195 -14.9187 -14.9173 -14.9170 -14.9168 -14.9167 -14.9165 -14.9153
   -14.9148 -14.9145 -14.9115 -14.9110 -14.9105 -14.9087 -14.9073 -14.9066
   -14.9049 -14.9047 -14.9046 -14.9045 -14.9031 -14.9026 -14.8995 -14.8968
   -14.8708 -14.8703 -14.8672 -14.8665 -14.8647 -14.8646 -14.8644 -14.8643
   -14.8630 -14.8624 -14.8593 -14.8565 -14.8257 -14.8252 -14.8220 -14.8213
   -14.8195 -14.8194 -14.8193 -14.8191 -14.8178 -14.8172 -14.8141 -14.8113
   -10.3412 -10.3393 -10.3385 -10.3368 -10.3359 -10.3348 -10.3336 -10.3324
   -10.3315 -10.3306 -10.3293 -10.3260 -10.3107 -10.3082 -10.3064 -10.3058
   -10.3015 -10.3004 -10.2995 -10.2966 -10.2947 -10.2936 -10.2906 -10.2868
   -10.2719 -10.2690 -10.2680 -10.2671 -10.2651 -10.2648 -10.2631 -10.2618
   -10.2608 -10.2597 -10.2589 -10.2561  -6.7509  -6.6466  -6.5606  -6.4718
    -6.4235  -6.4212  -6.3639  -6.3293  -6.3279  -6.2588  -6.2252  -6.2232
    -5.9080  -5.9016  -5.8235  -5.8213  -5.8100  -5.8048  -5.7924  -5.7606
    -5.7595  -5.7321  -5.7106  -5.7098  -5.6721  -5.6352  -5.6302  -5.6280
    -5.6257  -5.6079  -5.6007  -5.5988  -5.5693  -5.5290  -5.5227  -5.5216
    -5.5189  -5.4964  -5.4683  -5.4318  -5.4303  -5.4267  -5.4222  -5.3636
    -5.3486  -5.3463  -5.3221  -5.2992  -0.5622  -0.5592  -0.5555  -0.4381
    -0.4334  -0.4251  -0.3939  -0.3734  -0.3195  -0.3180  -0.2989  -0.2787
     1.4330   1.4838   1.4870   1.4877   1.6254   1.6415   1.7722   1.7735
     1.7820   1.7902   1.7995   1.8010   1.9144   1.9959   1.9965   2.0774
     2.1552   2.1999   2.2106   2.2474   2.2483   2.3601   2.3928   2.3938
     2.3985   2.4486   2.5107   2.5134   2.5469   2.5889   2.5924   2.6076
     2.6428   2.7110   2.7614   2.7669   2.7706   2.7890   2.8081   2.8105
     2.8385   2.8744   2.9154   2.9164   2.9187   2.9813   3.0234   3.0247
     3.0678   3.1062   3.1071   3.1323   3.1706   3.1907   3.1940   3.1953
     3.2001   3.2321   3.2645   3.2649   3.2766   3.3181   3.3213   3.3222
     3.3242   3.3886   3.3906   3.4106   3.4454   3.4457   3.4686   3.4696
     3.4708   3.4728   3.4760   3.4788   3.5333   3.5365   3.5368   3.5913
     3.6104   3.6125   3.6130   3.6329   3.6421   3.6480   3.6587   3.6602
     3.6676   3.7110   3.7113   3.7122   3.8354   3.8360   3.8800   3.8884
     3.9043   3.9495   3.9504   3.9745   3.9821   4.0198   4.0475   4.0488
     4.0502   4.0659   4.1094   4.1113   4.1189   4.1329   4.1341   4.1477
     4.1908   4.2556   4.2665   4.2678   4.2889   4.2898   4.2943   4.3868
     4.3981   4.4357   4.4404   4.4677   4.5238   4.5251   4.5359   4.5963
     4.6095   4.6131   4.6224   4.7212   5.1504   5.1509   5.1544   5.1569
     5.1718   5.1755   5.1764   5.1830   5.1904   5.1980   5.2013   5.2074
     5.2085   5.2342   5.2350   5.2356   5.2547   5.2640   5.2649   5.2667
     5.2791   5.2977   5.3078   5.3129   5.3132   5.3286   5.3357   5.3377
     5.3583   5.3585   5.3601   5.3635   5.3800   5.3927   5.4065   5.4077
     5.4130   5.4319   5.4334   5.4449   5.4453   5.4927   5.5014   5.5029
     5.5093   5.5158   5.5536   5.5597   5.5743   5.5750   5.6026   5.6108
     5.6116   5.6189   5.6250   5.6254   5.6429   5.6702   5.6820   5.7133
     5.7159   5.7172   5.7340   5.7711   5.7729   5.7748   5.8021   5.8031
     5.8100   5.8583   5.8749   5.8760   5.8786   5.9146   5.9590   5.9597
     6.0333   6.0349   6.0361   6.0594   6.0781   6.0803   6.1731   6.2064
     6.2120   6.2141   6.2665   6.2667   6.2698   6.2771   6.2855   6.3480
     6.3501   6.3656   6.3721   6.4151   6.4235   6.4260   6.4274   6.4711
     6.4980   6.4989   6.5458   6.5594   6.5949   6.5966   6.6660   6.6681
     6.6770   6.7196   6.7363   6.7368   6.7474   6.8132   6.8142   6.8447
     6.8688   6.9284   6.9370   7.0522

          k = 0.3333-0.1925 0.2714 (115773 PWs)   bands (ev):

   -28.2805 -28.2773 -28.2772 -28.2771 -28.2769 -28.2753 -28.2743 -28.2735
   -28.2734 -28.2720 -28.2717 -28.2713 -14.9291 -14.9284 -14.9254 -14.9246
   -14.9232 -14.9229 -14.9227 -14.9226 -14.9226 -14.9223 -14.9211 -14.9205
   -14.9195 -14.9187 -14.9173 -14.9170 -14.9168 -14.9167 -14.9165 -14.9153
   -14.9147 -14.9146 -14.9115 -14.9110 -14.9105 -14.9087 -14.9073 -14.9066
   -14.9049 -14.9047 -14.9047 -14.9045 -14.9031 -14.9026 -14.8995 -14.8968
   -14.8708 -14.8703 -14.8672 -14.8665 -14.8647 -14.8646 -14.8644 -14.8643
   -14.8630 -14.8624 -14.8593 -14.8565 -14.8257 -14.8252 -14.8220 -14.8213
   -14.8195 -14.8194 -14.8193 -14.8191 -14.8178 -14.8172 -14.8141 -14.8113
   -10.3410 -10.3392 -10.3383 -10.3366 -10.3355 -10.3349 -10.3342 -10.3329
   -10.3319 -10.3301 -10.3292 -10.3259 -10.3108 -10.3074 -10.3066 -10.3057
   -10.3014 -10.3006 -10.2996 -10.2970 -10.2957 -10.2936 -10.2895 -10.2869
   -10.2711 -10.2698 -10.2689 -10.2664 -10.2657 -10.2642 -10.2631 -10.2623
   -10.2617 -10.2588 -10.2581 -10.2561  -6.7511  -6.6465  -6.5616  -6.4715
    -6.4222  -6.4196  -6.3639  -6.3298  -6.3289  -6.2585  -6.2251  -6.2240
    -5.9086  -5.9047  -5.8226  -5.8189  -5.8116  -5.8070  -5.7933  -5.7593
    -5.7572  -5.7333  -5.7098  -5.7070  -5.6731  -5.6352  -5.6295  -5.6273
    -5.6253  -5.6058  -5.6011  -5.5997  -5.5704  -5.5266  -5.5238  -5.5218
    -5.5210  -5.4932  -5.4705  -5.4351  -5.4309  -5.4285  -5.4207  -5.3616
    -5.3490  -5.3440  -5.3228  -5.3000  -0.5627  -0.5589  -0.5558  -0.4376
    -0.4341  -0.4220  -0.3955  -0.3751  -0.3188  -0.3145  -0.3008  -0.2800
     1.4310   1.4835   1.4874   1.4885   1.6254   1.6419   1.7734   1.7744
     1.7830   1.7912   1.7991   1.7999   1.9137   1.9935   1.9949   2.0772
     2.1538   2.1993   2.2128   2.2480   2.2488   2.3583   2.3938   2.3949
     2.3972   2.4491   2.5111   2.5127   2.5465   2.5912   2.5929   2.6075
     2.6444   2.7129   2.7626   2.7672   2.7698   2.7885   2.8088   2.8101
     2.8397   2.8746   2.9147   2.9153   2.9178   2.9807   3.0225   3.0240
     3.0702   3.1049   3.1064   3.1342   3.1686   3.1917   3.1940   3.1962
     3.2005   3.2313   3.2641   3.2644   3.2776   3.3185   3.3211   3.3225
     3.3234   3.3875   3.3885   3.4108   3.4446   3.4458   3.4686   3.4702
     3.4722   3.4732   3.4746   3.4789   3.5330   3.5358   3.5375   3.5926
     3.6104   3.6125   3.6137   3.6324   3.6418   3.6505   3.6574   3.6594
     3.6665   3.7093   3.7113   3.7129   3.8360   3.8365   3.8788   3.8889
     3.9051   3.9483   3.9498   3.9734   3.9835   4.0208   4.0474   4.0494
     4.0523   4.0636   4.1089   4.1108   4.1179   4.1329   4.1348   4.1473
     4.1940   4.2553   4.2670   4.2681   4.2876   4.2909   4.2951   4.3851
     4.3968   4.4372   4.4406   4.4676   4.5247   4.5256   4.5343   4.5949
     4.6075   4.6121   4.6248   4.7224   5.1489   5.1500   5.1545   5.1576
     5.1731   5.1764   5.1776   5.1832   5.1906   5.1978   5.2006   5.2066
     5.2075   5.2336   5.2350   5.2353   5.2546   5.2643   5.2659   5.2668
     5.2788   5.2974   5.3068   5.3127   5.3141   5.3290   5.3369   5.3387
     5.3583   5.3588   5.3603   5.3636   5.3802   5.3936   5.4057   5.4068
     5.4132   5.4314   5.4339   5.4440   5.4456   5.4926   5.5018   5.5024
     5.5103   5.5162   5.5531   5.5593   5.5744   5.5749   5.6017   5.6103
     5.6111   5.6191   5.6247   5.6253   5.6435   5.6694   5.6818   5.7135
     5.7148   5.7182   5.7329   5.7707   5.7730   5.7738   5.8032   5.8038
     5.8090   5.8585   5.8764   5.8772   5.8777   5.9141   5.9597   5.9603
     6.0335   6.0348   6.0357   6.0583   6.0789   6.0799   6.1731   6.2051
     6.2125   6.2138   6.2658   6.2667   6.2709   6.2774   6.2867   6.3492
     6.3506   6.3673   6.3726   6.4144   6.4239   6.4256   6.4262   6.4706
     6.4985   6.4992   6.5459   6.5596   6.5950   6.5956   6.6649   6.6676
     6.6772   6.7195   6.7348   6.7379   6.7497   6.8128   6.8145   6.8454
     6.8675   6.9280   6.9375   7.0516

          k =-0.3333-0.5774 0.2714 (115827 PWs)   bands (ev):

   -28.2805 -28.2773 -28.2772 -28.2771 -28.2769 -28.2753 -28.2743 -28.2735
   -28.2734 -28.2720 -28.2717 -28.2713 -14.9290 -14.9284 -14.9254 -14.9246
   -14.9231 -14.9229 -14.9227 -14.9226 -14.9226 -14.9224 -14.9211 -14.9205
   -14.9195 -14.9187 -14.9173 -14.9170 -14.9168 -14.9167 -14.9166 -14.9153
   -14.9148 -14.9146 -14.9115 -14.9110 -14.9105 -14.9087 -14.9073 -14.9066
   -14.9049 -14.9047 -14.9046 -14.9045 -14.9031 -14.9026 -14.8995 -14.8968
   -14.8708 -14.8703 -14.8672 -14.8665 -14.8647 -14.8646 -14.8644 -14.8643
   -14.8630 -14.8624 -14.8593 -14.8565 -14.8257 -14.8252 -14.8220 -14.8213
   -14.8195 -14.8194 -14.8193 -14.8191 -14.8178 -14.8172 -14.8141 -14.8113
   -10.3409 -10.3383 -10.3375 -10.3371 -10.3367 -10.3334 -10.3331 -10.3324
   -10.3313 -10.3299 -10.3293 -10.3280 -10.3088 -10.3078 -10.3075 -10.3054
   -10.3017 -10.2993 -10.2978 -10.2970 -10.2961 -10.2920 -10.2911 -10.2898
   -10.2712 -10.2686 -10.2677 -10.2671 -10.2663 -10.2639 -10.2631 -10.2627
   -10.2618 -10.2603 -10.2586 -10.2574  -6.6200  -6.6179  -6.6168  -6.5258
    -6.5248  -6.5230  -6.3084  -6.2903  -6.2889  -6.2877  -6.2577  -6.2141
    -5.8755  -5.8579  -5.8442  -5.7818  -5.7798  -5.7768  -5.7444  -5.7417
    -5.7401  -5.7154  -5.6900  -5.6874  -5.6862  -5.6732  -5.6721  -5.6709
    -5.6695  -5.6433  -5.5596  -5.5560  -5.5543  -5.5273  -5.5243  -5.5220
    -5.5059  -5.5039  -5.5022  -5.4993  -5.4588  -5.3994  -5.3982  -5.3955
    -5.3578  -5.3250  -5.3223  -5.3196  -0.5205  -0.5076  -0.5061  -0.5027
    -0.4609  -0.4176  -0.4172  -0.4154  -0.3550  -0.2956  -0.2921  -0.2898
     1.4788   1.4826   1.4857   1.6365   1.6382   1.6407   1.6901   1.7743
     1.7751   1.7770   1.7787   1.7938   1.9797   1.9814   1.9834   2.0552
     2.1702   2.1916   2.1927   2.1953   2.2475   2.3960   2.3973   2.3987
     2.4881   2.4886   2.4909   2.5571   2.5871   2.5880   2.5892   2.5923
     2.6791   2.7364   2.7371   2.7381   2.8222   2.8230   2.8241   2.8277
     2.9016   2.9022   2.9044   2.9242   2.9363   2.9537   2.9561   2.9567
     3.0591   3.0600   3.0622   3.0865   3.0886   3.0899   3.1266   3.1811
     3.2434   3.2449   3.2457   3.2706   3.2715   3.2718   3.3213   3.3260
     3.3282   3.3292   3.3741   3.4070   3.4208   3.4638   3.4657   3.4674
     3.4927   3.4980   3.4993   3.5014   3.5359   3.5369   3.5390   3.5403
     3.5611   3.6149   3.6162   3.6181   3.6532   3.6552   3.6565   3.6965
     3.6981   3.6996   3.7199   3.7440   3.8216   3.8398   3.8412   3.8429
     3.9375   3.9396   3.9416   3.9426   4.0285   4.0296   4.0318   4.0405
     4.0642   4.0678   4.0708   4.1076   4.1129   4.1151   4.1159   4.1682
     4.2717   4.2739   4.2750   4.2910   4.3140   4.3598   4.3616   4.3635
     4.4143   4.4166   4.4201   4.4903   4.4942   4.4961   4.5077   4.5119
     4.5648   4.6653   4.6676   4.6699   5.1485   5.1564   5.1573   5.1578
     5.1584   5.1819   5.1830   5.1838   5.1974   5.1980   5.1994   5.2108
     5.2241   5.2249   5.2266   5.2514   5.2522   5.2533   5.2569   5.2687
     5.3002   5.3024   5.3032   5.3093   5.3282   5.3292   5.3307   5.3677
     5.3682   5.3693   5.3746   5.3933   5.3958   5.4081   5.4096   5.4103
     5.4326   5.4332   5.4341   5.4387   5.4841   5.4847   5.4857   5.4912
     5.5383   5.5397   5.5405   5.5434   5.5661   5.5667   5.5673   5.6054
     5.6059   5.6068   5.6376   5.6397   5.6712   5.6729   5.6736   5.7031
     5.7041   5.7047   5.7174   5.7583   5.7598   5.7609   5.8017   5.8075
     5.8211   5.8228   5.8244   5.8261   5.8890   5.8914   5.8919   6.0565
     6.0599   6.0606   6.0614   6.0770   6.1195   6.1206   6.1219   6.1351
     6.1957   6.2373   6.2382   6.2391   6.2840   6.3016   6.3021   6.3035
     6.3065   6.3846   6.3859   6.3864   6.4502   6.4667   6.4680   6.4694
     6.4919   6.4925   6.5583   6.5597   6.5611   6.6456   6.6842   6.6855
     6.6872   6.7604   6.7768   6.7789   6.7797   6.7931   6.8528   6.8555
     6.8566   6.9351   6.9359   6.9377

     highest occupied level (ev):     7.1813

!    total energy              =   -9077.18771220 Ry
     estimated scf accuracy    <          2.3E-10 Ry

     The total energy is the sum of the following terms:
     one-electron contribution =   -2776.69313645 Ry
     hartree contribution      =    2020.10217597 Ry
     xc contribution           =   -2269.38778008 Ry
     ewald contribution        =   -3895.41261930 Ry
     one-center paw contrib.   =   -2155.79635234 Ry

     convergence has been achieved in  21 iterations

     negative rho (up, down):  7.902E-01 0.000E+00

     Forces acting on atoms (cartesian axes, Ry/au):

     atom    1 type  1   force =    -0.00292703    0.00019721   -0.00335648
     atom    2 type  1   force =     0.00026756    0.00025633   -0.00012869
     atom    3 type  1   force =    -0.00015429    0.00019534   -0.00014234
     atom    4 type  1   force =    -0.00005843    0.00045101   -0.00013076
     atom    5 type  1   force =    -0.00000777   -0.00023031    0.00025135
     atom    6 type  1   force =    -0.00019010   -0.00028744    0.00006699
     atom    7 type  1   force =    -0.00017744   -0.00023978    0.00006579
     atom    8 type  1   force =    -0.00014537   -0.00027024    0.00007796
     atom    9 type  1   force =     0.00034080   -0.00001057    0.00007859
     atom   10 type  1   force =     0.00035177    0.00007084    0.00015094
     atom   11 type  1   force =     0.00020570   -0.00000820    0.00015191
     atom   12 type  1   force =     0.00033671   -0.00003114    0.00008489
     atom   13 type  2   force =     0.00006116   -0.00024484    0.00041929
     atom   14 type  2   force =     0.00023446   -0.00042807    0.00019446
     atom   15 type  2   force =     0.00019273   -0.00039063    0.00020050
     atom   16 type  2   force =     0.00021890   -0.00038577    0.00020495
     atom   17 type  2   force =     0.00018951    0.00036787    0.00019201
     atom   18 type  2   force =     0.00024304    0.00037161    0.00024260
     atom   19 type  2   force =     0.00022954    0.00037290    0.00021580
     atom   20 type  2   force =     0.00022608    0.00037025    0.00020681
     atom   21 type  2   force =    -0.00048648    0.00018196   -0.00012139
     atom   22 type  2   force =    -0.00040900   -0.00016718    0.00019508
     atom   23 type  2   force =    -0.00042457    0.00003050    0.00012924
     atom   24 type  2   force =    -0.00038131    0.00009838    0.00011418
     atom   25 type  2   force =    -0.00043537   -0.00002151   -0.00016736
     atom   26 type  2   force =    -0.00045538   -0.00005211   -0.00016959
     atom   27 type  2   force =    -0.00043562   -0.00001850   -0.00014045
     atom   28 type  2   force =    -0.00043587   -0.00002565   -0.00016575
     atom   29 type  2   force =     0.00038472    0.00037539   -0.00022103
     atom   30 type  2   force =     0.00034446    0.00045394   -0.00054908
     atom   31 type  2   force =     0.00010599    0.00046925   -0.00019572
     atom   32 type  2   force =     0.00022125    0.00036151   -0.00023911
     atom   33 type  2   force =     0.00025375   -0.00035413   -0.00016696
     atom   34 type  2   force =     0.00024359   -0.00039802    0.00001749
     atom   35 type  2   force =     0.00021191   -0.00034184   -0.00018543
     atom   36 type  2   force =     0.00024284   -0.00039297   -0.00015454
     atom   37 type  3   force =     0.00029025   -0.00043739    0.00017897
     atom   38 type  3   force =     0.00029651   -0.00048697    0.00006642
     atom   39 type  3   force =     0.00027762   -0.00048218    0.00005814
     atom   40 type  3   force =     0.00026776   -0.00044998    0.00008012
     atom   41 type  3   force =    -0.00043274    0.00004072   -0.00052970
     atom   42 type  3   force =     0.00052992    0.00092003    0.00063306
     atom   43 type  3   force =     0.00039688   -0.00002033   -0.00007407
     atom   44 type  3   force =     0.00031471    0.00041182   -0.00001086
     atom   45 type  3   force =    -0.00050983    0.00008464    0.00005474
     atom   46 type  3   force =    -0.00136505   -0.00090604   -0.00010886
     atom   47 type  3   force =    -0.00022935    0.00016298    0.00033605
     atom   48 type  3   force =    -0.00064769    0.00015522   -0.00015838
     atom   49 type  4   force =     0.00032674   -0.00004926   -0.00011285
     atom   50 type  4   force =     0.00034495   -0.00007818   -0.00004806
     atom   51 type  4   force =     0.00034065   -0.00007289   -0.00002604
     atom   52 type  4   force =     0.00035546   -0.00009695   -0.00003394
     atom   53 type  4   force =     0.00001070    0.00052028    0.00037456
     atom   54 type  4   force =     0.00054399    0.00013095    0.00009255
     atom   55 type  4   force =    -0.00001709    0.00038311    0.00011547
     atom   56 type  4   force =    -0.00009563    0.00033654    0.00006274
     atom   57 type  4   force =    -0.00023612   -0.00029501   -0.00005260
     atom   58 type  4   force =    -0.00021183   -0.00030373   -0.00002173
     atom   59 type  4   force =    -0.00031468   -0.00024843    0.00000313
     atom   60 type  4   force =    -0.00018435   -0.00021345    0.00005477
     atom   61 type  4   force =    -0.00031428    0.00024986    0.00000374
     atom   62 type  4   force =     0.00003444    0.00031713    0.00026599
     atom   63 type  4   force =    -0.00005751    0.00058902    0.00016103
     atom   64 type  4   force =    -0.00022550    0.00031366    0.00007482
     atom   65 type  4   force =     0.00039830    0.00012477    0.00007907
     atom   66 type  4   force =     0.00033390    0.00008160   -0.00011647
     atom   67 type  4   force =     0.00034197    0.00023515   -0.00007294
     atom   68 type  4   force =     0.00033602    0.00008624   -0.00002694
     atom   69 type  4   force =    -0.00010530   -0.00035184   -0.00005214
     atom   70 type  4   force =    -0.00001642   -0.00045018   -0.00014802
     atom   71 type  4   force =    -0.00006788   -0.00036463   -0.00008205
     atom   72 type  4   force =    -0.00008429   -0.00036920   -0.00004708
     atom   73 type  4   force =     0.00113445   -0.00017899    0.00091826
     atom   74 type  4   force =    -0.00001910    0.00013456   -0.00019660
     atom   75 type  4   force =     0.00003880    0.00012723   -0.00021902
     atom   76 type  4   force =    -0.00004426    0.00010218   -0.00027333
     atom   77 type  4   force =    -0.00014063   -0.00008915   -0.00030046
     atom   78 type  4   force =    -0.00011842   -0.00007628   -0.00031483
     atom   79 type  4   force =    -0.00013781   -0.00006700   -0.00029184
     atom   80 type  4   force =    -0.00013368   -0.00006972   -0.00028862
     atom   81 type  4   force =     0.00020049   -0.00001142   -0.00004920
     atom   82 type  4   force =     0.00006619   -0.00002370   -0.00025053
     atom   83 type  4   force =     0.00020190   -0.00010690   -0.00018369
     atom   84 type  4   force =     0.00013208   -0.00012835   -0.00023026
     atom   85 type  4   force =     0.00012799    0.00011013    0.00019973
     atom   86 type  4   force =     0.00011771    0.00009627    0.00019553
     atom   87 type  4   force =     0.00012495    0.00011434    0.00017785
     atom   88 type  4   force =     0.00012967    0.00009784    0.00020531
     atom   89 type  4   force =    -0.00000203   -0.00016207    0.00027513
     atom   90 type  4   force =     0.00005127   -0.00024058    0.00049040
     atom   91 type  4   force =     0.00002944   -0.00020338    0.00023240
     atom   92 type  4   force =     0.00006585   -0.00001335    0.00030623
     atom   93 type  4   force =    -0.00028275   -0.00000173    0.00014862
     atom   94 type  4   force =     0.00017105    0.00061579    0.00089068
     atom   95 type  4   force =    -0.00013128    0.00003581    0.00030917
     atom   96 type  4   force =    -0.00018956    0.00014602    0.00025023

     Total force =     0.006650     Total SCF correction =     0.000025
     Message from routine punch:
     Nothing written, as per user request (disk_io='none')

     init_run     :     42.30s CPU     44.73s WALL (       1 calls)
     electrons    :   2160.01s CPU   2266.44s WALL (       1 calls)
     forces       :     20.66s CPU     21.09s WALL (       1 calls)

     Called by init_run:
     wfcinit      :     38.34s CPU     40.55s WALL (       1 calls)
     potinit      :      1.12s CPU      1.16s WALL (       1 calls)
     hinit0       :      1.11s CPU      1.14s WALL (       1 calls)

     Called by electrons:
     c_bands      :   1909.14s CPU   1995.60s WALL (      21 calls)
     sum_band     :    219.67s CPU    235.96s WALL (      21 calls)
     v_of_rho     :      4.35s CPU      4.78s WALL (      22 calls)
     newd         :     21.41s CPU     24.60s WALL (      22 calls)
     PAW_pot      :      5.54s CPU      5.57s WALL (      22 calls)
     mix_rho      :      0.77s CPU      0.84s WALL (      21 calls)

     Called by c_bands:
     init_us_2    :     20.42s CPU     20.61s WALL (     308 calls)
     cegterg      :   1847.42s CPU   1933.42s WALL (     147 calls)

     Called by *egterg:
     cdiaghg      :     85.31s CPU     87.77s WALL (     895 calls)
     h_psi        :   1021.95s CPU   1095.24s WALL (     902 calls)
     s_psi        :    224.02s CPU    225.67s WALL (     902 calls)
     g_psi        :      3.13s CPU      3.16s WALL (     748 calls)

     Called by h_psi:
     h_psi:calbec :    231.73s CPU    234.21s WALL (     902 calls)
     vloc_psi     :    562.06s CPU    629.17s WALL (     902 calls)
     add_vuspsi   :    224.59s CPU    226.29s WALL (     902 calls)

     General routines
     calbec       :    321.18s CPU    324.67s WALL (    1077 calls)
     fft          :      8.55s CPU      9.09s WALL (     295 calls)
     ffts         :      0.79s CPU      0.83s WALL (      43 calls)
     fftw         :    493.22s CPU    565.17s WALL (  423912 calls)
     interpolate  :      0.94s CPU      1.01s WALL (      22 calls)

     Parallel routines

     PWSCF        :  37m 3.25s CPU  38m52.99s WALL


   This run was terminated on:   2:58:48  21Aug2026            

=------------------------------------------------------------------------------=
   JOB DONE.
=------------------------------------------------------------------------------=
