
     Program PWSCF v.7.3.1 starts on 21Aug2026 at  4:28: 2 

     This program is part of the open-source Quantum ESPRESSO suite
     for quantum simulation of materials; please cite
         "P. Giannozzi et al., J. Phys.:Condens. Matter 21 395502 (2009);
         "P. Giannozzi et al., J. Phys.:Condens. Matter 29 465901 (2017);
         "P. Giannozzi et al., J. Chem. Phys. 152 154105 (2020);
          URL http://www.quantum-espresso.org", 
     in publications or presentations arising from this work. More details at
     http://www.quantum-espresso.org/quote

     Parallel version (MPI & OpenMP), running on      32 processor cores
     Number of MPI processes:                32
     Threads/MPI process:                     1

     MPI processes distributed on     1 nodes
     344899 MiB available memory on the printing compute node when the environment starts

     Reading input from scf.in

     Current dimensions of program PWSCF are:
     Max number of different atomic species (ntypx) = 10
     Max number of k-points (npk) =  40000
     Max angular momentum in pseudopotentials (lmaxx) =  4
     file Cu.paw.z_11.ld1.psl.v1.0.0-low.upf: wavefunction(s)  4S 3D renormalized

     K-points division:     npool     =       2
     R & G space division:  proc/nbgrp/npool/nimage =      16
     Subspace diagonalization in iterative solution of the eigenvalue problem:
     one sub-group per band group will be used
     scalapack distributed-memory algorithm (size of sub-group:  4*  4 procs)


     Parallelization info
     --------------------
     sticks:   dense  smooth     PW     G-vecs:    dense   smooth      PW
     Min        1193     597    157               163743    57882    7779
     Max        1194     599    158               163747    57885    7784
     Sum       19099    9565   2515              2619931   926125  124485

     Using Slab Decomposition



     bravais-lattice index     =            0
     lattice parameter (alat)  =      24.0273  a.u.
     unit-cell volume          =   14752.0463 (a.u.)^3
     number of atoms/cell      =           96
     number of atomic types    =            4
     number of electrons       =       840.00
     number of Kohn-Sham states=          420
     kinetic-energy cutoff     =      60.0000  Ry
     charge density cutoff     =     480.0000  Ry
     scf convergence threshold =      1.0E-09
     mixing beta               =       0.3000
     number of iterations used =            8  plain     mixing
     Exchange-correlation=  SLA  PW   PBX  PBC
                           (   1   4   3   4   0   0   0)

     celldm(1)=  24.027274  celldm(2)=   0.000000  celldm(3)=   0.000000
     celldm(4)=   0.000000  celldm(5)=   0.000000  celldm(6)=   0.000000

     crystal axes: (cart. coord. in units of alat)
               a(1) = (   1.000000   0.000000   0.000000 )  
               a(2) = (  -0.500000   0.866025   0.000000 )  
               a(3) = (   0.000000   0.000000   1.228028 )  

     reciprocal axes: (cart. coord. in units 2 pi/alat)
               b(1) = (  1.000000  0.577351 -0.000000 )  
               b(2) = (  0.000000  1.154701  0.000000 )  
               b(3) = (  0.000000 -0.000000  0.814314 )  


     PseudoPot. # 1 for Sr read from file:
     /home/yuhansun/pseudos/SSSP-1.3.0-PBE-precision/Sr_pbe_v1.uspp.F.UPF
     MD5 check sum: 6b418c05fbe9db5448babca5e47b7a5b
     Pseudo is Ultrasoft + core correction, Zval = 10.0
     Generated by new atomic code, or converted to UPF format
     Using radial grid of  883 points,  6 beta functions with: 
                l(1) =   0
                l(2) =   0
                l(3) =   1
                l(4) =   1
                l(5) =   2
                l(6) =   2
     Q(r) pseudized with  6 coefficients,  rinner =    1.400   1.400   1.400
                                                       1.400   1.400

     PseudoPot. # 2 for Cu read from file:
     /home/yuhansun/pseudos/SSSP-1.3.0-PBE-precision/Cu.paw.z_11.ld1.psl.v1.0.0-low.upf
     MD5 check sum: 619f40885d92a09a85a8b37550532d0c
     Pseudo is Projector augmented-wave + core cor, Zval = 11.0
     Generated using &quot;atomic&quot; code by A. Dal Corso  v.6.3MaX
     Shape of augmentation charge: PSQ
     Using radial grid of 1199 points,  6 beta functions with: 
                l(1) =   0
                l(2) =   0
                l(3) =   1
                l(4) =   1
                l(5) =   2
                l(6) =   2
     Q(r) pseudized with 0 coefficients 


     PseudoPot. # 3 for Sn read from file:
     /home/yuhansun/pseudos/SSSP-1.3.0-PBE-precision/Sn_pbe_v1.uspp.F.UPF
     MD5 check sum: 4cf58ce39ec5d5d420df3dd08604eb00
     Pseudo is Ultrasoft + core correction, Zval = 14.0
     Generated by new atomic code, or converted to UPF format
     Using radial grid of  891 points,  6 beta functions with: 
                l(1) =   0
                l(2) =   0
                l(3) =   1
                l(4) =   1
                l(5) =   2
                l(6) =   2
     Q(r) pseudized with  6 coefficients,  rinner =    1.200   1.200   1.200
                                                       1.200   1.200

     PseudoPot. # 4 for S  read from file:
     /home/yuhansun/pseudos/SSSP-1.3.0-PBE-precision/s_pbe_v1.4.uspp.F.UPF
     MD5 check sum: 88d86576ff6df21479756cfb9bdac1df
     Pseudo is Ultrasoft + core correction, Zval =  6.0
     Generated by new atomic code, or converted to UPF format
     Using radial grid of  907 points,  6 beta functions with: 
                l(1) =   0
                l(2) =   0
                l(3) =   1
                l(4) =   1
                l(5) =   2
                l(6) =   2
     Q(r) pseudized with  8 coefficients,  rinner =    1.300   1.300   1.300
                                                       1.300   1.300

     atomic species   valence    mass     pseudopotential
     Sr               10.00    87.62000     Sr( 1.00)
     Cu               11.00    63.54600     Cu( 1.00)
     Sn               14.00   118.71000     Sn( 1.00)
     S                 6.00    32.06500     S ( 1.00)

     No symmetry found



   Cartesian axes

     site n.     atom                  positions (alat units)
         1        Sr     tau(   1) = (  -0.1405753   0.2434834   0.2046717  )
         2        Sr     tau(   2) = (   0.3594247   0.2434834   0.2046717  )
         3        Sr     tau(   3) = (  -0.3905753   0.6764960   0.2046717  )
         4        Sr     tau(   4) = (   0.1094247   0.6764960   0.2046717  )
         5        Sr     tau(   5) = (   0.1094247   0.1895292   0.6140139  )
         6        Sr     tau(   6) = (   0.6094247   0.1895292   0.6140139  )
         7        Sr     tau(   7) = (  -0.1405753   0.6225418   0.6140139  )
         8        Sr     tau(   8) = (   0.3594247   0.6225418   0.6140139  )
         9        Sr     tau(   9) = (   0.2811505   0.0000000   1.0233574  )
        10        Sr     tau(  10) = (   0.7811505   0.0000000   1.0233574  )
        11        Sr     tau(  11) = (   0.0311505   0.4330126   1.0233574  )
        12        Sr     tau(  12) = (   0.5311505   0.4330126   1.0233574  )
        13        Cu     tau(  13) = (  -0.1226788   0.2753211   0.5061747  )
        14        Cu     tau(  14) = (   0.3773212   0.2753211   0.5061747  )
        15        Cu     tau(  15) = (  -0.3726788   0.7083337   0.5061747  )
        16        Cu     tau(  16) = (   0.1273212   0.7083337   0.5061747  )
        17        Cu     tau(  17) = (   0.0729045   0.1891087   0.9155169  )
        18        Cu     tau(  18) = (   0.5729045   0.1891087   0.9155169  )
        19        Cu     tau(  19) = (  -0.1770956   0.6221213   0.9155169  )
        20        Cu     tau(  20) = (   0.3229044   0.6221213   0.9155169  )
        21        Cu     tau(  21) = (   0.0497750   0.4015949   0.0968325  )
        22        Cu     tau(  22) = (   0.5497750   0.4015949   0.0968325  )
        23        Cu     tau(  23) = (  -0.2002251   0.8346075   0.0968325  )
        24        Cu     tau(  24) = (   0.2997749   0.8346075   0.0968325  )
        25        Cu     tau(  25) = (   0.2997745   0.0314177   0.7218532  )
        26        Cu     tau(  26) = (   0.7997745   0.0314177   0.7218532  )
        27        Cu     tau(  27) = (   0.0497745   0.4644302   0.7218532  )
        28        Cu     tau(  28) = (   0.5497745   0.4644302   0.7218532  )
        29        Cu     tau(  29) = (   0.1273207   0.1576915   0.3125110  )
        30        Cu     tau(  30) = (   0.6273207   0.1576915   0.3125110  )
        31        Cu     tau(  31) = (  -0.1226793   0.5907041   0.3125110  )
        32        Cu     tau(  32) = (   0.3773207   0.5907041   0.3125110  )
        33        Cu     tau(  33) = (   0.3229040   0.2439039   1.1311954  )
        34        Cu     tau(  34) = (   0.8229040   0.2439039   1.1311954  )
        35        Cu     tau(  35) = (   0.0729039   0.6769164   1.1311954  )
        36        Cu     tau(  36) = (   0.5729039   0.6769164   1.1311954  )
        37        Sn     tau(  37) = (  -0.1762580   0.3052877   0.8186857  )
        38        Sn     tau(  38) = (   0.3237420   0.3052877   0.8186857  )
        39        Sn     tau(  39) = (  -0.4262581   0.7383003   0.8186857  )
        40        Sn     tau(  40) = (   0.0737419   0.7383003   0.8186857  )
        41        Sn     tau(  41) = (   0.0737420   0.1277249   0.0000000  )
        42        Sn     tau(  42) = (   0.5737420   0.1277249   0.0000000  )
        43        Sn     tau(  43) = (  -0.1762581   0.5607374   0.0000000  )
        44        Sn     tau(  44) = (   0.3237419   0.5607374   0.0000000  )
        45        Sn     tau(  45) = (   0.3525160   0.0000000   0.4093422  )
        46        Sn     tau(  46) = (   0.8525160   0.0000000   0.4093422  )
        47        Sn     tau(  47) = (   0.1025160   0.4330126   0.4093422  )
        48        Sn     tau(  48) = (   0.6025160   0.4330126   0.4093422  )
        49        S      tau(  49) = (  -0.0988203   0.2103164   0.9671149  )
        50        S      tau(  50) = (   0.4011797   0.2103164   0.9671149  )
        51        S      tau(  51) = (  -0.3488203   0.6433290   0.9671149  )
        52        S      tau(  52) = (   0.1511797   0.6433290   0.9671149  )
        53        S      tau(  53) = (   0.1172707   0.2422736   0.1484293  )
        54        S      tau(  54) = (   0.6172707   0.2422736   0.1484293  )
        55        S      tau(  55) = (  -0.1327293   0.6752862   0.1484293  )
        56        S      tau(  56) = (   0.3672707   0.6752862   0.1484293  )
        57        S      tau(  57) = (  -0.0184505   0.4134352   0.5577727  )
        58        S      tau(  58) = (   0.4815495   0.4134352   0.5577727  )
        59        S      tau(  59) = (  -0.2684506   0.8464478   0.5577727  )
        60        S      tau(  60) = (   0.2315494   0.8464478   0.5577727  )
        61        S      tau(  61) = (   0.2315495   0.0195774   0.2609129  )
        62        S      tau(  62) = (   0.7315495   0.0195774   0.2609129  )
        63        S      tau(  63) = (  -0.0184505   0.4525899   0.2609129  )
        64        S      tau(  64) = (   0.4815495   0.4525899   0.2609129  )
        65        S      tau(  65) = (   0.1511797   0.2226962   1.0795986  )
        66        S      tau(  66) = (   0.6511797   0.2226962   1.0795986  )
        67        S      tau(  67) = (  -0.0988203   0.6557088   1.0795986  )
        68        S      tau(  68) = (   0.4011797   0.6557088   1.0795986  )
        69        S      tau(  69) = (   0.3672707   0.1907390   0.6702552  )
        70        S      tau(  70) = (   0.8672707   0.1907390   0.6702552  )
        71        S      tau(  71) = (   0.1172707   0.6237516   0.6702552  )
        72        S      tau(  72) = (   0.6172707   0.6237516   0.6702552  )
        73        S      tau(  73) = (  -0.0284012   0.1510385   0.4010942  )
        74        S      tau(  74) = (   0.4703502   0.1532012   0.4035914  )
        75        S      tau(  75) = (  -0.2796498   0.5862137   0.4035914  )
        76        S      tau(  76) = (   0.2203502   0.5862137   0.4035914  )
        77        S      tau(  77) = (   0.1321490   0.3307341   0.8129336  )
        78        S      tau(  78) = (   0.6321490   0.3307341   0.8129336  )
        79        S      tau(  79) = (  -0.1178511   0.7637467   0.8129336  )
        80        S      tau(  80) = (   0.3821489   0.7637467   0.8129336  )
        81        S      tau(  81) = (  -0.1024985   0.3820894   1.2222770  )
        82        S      tau(  82) = (   0.3975015   0.3820894   1.2222770  )
        83        S      tau(  83) = (  -0.3524986   0.8151020   1.2222770  )
        84        S      tau(  84) = (   0.1475014   0.8151020   1.2222770  )
        85        S      tau(  85) = (   0.1475010   0.0509231   0.8244365  )
        86        S      tau(  86) = (   0.6475010   0.0509231   0.8244365  )
        87        S      tau(  87) = (  -0.1024990   0.4839357   0.8244365  )
        88        S      tau(  88) = (   0.3975010   0.4839357   0.8244365  )
        89        S      tau(  89) = (   0.2203497   0.2798114   0.4150943  )
        90        S      tau(  90) = (   0.7203497   0.2798114   0.4150943  )
        91        S      tau(  91) = (  -0.0296503   0.7128240   0.4150943  )
        92        S      tau(  92) = (   0.4703497   0.7128240   0.4150943  )
        93        S      tau(  93) = (   0.3821485   0.1022784   0.0057509  )
        94        S      tau(  94) = (   0.8821485   0.1022784   0.0057509  )
        95        S      tau(  95) = (   0.1321485   0.5352910   0.0057509  )
        96        S      tau(  96) = (   0.6321485   0.5352910   0.0057509  )

     number of k points=    14
                       cart. coord. in units 2pi/alat
        k(    1) = (   0.0000000   0.0000000   0.0000000), wk =   0.0740741
        k(    2) = (   0.0000000   0.0000000   0.2714379), wk =   0.1481481
        k(    3) = (   0.0000000   0.3849003   0.0000000), wk =   0.1481481
        k(    4) = (   0.0000000   0.3849003   0.2714379), wk =   0.1481481
        k(    5) = (   0.3333333   0.5773505   0.0000000), wk =   0.1481481
        k(    6) = (   0.3333333   0.5773505   0.2714379), wk =   0.1481481
        k(    7) = (  -0.3333333   0.1924501   0.0000000), wk =   0.1481481
        k(    8) = (   0.3333333   0.1924502   0.0000000), wk =   0.1481481
        k(    9) = (   0.0000000  -0.3849003   0.2714379), wk =   0.1481481
        k(   10) = (  -0.3333333   0.1924501   0.2714379), wk =   0.1481481
        k(   11) = (   0.3333333   0.1924502   0.2714379), wk =   0.1481481
        k(   12) = (  -0.3333333  -0.1924502   0.2714379), wk =   0.1481481
        k(   13) = (   0.3333333  -0.1924501   0.2714379), wk =   0.1481481
        k(   14) = (  -0.3333333  -0.5773505   0.2714379), wk =   0.1481481

     Dense  grid:  2619931 G-vectors     FFT dimensions: ( 180, 180, 216)

     Smooth grid:   926125 G-vectors     FFT dimensions: ( 120, 120, 150)

     Estimated max dynamical RAM per process >       1.07 GB

     Estimated total dynamical RAM >      33.54 GB

     Initial potential from superposition of free atoms

     starting charge     827.5884, renormalised to     840.0000

     negative rho (up, down):  7.777E-01 0.000E+00
     Starting wfcs are  672 randomized atomic wfcs
     Checking if some PAW data can be deallocated... 

     total cpu time spent up to now is       46.0 secs

     Self-consistent Calculation

     iteration #  1     ecut=    60.00 Ry     beta= 0.30
     Davidson diagonalization with overlap
     ethr =  1.00E-02,  avg # of iterations =  2.0

     negative rho (up, down):  7.747E-01 0.000E+00

     total cpu time spent up to now is      129.0 secs

     total energy              =   -9070.29587730 Ry
     estimated scf accuracy    <      21.96852357 Ry

     iteration #  2     ecut=    60.00 Ry     beta= 0.30
     Davidson diagonalization with overlap
     ethr =  2.62E-03,  avg # of iterations =  4.8

     negative rho (up, down):  7.752E-01 0.000E+00

     total cpu time spent up to now is      232.8 secs

     total energy              =   -9076.61786356 Ry
     estimated scf accuracy    <       8.16757175 Ry

     iteration #  3     ecut=    60.00 Ry     beta= 0.30
     Davidson diagonalization with overlap
     ethr =  9.72E-04,  avg # of iterations =  2.0

     negative rho (up, down):  7.804E-01 0.000E+00

     total cpu time spent up to now is      317.0 secs

     total energy              =   -9076.49126898 Ry
     estimated scf accuracy    <       1.61881106 Ry

     iteration #  4     ecut=    60.00 Ry     beta= 0.30
     Davidson diagonalization with overlap
     ethr =  1.93E-04,  avg # of iterations =  6.0

     negative rho (up, down):  7.829E-01 0.000E+00

     total cpu time spent up to now is      439.3 secs

     total energy              =   -9076.70261798 Ry
     estimated scf accuracy    <       2.06833526 Ry

     iteration #  5     ecut=    60.00 Ry     beta= 0.30
     Davidson diagonalization with overlap
     ethr =  1.93E-04,  avg # of iterations =  4.9

     negative rho (up, down):  7.881E-01 0.000E+00

     total cpu time spent up to now is      537.8 secs

     total energy              =   -9077.13834380 Ry
     estimated scf accuracy    <       0.14134480 Ry

     iteration #  6     ecut=    60.00 Ry     beta= 0.30
     Davidson diagonalization with overlap
     ethr =  1.68E-05,  avg # of iterations =  6.7

     negative rho (up, down):  7.901E-01 0.000E+00

     total cpu time spent up to now is      642.7 secs

     total energy              =   -9077.18409307 Ry
     estimated scf accuracy    <       0.01570312 Ry

     iteration #  7     ecut=    60.00 Ry     beta= 0.30
     Davidson diagonalization with overlap
     ethr =  1.87E-06,  avg # of iterations =  5.1

     negative rho (up, down):  7.908E-01 0.000E+00

     total cpu time spent up to now is      751.7 secs

     total energy              =   -9077.18865735 Ry
     estimated scf accuracy    <       0.00579222 Ry

     iteration #  8     ecut=    60.00 Ry     beta= 0.30
     Davidson diagonalization with overlap
     ethr =  6.90E-07,  avg # of iterations =  6.0

     negative rho (up, down):  7.912E-01 0.000E+00

     total cpu time spent up to now is      890.6 secs

     total energy              =   -9077.17804890 Ry
     estimated scf accuracy    <       0.05510134 Ry

     iteration #  9     ecut=    60.00 Ry     beta= 0.30
     Davidson diagonalization with overlap
     ethr =  6.90E-07,  avg # of iterations =  7.8

     negative rho (up, down):  7.911E-01 0.000E+00

     total cpu time spent up to now is     1033.6 secs

     total energy              =   -9077.18734786 Ry
     estimated scf accuracy    <       0.00135053 Ry

     iteration # 10     ecut=    60.00 Ry     beta= 0.30
     Davidson diagonalization with overlap
     ethr =  1.61E-07,  avg # of iterations =  3.1

     negative rho (up, down):  7.907E-01 0.000E+00

     total cpu time spent up to now is     1120.7 secs

     total energy              =   -9077.18720846 Ry
     estimated scf accuracy    <       0.00047763 Ry

     iteration # 11     ecut=    60.00 Ry     beta= 0.30
     Davidson diagonalization with overlap
     ethr =  5.69E-08,  avg # of iterations =  6.1

     negative rho (up, down):  7.905E-01 0.000E+00

     total cpu time spent up to now is     1237.1 secs

     total energy              =   -9077.18736817 Ry
     estimated scf accuracy    <       0.00018549 Ry

     iteration # 12     ecut=    60.00 Ry     beta= 0.30
     Davidson diagonalization with overlap
     ethr =  2.21E-08,  avg # of iterations =  3.9

     negative rho (up, down):  7.904E-01 0.000E+00

     total cpu time spent up to now is     1333.3 secs

     total energy              =   -9077.18739169 Ry
     estimated scf accuracy    <       0.00002056 Ry

     iteration # 13     ecut=    60.00 Ry     beta= 0.30
     Davidson diagonalization with overlap
     ethr =  2.45E-09,  avg # of iterations =  7.1

     negative rho (up, down):  7.903E-01 0.000E+00

     total cpu time spent up to now is     1461.6 secs

     total energy              =   -9077.18739795 Ry
     estimated scf accuracy    <       0.00001435 Ry

     iteration # 14     ecut=    60.00 Ry     beta= 0.30
     Davidson diagonalization with overlap
     ethr =  1.71E-09,  avg # of iterations =  5.4

     negative rho (up, down):  7.903E-01 0.000E+00

     total cpu time spent up to now is     1564.5 secs

     total energy              =   -9077.18740196 Ry
     estimated scf accuracy    <       0.00000274 Ry

     iteration # 15     ecut=    60.00 Ry     beta= 0.30
     Davidson diagonalization with overlap
     ethr =  3.27E-10,  avg # of iterations =  2.2

     negative rho (up, down):  7.902E-01 0.000E+00

     total cpu time spent up to now is     1648.3 secs

     total energy              =   -9077.18740203 Ry
     estimated scf accuracy    <       0.00000104 Ry

     iteration # 16     ecut=    60.00 Ry     beta= 0.30
     Davidson diagonalization with overlap
     ethr =  1.24E-10,  avg # of iterations =  9.4

     negative rho (up, down):  7.902E-01 0.000E+00

     total cpu time spent up to now is     1777.1 secs

     total energy              =   -9077.18740241 Ry
     estimated scf accuracy    <       0.00000152 Ry

     iteration # 17     ecut=    60.00 Ry     beta= 0.30
     Davidson diagonalization with overlap
     ethr =  1.24E-10,  avg # of iterations =  4.6

     negative rho (up, down):  7.902E-01 0.000E+00

     total cpu time spent up to now is     1869.9 secs

     total energy              =   -9077.18740249 Ry
     estimated scf accuracy    <       0.00000028 Ry

     iteration # 18     ecut=    60.00 Ry     beta= 0.30
     Davidson diagonalization with overlap
     ethr =  3.33E-11,  avg # of iterations =  6.1

     negative rho (up, down):  7.902E-01 0.000E+00

     total cpu time spent up to now is     1978.1 secs

     total energy              =   -9077.18740257 Ry
     estimated scf accuracy    <       0.00000002 Ry

     iteration # 19     ecut=    60.00 Ry     beta= 0.30
     Davidson diagonalization with overlap
     ethr =  2.81E-12,  avg # of iterations =  4.6

     negative rho (up, down):  7.902E-01 0.000E+00

     total cpu time spent up to now is     2090.9 secs

     total energy              =   -9077.18740258 Ry
     estimated scf accuracy    <          3.2E-09 Ry

     iteration # 20     ecut=    60.00 Ry     beta= 0.30
     Davidson diagonalization with overlap
     ethr =  3.82E-13,  avg # of iterations =  7.9

     negative rho (up, down):  7.902E-01 0.000E+00

     total cpu time spent up to now is     2230.4 secs

     total energy              =   -9077.18740258 Ry
     estimated scf accuracy    <          7.1E-09 Ry

     iteration # 21     ecut=    60.00 Ry     beta= 0.30
     Davidson diagonalization with overlap
     ethr =  3.82E-13,  avg # of iterations =  5.9

     negative rho (up, down):  7.902E-01 0.000E+00

     total cpu time spent up to now is     2331.1 secs

     End of self-consistent calculation

          k = 0.0000 0.0000 0.0000 (115723 PWs)   bands (ev):

   -28.2846 -28.2771 -28.2767 -28.2760 -28.2759 -28.2757 -28.2757 -28.2750
   -28.2749 -28.2741 -28.2735 -28.2667 -14.9265 -14.9258 -14.9239 -14.9238
   -14.9237 -14.9232 -14.9223 -14.9222 -14.9220 -14.9219 -14.9216 -14.9209
   -14.9198 -14.9195 -14.9180 -14.9179 -14.9179 -14.9174 -14.9164 -14.9163
   -14.9162 -14.9160 -14.9158 -14.9135 -14.9086 -14.9076 -14.9059 -14.9058
   -14.9058 -14.9053 -14.9043 -14.9042 -14.9041 -14.9040 -14.9037 -14.9014
   -14.8683 -14.8676 -14.8657 -14.8656 -14.8656 -14.8652 -14.8641 -14.8640
   -14.8639 -14.8638 -14.8636 -14.8620 -14.8234 -14.8221 -14.8206 -14.8205
   -14.8204 -14.8200 -14.8190 -14.8189 -14.8188 -14.8186 -14.8184 -14.8142
   -10.3441 -10.3391 -10.3379 -10.3375 -10.3369 -10.3362 -10.3355 -10.3346
   -10.3324 -10.3317 -10.3286 -10.3226 -10.3118 -10.3095 -10.3081 -10.3057
   -10.3033 -10.3020 -10.3017 -10.2998 -10.2937 -10.2924 -10.2899 -10.2818
   -10.2746 -10.2708 -10.2686 -10.2668 -10.2656 -10.2645 -10.2635 -10.2619
   -10.2600 -10.2594 -10.2570 -10.2525  -6.8631  -6.5559  -6.5542  -6.4176
    -6.4170  -6.4158  -6.3008  -6.2998  -6.2987  -6.2196  -6.2191  -6.2174
    -5.9907  -5.9892  -5.9869  -5.8514  -5.8495  -5.8476  -5.7973  -5.7961
    -5.7948  -5.7386  -5.7358  -5.6199  -5.6186  -5.6180  -5.6138  -5.6133
    -5.6115  -5.6008  -5.5603  -5.5582  -5.5578  -5.5459  -5.5452  -5.5434
    -5.5180  -5.5158  -5.4324  -5.4301  -5.4280  -5.4275  -5.3732  -5.3716
    -5.3468  -5.3458  -5.3436  -5.2510  -0.6136  -0.6120  -0.6110  -0.3901
    -0.3892  -0.3882  -0.3516  -0.3170  -0.3159  -0.3139  -0.3029  -0.3006
     1.3833   1.3852   1.3860   1.5904   1.5932   1.6561   1.7152   1.7166
     1.7170   1.8043   1.8058   1.8093   2.0209   2.0405   2.0430   2.0838
     2.0852   2.0911   2.2455   2.2478   2.2482   2.3087   2.3107   2.4017
     2.4041   2.4059   2.4603   2.4608   2.4630   2.5476   2.5520   2.6625
     2.6628   2.6652   2.7834   2.7839   2.7874   2.8712   2.8733   2.9240
     2.9254   2.9259   2.9517   2.9533   2.9566   3.0273   3.0274   3.0293
     3.0403   3.0462   3.0471   3.1649   3.2093   3.2143   3.2150   3.2276
     3.2289   3.2563   3.2573   3.2585   3.3760   3.3774   3.3782   3.3926
     3.3942   3.4266   3.4271   3.4282   3.4355   3.4366   3.4395   3.4752
     3.4762   3.4766   3.4926   3.4935   3.4949   3.4959   3.5170   3.5182
     3.5844   3.5853   3.5864   3.6263   3.6279   3.6320   3.6889   3.6897
     3.6906   3.6920   3.6987   3.7101   3.7948   3.7958   3.8247   3.8262
     3.8285   3.9628   4.0193   4.0210   4.0224   4.0348   4.0369   4.0374
     4.1231   4.1251   4.1259   4.1278   4.1722   4.1733   4.1749   4.2015
     4.2076   4.2097   4.2127   4.2440   4.2447   4.2465   4.2806   4.2812
     4.4229   4.4246   4.4275   4.5168   4.5180   4.5215   4.5343   4.5370
     4.6201   4.6216   4.6230   4.8577   5.1243   5.1545   5.1551   5.1564
     5.1732   5.1743   5.1765   5.1780   5.1791   5.2219   5.2269   5.2273
     5.2274   5.2297   5.2303   5.2514   5.2517   5.2538   5.2659   5.2671
     5.2680   5.2779   5.2789   5.2825   5.3104   5.3107   5.3125   5.3131
     5.3140   5.3243   5.3363   5.3382   5.3390   5.3740   5.3759   5.3768
     5.4387   5.4396   5.4701   5.4710   5.4715   5.4747   5.4764   5.4780
     5.4786   5.4980   5.4995   5.6003   5.6007   5.6020   5.6174   5.6193
     5.6196   5.6265   5.6460   5.6473   5.6485   5.6590   5.6597   5.6607
     5.7244   5.7258   5.7438   5.7824   5.7826   5.7836   5.8204   5.8209
     5.8214   5.9030   5.9036   5.9046   5.9263   5.9277   5.9289   5.9956
     5.9962   6.0255   6.0270   6.0275   6.1482   6.1504   6.1510   6.1524
     6.2601   6.2613   6.2626   6.2629   6.2633   6.2639   6.2899   6.2910
     6.3329   6.3348   6.3359   6.3625   6.3642   6.3651   6.3885   6.3897
     6.3906   6.5525   6.5708   6.5714   6.5727   6.6352   6.6370   6.6389
     6.7448   6.7473   6.7487   6.7635   6.7652   6.7806   6.7813   6.7822
     6.8079   6.9639   7.1797   7.1802

          k = 0.0000 0.0000 0.2714 (115879 PWs)   bands (ev):

   -28.2846 -28.2771 -28.2767 -28.2760 -28.2759 -28.2757 -28.2757 -28.2750
   -28.2749 -28.2741 -28.2735 -28.2667 -14.9265 -14.9258 -14.9239 -14.9238
   -14.9237 -14.9232 -14.9223 -14.9222 -14.9220 -14.9219 -14.9216 -14.9209
   -14.9198 -14.9195 -14.9180 -14.9179 -14.9179 -14.9174 -14.9164 -14.9163
   -14.9162 -14.9160 -14.9158 -14.9135 -14.9086 -14.9076 -14.9059 -14.9058
   -14.9058 -14.9053 -14.9043 -14.9042 -14.9041 -14.9040 -14.9037 -14.9014
   -14.8683 -14.8676 -14.8657 -14.8656 -14.8656 -14.8652 -14.8641 -14.8640
   -14.8639 -14.8638 -14.8636 -14.8620 -14.8234 -14.8221 -14.8206 -14.8205
   -14.8204 -14.8200 -14.8190 -14.8189 -14.8188 -14.8186 -14.8184 -14.8142
   -10.3444 -10.3400 -10.3388 -10.3380 -10.3374 -10.3360 -10.3344 -10.3337
   -10.3331 -10.3303 -10.3279 -10.3231 -10.3130 -10.3102 -10.3079 -10.3059
   -10.3028 -10.3024 -10.3007 -10.2951 -10.2937 -10.2931 -10.2908 -10.2840
   -10.2741 -10.2703 -10.2681 -10.2671 -10.2662 -10.2650 -10.2631 -10.2616
   -10.2598 -10.2590 -10.2575 -10.2532  -6.8239  -6.7134  -6.4096  -6.4092
    -6.4081  -6.4072  -6.3050  -6.3042  -6.3034  -6.2320  -6.2316  -6.2296
    -5.9924  -5.9914  -5.9888  -5.8540  -5.8365  -5.8349  -5.8328  -5.7741
    -5.7731  -5.7718  -5.6567  -5.6561  -5.6555  -5.6519  -5.6134  -5.6123
    -5.6116  -5.6104  -5.5565  -5.5534  -5.5515  -5.5512  -5.5455  -5.5450
    -5.5434  -5.4543  -5.4360  -5.4342  -5.4336  -5.4332  -5.3749  -5.3455
    -5.3388  -5.3379  -5.3358  -5.2814  -0.6056  -0.6042  -0.6030  -0.4142
    -0.4127  -0.4115  -0.3489  -0.3332  -0.3021  -0.3012  -0.2993  -0.2748
     1.4078   1.4092   1.4101   1.5699   1.6138   1.6171   1.6189   1.6199
     1.6575   1.9340   1.9354   1.9387   2.0037   2.0477   2.0521   2.0532
     2.0580   2.0704   2.2743   2.2760   2.2768   2.3050   2.3882   2.3892
     2.3902   2.3920   2.4146   2.4163   2.4176   2.4560   2.6215   2.6224
     2.6240   2.6694   2.7185   2.7914   2.7977   2.7984   2.8026   2.8715
     2.8734   2.8753   2.9736   2.9757   2.9770   3.0426   3.0455   3.0475
     3.1028   3.1065   3.1077   3.1760   3.1981   3.2029   3.2044   3.2059
     3.2715   3.2740   3.2758   3.2846   3.3746   3.3822   3.3840   3.3845
     3.4193   3.4201   3.4208   3.4397   3.4407   3.4434   3.4486   3.4493
     3.4508   3.4773   3.4986   3.5169   3.5190   3.5193   3.5385   3.5447
     3.5491   3.5510   3.5526   3.6393   3.6444   3.6455   3.6479   3.6537
     3.6797   3.6806   3.6896   3.7727   3.8297   3.8750   3.8760   3.8793
     3.9093   3.9213   3.9943   3.9953   3.9972   4.0547   4.0564   4.0575
     4.0751   4.1170   4.1179   4.1211   4.1474   4.1483   4.1500   4.1644
     4.1708   4.1726   4.1750   4.2108   4.2503   4.2508   4.2532   4.2669
     4.4199   4.4218   4.4254   4.4830   4.5584   4.5599   4.5622   4.6049
     4.6063   4.6080   4.6768   4.8076   5.1357   5.1473   5.1535   5.1544
     5.1554   5.1643   5.1864   5.1876   5.1882   5.2154   5.2160   5.2176
     5.2193   5.2474   5.2484   5.2487   5.2581   5.2594   5.2600   5.2629
     5.2756   5.2768   5.2784   5.2805   5.3291   5.3294   5.3303   5.3319
     5.3341   5.3349   5.3412   5.3419   5.3443   5.3662   5.3724   5.3748
     5.3756   5.3897   5.4026   5.4194   5.4210   5.4218   5.5256   5.5318
     5.5328   5.5335   5.5817   5.5871   5.5880   5.5892   5.5906   5.6199
     5.6207   5.6209   5.6511   5.6521   5.6532   5.6609   5.6808   5.6818
     5.6832   5.7545   5.7549   5.7560   5.7905   5.7985   5.8172   5.8175
     5.8178   5.8704   5.8831   5.8835   5.8851   5.9873   5.9892   5.9895
     6.0420   6.0430   6.0438   6.0974   6.0980   6.0988   6.1748   6.1912
     6.1926   6.1932   6.2351   6.2675   6.2683   6.2698   6.3245   6.3258
     6.3270   6.3591   6.3603   6.3705   6.3715   6.3725   6.3950   6.4279
     6.4294   6.4306   6.4793   6.6394   6.6412   6.6419   6.6423   6.6431
     6.6443   6.6701   6.7076   6.7088   6.7098   6.7515   6.7529   6.7539
     6.9408   7.0043   7.0940   7.1695

          k = 0.0000 0.3849 0.0000 (115797 PWs)   bands (ev):

   -28.2846 -28.2771 -28.2767 -28.2760 -28.2759 -28.2757 -28.2757 -28.2750
   -28.2749 -28.2741 -28.2735 -28.2667 -14.9265 -14.9258 -14.9239 -14.9238
   -14.9237 -14.9233 -14.9222 -14.9222 -14.9221 -14.9218 -14.9216 -14.9209
   -14.9198 -14.9196 -14.9180 -14.9179 -14.9179 -14.9174 -14.9164 -14.9163
   -14.9162 -14.9160 -14.9158 -14.9135 -14.9086 -14.9076 -14.9059 -14.9058
   -14.9058 -14.9053 -14.9043 -14.9042 -14.9041 -14.9039 -14.9038 -14.9014
   -14.8683 -14.8676 -14.8657 -14.8656 -14.8656 -14.8652 -14.8641 -14.8640
   -14.8639 -14.8638 -14.8636 -14.8620 -14.8234 -14.8221 -14.8206 -14.8205
   -14.8204 -14.8200 -14.8190 -14.8189 -14.8188 -14.8186 -14.8184 -14.8142
   -10.3437 -10.3382 -10.3375 -10.3365 -10.3360 -10.3353 -10.3341 -10.3337
   -10.3333 -10.3320 -10.3290 -10.3244 -10.3103 -10.3073 -10.3064 -10.3048
   -10.3029 -10.3024 -10.3019 -10.2997 -10.2954 -10.2937 -10.2895 -10.2846
   -10.2740 -10.2695 -10.2684 -10.2673 -10.2657 -10.2647 -10.2630 -10.2628
   -10.2619 -10.2604 -10.2580 -10.2541  -6.7879  -6.5899  -6.5000  -6.4976
    -6.4386  -6.4373  -6.3660  -6.3491  -6.2858  -6.2844  -6.2493  -6.2477
    -5.9118  -5.9105  -5.8205  -5.8186  -5.8165  -5.7777  -5.7684  -5.7667
    -5.7324  -5.7241  -5.7227  -5.6908  -5.6883  -5.6478  -5.6387  -5.6364
    -5.6293  -5.5949  -5.5850  -5.5836  -5.5684  -5.5280  -5.5191  -5.5186
    -5.5165  -5.5042  -5.4626  -5.4506  -5.4374  -5.4359  -5.4211  -5.4149
    -5.3490  -5.3468  -5.3135  -5.2704  -0.5720  -0.5710  -0.5632  -0.4364
    -0.4047  -0.4038  -0.3773  -0.3395  -0.3378  -0.3361  -0.3129  -0.3036
     1.4182   1.4860   1.4886   1.5007   1.6410   1.6515   1.6895   1.7225
     1.7248   1.8291   1.8766   1.8787   1.9541   1.9557   1.9577   2.0273
     2.1153   2.2079   2.2289   2.2305   2.3388   2.3635   2.3841   2.3871
     2.3936   2.4088   2.4489   2.5367   2.5386   2.6131   2.6151   2.6191
     2.6580   2.7347   2.8108   2.8150   2.8220   2.8405   2.8415   2.8459
     2.8538   2.8848   2.9080   2.9090   2.9146   2.9620   2.9626   3.0040
     3.0507   3.0562   3.0577   3.1248   3.1492   3.1756   3.2041   3.2100
     3.2120   3.2315   3.2607   3.2625   3.2688   3.3237   3.3299   3.3320
     3.3401   3.3719   3.3951   3.3952   3.4336   3.4409   3.4422   3.4493
     3.4978   3.4991   3.5002   3.5099   3.5114   3.5138   3.5227   3.5429
     3.5617   3.6049   3.6059   3.6130   3.6354   3.6510   3.6790   3.6822
     3.6944   3.7026   3.7065   3.7100   3.7786   3.7829   3.8490   3.8595
     3.8974   3.9734   3.9754   3.9785   3.9801   4.0298   4.0370   4.0417
     4.0934   4.1111   4.1218   4.1220   4.1255   4.1630   4.1635   4.1780
     4.2477   4.2649   4.2710   4.2824   4.3027   4.3222   4.3243   4.3683
     4.3782   4.4154   4.4207   4.4832   4.5176   4.5270   4.5282   4.5302
     4.5905   4.5921   4.6275   4.7494   5.1433   5.1439   5.1470   5.1542
     5.1597   5.1625   5.1694   5.1744   5.2151   5.2183   5.2198   5.2225
     5.2291   5.2373   5.2480   5.2493   5.2507   5.2609   5.2680   5.2712
     5.2733   5.2893   5.3045   5.3056   5.3132   5.3188   5.3263   5.3288
     5.3368   5.3493   5.3518   5.3545   5.3574   5.3654   5.4134   5.4148
     5.4340   5.4511   5.4610   5.4616   5.4856   5.4934   5.4997   5.5000
     5.5028   5.5124   5.5285   5.5442   5.5562   5.5571   5.5611   5.6030
     5.6041   5.6304   5.6313   5.6319   5.6674   5.6781   5.6946   5.6962
     5.6973   5.7175   5.7297   5.7563   5.7748   5.7760   5.8085   5.8186
     5.8198   5.8637   5.8751   5.8765   5.9505   5.9512   5.9637   5.9656
     5.9903   6.0065   6.0074   6.0204   6.1385   6.1394   6.1449   6.1597
     6.2260   6.2296   6.2299   6.2513   6.2704   6.2885   6.2894   6.2990
     6.3600   6.3624   6.3765   6.3889   6.3910   6.4406   6.4865   6.4871
     6.5241   6.5375   6.5383   6.5756   6.6047   6.6510   6.6822   6.6917
     6.6936   6.7286   6.7367   6.7387   6.7622   6.7776   6.7925   6.8118
     6.8126   6.9037   6.9086   7.0800

          k = 0.0000 0.3849 0.2714 (115773 PWs)   bands (ev):

   -28.2846 -28.2771 -28.2767 -28.2760 -28.2759 -28.2757 -28.2757 -28.2750
   -28.2749 -28.2741 -28.2735 -28.2667 -14.9265 -14.9258 -14.9239 -14.9238
   -14.9237 -14.9233 -14.9222 -14.9222 -14.9221 -14.9218 -14.9216 -14.9209
   -14.9198 -14.9196 -14.9180 -14.9179 -14.9179 -14.9174 -14.9164 -14.9163
   -14.9162 -14.9160 -14.9158 -14.9135 -14.9086 -14.9076 -14.9059 -14.9058
   -14.9058 -14.9053 -14.9043 -14.9042 -14.9041 -14.9039 -14.9038 -14.9014
   -14.8683 -14.8676 -14.8657 -14.8656 -14.8656 -14.8652 -14.8641 -14.8640
   -14.8639 -14.8638 -14.8636 -14.8620 -14.8234 -14.8221 -14.8206 -14.8205
   -14.8204 -14.8200 -14.8190 -14.8189 -14.8188 -14.8186 -14.8184 -14.8142
   -10.3439 -10.3390 -10.3384 -10.3372 -10.3359 -10.3351 -10.3341 -10.3332
   -10.3327 -10.3306 -10.3291 -10.3245 -10.3115 -10.3090 -10.3064 -10.3055
   -10.3021 -10.3013 -10.2995 -10.2972 -10.2957 -10.2939 -10.2900 -10.2867
   -10.2739 -10.2688 -10.2685 -10.2675 -10.2658 -10.2650 -10.2628 -10.2625
   -10.2619 -10.2602 -10.2586 -10.2547  -6.7509  -6.6466  -6.5606  -6.4723
    -6.4230  -6.4214  -6.3643  -6.3290  -6.3287  -6.2593  -6.2249  -6.2245
    -5.9055  -5.9045  -5.8229  -5.8212  -5.8086  -5.8071  -5.7922  -5.7605
    -5.7581  -5.7324  -5.7116  -5.7091  -5.6719  -5.6352  -5.6290  -5.6279
    -5.6254  -5.6075  -5.6001  -5.5996  -5.5695  -5.5280  -5.5223  -5.5221
    -5.5207  -5.4964  -5.4681  -5.4329  -5.4296  -5.4279  -5.4219  -5.3627
    -5.3487  -5.3463  -5.3223  -5.2998  -0.5610  -0.5594  -0.5583  -0.4374
    -0.4353  -0.4261  -0.3942  -0.3736  -0.3199  -0.3175  -0.2993  -0.2794
     1.4332   1.4836   1.4862   1.4872   1.6251   1.6429   1.7714   1.7744
     1.7817   1.7937   1.7995   1.8010   1.9139   1.9956   1.9962   2.0777
     2.1548   2.1995   2.2117   2.2467   2.2490   2.3598   2.3917   2.3939
     2.3983   2.4482   2.5115   2.5128   2.5466   2.5901   2.5937   2.6089
     2.6440   2.7128   2.7608   2.7672   2.7703   2.7889   2.8073   2.8105
     2.8382   2.8748   2.9154   2.9168   2.9181   2.9811   3.0227   3.0247
     3.0688   3.1058   3.1069   3.1326   3.1707   3.1899   3.1926   3.1947
     3.2009   3.2322   3.2644   3.2665   3.2766   3.3183   3.3211   3.3229
     3.3245   3.3891   3.3901   3.4106   3.4454   3.4464   3.4691   3.4700
     3.4712   3.4735   3.4758   3.4771   3.5333   3.5355   3.5370   3.5938
     3.6103   3.6122   3.6159   3.6332   3.6417   3.6521   3.6588   3.6620
     3.6681   3.7098   3.7115   3.7148   3.8353   3.8388   3.8799   3.8886
     3.9043   3.9493   3.9514   3.9741   3.9817   4.0215   4.0478   4.0487
     4.0519   4.0652   4.1107   4.1116   4.1192   4.1336   4.1352   4.1478
     4.1907   4.2544   4.2666   4.2694   4.2871   4.2916   4.2949   4.3871
     4.3975   4.4372   4.4399   4.4673   4.5245   4.5266   4.5354   4.5958
     4.6102   4.6120   4.6228   4.7221   5.1504   5.1510   5.1548   5.1564
     5.1711   5.1752   5.1779   5.1837   5.1905   5.1985   5.2015   5.2076
     5.2082   5.2339   5.2348   5.2363   5.2546   5.2627   5.2660   5.2669
     5.2785   5.2978   5.3074   5.3127   5.3145   5.3290   5.3351   5.3383
     5.3577   5.3595   5.3603   5.3639   5.3801   5.3923   5.4070   5.4076
     5.4137   5.4318   5.4330   5.4443   5.4454   5.4927   5.5017   5.5023
     5.5100   5.5154   5.5537   5.5599   5.5740   5.5755   5.6023   5.6105
     5.6115   5.6191   5.6245   5.6256   5.6426   5.6701   5.6819   5.7137
     5.7147   5.7176   5.7338   5.7721   5.7728   5.7737   5.8020   5.8027
     5.8098   5.8583   5.8743   5.8758   5.8784   5.9146   5.9580   5.9596
     6.0341   6.0351   6.0358   6.0593   6.0785   6.0794   6.1725   6.2062
     6.2127   6.2136   6.2653   6.2668   6.2700   6.2773   6.2849   6.3474
     6.3492   6.3655   6.3714   6.4149   6.4242   6.4252   6.4271   6.4704
     6.4972   6.4994   6.5454   6.5590   6.5947   6.5961   6.6663   6.6680
     6.6772   6.7193   6.7356   6.7373   6.7465   6.8125   6.8143   6.8441
     6.8685   6.9277   6.9367   7.0515

          k = 0.3333 0.5774 0.0000 (115752 PWs)   bands (ev):

   -28.2846 -28.2771 -28.2767 -28.2760 -28.2759 -28.2757 -28.2757 -28.2750
   -28.2749 -28.2741 -28.2735 -28.2667 -14.9265 -14.9258 -14.9238 -14.9238
   -14.9237 -14.9233 -14.9222 -14.9222 -14.9220 -14.9219 -14.9217 -14.9209
   -14.9198 -14.9196 -14.9180 -14.9179 -14.9179 -14.9174 -14.9164 -14.9163
   -14.9162 -14.9160 -14.9159 -14.9135 -14.9086 -14.9076 -14.9059 -14.9058
   -14.9058 -14.9054 -14.9043 -14.9042 -14.9041 -14.9039 -14.9038 -14.9014
   -14.8683 -14.8676 -14.8657 -14.8656 -14.8656 -14.8652 -14.8641 -14.8640
   -14.8639 -14.8638 -14.8636 -14.8620 -14.8234 -14.8221 -14.8206 -14.8205
   -14.8204 -14.8200 -14.8190 -14.8188 -14.8188 -14.8186 -14.8184 -14.8142
   -10.3432 -10.3381 -10.3364 -10.3361 -10.3353 -10.3350 -10.3345 -10.3342
   -10.3331 -10.3305 -10.3298 -10.3254 -10.3097 -10.3065 -10.3051 -10.3044
   -10.3031 -10.3021 -10.3013 -10.3005 -10.2977 -10.2908 -10.2898 -10.2877
   -10.2734 -10.2688 -10.2679 -10.2667 -10.2665 -10.2651 -10.2645 -10.2637
   -10.2626 -10.2594 -10.2585 -10.2553  -6.6506  -6.6503  -6.6498  -6.4006
    -6.3994  -6.3990  -6.3986  -6.3983  -6.3969  -6.2932  -6.2919  -6.1936
    -5.8646  -5.8514  -5.8489  -5.7492  -5.7482  -5.7476  -5.7336  -5.7322
    -5.7308  -5.7095  -5.7073  -5.6953  -5.6939  -5.6933  -5.6857  -5.6846
    -5.6837  -5.6448  -5.5421  -5.5413  -5.5398  -5.5302  -5.5285  -5.5273
    -5.5119  -5.4725  -5.4720  -5.4703  -5.4670  -5.4666  -5.4644  -5.3977
    -5.3957  -5.3024  -5.3015  -5.3008  -0.5450  -0.5157  -0.5148  -0.5144
    -0.3970  -0.3955  -0.3915  -0.3906  -0.3898  -0.3110  -0.3102  -0.3087
     1.4823   1.4847   1.4854   1.6732   1.6754   1.6780   1.6857   1.6864
     1.6887   1.7327   1.7348   1.8016   2.0775   2.0812   2.0821   2.0833
     2.0854   2.1431   2.1447   2.1466   2.2543   2.3969   2.3971   2.3981
     2.4934   2.4946   2.4954   2.5626   2.5639   2.5644   2.5971   2.5986
     2.7734   2.7743   2.7764   2.8361   2.8371   2.8411   2.8442   2.8454
     2.8492   2.8523   2.8530   2.8596   2.8688   3.0079   3.0104   3.0124
     3.0249   3.0256   3.0272   3.0612   3.1337   3.1341   3.1360   3.1957
     3.1978   3.1981   3.2580   3.2599   3.2614   3.2694   3.2716   3.3620
     3.3698   3.3715   3.3725   3.3732   3.4241   3.4256   3.4265   3.4865
     3.4878   3.5022   3.5029   3.5035   3.5291   3.5303   3.5307   3.5471
     3.5495   3.5789   3.5801   3.5844   3.6502   3.6506   3.6559   3.7201
     3.7214   3.7241   3.7278   3.7324   3.7585   3.8011   3.8019   3.8036
     3.9571   3.9595   3.9610   3.9866   3.9891   4.0295   4.0306   4.0325
     4.0826   4.0853   4.0865   4.1408   4.1507   4.1513   4.1532   4.2847
     4.2855   4.2934   4.3154   4.3192   4.3199   4.3208   4.3217   4.3250
     4.3858   4.3865   4.3881   4.4967   4.5143   4.5166   4.5196   4.5212
     4.5227   4.6536   4.6551   4.6580   5.1378   5.1434   5.1444   5.1453
     5.1729   5.1741   5.1871   5.1877   5.1898   5.1959   5.1972   5.1984
     5.2468   5.2471   5.2489   5.2650   5.2659   5.2668   5.2980   5.2984
     5.2993   5.3013   5.3025   5.3030   5.3141   5.3184   5.3194   5.3203
     5.3393   5.3406   5.3415   5.4014   5.4029   5.4041   5.4082   5.4095
     5.4543   5.4556   5.4558   5.4584   5.4830   5.4838   5.4846   5.4883
     5.4889   5.5340   5.5360   5.5366   5.5641   5.5644   5.5652   5.5701
     5.5706   5.5726   5.6411   5.6724   5.6727   5.6937   5.6944   5.6963
     5.7061   5.7072   5.7081   5.7800   5.7804   5.7809   5.7985   5.7998
     5.8003   5.8239   5.8245   5.8435   5.9300   5.9309   5.9315   6.0460
     6.0470   6.0473   6.0482   6.0497   6.1381   6.1388   6.1394   6.1579
     6.2187   6.2196   6.2200   6.2572   6.2601   6.2606   6.2835   6.2851
     6.3743   6.4092   6.4107   6.4111   6.4160   6.4169   6.4233   6.4512
     6.4524   6.4527   6.6132   6.6154   6.6157   6.6761   6.6765   6.6767
     6.7251   6.7397   6.7417   6.8050   6.8064   6.8070   6.8100   6.8103
     6.8113   6.9376   6.9390   6.9395

          k = 0.3333 0.5774 0.2714 (115827 PWs)   bands (ev):

   -28.2846 -28.2771 -28.2767 -28.2760 -28.2759 -28.2757 -28.2757 -28.2750
   -28.2749 -28.2741 -28.2735 -28.2667 -14.9265 -14.9258 -14.9238 -14.9238
   -14.9237 -14.9233 -14.9222 -14.9222 -14.9220 -14.9219 -14.9217 -14.9209
   -14.9198 -14.9196 -14.9180 -14.9179 -14.9179 -14.9174 -14.9164 -14.9163
   -14.9162 -14.9160 -14.9159 -14.9135 -14.9086 -14.9076 -14.9059 -14.9058
   -14.9058 -14.9054 -14.9043 -14.9042 -14.9041 -14.9039 -14.9038 -14.9014
   -14.8683 -14.8676 -14.8657 -14.8656 -14.8656 -14.8652 -14.8641 -14.8640
   -14.8639 -14.8638 -14.8636 -14.8620 -14.8234 -14.8221 -14.8206 -14.8205
   -14.8204 -14.8200 -14.8190 -14.8188 -14.8188 -14.8186 -14.8184 -14.8142
   -10.3435 -10.3386 -10.3374 -10.3370 -10.3365 -10.3341 -10.3335 -10.3331
   -10.3323 -10.3304 -10.3299 -10.3253 -10.3104 -10.3078 -10.3073 -10.3056
   -10.3024 -10.2998 -10.2983 -10.2978 -10.2962 -10.2922 -10.2916 -10.2889
   -10.2735 -10.2690 -10.2678 -10.2671 -10.2663 -10.2646 -10.2638 -10.2632
   -10.2620 -10.2601 -10.2596 -10.2556  -6.6184  -6.6182  -6.6177  -6.5251
    -6.5247  -6.5243  -6.3083  -6.2897  -6.2895  -6.2890  -6.2583  -6.2149
    -5.8742  -5.8576  -5.8441  -5.7805  -5.7793  -5.7786  -5.7424  -5.7417
    -5.7411  -5.7161  -5.6889  -5.6875  -5.6871  -5.6737  -5.6721  -5.6711
    -5.6704  -5.6433  -5.5568  -5.5565  -5.5547  -5.5253  -5.5247  -5.5235
    -5.5048  -5.5034  -5.5030  -5.5008  -5.4589  -5.3986  -5.3980  -5.3967
    -5.3579  -5.3233  -5.3224  -5.3214  -0.5209  -0.5069  -0.5059  -0.5053
    -0.4617  -0.4179  -0.4174  -0.4167  -0.3549  -0.2937  -0.2931  -0.2919
     1.4807   1.4832   1.4834   1.6371   1.6384   1.6408   1.6890   1.7739
     1.7757   1.7767   1.7793   1.7955   1.9799   1.9815   1.9842   2.0551
     2.1703   2.1919   2.1937   2.1947   2.2464   2.3960   2.3978   2.3986
     2.4885   2.4888   2.4896   2.5573   2.5858   2.5881   2.5889   2.5924
     2.6798   2.7355   2.7369   2.7411   2.8215   2.8231   2.8239   2.8292
     2.9008   2.9027   2.9060   2.9235   2.9360   2.9539   2.9558   2.9569
     3.0593   3.0607   3.0631   3.0880   3.0888   3.0898   3.1260   3.1804
     3.2441   3.2450   3.2463   3.2700   3.2716   3.2732   3.3200   3.3252
     3.3277   3.3281   3.3736   3.4074   3.4209   3.4645   3.4658   3.4664
     3.4937   3.4991   3.4995   3.5003   3.5364   3.5371   3.5388   3.5410
     3.5612   3.6157   3.6163   3.6219   3.6543   3.6549   3.6589   3.6973
     3.6986   3.7012   3.7202   3.7459   3.8219   3.8409   3.8418   3.8433
     3.9381   3.9398   3.9410   3.9433   4.0294   4.0299   4.0318   4.0402
     4.0666   4.0678   4.0698   4.1090   4.1140   4.1152   4.1167   4.1686
     4.2724   4.2731   4.2750   4.2891   4.3154   4.3599   4.3617   4.3628
     4.4160   4.4170   4.4191   4.4923   4.4932   4.4948   4.5075   4.5128
     4.5650   4.6668   4.6674   4.6706   5.1489   5.1558   5.1574   5.1578
     5.1598   5.1819   5.1830   5.1843   5.1972   5.1980   5.1991   5.2104
     5.2247   5.2250   5.2269   5.2514   5.2520   5.2528   5.2569   5.2688
     5.3008   5.3021   5.3033   5.3099   5.3277   5.3290   5.3312   5.3675
     5.3682   5.3700   5.3748   5.3935   5.3956   5.4086   5.4095   5.4105
     5.4318   5.4327   5.4341   5.4386   5.4843   5.4849   5.4858   5.4917
     5.5384   5.5395   5.5398   5.5437   5.5650   5.5670   5.5686   5.6046
     5.6057   5.6063   5.6382   5.6396   5.6710   5.6725   5.6731   5.7031
     5.7036   5.7050   5.7173   5.7586   5.7593   5.7601   5.8016   5.8077
     5.8197   5.8236   5.8242   5.8254   5.8901   5.8905   5.8908   6.0577
     6.0597   6.0611   6.0615   6.0765   6.1198   6.1203   6.1208   6.1348
     6.1952   6.2369   6.2384   6.2396   6.2847   6.3013   6.3018   6.3028
     6.3068   6.3840   6.3858   6.3860   6.4489   6.4669   6.4680   6.4683
     6.4908   6.4926   6.5580   6.5596   6.5604   6.6462   6.6842   6.6855
     6.6859   6.7611   6.7770   6.7783   6.7788   6.7919   6.8543   6.8548
     6.8555   6.9348   6.9357   6.9364

          k =-0.3333 0.1925 0.0000 (115797 PWs)   bands (ev):

   -28.2846 -28.2771 -28.2767 -28.2760 -28.2759 -28.2757 -28.2757 -28.2750
   -28.2749 -28.2741 -28.2735 -28.2667 -14.9265 -14.9258 -14.9238 -14.9238
   -14.9237 -14.9233 -14.9222 -14.9222 -14.9220 -14.9219 -14.9217 -14.9209
   -14.9198 -14.9196 -14.9180 -14.9179 -14.9179 -14.9174 -14.9164 -14.9163
   -14.9162 -14.9160 -14.9158 -14.9135 -14.9086 -14.9076 -14.9059 -14.9058
   -14.9058 -14.9053 -14.9043 -14.9042 -14.9041 -14.9039 -14.9038 -14.9014
   -14.8683 -14.8676 -14.8657 -14.8656 -14.8656 -14.8652 -14.8641 -14.8640
   -14.8639 -14.8638 -14.8636 -14.8620 -14.8234 -14.8221 -14.8206 -14.8205
   -14.8204 -14.8200 -14.8190 -14.8189 -14.8188 -14.8186 -14.8184 -14.8142
   -10.3433 -10.3386 -10.3371 -10.3364 -10.3360 -10.3355 -10.3348 -10.3335
   -10.3327 -10.3320 -10.3292 -10.3244 -10.3101 -10.3073 -10.3065 -10.3048
   -10.3032 -10.3019 -10.3017 -10.2998 -10.2959 -10.2939 -10.2894 -10.2845
   -10.2737 -10.2698 -10.2684 -10.2671 -10.2665 -10.2647 -10.2633 -10.2628
   -10.2616 -10.2599 -10.2582 -10.2540  -6.7879  -6.5899  -6.5003  -6.4973
    -6.4381  -6.4377  -6.3664  -6.3483  -6.2859  -6.2849  -6.2492  -6.2483
    -5.9120  -5.9089  -5.8200  -5.8188  -5.8169  -5.7782  -5.7683  -5.7669
    -5.7323  -5.7246  -5.7225  -5.6900  -5.6893  -5.6473  -5.6388  -5.6379
    -5.6292  -5.5946  -5.5850  -5.5837  -5.5672  -5.5279  -5.5193  -5.5184
    -5.5166  -5.5038  -5.4624  -5.4515  -5.4375  -5.4357  -5.4218  -5.4143
    -5.3483  -5.3468  -5.3138  -5.2705  -0.5725  -0.5713  -0.5620  -0.4357
    -0.4048  -0.4038  -0.3783  -0.3381  -0.3373  -0.3365  -0.3137  -0.3045
     1.4185   1.4872   1.4885   1.5004   1.6394   1.6521   1.6886   1.7240
     1.7251   1.8289   1.8763   1.8774   1.9527   1.9550   1.9603   2.0279
     2.1162   2.2075   2.2283   2.2300   2.3384   2.3638   2.3866   2.3868
     2.3943   2.4084   2.4500   2.5375   2.5387   2.6122   2.6134   2.6169
     2.6565   2.7369   2.8129   2.8140   2.8236   2.8411   2.8420   2.8466
     2.8533   2.8842   2.9069   2.9086   2.9151   2.9594   2.9628   3.0045
     3.0501   3.0566   3.0588   3.1245   3.1484   3.1757   3.2049   3.2106
     3.2122   3.2348   3.2580   3.2609   3.2696   3.3230   3.3290   3.3307
     3.3391   3.3718   3.3935   3.3954   3.4335   3.4409   3.4422   3.4490
     3.4964   3.4988   3.5008   3.5102   3.5108   3.5137   3.5226   3.5429
     3.5623   3.6057   3.6103   3.6136   3.6369   3.6470   3.6794   3.6812
     3.6942   3.7031   3.7058   3.7135   3.7787   3.7812   3.8501   3.8604
     3.8965   3.9735   3.9741   3.9791   3.9811   4.0313   4.0383   4.0397
     4.0931   4.1110   4.1203   4.1216   4.1273   4.1619   4.1636   4.1784
     4.2489   4.2671   4.2682   4.2828   4.3008   4.3221   4.3242   4.3688
     4.3771   4.4163   4.4190   4.4840   4.5167   4.5273   4.5281   4.5305
     4.5897   4.5932   4.6280   4.7502   5.1437   5.1447   5.1473   5.1549
     5.1594   5.1613   5.1699   5.1753   5.2145   5.2185   5.2210   5.2217
     5.2281   5.2372   5.2482   5.2496   5.2505   5.2611   5.2683   5.2710
     5.2728   5.2899   5.3038   5.3051   5.3144   5.3191   5.3272   5.3277
     5.3363   5.3495   5.3519   5.3535   5.3580   5.3656   5.4132   5.4160
     5.4331   5.4513   5.4610   5.4618   5.4851   5.4927   5.4993   5.5010
     5.5027   5.5121   5.5274   5.5432   5.5566   5.5573   5.5613   5.6035
     5.6043   5.6280   5.6315   5.6327   5.6677   5.6772   5.6943   5.6962
     5.6970   5.7179   5.7299   5.7559   5.7750   5.7753   5.8085   5.8196
     5.8201   5.8635   5.8755   5.8766   5.9497   5.9515   5.9649   5.9662
     5.9901   6.0065   6.0074   6.0203   6.1384   6.1393   6.1451   6.1599
     6.2256   6.2296   6.2304   6.2515   6.2703   6.2874   6.2896   6.2990
     6.3610   6.3624   6.3765   6.3896   6.3906   6.4412   6.4860   6.4863
     6.5240   6.5372   6.5384   6.5756   6.6041   6.6512   6.6842   6.6908
     6.6925   6.7298   6.7365   6.7380   6.7622   6.7772   6.7926   6.8119
     6.8127   6.9031   6.9085   7.0799

          k = 0.3333 0.1925 0.0000 (115797 PWs)   bands (ev):

   -28.2846 -28.2771 -28.2767 -28.2760 -28.2759 -28.2757 -28.2757 -28.2750
   -28.2749 -28.2741 -28.2735 -28.2667 -14.9265 -14.9258 -14.9238 -14.9238
   -14.9237 -14.9233 -14.9223 -14.9222 -14.9220 -14.9219 -14.9216 -14.9209
   -14.9198 -14.9195 -14.9180 -14.9180 -14.9179 -14.9174 -14.9164 -14.9163
   -14.9162 -14.9161 -14.9158 -14.9135 -14.9086 -14.9076 -14.9059 -14.9058
   -14.9058 -14.9054 -14.9043 -14.9042 -14.9041 -14.9040 -14.9038 -14.9014
   -14.8683 -14.8676 -14.8657 -14.8656 -14.8656 -14.8652 -14.8641 -14.8640
   -14.8639 -14.8638 -14.8636 -14.8620 -14.8234 -14.8221 -14.8206 -14.8205
   -14.8204 -14.8200 -14.8190 -14.8189 -14.8188 -14.8186 -14.8184 -14.8142
   -10.3436 -10.3381 -10.3375 -10.3370 -10.3368 -10.3352 -10.3340 -10.3335
   -10.3327 -10.3319 -10.3290 -10.3242 -10.3103 -10.3075 -10.3063 -10.3052
   -10.3031 -10.3022 -10.3019 -10.3002 -10.2944 -10.2921 -10.2910 -10.2848
   -10.2739 -10.2697 -10.2681 -10.2675 -10.2665 -10.2651 -10.2624 -10.2619
   -10.2612 -10.2604 -10.2584 -10.2550  -6.7878  -6.5896  -6.4991  -6.4985
    -6.4389  -6.4380  -6.3650  -6.3498  -6.2858  -6.2844  -6.2494  -6.2480
    -5.9105  -5.9083  -5.8204  -5.8191  -5.8174  -5.7765  -5.7687  -5.7674
    -5.7323  -5.7241  -5.7226  -5.6914  -5.6905  -5.6482  -5.6381  -5.6373
    -5.6297  -5.5963  -5.5842  -5.5832  -5.5672  -5.5275  -5.5188  -5.5184
    -5.5158  -5.5049  -5.4615  -5.4518  -5.4363  -5.4353  -5.4223  -5.4144
    -5.3490  -5.3485  -5.3126  -5.2703  -0.5730  -0.5706  -0.5629  -0.4361
    -0.4046  -0.4034  -0.3772  -0.3391  -0.3387  -0.3379  -0.3117  -0.3029
     1.4189   1.4865   1.4879   1.5017   1.6395   1.6513   1.6872   1.7234
     1.7266   1.8271   1.8749   1.8780   1.9530   1.9565   1.9590   2.0281
     2.1159   2.2067   2.2295   2.2322   2.3393   2.3633   2.3847   2.3873
     2.3937   2.4090   2.4502   2.5354   2.5380   2.6121   2.6147   2.6164
     2.6590   2.7349   2.8130   2.8147   2.8219   2.8396   2.8420   2.8438
     2.8545   2.8862   2.9075   2.9095   2.9155   2.9629   2.9644   3.0046
     3.0500   3.0565   3.0571   3.1242   3.1480   3.1761   3.2033   3.2101
     3.2126   3.2329   3.2605   3.2612   3.2686   3.3238   3.3302   3.3313
     3.3385   3.3723   3.3949   3.3961   3.4335   3.4410   3.4429   3.4512
     3.4964   3.4983   3.5000   3.5095   3.5115   3.5146   3.5218   3.5436
     3.5628   3.6043   3.6075   3.6118   3.6357   3.6466   3.6799   3.6816
     3.6972   3.7024   3.7039   3.7148   3.7787   3.7802   3.8506   3.8610
     3.8953   3.9745   3.9757   3.9786   3.9800   4.0291   4.0383   4.0408
     4.0918   4.1106   4.1209   4.1215   4.1269   4.1626   4.1650   4.1780
     4.2478   4.2663   4.2673   4.2814   4.3036   4.3219   4.3246   4.3679
     4.3806   4.4155   4.4168   4.4829   4.5185   4.5272   4.5280   4.5315
     4.5910   4.5945   4.6261   4.7490   5.1429   5.1451   5.1473   5.1539
     5.1605   5.1611   5.1700   5.1747   5.2142   5.2196   5.2204   5.2222
     5.2279   5.2374   5.2481   5.2500   5.2504   5.2610   5.2669   5.2722
     5.2729   5.2890   5.3037   5.3052   5.3137   5.3186   5.3265   5.3287
     5.3368   5.3505   5.3512   5.3540   5.3575   5.3655   5.4133   5.4140
     5.4342   5.4507   5.4598   5.4619   5.4862   5.4934   5.4998   5.5014
     5.5026   5.5132   5.5280   5.5435   5.5563   5.5565   5.5613   5.6027
     5.6040   5.6305   5.6317   5.6323   5.6678   5.6787   5.6950   5.6968
     5.6971   5.7173   5.7292   5.7556   5.7744   5.7759   5.8085   5.8188
     5.8193   5.8638   5.8753   5.8758   5.9500   5.9511   5.9640   5.9657
     5.9904   6.0066   6.0080   6.0206   6.1384   6.1400   6.1447   6.1597
     6.2250   6.2294   6.2309   6.2519   6.2699   6.2889   6.2901   6.2990
     6.3605   6.3622   6.3774   6.3888   6.3904   6.4401   6.4858   6.4862
     6.5240   6.5380   6.5387   6.5759   6.6042   6.6504   6.6824   6.6922
     6.6934   6.7286   6.7367   6.7378   6.7622   6.7783   6.7923   6.8110
     6.8131   6.9039   6.9088   7.0803

          k = 0.0000-0.3849 0.2714 (115773 PWs)   bands (ev):

   -28.2846 -28.2771 -28.2767 -28.2760 -28.2759 -28.2757 -28.2757 -28.2750
   -28.2749 -28.2741 -28.2735 -28.2667 -14.9265 -14.9258 -14.9239 -14.9238
   -14.9237 -14.9233 -14.9222 -14.9222 -14.9221 -14.9218 -14.9216 -14.9209
   -14.9198 -14.9196 -14.9180 -14.9179 -14.9179 -14.9174 -14.9164 -14.9163
   -14.9162 -14.9160 -14.9158 -14.9135 -14.9086 -14.9076 -14.9059 -14.9058
   -14.9058 -14.9053 -14.9043 -14.9042 -14.9041 -14.9039 -14.9038 -14.9014
   -14.8683 -14.8676 -14.8657 -14.8656 -14.8656 -14.8652 -14.8641 -14.8640
   -14.8639 -14.8638 -14.8636 -14.8620 -14.8234 -14.8221 -14.8206 -14.8205
   -14.8204 -14.8200 -14.8190 -14.8189 -14.8188 -14.8186 -14.8184 -14.8142
   -10.3439 -10.3391 -10.3382 -10.3372 -10.3360 -10.3350 -10.3344 -10.3333
   -10.3326 -10.3303 -10.3291 -10.3246 -10.3113 -10.3088 -10.3074 -10.3047
   -10.3029 -10.3016 -10.2984 -10.2966 -10.2951 -10.2945 -10.2912 -10.2861
   -10.2738 -10.2691 -10.2685 -10.2673 -10.2661 -10.2646 -10.2628 -10.2624
   -10.2616 -10.2607 -10.2588 -10.2545  -6.7509  -6.6467  -6.5616  -6.4685
    -6.4197  -6.4181  -6.3638  -6.3409  -6.3401  -6.2662  -6.2114  -6.2106
    -5.9143  -5.9132  -5.8253  -5.8214  -5.8184  -5.8154  -5.7653  -5.7637
    -5.7539  -5.7334  -5.6836  -5.6818  -5.6814  -5.6636  -5.6424  -5.6396
    -5.6364  -5.6077  -5.5862  -5.5854  -5.5732  -5.5305  -5.5273  -5.5266
    -5.5166  -5.4865  -5.4649  -5.4394  -5.4380  -5.4366  -5.3983  -5.3702
    -5.3449  -5.3426  -5.3320  -5.2960  -0.5632  -0.5620  -0.5528  -0.4342
    -0.4302  -0.4284  -0.4113  -0.3612  -0.3233  -0.3207  -0.2905  -0.2837
     1.4046   1.4926   1.4951   1.5153   1.6126   1.7107   1.7124   1.7234
     1.7374   1.7742   1.8444   1.8469   1.9676   1.9855   2.0212   2.0228
     2.1291   2.2002   2.2082   2.2100   2.2846   2.3336   2.3964   2.4252
     2.4274   2.5192   2.5294   2.5304   2.5562   2.5582   2.5587   2.5616
     2.5996   2.6787   2.7633   2.7671   2.8200   2.8249   2.8260   2.8304
     2.8507   2.8541   2.8951   2.8967   2.9056   3.0079   3.0176   3.0188
     3.0772   3.0791   3.1178   3.1191   3.1338   3.1794   3.1808   3.1885
     3.2117   3.2459   3.2658   3.2850   3.2863   3.2964   3.3300   3.3330
     3.3751   3.3770   3.3789   3.3794   3.4471   3.4479   3.4494   3.4766
     3.4801   3.4816   3.5056   3.5191   3.5334   3.5348   3.5363   3.5595
     3.5862   3.5885   3.6106   3.6331   3.6408   3.6504   3.6828   3.6855
     3.6863   3.6963   3.7039   3.7073   3.8345   3.8404   3.8784   3.8799
     3.9432   3.9459   3.9461   3.9481   3.9715   4.0320   4.0551   4.0562
     4.0587   4.0635   4.1011   4.1030   4.1227   4.1230   4.1296   4.1332
     4.2229   4.2395   4.2664   4.2723   4.2909   4.2941   4.3133   4.3670
     4.3918   4.4335   4.4365   4.4803   4.5210   4.5444   4.5470   4.5855
     4.5956   4.5972   4.6322   4.7306   5.1473   5.1479   5.1536   5.1640
     5.1674   5.1695   5.1701   5.1734   5.1997   5.2053   5.2124   5.2177
     5.2196   5.2292   5.2407   5.2414   5.2601   5.2627   5.2650   5.2659
     5.2679   5.2731   5.3097   5.3115   5.3181   5.3343   5.3458   5.3475
     5.3593   5.3628   5.3638   5.3686   5.3695   5.3804   5.3882   5.3902
     5.4103   5.4338   5.4476   5.4513   5.4522   5.4689   5.4966   5.4973
     5.5170   5.5247   5.5563   5.5575   5.5681   5.5694   5.6020   5.6027
     5.6072   5.6194   5.6311   5.6496   5.6507   5.6608   5.6750   5.7085
     5.7092   5.7389   5.7595   5.7609   5.7705   5.7846   5.8046   5.8059
     5.8143   5.8399   5.8662   5.8680   5.8749   5.8945   5.9676   5.9699
     6.0189   6.0247   6.0261   6.1010   6.1018   6.1123   6.1593   6.1873
     6.2024   6.2034   6.2043   6.2613   6.2637   6.2878   6.3180   6.3416
     6.3543   6.3684   6.3693   6.4125   6.4185   6.4201   6.4518   6.4811
     6.4826   6.5061   6.5571   6.5661   6.6069   6.6080   6.6470   6.6654
     6.6682   6.7368   6.7381   6.7393   6.7482   6.8042   6.8047   6.8510
     6.8658   6.9179   6.9448   7.0382

          k =-0.3333 0.1925 0.2714 (115773 PWs)   bands (ev):

   -28.2846 -28.2771 -28.2767 -28.2760 -28.2759 -28.2757 -28.2757 -28.2750
   -28.2749 -28.2741 -28.2735 -28.2667 -14.9265 -14.9258 -14.9238 -14.9238
   -14.9237 -14.9233 -14.9222 -14.9222 -14.9220 -14.9219 -14.9217 -14.9209
   -14.9198 -14.9196 -14.9180 -14.9179 -14.9179 -14.9174 -14.9164 -14.9163
   -14.9162 -14.9160 -14.9158 -14.9135 -14.9086 -14.9076 -14.9059 -14.9058
   -14.9058 -14.9053 -14.9043 -14.9042 -14.9041 -14.9039 -14.9038 -14.9014
   -14.8683 -14.8676 -14.8657 -14.8656 -14.8656 -14.8652 -14.8641 -14.8640
   -14.8639 -14.8638 -14.8636 -14.8620 -14.8234 -14.8221 -14.8206 -14.8205
   -14.8204 -14.8200 -14.8190 -14.8189 -14.8188 -14.8186 -14.8184 -14.8142
   -10.3437 -10.3394 -10.3379 -10.3368 -10.3363 -10.3349 -10.3346 -10.3336
   -10.3321 -10.3306 -10.3292 -10.3245 -10.3114 -10.3092 -10.3057 -10.3050
   -10.3034 -10.3019 -10.2984 -10.2969 -10.2954 -10.2945 -10.2914 -10.2857
   -10.2734 -10.2694 -10.2683 -10.2678 -10.2666 -10.2643 -10.2628 -10.2623
   -10.2615 -10.2603 -10.2589 -10.2544  -6.7510  -6.6466  -6.5616  -6.4685
    -6.4190  -6.4185  -6.3638  -6.3410  -6.3405  -6.2658  -6.2115  -6.2111
    -5.9145  -5.9115  -5.8253  -5.8215  -5.8182  -5.8158  -5.7658  -5.7640
    -5.7541  -5.7332  -5.6832  -5.6821  -5.6810  -5.6641  -5.6418  -5.6413
    -5.6371  -5.6070  -5.5871  -5.5849  -5.5718  -5.5301  -5.5276  -5.5269
    -5.5164  -5.4865  -5.4652  -5.4397  -5.4381  -5.4362  -5.3986  -5.3700
    -5.3442  -5.3428  -5.3325  -5.2962  -0.5638  -0.5624  -0.5512  -0.4335
    -0.4295  -0.4285  -0.4128  -0.3615  -0.3220  -0.3210  -0.2911  -0.2844
     1.4046   1.4942   1.4950   1.5148   1.6128   1.7111   1.7129   1.7218
     1.7368   1.7732   1.8446   1.8476   1.9677   1.9861   2.0199   2.0252
     2.1300   2.1999   2.2073   2.2094   2.2859   2.3331   2.3955   2.4270
     2.4284   2.5187   2.5285   2.5297   2.5559   2.5581   2.5589   2.5598
     2.5995   2.6798   2.7629   2.7648   2.8242   2.8254   2.8255   2.8309
     2.8508   2.8530   2.8948   2.8962   2.9085   3.0078   3.0167   3.0183
     3.0768   3.0786   3.1168   3.1191   3.1339   3.1798   3.1808   3.1890
     3.2139   3.2460   3.2664   3.2832   3.2856   3.2955   3.3307   3.3318
     3.3718   3.3760   3.3782   3.3791   3.4470   3.4482   3.4503   3.4771
     3.4793   3.4829   3.5057   3.5190   3.5330   3.5344   3.5366   3.5589
     3.5873   3.5910   3.6130   3.6322   3.6404   3.6447   3.6830   3.6848
     3.6882   3.6962   3.7033   3.7126   3.8361   3.8376   3.8791   3.8805
     3.9418   3.9448   3.9460   3.9492   3.9728   4.0333   4.0545   4.0570
     4.0599   4.0620   4.1003   4.1018   4.1213   4.1228   4.1312   4.1338
     4.2238   4.2409   4.2684   4.2697   4.2904   4.2924   4.3121   4.3662
     4.3930   4.4343   4.4370   4.4804   4.5203   4.5448   4.5461   4.5849
     4.5944   4.5989   4.6323   4.7311   5.1480   5.1486   5.1539   5.1642
     5.1679   5.1692   5.1696   5.1735   5.1997   5.2052   5.2124   5.2183
     5.2203   5.2296   5.2405   5.2411   5.2600   5.2637   5.2645   5.2656
     5.2669   5.2736   5.3092   5.3107   5.3188   5.3335   5.3460   5.3470
     5.3595   5.3630   5.3637   5.3684   5.3702   5.3816   5.3882   5.3903
     5.4093   5.4329   5.4485   5.4511   5.4527   5.4681   5.4963   5.4980
     5.5164   5.5237   5.5557   5.5566   5.5689   5.5696   5.6022   5.6030
     5.6069   5.6201   5.6300   5.6500   5.6513   5.6601   5.6743   5.7083
     5.7091   5.7389   5.7599   5.7604   5.7704   5.7841   5.8053   5.8056
     5.8146   5.8395   5.8669   5.8679   5.8749   5.8943   5.9693   5.9700
     6.0191   6.0251   6.0257   6.1010   6.1018   6.1116   6.1589   6.1870
     6.2025   6.2037   6.2047   6.2621   6.2647   6.2877   6.3185   6.3415
     6.3535   6.3679   6.3691   6.4126   6.4194   6.4201   6.4518   6.4811
     6.4816   6.5072   6.5574   6.5664   6.6061   6.6070   6.6474   6.6662
     6.6675   6.7361   6.7375   6.7404   6.7480   6.8035   6.8052   6.8506
     6.8651   6.9181   6.9453   7.0378

          k = 0.3333 0.1925 0.2714 (115773 PWs)   bands (ev):

   -28.2846 -28.2771 -28.2767 -28.2760 -28.2759 -28.2757 -28.2757 -28.2750
   -28.2749 -28.2741 -28.2735 -28.2667 -14.9265 -14.9258 -14.9238 -14.9238
   -14.9237 -14.9233 -14.9223 -14.9222 -14.9220 -14.9219 -14.9216 -14.9209
   -14.9198 -14.9195 -14.9180 -14.9180 -14.9179 -14.9174 -14.9164 -14.9163
   -14.9162 -14.9161 -14.9158 -14.9135 -14.9086 -14.9076 -14.9059 -14.9058
   -14.9058 -14.9054 -14.9043 -14.9042 -14.9041 -14.9040 -14.9038 -14.9014
   -14.8683 -14.8676 -14.8657 -14.8656 -14.8656 -14.8652 -14.8641 -14.8640
   -14.8639 -14.8638 -14.8636 -14.8620 -14.8234 -14.8221 -14.8206 -14.8205
   -14.8204 -14.8200 -14.8190 -14.8189 -14.8188 -14.8186 -14.8184 -14.8142
   -10.3439 -10.3388 -10.3383 -10.3375 -10.3373 -10.3350 -10.3341 -10.3328
   -10.3321 -10.3303 -10.3290 -10.3247 -10.3114 -10.3086 -10.3068 -10.3054
   -10.3037 -10.3027 -10.2977 -10.2953 -10.2949 -10.2938 -10.2916 -10.2868
   -10.2737 -10.2694 -10.2682 -10.2676 -10.2670 -10.2643 -10.2621 -10.2615
   -10.2614 -10.2605 -10.2585 -10.2559  -6.7510  -6.6465  -6.5609  -6.4690
    -6.4198  -6.4194  -6.3639  -6.3413  -6.3396  -6.2657  -6.2114  -6.2105
    -5.9132  -5.9110  -5.8247  -5.8220  -5.8185  -5.8173  -5.7656  -5.7639
    -5.7523  -5.7342  -5.6841  -5.6826  -5.6814  -5.6629  -5.6422  -5.6411
    -5.6389  -5.6078  -5.5858  -5.5841  -5.5721  -5.5310  -5.5276  -5.5266
    -5.5157  -5.4857  -5.4657  -5.4393  -5.4369  -5.4359  -5.4004  -5.3699
    -5.3448  -5.3443  -5.3304  -5.2960  -0.5640  -0.5617  -0.5526  -0.4339
    -0.4301  -0.4288  -0.4106  -0.3612  -0.3228  -0.3224  -0.2897  -0.2834
     1.4053   1.4938   1.4943   1.5162   1.6113   1.7105   1.7132   1.7219
     1.7363   1.7720   1.8441   1.8489   1.9651   1.9851   2.0222   2.0238
     2.1302   2.1994   2.2080   2.2107   2.2859   2.3348   2.3970   2.4263
     2.4281   2.5175   2.5287   2.5303   2.5562   2.5580   2.5585   2.5605
     2.5990   2.6807   2.7620   2.7654   2.8233   2.8245   2.8257   2.8302
     2.8490   2.8525   2.8954   2.8978   2.9056   3.0095   3.0186   3.0213
     3.0756   3.0789   3.1174   3.1184   3.1345   3.1782   3.1815   3.1887
     3.2126   3.2466   3.2660   3.2846   3.2865   3.2952   3.3301   3.3311
     3.3747   3.3776   3.3793   3.3798   3.4468   3.4476   3.4507   3.4763
     3.4798   3.4810   3.5064   3.5198   3.5336   3.5349   3.5373   3.5591
     3.5860   3.5891   3.6128   3.6311   3.6395   3.6451   3.6825   3.6837
     3.6887   3.6980   3.7040   3.7102   3.8359   3.8373   3.8794   3.8816
     3.9417   3.9457   3.9470   3.9492   3.9711   4.0320   4.0529   4.0564
     4.0605   4.0615   4.1007   4.1021   4.1218   4.1247   4.1315   4.1329
     4.2229   4.2397   4.2680   4.2693   4.2903   4.2920   4.3136   4.3695
     4.3916   4.4330   4.4348   4.4806   4.5231   4.5440   4.5447   4.5867
     4.5964   4.6002   4.6311   4.7294   5.1467   5.1493   5.1526   5.1644
     5.1684   5.1687   5.1699   5.1730   5.1996   5.2043   5.2129   5.2175
     5.2213   5.2295   5.2412   5.2424   5.2604   5.2636   5.2646   5.2651
     5.2659   5.2735   5.3099   5.3114   5.3184   5.3338   5.3453   5.3478
     5.3603   5.3622   5.3635   5.3675   5.3698   5.3804   5.3883   5.3889
     5.4101   5.4332   5.4469   5.4512   5.4519   5.4695   5.4970   5.4982
     5.5170   5.5248   5.5561   5.5574   5.5679   5.5695   5.6014   5.6031
     5.6080   5.6200   5.6319   5.6496   5.6507   5.6607   5.6748   5.7086
     5.7094   5.7384   5.7591   5.7606   5.7707   5.7841   5.8044   5.8054
     5.8142   5.8395   5.8669   5.8675   5.8748   5.8954   5.9683   5.9698
     6.0193   6.0253   6.0267   6.1010   6.1028   6.1110   6.1592   6.1867
     6.2021   6.2032   6.2040   6.2616   6.2634   6.2863   6.3186   6.3415
     6.3548   6.3692   6.3696   6.4130   6.4187   6.4193   6.4519   6.4811
     6.4820   6.5066   6.5575   6.5663   6.6073   6.6075   6.6470   6.6665
     6.6672   6.7369   6.7383   6.7396   6.7483   6.8036   6.8049   6.8505
     6.8659   6.9175   6.9445   7.0387

          k =-0.3333-0.1925 0.2714 (115773 PWs)   bands (ev):

   -28.2846 -28.2771 -28.2767 -28.2760 -28.2759 -28.2757 -28.2757 -28.2750
   -28.2749 -28.2741 -28.2735 -28.2667 -14.9265 -14.9258 -14.9238 -14.9238
   -14.9237 -14.9233 -14.9223 -14.9222 -14.9220 -14.9219 -14.9216 -14.9209
   -14.9198 -14.9195 -14.9180 -14.9180 -14.9179 -14.9174 -14.9164 -14.9163
   -14.9162 -14.9161 -14.9158 -14.9135 -14.9086 -14.9076 -14.9059 -14.9058
   -14.9058 -14.9054 -14.9043 -14.9042 -14.9041 -14.9040 -14.9038 -14.9014
   -14.8683 -14.8676 -14.8657 -14.8656 -14.8656 -14.8652 -14.8641 -14.8640
   -14.8639 -14.8638 -14.8636 -14.8620 -14.8234 -14.8221 -14.8206 -14.8205
   -14.8204 -14.8200 -14.8190 -14.8189 -14.8188 -14.8186 -14.8184 -14.8142
   -10.3439 -10.3388 -10.3382 -10.3376 -10.3375 -10.3349 -10.3334 -10.3330
   -10.3323 -10.3305 -10.3290 -10.3246 -10.3115 -10.3088 -10.3069 -10.3060
   -10.3021 -10.3007 -10.3003 -10.2963 -10.2949 -10.2930 -10.2916 -10.2867
   -10.2737 -10.2696 -10.2681 -10.2670 -10.2665 -10.2652 -10.2626 -10.2616
   -10.2611 -10.2601 -10.2591 -10.2556  -6.7507  -6.6468  -6.5603  -6.4720
    -6.4233  -6.4225  -6.3640  -6.3293  -6.3279  -6.2594  -6.2254  -6.2244
    -5.9045  -5.9025  -5.8241  -5.8219  -5.8079  -5.8070  -5.7904  -5.7603
    -5.7601  -5.7322  -5.7118  -5.7105  -5.6710  -5.6362  -5.6295  -5.6276
    -5.6269  -5.6087  -5.5996  -5.5986  -5.5687  -5.5291  -5.5223  -5.5218
    -5.5193  -5.4972  -5.4669  -5.4320  -5.4281  -5.4275  -5.4232  -5.3641
    -5.3485  -5.3480  -5.3212  -5.2992  -0.5610  -0.5598  -0.5582  -0.4373
    -0.4357  -0.4260  -0.3935  -0.3735  -0.3195  -0.3192  -0.2985  -0.2791
     1.4335   1.4847   1.4857   1.4884   1.6254   1.6409   1.7718   1.7737
     1.7806   1.7887   1.7992   1.8026   1.9139   1.9965   1.9995   2.0774
     2.1568   2.1989   2.2101   2.2475   2.2494   2.3614   2.3916   2.3934
     2.3990   2.4477   2.5099   2.5128   2.5470   2.5901   2.5922   2.6098
     2.6418   2.7113   2.7607   2.7679   2.7702   2.7899   2.8086   2.8094
     2.8384   2.8745   2.9155   2.9175   2.9191   2.9833   3.0240   3.0269
     3.0670   3.1050   3.1070   3.1321   3.1706   3.1899   3.1932   3.1937
     3.2009   3.2322   3.2636   3.2651   3.2763   3.3185   3.3214   3.3222
     3.3241   3.3895   3.3900   3.4118   3.4453   3.4469   3.4683   3.4696
     3.4726   3.4732   3.4762   3.4777   3.5333   3.5351   3.5370   3.5911
     3.6109   3.6128   3.6162   3.6336   3.6435   3.6467   3.6588   3.6609
     3.6729   3.7096   3.7110   3.7170   3.8354   3.8364   3.8805   3.8892
     3.9035   3.9499   3.9531   3.9747   3.9818   4.0194   4.0471   4.0492
     4.0518   4.0666   4.1095   4.1117   4.1191   4.1328   4.1357   4.1482
     4.1908   4.2551   4.2666   4.2677   4.2879   4.2897   4.2942   4.3891
     4.3977   4.4368   4.4378   4.4672   4.5240   4.5250   4.5371   4.5973
     4.6107   4.6140   4.6227   4.7215   5.1495   5.1528   5.1542   5.1563
     5.1714   5.1756   5.1767   5.1839   5.1903   5.1978   5.2012   5.2078
     5.2091   5.2336   5.2354   5.2367   5.2542   5.2635   5.2654   5.2669
     5.2786   5.2979   5.3076   5.3128   5.3143   5.3284   5.3356   5.3367
     5.3579   5.3584   5.3595   5.3643   5.3804   5.3923   5.4060   5.4076
     5.4145   5.4320   5.4337   5.4451   5.4458   5.4925   5.5010   5.5033
     5.5092   5.5156   5.5535   5.5595   5.5740   5.5749   5.6035   5.6109
     5.6119   5.6194   5.6247   5.6260   5.6426   5.6705   5.6816   5.7136
     5.7147   5.7171   5.7334   5.7719   5.7726   5.7735   5.8016   5.8027
     5.8099   5.8578   5.8747   5.8750   5.8787   5.9146   5.9588   5.9601
     6.0333   6.0349   6.0361   6.0594   6.0786   6.0802   6.1727   6.2067
     6.2121   6.2137   6.2663   6.2666   6.2692   6.2772   6.2848   6.3484
     6.3491   6.3651   6.3712   6.4145   6.4245   6.4250   6.4269   6.4711
     6.4972   6.4986   6.5457   6.5592   6.5951   6.5959   6.6661   6.6679
     6.6767   6.7194   6.7352   6.7369   6.7461   6.8125   6.8145   6.8440
     6.8691   6.9280   6.9366   7.0517

          k = 0.3333-0.1925 0.2714 (115773 PWs)   bands (ev):

   -28.2846 -28.2771 -28.2767 -28.2760 -28.2759 -28.2757 -28.2757 -28.2750
   -28.2749 -28.2741 -28.2735 -28.2667 -14.9265 -14.9258 -14.9238 -14.9238
   -14.9237 -14.9233 -14.9222 -14.9222 -14.9220 -14.9219 -14.9217 -14.9209
   -14.9198 -14.9196 -14.9180 -14.9179 -14.9179 -14.9174 -14.9164 -14.9163
   -14.9162 -14.9160 -14.9158 -14.9135 -14.9086 -14.9076 -14.9059 -14.9058
   -14.9058 -14.9053 -14.9043 -14.9042 -14.9041 -14.9039 -14.9038 -14.9014
   -14.8683 -14.8676 -14.8657 -14.8656 -14.8656 -14.8652 -14.8641 -14.8640
   -14.8639 -14.8638 -14.8636 -14.8620 -14.8234 -14.8221 -14.8206 -14.8205
   -14.8204 -14.8200 -14.8190 -14.8189 -14.8188 -14.8186 -14.8184 -14.8142
   -10.3436 -10.3394 -10.3378 -10.3369 -10.3365 -10.3349 -10.3347 -10.3334
   -10.3320 -10.3305 -10.3293 -10.3244 -10.3116 -10.3084 -10.3065 -10.3058
   -10.3021 -10.3009 -10.3001 -10.2975 -10.2955 -10.2937 -10.2899 -10.2865
   -10.2736 -10.2700 -10.2686 -10.2668 -10.2661 -10.2643 -10.2637 -10.2626
   -10.2614 -10.2596 -10.2589 -10.2546  -6.7508  -6.6467  -6.5607  -6.4721
    -6.4225  -6.4217  -6.3642  -6.3293  -6.3287  -6.2591  -6.2254  -6.2247
    -5.9058  -5.9027  -5.8227  -5.8218  -5.8092  -5.8061  -5.7929  -5.7602
    -5.7593  -5.7319  -5.7104  -5.7096  -5.6726  -5.6348  -5.6286  -5.6280
    -5.6267  -5.6078  -5.6006  -5.5991  -5.5682  -5.5281  -5.5231  -5.5223
    -5.5203  -5.4959  -5.4680  -5.4328  -5.4297  -5.4275  -5.4222  -5.3631
    -5.3478  -5.3463  -5.3227  -5.2999  -0.5607  -0.5592  -0.5586  -0.4364
    -0.4355  -0.4249  -0.3951  -0.3747  -0.3187  -0.3177  -0.3002  -0.2798
     1.4333   1.4847   1.4860   1.4877   1.6244   1.6416   1.7725   1.7741
     1.7830   1.7909   1.7991   1.8019   1.9141   1.9935   2.0000   2.0778
     2.1560   2.2013   2.2115   2.2465   2.2479   2.3589   2.3931   2.3941
     2.3975   2.4497   2.5113   2.5134   2.5462   2.5889   2.5911   2.6072
     2.6437   2.7116   2.7622   2.7659   2.7688   2.7906   2.8093   2.8110
     2.8390   2.8744   2.9143   2.9166   2.9205   2.9819   3.0221   3.0240
     3.0679   3.1064   3.1077   3.1324   3.1714   3.1917   3.1928   3.1945
     3.2006   3.2323   3.2626   3.2650   3.2771   3.3180   3.3201   3.3219
     3.3248   3.3856   3.3900   3.4109   3.4452   3.4481   3.4681   3.4706
     3.4720   3.4733   3.4758   3.4768   3.5335   3.5356   3.5365   3.5917
     3.6108   3.6124   3.6157   3.6342   3.6422   3.6478   3.6589   3.6646
     3.6683   3.7107   3.7116   3.7208   3.8351   3.8362   3.8801   3.8896
     3.9048   3.9490   3.9506   3.9760   3.9829   4.0203   4.0468   4.0486
     4.0499   4.0676   4.1104   4.1122   4.1209   4.1324   4.1338   4.1477
     4.1914   4.2544   4.2667   4.2683   4.2886   4.2896   4.2935   4.3864
     4.3976   4.4379   4.4408   4.4678   4.5239   4.5260   4.5348   4.5966
     4.6097   4.6131   4.6234   4.7218   5.1502   5.1523   5.1551   5.1569
     5.1720   5.1754   5.1761   5.1834   5.1911   5.1978   5.2013   5.2071
     5.2107   5.2344   5.2349   5.2361   5.2549   5.2637   5.2651   5.2663
     5.2801   5.2983   5.3079   5.3120   5.3142   5.3283   5.3363   5.3379
     5.3572   5.3583   5.3604   5.3628   5.3803   5.3934   5.4064   5.4073
     5.4117   5.4305   5.4331   5.4449   5.4460   5.4931   5.5013   5.5036
     5.5092   5.5164   5.5530   5.5590   5.5745   5.5750   5.6012   5.6106
     5.6117   5.6185   5.6252   5.6261   5.6423   5.6697   5.6817   5.7138
     5.7150   5.7170   5.7338   5.7720   5.7726   5.7733   5.8023   5.8033
     5.8097   5.8581   5.8753   5.8760   5.8779   5.9146   5.9590   5.9601
     6.0339   6.0345   6.0351   6.0594   6.0788   6.0792   6.1727   6.2066
     6.2125   6.2151   6.2654   6.2666   6.2700   6.2772   6.2852   6.3484
     6.3496   6.3653   6.3717   6.4148   6.4243   6.4248   6.4273   6.4706
     6.4975   6.4985   6.5458   6.5587   6.5933   6.5958   6.6657   6.6673
     6.6770   6.7193   6.7359   6.7366   6.7480   6.8126   6.8139   6.8447
     6.8677   6.9272   6.9369   7.0514

          k =-0.3333-0.5774 0.2714 (115827 PWs)   bands (ev):

   -28.2846 -28.2771 -28.2767 -28.2760 -28.2759 -28.2757 -28.2757 -28.2750
   -28.2749 -28.2741 -28.2735 -28.2667 -14.9265 -14.9258 -14.9238 -14.9238
   -14.9237 -14.9233 -14.9222 -14.9222 -14.9220 -14.9219 -14.9217 -14.9209
   -14.9198 -14.9196 -14.9180 -14.9179 -14.9179 -14.9174 -14.9164 -14.9163
   -14.9162 -14.9160 -14.9159 -14.9135 -14.9086 -14.9076 -14.9059 -14.9058
   -14.9058 -14.9054 -14.9043 -14.9042 -14.9041 -14.9039 -14.9038 -14.9014
   -14.8683 -14.8676 -14.8657 -14.8656 -14.8656 -14.8652 -14.8641 -14.8640
   -14.8639 -14.8638 -14.8636 -14.8620 -14.8234 -14.8221 -14.8206 -14.8205
   -14.8204 -14.8200 -14.8190 -14.8188 -14.8188 -14.8186 -14.8184 -14.8142
   -10.3435 -10.3384 -10.3377 -10.3371 -10.3365 -10.3345 -10.3334 -10.3329
   -10.3320 -10.3308 -10.3298 -10.3253 -10.3104 -10.3079 -10.3074 -10.3054
   -10.3024 -10.3000 -10.2984 -10.2976 -10.2959 -10.2927 -10.2913 -10.2888
   -10.2735 -10.2689 -10.2679 -10.2671 -10.2661 -10.2650 -10.2638 -10.2629
   -10.2621 -10.2604 -10.2594 -10.2556  -6.6185  -6.6182  -6.6176  -6.5251
    -6.5248  -6.5243  -6.3084  -6.2898  -6.2893  -6.2891  -6.2579  -6.2152
    -5.8740  -5.8570  -5.8448  -5.7803  -5.7798  -5.7789  -5.7426  -5.7412
    -5.7407  -5.7161  -5.6891  -5.6876  -5.6871  -5.6736  -5.6722  -5.6712
    -5.6703  -5.6431  -5.5570  -5.5564  -5.5543  -5.5252  -5.5248  -5.5236
    -5.5053  -5.5035  -5.5029  -5.5013  -5.4586  -5.3986  -5.3978  -5.3964
    -5.3579  -5.3233  -5.3225  -5.3217  -0.5212  -0.5065  -0.5058  -0.5056
    -0.4613  -0.4185  -0.4172  -0.4166  -0.3551  -0.2937  -0.2932  -0.2916
     1.4805   1.4827   1.4837   1.6380   1.6386   1.6414   1.6892   1.7735
     1.7757   1.7765   1.7785   1.7958   1.9783   1.9817   1.9839   2.0548
     2.1705   2.1918   2.1934   2.1946   2.2470   2.3965   2.3981   2.3989
     2.4883   2.4894   2.4904   2.5575   2.5874   2.5880   2.5890   2.5932
     2.6773   2.7353   2.7369   2.7391   2.8215   2.8233   2.8245   2.8296
     2.9010   2.9028   2.9040   2.9241   2.9361   2.9540   2.9555   2.9585
     3.0593   3.0605   3.0615   3.0866   3.0889   3.0913   3.1262   3.1801
     3.2441   3.2449   3.2460   3.2697   3.2712   3.2726   3.3202   3.3262
     3.3276   3.3302   3.3742   3.4085   3.4204   3.4645   3.4656   3.4665
     3.4929   3.4987   3.4994   3.5001   3.5360   3.5371   3.5384   3.5419
     3.5605   3.6158   3.6166   3.6196   3.6545   3.6546   3.6606   3.6974
     3.6977   3.7031   3.7210   3.7448   3.8223   3.8409   3.8419   3.8442
     3.9373   3.9388   3.9407   3.9429   4.0292   4.0305   4.0311   4.0417
     4.0674   4.0686   4.0708   4.1090   4.1129   4.1148   4.1155   4.1683
     4.2719   4.2731   4.2745   4.2902   4.3141   4.3595   4.3618   4.3631
     4.4156   4.4173   4.4203   4.4923   4.4936   4.4947   4.5082   4.5122
     4.5653   4.6666   4.6675   4.6699   5.1492   5.1565   5.1569   5.1581
     5.1592   5.1819   5.1828   5.1840   5.1976   5.1983   5.2004   5.2113
     5.2244   5.2254   5.2266   5.2501   5.2523   5.2532   5.2567   5.2692
     5.3001   5.3019   5.3030   5.3089   5.3285   5.3292   5.3308   5.3670
     5.3681   5.3696   5.3748   5.3942   5.3956   5.4078   5.4091   5.4099
     5.4320   5.4331   5.4344   5.4395   5.4834   5.4848   5.4868   5.4905
     5.5393   5.5400   5.5406   5.5439   5.5660   5.5662   5.5675   5.6051
     5.6061   5.6069   5.6385   5.6392   5.6715   5.6724   5.6733   5.7024
     5.7031   5.7041   5.7173   5.7586   5.7594   5.7605   5.8012   5.8072
     5.8204   5.8236   5.8241   5.8248   5.8901   5.8904   5.8915   6.0571
     6.0599   6.0607   6.0616   6.0775   6.1196   6.1204   6.1213   6.1344
     6.1961   6.2367   6.2376   6.2386   6.2840   6.3007   6.3025   6.3037
     6.3064   6.3844   6.3858   6.3863   6.4498   6.4661   6.4679   6.4690
     6.4913   6.4924   6.5577   6.5596   6.5600   6.6450   6.6847   6.6853
     6.6860   6.7600   6.7773   6.7784   6.7787   6.7936   6.8538   6.8548
     6.8552   6.9347   6.9360   6.9366

     highest occupied level (ev):     7.1802

!    total energy              =   -9077.18740259 Ry
     estimated scf accuracy    <          9.1E-10 Ry

     The total energy is the sum of the following terms:
     one-electron contribution =   -2776.34743617 Ry
     hartree contribution      =    2019.92665933 Ry
     xc contribution           =   -2269.38779586 Ry
     ewald contribution        =   -3895.58277247 Ry
     one-center paw contrib.   =   -2155.79605743 Ry

     convergence has been achieved in  21 iterations

     negative rho (up, down):  7.902E-01 0.000E+00

     Forces acting on atoms (cartesian axes, Ry/au):

     atom    1 type  1   force =    -0.00024812    0.00012660   -0.00015388
     atom    2 type  1   force =    -0.00012540    0.00023381   -0.00007220
     atom    3 type  1   force =    -0.00021447    0.00033022    0.00007034
     atom    4 type  1   force =    -0.00011591    0.00036943    0.00000819
     atom    5 type  1   force =    -0.00024420   -0.00033083   -0.00028190
     atom    6 type  1   force =    -0.00016890   -0.00027528   -0.00002337
     atom    7 type  1   force =    -0.00022256   -0.00020729   -0.00001734
     atom    8 type  1   force =    -0.00006645   -0.00023658   -0.00012381
     atom    9 type  1   force =     0.00031172   -0.00000383    0.00004063
     atom   10 type  1   force =     0.00030200   -0.00001857    0.00005055
     atom   11 type  1   force =     0.00031384    0.00001862    0.00004996
     atom   12 type  1   force =     0.00030446    0.00000706    0.00004738
     atom   13 type  2   force =     0.00148940   -0.00266945   -0.00166352
     atom   14 type  2   force =     0.00023741   -0.00042253    0.00019891
     atom   15 type  2   force =     0.00021718   -0.00036116    0.00018799
     atom   16 type  2   force =     0.00020223   -0.00040163    0.00017571
     atom   17 type  2   force =     0.00023726    0.00036396    0.00021615
     atom   18 type  2   force =     0.00021804    0.00037219    0.00020321
     atom   19 type  2   force =     0.00022726    0.00037752    0.00019896
     atom   20 type  2   force =     0.00023489    0.00037584    0.00020397
     atom   21 type  2   force =    -0.00040670    0.00000151    0.00019038
     atom   22 type  2   force =    -0.00043624    0.00000765    0.00018734
     atom   23 type  2   force =    -0.00043563    0.00004708    0.00026962
     atom   24 type  2   force =    -0.00043099    0.00003410    0.00023165
     atom   25 type  2   force =    -0.00043850   -0.00002394   -0.00020454
     atom   26 type  2   force =    -0.00047413   -0.00006292   -0.00018651
     atom   27 type  2   force =    -0.00041139   -0.00002663   -0.00015179
     atom   28 type  2   force =    -0.00045550   -0.00001699   -0.00016297
     atom   29 type  2   force =     0.00319965   -0.00022195   -0.00198667
     atom   30 type  2   force =     0.00016232    0.00034621   -0.00025302
     atom   31 type  2   force =     0.00019270    0.00039056   -0.00018939
     atom   32 type  2   force =     0.00023901    0.00041242   -0.00013110
     atom   33 type  2   force =     0.00024288   -0.00037284   -0.00017431
     atom   34 type  2   force =     0.00022925   -0.00037488   -0.00015432
     atom   35 type  2   force =     0.00023653   -0.00036420   -0.00017060
     atom   36 type  2   force =     0.00023553   -0.00036461   -0.00017724
     atom   37 type  3   force =     0.00024946   -0.00020177    0.00013253
     atom   38 type  3   force =     0.00030289   -0.00049503    0.00002221
     atom   39 type  3   force =     0.00028442   -0.00051886   -0.00001614
     atom   40 type  3   force =     0.00025665   -0.00047977    0.00004304
     atom   41 type  3   force =     0.00026935    0.00047672    0.00008373
     atom   42 type  3   force =     0.00026898    0.00045223    0.00005671
     atom   43 type  3   force =     0.00028034    0.00046035    0.00003202
     atom   44 type  3   force =     0.00026626    0.00048471    0.00004697
     atom   45 type  3   force =    -0.00057281    0.00000575   -0.00013032
     atom   46 type  3   force =    -0.00175220   -0.00246389   -0.00075769
     atom   47 type  3   force =    -0.00062043    0.00008476   -0.00008724
     atom   48 type  3   force =    -0.00050985    0.00037393   -0.00001902
     atom   49 type  4   force =     0.00034742   -0.00010243   -0.00013303
     atom   50 type  4   force =     0.00035080   -0.00009065   -0.00000454
     atom   51 type  4   force =     0.00035288   -0.00009198    0.00000820
     atom   52 type  4   force =     0.00035504   -0.00009981   -0.00001263
     atom   53 type  4   force =     0.00023779    0.00070791   -0.00055630
     atom   54 type  4   force =    -0.00013839    0.00034804   -0.00001737
     atom   55 type  4   force =    -0.00009650    0.00031633   -0.00001996
     atom   56 type  4   force =    -0.00009189    0.00030373   -0.00000194
     atom   57 type  4   force =    -0.00027938   -0.00118528   -0.00050928
     atom   58 type  4   force =    -0.00019900   -0.00036448   -0.00003385
     atom   59 type  4   force =    -0.00027531   -0.00024268    0.00003773
     atom   60 type  4   force =    -0.00016775   -0.00011269    0.00017156
     atom   61 type  4   force =     0.00057501   -0.00004861   -0.00028975
     atom   62 type  4   force =    -0.00073226   -0.00002297   -0.00002804
     atom   63 type  4   force =    -0.00025079    0.00022458    0.00002482
     atom   64 type  4   force =    -0.00021551    0.00015033   -0.00001185
     atom   65 type  4   force =     0.00034466    0.00011244   -0.00004949
     atom   66 type  4   force =     0.00035639    0.00011915   -0.00005347
     atom   67 type  4   force =     0.00035253    0.00010713   -0.00003965
     atom   68 type  4   force =     0.00035571    0.00010325   -0.00004639
     atom   69 type  4   force =    -0.00012596   -0.00034532   -0.00001709
     atom   70 type  4   force =     0.00035729   -0.00084184   -0.00118114
     atom   71 type  4   force =    -0.00009265   -0.00035303   -0.00006452
     atom   72 type  4   force =    -0.00007101   -0.00034622    0.00001808
     atom   73 type  4   force =    -0.00493293    0.00822257    0.00703914
     atom   74 type  4   force =     0.00003041    0.00020834   -0.00021344
     atom   75 type  4   force =     0.00005155    0.00012351   -0.00023661
     atom   76 type  4   force =     0.00003007    0.00007109   -0.00024019
     atom   77 type  4   force =    -0.00014353   -0.00009501   -0.00030475
     atom   78 type  4   force =    -0.00010351   -0.00009636   -0.00028662
     atom   79 type  4   force =    -0.00013565   -0.00006900   -0.00025332
     atom   80 type  4   force =    -0.00014748   -0.00005343   -0.00024752
     atom   81 type  4   force =     0.00014604   -0.00007319   -0.00029942
     atom   82 type  4   force =     0.00013113   -0.00008357   -0.00026043
     atom   83 type  4   force =     0.00013969   -0.00008390   -0.00027113
     atom   84 type  4   force =     0.00013262   -0.00008591   -0.00028656
     atom   85 type  4   force =     0.00011718    0.00011085    0.00021523
     atom   86 type  4   force =     0.00013768    0.00011069    0.00022472
     atom   87 type  4   force =     0.00014400    0.00009927    0.00022952
     atom   88 type  4   force =     0.00015506    0.00008187    0.00022173
     atom   89 type  4   force =    -0.00000243   -0.00017980    0.00023000
     atom   90 type  4   force =     0.00100409   -0.00098150    0.00040298
     atom   91 type  4   force =    -0.00000196   -0.00016260    0.00027725
     atom   92 type  4   force =    -0.00031070   -0.00081163    0.00038258
     atom   93 type  4   force =    -0.00013000    0.00007605    0.00021349
     atom   94 type  4   force =    -0.00013282    0.00005541    0.00016616
     atom   95 type  4   force =    -0.00014498    0.00007111    0.00021568
     atom   96 type  4   force =    -0.00014423    0.00006244    0.00023215

     Total force =     0.014161     Total SCF correction =     0.000070
     Message from routine punch:
     Nothing written, as per user request (disk_io='none')

     init_run     :     43.63s CPU     45.72s WALL (       1 calls)
     electrons    :   2198.11s CPU   2285.11s WALL (       1 calls)
     forces       :     18.82s CPU     19.28s WALL (       1 calls)

     Called by init_run:
     wfcinit      :     39.73s CPU     41.57s WALL (       1 calls)
     potinit      :      1.19s CPU      1.22s WALL (       1 calls)
     hinit0       :      1.09s CPU      1.12s WALL (       1 calls)

     Called by electrons:
     c_bands      :   1944.03s CPU   2014.39s WALL (      21 calls)
     sum_band     :    226.88s CPU    239.54s WALL (      21 calls)
     v_of_rho     :      4.44s CPU      4.80s WALL (      22 calls)
     newd         :     17.19s CPU     20.81s WALL (      22 calls)
     PAW_pot      :      5.65s CPU      5.68s WALL (      22 calls)
     mix_rho      :      0.71s CPU      0.76s WALL (      21 calls)

     Called by c_bands:
     init_us_2    :     25.53s CPU     25.75s WALL (     308 calls)
     cegterg      :   1884.93s CPU   1954.85s WALL (     147 calls)

     Called by *egterg:
     cdiaghg      :     96.43s CPU     99.37s WALL (     960 calls)
     h_psi        :   1039.70s CPU   1095.25s WALL (     967 calls)
     s_psi        :    243.06s CPU    244.80s WALL (     967 calls)
     g_psi        :      3.77s CPU      3.80s WALL (     813 calls)

     Called by h_psi:
     h_psi:calbec :    244.01s CPU    247.40s WALL (     967 calls)
     vloc_psi     :    546.36s CPU    594.78s WALL (     967 calls)
     add_vuspsi   :    244.32s CPU    246.09s WALL (     967 calls)

     General routines
     calbec       :    334.57s CPU    339.18s WALL (    1142 calls)
     fft          :      4.81s CPU      5.24s WALL (     295 calls)
     ffts         :      0.76s CPU      0.78s WALL (      43 calls)
     fftw         :    437.97s CPU    483.84s WALL (  431456 calls)
     interpolate  :      0.96s CPU      1.02s WALL (      22 calls)

     Parallel routines

     PWSCF        :  37m40.82s CPU  39m10.75s WALL


   This run was terminated on:   5: 7:12  21Aug2026            

=------------------------------------------------------------------------------=
   JOB DONE.
=------------------------------------------------------------------------------=
