
     Program PWSCF v.7.3.1 starts on 21Aug2026 at  4:13:35 

     This program is part of the open-source Quantum ESPRESSO suite
     for quantum simulation of materials; please cite
         "P. Giannozzi et al., J. Phys.:Condens. Matter 21 395502 (2009);
         "P. Giannozzi et al., J. Phys.:Condens. Matter 29 465901 (2017);
         "P. Giannozzi et al., J. Chem. Phys. 152 154105 (2020);
          URL http://www.quantum-espresso.org", 
     in publications or presentations arising from this work. More details at
     http://www.quantum-espresso.org/quote

     Parallel version (MPI & OpenMP), running on      32 processor cores
     Number of MPI processes:                32
     Threads/MPI process:                     1

     MPI processes distributed on     1 nodes
     259624 MiB available memory on the printing compute node when the environment starts

     Reading input from scf.in

     Current dimensions of program PWSCF are:
     Max number of different atomic species (ntypx) = 10
     Max number of k-points (npk) =  40000
     Max angular momentum in pseudopotentials (lmaxx) =  4
     file Cu.paw.z_11.ld1.psl.v1.0.0-low.upf: wavefunction(s)  4S 3D renormalized

     K-points division:     npool     =       2
     R & G space division:  proc/nbgrp/npool/nimage =      16
     Subspace diagonalization in iterative solution of the eigenvalue problem:
     one sub-group per band group will be used
     scalapack distributed-memory algorithm (size of sub-group:  4*  4 procs)


     Parallelization info
     --------------------
     sticks:   dense  smooth     PW     G-vecs:    dense   smooth      PW
     Min        1193     597    157               163743    57882    7779
     Max        1194     599    158               163747    57885    7784
     Sum       19099    9565   2515              2619931   926125  124485

     Using Slab Decomposition



     bravais-lattice index     =            0
     lattice parameter (alat)  =      24.0273  a.u.
     unit-cell volume          =   14752.0463 (a.u.)^3
     number of atoms/cell      =           96
     number of atomic types    =            4
     number of electrons       =       840.00
     number of Kohn-Sham states=          420
     kinetic-energy cutoff     =      60.0000  Ry
     charge density cutoff     =     480.0000  Ry
     scf convergence threshold =      1.0E-09
     mixing beta               =       0.3000
     number of iterations used =            8  plain     mixing
     Exchange-correlation=  SLA  PW   PBX  PBC
                           (   1   4   3   4   0   0   0)

     celldm(1)=  24.027274  celldm(2)=   0.000000  celldm(3)=   0.000000
     celldm(4)=   0.000000  celldm(5)=   0.000000  celldm(6)=   0.000000

     crystal axes: (cart. coord. in units of alat)
               a(1) = (   1.000000   0.000000   0.000000 )  
               a(2) = (  -0.500000   0.866025   0.000000 )  
               a(3) = (   0.000000   0.000000   1.228028 )  

     reciprocal axes: (cart. coord. in units 2 pi/alat)
               b(1) = (  1.000000  0.577351 -0.000000 )  
               b(2) = (  0.000000  1.154701  0.000000 )  
               b(3) = (  0.000000 -0.000000  0.814314 )  


     PseudoPot. # 1 for Sr read from file:
     /home/yuhansun/pseudos/SSSP-1.3.0-PBE-precision/Sr_pbe_v1.uspp.F.UPF
     MD5 check sum: 6b418c05fbe9db5448babca5e47b7a5b
     Pseudo is Ultrasoft + core correction, Zval = 10.0
     Generated by new atomic code, or converted to UPF format
     Using radial grid of  883 points,  6 beta functions with: 
                l(1) =   0
                l(2) =   0
                l(3) =   1
                l(4) =   1
                l(5) =   2
                l(6) =   2
     Q(r) pseudized with  6 coefficients,  rinner =    1.400   1.400   1.400
                                                       1.400   1.400

     PseudoPot. # 2 for Cu read from file:
     /home/yuhansun/pseudos/SSSP-1.3.0-PBE-precision/Cu.paw.z_11.ld1.psl.v1.0.0-low.upf
     MD5 check sum: 619f40885d92a09a85a8b37550532d0c
     Pseudo is Projector augmented-wave + core cor, Zval = 11.0
     Generated using &quot;atomic&quot; code by A. Dal Corso  v.6.3MaX
     Shape of augmentation charge: PSQ
     Using radial grid of 1199 points,  6 beta functions with: 
                l(1) =   0
                l(2) =   0
                l(3) =   1
                l(4) =   1
                l(5) =   2
                l(6) =   2
     Q(r) pseudized with 0 coefficients 


     PseudoPot. # 3 for Sn read from file:
     /home/yuhansun/pseudos/SSSP-1.3.0-PBE-precision/Sn_pbe_v1.uspp.F.UPF
     MD5 check sum: 4cf58ce39ec5d5d420df3dd08604eb00
     Pseudo is Ultrasoft + core correction, Zval = 14.0
     Generated by new atomic code, or converted to UPF format
     Using radial grid of  891 points,  6 beta functions with: 
                l(1) =   0
                l(2) =   0
                l(3) =   1
                l(4) =   1
                l(5) =   2
                l(6) =   2
     Q(r) pseudized with  6 coefficients,  rinner =    1.200   1.200   1.200
                                                       1.200   1.200

     PseudoPot. # 4 for S  read from file:
     /home/yuhansun/pseudos/SSSP-1.3.0-PBE-precision/s_pbe_v1.4.uspp.F.UPF
     MD5 check sum: 88d86576ff6df21479756cfb9bdac1df
     Pseudo is Ultrasoft + core correction, Zval =  6.0
     Generated by new atomic code, or converted to UPF format
     Using radial grid of  907 points,  6 beta functions with: 
                l(1) =   0
                l(2) =   0
                l(3) =   1
                l(4) =   1
                l(5) =   2
                l(6) =   2
     Q(r) pseudized with  8 coefficients,  rinner =    1.300   1.300   1.300
                                                       1.300   1.300

     atomic species   valence    mass     pseudopotential
     Sr               10.00    87.62000     Sr( 1.00)
     Cu               11.00    63.54600     Cu( 1.00)
     Sn               14.00   118.71000     Sn( 1.00)
     S                 6.00    32.06500     S ( 1.00)

     No symmetry found



   Cartesian axes

     site n.     atom                  positions (alat units)
         1        Sr     tau(   1) = (  -0.1405753   0.2434834   0.2046717  )
         2        Sr     tau(   2) = (   0.3594247   0.2434834   0.2046717  )
         3        Sr     tau(   3) = (  -0.3905753   0.6764960   0.2046717  )
         4        Sr     tau(   4) = (   0.1094247   0.6764960   0.2046717  )
         5        Sr     tau(   5) = (   0.1094247   0.1895292   0.6140139  )
         6        Sr     tau(   6) = (   0.6094247   0.1895292   0.6140139  )
         7        Sr     tau(   7) = (  -0.1405753   0.6225418   0.6140139  )
         8        Sr     tau(   8) = (   0.3594247   0.6225418   0.6140139  )
         9        Sr     tau(   9) = (   0.2811505   0.0000000   1.0233574  )
        10        Sr     tau(  10) = (   0.7811505   0.0000000   1.0233574  )
        11        Sr     tau(  11) = (   0.0311505   0.4330126   1.0233574  )
        12        Sr     tau(  12) = (   0.5311505   0.4330126   1.0233574  )
        13        Cu     tau(  13) = (  -0.1226788   0.2753211   0.5061747  )
        14        Cu     tau(  14) = (   0.3773212   0.2753211   0.5061747  )
        15        Cu     tau(  15) = (  -0.3726788   0.7083337   0.5061747  )
        16        Cu     tau(  16) = (   0.1273212   0.7083337   0.5061747  )
        17        Cu     tau(  17) = (   0.0729045   0.1891087   0.9155169  )
        18        Cu     tau(  18) = (   0.5729045   0.1891087   0.9155169  )
        19        Cu     tau(  19) = (  -0.1770956   0.6221213   0.9155169  )
        20        Cu     tau(  20) = (   0.3229044   0.6221213   0.9155169  )
        21        Cu     tau(  21) = (   0.0497750   0.4015949   0.0968325  )
        22        Cu     tau(  22) = (   0.5497750   0.4015949   0.0968325  )
        23        Cu     tau(  23) = (  -0.2002251   0.8346075   0.0968325  )
        24        Cu     tau(  24) = (   0.2997749   0.8346075   0.0968325  )
        25        Cu     tau(  25) = (   0.2997745   0.0314177   0.7218532  )
        26        Cu     tau(  26) = (   0.7997745   0.0314177   0.7218532  )
        27        Cu     tau(  27) = (   0.0497745   0.4644302   0.7218532  )
        28        Cu     tau(  28) = (   0.5497745   0.4644302   0.7218532  )
        29        Cu     tau(  29) = (   0.1273207   0.1576915   0.3125110  )
        30        Cu     tau(  30) = (   0.6273207   0.1576915   0.3125110  )
        31        Cu     tau(  31) = (  -0.1226793   0.5907041   0.3125110  )
        32        Cu     tau(  32) = (   0.3773207   0.5907041   0.3125110  )
        33        Cu     tau(  33) = (   0.3229040   0.2439039   1.1311954  )
        34        Cu     tau(  34) = (   0.8229040   0.2439039   1.1311954  )
        35        Cu     tau(  35) = (   0.0729039   0.6769164   1.1311954  )
        36        Cu     tau(  36) = (   0.5729039   0.6769164   1.1311954  )
        37        Sn     tau(  37) = (  -0.1762580   0.3052877   0.8186857  )
        38        Sn     tau(  38) = (   0.3237420   0.3052877   0.8186857  )
        39        Sn     tau(  39) = (  -0.4262581   0.7383003   0.8186857  )
        40        Sn     tau(  40) = (   0.0737419   0.7383003   0.8186857  )
        41        Sn     tau(  41) = (   0.0737420   0.1277249   0.0000000  )
        42        Sn     tau(  42) = (   0.5737420   0.1277249   0.0000000  )
        43        Sn     tau(  43) = (  -0.1762581   0.5607374   0.0000000  )
        44        Sn     tau(  44) = (   0.3237419   0.5607374   0.0000000  )
        45        Sn     tau(  45) = (   0.3525160   0.0000000   0.4093422  )
        46        Sn     tau(  46) = (   0.8525160   0.0000000   0.4093422  )
        47        Sn     tau(  47) = (   0.1025160   0.4330126   0.4093422  )
        48        Sn     tau(  48) = (   0.6025160   0.4330126   0.4093422  )
        49        S      tau(  49) = (  -0.0988203   0.2103164   0.9671149  )
        50        S      tau(  50) = (   0.4011797   0.2103164   0.9671149  )
        51        S      tau(  51) = (  -0.3488203   0.6433290   0.9671149  )
        52        S      tau(  52) = (   0.1511797   0.6433290   0.9671149  )
        53        S      tau(  53) = (   0.1172707   0.2422736   0.1484293  )
        54        S      tau(  54) = (   0.6172707   0.2422736   0.1484293  )
        55        S      tau(  55) = (  -0.1327293   0.6752862   0.1484293  )
        56        S      tau(  56) = (   0.3672707   0.6752862   0.1484293  )
        57        S      tau(  57) = (  -0.0184505   0.4134352   0.5577727  )
        58        S      tau(  58) = (   0.4815495   0.4134352   0.5577727  )
        59        S      tau(  59) = (  -0.2684506   0.8464478   0.5577727  )
        60        S      tau(  60) = (   0.2315494   0.8464478   0.5577727  )
        61        S      tau(  61) = (   0.2315495   0.0195774   0.2609129  )
        62        S      tau(  62) = (   0.7315495   0.0195774   0.2609129  )
        63        S      tau(  63) = (  -0.0184505   0.4525899   0.2609129  )
        64        S      tau(  64) = (   0.4815495   0.4525899   0.2609129  )
        65        S      tau(  65) = (   0.1511797   0.2226962   1.0795986  )
        66        S      tau(  66) = (   0.6511797   0.2226962   1.0795986  )
        67        S      tau(  67) = (  -0.0988203   0.6557088   1.0795986  )
        68        S      tau(  68) = (   0.4011797   0.6557088   1.0795986  )
        69        S      tau(  69) = (   0.3672707   0.1907390   0.6702552  )
        70        S      tau(  70) = (   0.8672707   0.1907390   0.6702552  )
        71        S      tau(  71) = (   0.1172707   0.6237516   0.6702552  )
        72        S      tau(  72) = (   0.6172707   0.6237516   0.6702552  )
        73        S      tau(  73) = (  -0.0259040   0.1510385   0.4035914  )
        74        S      tau(  74) = (   0.4703502   0.1532012   0.4035914  )
        75        S      tau(  75) = (  -0.2796498   0.5862137   0.4035914  )
        76        S      tau(  76) = (   0.2203502   0.5862137   0.4035914  )
        77        S      tau(  77) = (   0.1321490   0.3307341   0.8129336  )
        78        S      tau(  78) = (   0.6321490   0.3307341   0.8129336  )
        79        S      tau(  79) = (  -0.1178511   0.7637467   0.8129336  )
        80        S      tau(  80) = (   0.3821489   0.7637467   0.8129336  )
        81        S      tau(  81) = (  -0.1024985   0.3820894   1.2222770  )
        82        S      tau(  82) = (   0.3975015   0.3820894   1.2222770  )
        83        S      tau(  83) = (  -0.3524986   0.8151020   1.2222770  )
        84        S      tau(  84) = (   0.1475014   0.8151020   1.2222770  )
        85        S      tau(  85) = (   0.1475010   0.0509231   0.8244365  )
        86        S      tau(  86) = (   0.6475010   0.0509231   0.8244365  )
        87        S      tau(  87) = (  -0.1024990   0.4839357   0.8244365  )
        88        S      tau(  88) = (   0.3975010   0.4839357   0.8244365  )
        89        S      tau(  89) = (   0.2203497   0.2798114   0.4150943  )
        90        S      tau(  90) = (   0.7203497   0.2798114   0.4150943  )
        91        S      tau(  91) = (  -0.0296503   0.7128240   0.4150943  )
        92        S      tau(  92) = (   0.4703497   0.7128240   0.4150943  )
        93        S      tau(  93) = (   0.3821485   0.1022784   0.0057509  )
        94        S      tau(  94) = (   0.8821485   0.1022784   0.0057509  )
        95        S      tau(  95) = (   0.1321485   0.5352910   0.0057509  )
        96        S      tau(  96) = (   0.6321485   0.5352910   0.0057509  )

     number of k points=    14
                       cart. coord. in units 2pi/alat
        k(    1) = (   0.0000000   0.0000000   0.0000000), wk =   0.0740741
        k(    2) = (   0.0000000   0.0000000   0.2714379), wk =   0.1481481
        k(    3) = (   0.0000000   0.3849003   0.0000000), wk =   0.1481481
        k(    4) = (   0.0000000   0.3849003   0.2714379), wk =   0.1481481
        k(    5) = (   0.3333333   0.5773505   0.0000000), wk =   0.1481481
        k(    6) = (   0.3333333   0.5773505   0.2714379), wk =   0.1481481
        k(    7) = (  -0.3333333   0.1924501   0.0000000), wk =   0.1481481
        k(    8) = (   0.3333333   0.1924502   0.0000000), wk =   0.1481481
        k(    9) = (   0.0000000  -0.3849003   0.2714379), wk =   0.1481481
        k(   10) = (  -0.3333333   0.1924501   0.2714379), wk =   0.1481481
        k(   11) = (   0.3333333   0.1924502   0.2714379), wk =   0.1481481
        k(   12) = (  -0.3333333  -0.1924502   0.2714379), wk =   0.1481481
        k(   13) = (   0.3333333  -0.1924501   0.2714379), wk =   0.1481481
        k(   14) = (  -0.3333333  -0.5773505   0.2714379), wk =   0.1481481

     Dense  grid:  2619931 G-vectors     FFT dimensions: ( 180, 180, 216)

     Smooth grid:   926125 G-vectors     FFT dimensions: ( 120, 120, 150)

     Estimated max dynamical RAM per process >       1.07 GB

     Estimated total dynamical RAM >      33.54 GB

     Initial potential from superposition of free atoms

     starting charge     827.5884, renormalised to     840.0000

     negative rho (up, down):  7.777E-01 0.000E+00
     Starting wfcs are  672 randomized atomic wfcs
     Checking if some PAW data can be deallocated... 

     total cpu time spent up to now is       39.9 secs

     Self-consistent Calculation

     iteration #  1     ecut=    60.00 Ry     beta= 0.30
     Davidson diagonalization with overlap
     ethr =  1.00E-02,  avg # of iterations =  2.0

     negative rho (up, down):  7.747E-01 0.000E+00

     total cpu time spent up to now is      112.5 secs

     total energy              =   -9070.28317426 Ry
     estimated scf accuracy    <      21.99735119 Ry

     iteration #  2     ecut=    60.00 Ry     beta= 0.30
     Davidson diagonalization with overlap
     ethr =  2.62E-03,  avg # of iterations =  4.7

     negative rho (up, down):  7.752E-01 0.000E+00

     total cpu time spent up to now is      203.5 secs

     total energy              =   -9076.61879750 Ry
     estimated scf accuracy    <       8.16842071 Ry

     iteration #  3     ecut=    60.00 Ry     beta= 0.30
     Davidson diagonalization with overlap
     ethr =  9.72E-04,  avg # of iterations =  2.0

     negative rho (up, down):  7.804E-01 0.000E+00

     total cpu time spent up to now is      279.2 secs

     total energy              =   -9076.49048543 Ry
     estimated scf accuracy    <       1.62179762 Ry

     iteration #  4     ecut=    60.00 Ry     beta= 0.30
     Davidson diagonalization with overlap
     ethr =  1.93E-04,  avg # of iterations =  6.1

     negative rho (up, down):  7.829E-01 0.000E+00

     total cpu time spent up to now is      390.8 secs

     total energy              =   -9076.70184501 Ry
     estimated scf accuracy    <       2.07497572 Ry

     iteration #  5     ecut=    60.00 Ry     beta= 0.30
     Davidson diagonalization with overlap
     ethr =  1.93E-04,  avg # of iterations =  5.0

     negative rho (up, down):  7.881E-01 0.000E+00

     total cpu time spent up to now is      481.1 secs

     total energy              =   -9077.13927529 Ry
     estimated scf accuracy    <       0.14000471 Ry

     iteration #  6     ecut=    60.00 Ry     beta= 0.30
     Davidson diagonalization with overlap
     ethr =  1.67E-05,  avg # of iterations =  6.4

     negative rho (up, down):  7.901E-01 0.000E+00

     total cpu time spent up to now is      576.3 secs

     total energy              =   -9077.18180996 Ry
     estimated scf accuracy    <       0.01699131 Ry

     iteration #  7     ecut=    60.00 Ry     beta= 0.30
     Davidson diagonalization with overlap
     ethr =  2.02E-06,  avg # of iterations =  5.9

     negative rho (up, down):  7.908E-01 0.000E+00

     total cpu time spent up to now is      676.0 secs

     total energy              =   -9077.18849727 Ry
     estimated scf accuracy    <       0.00586706 Ry

     iteration #  8     ecut=    60.00 Ry     beta= 0.30
     Davidson diagonalization with overlap
     ethr =  6.98E-07,  avg # of iterations =  6.0

     negative rho (up, down):  7.912E-01 0.000E+00

     total cpu time spent up to now is      802.5 secs

     total energy              =   -9077.17838200 Ry
     estimated scf accuracy    <       0.05486518 Ry

     iteration #  9     ecut=    60.00 Ry     beta= 0.30
     Davidson diagonalization with overlap
     ethr =  6.98E-07,  avg # of iterations =  7.1

     negative rho (up, down):  7.911E-01 0.000E+00

     total cpu time spent up to now is      931.4 secs

     total energy              =   -9077.18724963 Ry
     estimated scf accuracy    <       0.00114088 Ry

     iteration # 10     ecut=    60.00 Ry     beta= 0.30
     Davidson diagonalization with overlap
     ethr =  1.36E-07,  avg # of iterations =  5.0

     negative rho (up, down):  7.908E-01 0.000E+00

     total cpu time spent up to now is     1009.8 secs

     total energy              =   -9077.18702205 Ry
     estimated scf accuracy    <       0.00067965 Ry

     iteration # 11     ecut=    60.00 Ry     beta= 0.30
     Davidson diagonalization with overlap
     ethr =  8.09E-08,  avg # of iterations =  5.4

     negative rho (up, down):  7.905E-01 0.000E+00

     total cpu time spent up to now is     1105.5 secs

     total energy              =   -9077.18719816 Ry
     estimated scf accuracy    <       0.00016800 Ry

     iteration # 12     ecut=    60.00 Ry     beta= 0.30
     Davidson diagonalization with overlap
     ethr =  2.00E-08,  avg # of iterations =  4.0

     negative rho (up, down):  7.904E-01 0.000E+00

     total cpu time spent up to now is     1194.8 secs

     total energy              =   -9077.18721510 Ry
     estimated scf accuracy    <       0.00006444 Ry

     iteration # 13     ecut=    60.00 Ry     beta= 0.30
     Davidson diagonalization with overlap
     ethr =  7.67E-09,  avg # of iterations =  5.3

     negative rho (up, down):  7.903E-01 0.000E+00

     total cpu time spent up to now is     1290.0 secs

     total energy              =   -9077.18722922 Ry
     estimated scf accuracy    <       0.00001496 Ry

     iteration # 14     ecut=    60.00 Ry     beta= 0.30
     Davidson diagonalization with overlap
     ethr =  1.78E-09,  avg # of iterations =  4.6

     negative rho (up, down):  7.903E-01 0.000E+00

     total cpu time spent up to now is     1380.9 secs

     total energy              =   -9077.18723195 Ry
     estimated scf accuracy    <       0.00000290 Ry

     iteration # 15     ecut=    60.00 Ry     beta= 0.30
     Davidson diagonalization with overlap
     ethr =  3.46E-10,  avg # of iterations =  5.0

     negative rho (up, down):  7.902E-01 0.000E+00

     total cpu time spent up to now is     1486.9 secs

     total energy              =   -9077.18723242 Ry
     estimated scf accuracy    <       0.00000203 Ry

     iteration # 16     ecut=    60.00 Ry     beta= 0.30
     Davidson diagonalization with overlap
     ethr =  2.41E-10,  avg # of iterations =  5.7

     negative rho (up, down):  7.902E-01 0.000E+00

     total cpu time spent up to now is     1583.9 secs

     total energy              =   -9077.18723317 Ry
     estimated scf accuracy    <       0.00000069 Ry

     iteration # 17     ecut=    60.00 Ry     beta= 0.30
     Davidson diagonalization with overlap
     ethr =  8.21E-11,  avg # of iterations =  2.0

     negative rho (up, down):  7.902E-01 0.000E+00

     total cpu time spent up to now is     1660.5 secs

     total energy              =   -9077.18723308 Ry
     estimated scf accuracy    <       0.00000064 Ry

     iteration # 18     ecut=    60.00 Ry     beta= 0.30
     Davidson diagonalization with overlap
     ethr =  7.56E-11,  avg # of iterations =  3.5

     negative rho (up, down):  7.902E-01 0.000E+00

     total cpu time spent up to now is     1742.1 secs

     total energy              =   -9077.18723313 Ry
     estimated scf accuracy    <       0.00000011 Ry

     iteration # 19     ecut=    60.00 Ry     beta= 0.30
     Davidson diagonalization with overlap
     ethr =  1.35E-11,  avg # of iterations =  6.6

     negative rho (up, down):  7.902E-01 0.000E+00

     total cpu time spent up to now is     1843.4 secs

     total energy              =   -9077.18723317 Ry
     estimated scf accuracy    <       0.00000001 Ry

     iteration # 20     ecut=    60.00 Ry     beta= 0.30
     Davidson diagonalization with overlap
     ethr =  1.47E-12,  avg # of iterations =  4.9

     negative rho (up, down):  7.902E-01 0.000E+00

     total cpu time spent up to now is     1947.1 secs

     total energy              =   -9077.18723318 Ry
     estimated scf accuracy    <          3.0E-09 Ry

     iteration # 21     ecut=    60.00 Ry     beta= 0.30
     Davidson diagonalization with overlap
     ethr =  3.59E-13,  avg # of iterations =  3.1

     negative rho (up, down):  7.902E-01 0.000E+00

     total cpu time spent up to now is     2037.3 secs

     total energy              =   -9077.18723318 Ry
     estimated scf accuracy    <          2.2E-09 Ry

     iteration # 22     ecut=    60.00 Ry     beta= 0.30
     Davidson diagonalization with overlap
     ethr =  2.58E-13,  avg # of iterations =  4.5

     negative rho (up, down):  7.902E-01 0.000E+00

     total cpu time spent up to now is     2126.9 secs

     End of self-consistent calculation

          k = 0.0000 0.0000 0.0000 (115723 PWs)   bands (ev):

   -28.2939 -28.2775 -28.2765 -28.2765 -28.2760 -28.2759 -28.2756 -28.2754
   -28.2748 -28.2747 -28.2746 -28.2608 -14.9277 -14.9240 -14.9237 -14.9234
   -14.9232 -14.9229 -14.9229 -14.9226 -14.9223 -14.9222 -14.9219 -14.9214
   -14.9183 -14.9178 -14.9178 -14.9175 -14.9173 -14.9171 -14.9170 -14.9167
   -14.9165 -14.9164 -14.9160 -14.9107 -14.9094 -14.9061 -14.9057 -14.9054
   -14.9052 -14.9051 -14.9049 -14.9046 -14.9044 -14.9044 -14.9040 -14.8989
   -14.8695 -14.8658 -14.8655 -14.8653 -14.8650 -14.8649 -14.8648 -14.8644
   -14.8642 -14.8641 -14.8638 -14.8610 -14.8239 -14.8208 -14.8203 -14.8201
   -14.8198 -14.8198 -14.8196 -14.8193 -14.8191 -14.8190 -14.8186 -14.8136
   -10.3513 -10.3392 -10.3385 -10.3373 -10.3371 -10.3368 -10.3361 -10.3354
   -10.3325 -10.3318 -10.3274 -10.3195 -10.3177 -10.3093 -10.3087 -10.3066
   -10.3037 -10.3026 -10.3011 -10.2996 -10.2943 -10.2930 -10.2883 -10.2816
   -10.2784 -10.2709 -10.2691 -10.2677 -10.2653 -10.2651 -10.2637 -10.2629
   -10.2599 -10.2592 -10.2565 -10.2492  -6.8625  -6.5553  -6.5532  -6.4177
    -6.4171  -6.4134  -6.3006  -6.2994  -6.2958  -6.2185  -6.2183  -6.2165
    -5.9906  -5.9897  -5.9857  -5.8512  -5.8500  -5.8470  -5.7978  -5.7964
    -5.7936  -5.7375  -5.7367  -5.6194  -5.6190  -5.6182  -5.6143  -5.6138
    -5.6098  -5.6008  -5.5594  -5.5588  -5.5573  -5.5455  -5.5453  -5.5416
    -5.5175  -5.5168  -5.4320  -5.4294  -5.4287  -5.4278  -5.3732  -5.3700
    -5.3464  -5.3457  -5.3451  -5.2512  -0.6140  -0.6117  -0.6108  -0.3904
    -0.3890  -0.3876  -0.3509  -0.3168  -0.3159  -0.3134  -0.3015  -0.3012
     1.3833   1.3846   1.3866   1.5904   1.5931   1.6554   1.7153   1.7163
     1.7172   1.8043   1.8055   1.8084   2.0213   2.0404   2.0437   2.0844
     2.0849   2.0903   2.2464   2.2475   2.2489   2.3091   2.3108   2.4022
     2.4040   2.4052   2.4600   2.4618   2.4645   2.5483   2.5516   2.6612
     2.6625   2.6644   2.7817   2.7840   2.7887   2.8712   2.8732   2.9239
     2.9249   2.9257   2.9500   2.9537   2.9554   3.0268   3.0277   3.0305
     3.0428   3.0459   3.0473   3.1643   3.2099   3.2139   3.2162   3.2274
     3.2281   3.2554   3.2571   3.2585   3.3759   3.3769   3.3775   3.3925
     3.3939   3.4257   3.4274   3.4276   3.4355   3.4361   3.4393   3.4738
     3.4758   3.4774   3.4918   3.4938   3.4944   3.4963   3.5171   3.5180
     3.5839   3.5842   3.5886   3.6261   3.6276   3.6330   3.6888   3.6892
     3.6896   3.6904   3.7003   3.7125   3.7933   3.7963   3.8240   3.8263
     3.8281   3.9625   4.0187   4.0220   4.0220   4.0339   4.0364   4.0369
     4.1216   4.1245   4.1253   4.1284   4.1717   4.1730   4.1760   4.2006
     4.2063   4.2096   4.2131   4.2426   4.2444   4.2463   4.2800   4.2813
     4.4241   4.4243   4.4263   4.5160   4.5180   4.5222   4.5346   4.5364
     4.6198   4.6212   4.6223   4.8583   5.1232   5.1534   5.1545   5.1561
     5.1722   5.1737   5.1761   5.1775   5.1782   5.2214   5.2257   5.2271
     5.2280   5.2293   5.2300   5.2505   5.2509   5.2537   5.2643   5.2666
     5.2678   5.2776   5.2785   5.2817   5.3090   5.3105   5.3118   5.3130
     5.3145   5.3237   5.3351   5.3373   5.3392   5.3734   5.3757   5.3769
     5.4385   5.4392   5.4694   5.4701   5.4709   5.4743   5.4763   5.4772
     5.4787   5.4977   5.4996   5.6000   5.6003   5.6018   5.6171   5.6185
     5.6196   5.6263   5.6462   5.6474   5.6476   5.6586   5.6597   5.6605
     5.7235   5.7254   5.7432   5.7810   5.7832   5.7836   5.8201   5.8206
     5.8212   5.9016   5.9034   5.9044   5.9254   5.9266   5.9287   5.9955
     5.9974   6.0255   6.0263   6.0274   6.1475   6.1497   6.1524   6.1530
     6.2602   6.2612   6.2625   6.2630   6.2633   6.2653   6.2895   6.2903
     6.3332   6.3347   6.3354   6.3629   6.3638   6.3647   6.3885   6.3904
     6.3917   6.5527   6.5702   6.5713   6.5733   6.6357   6.6378   6.6383
     6.7462   6.7470   6.7477   6.7630   6.7652   6.7803   6.7814   6.7825
     6.8092   6.9642   7.1806   7.1809

          k = 0.0000 0.0000 0.2714 (115879 PWs)   bands (ev):

   -28.2939 -28.2775 -28.2765 -28.2765 -28.2760 -28.2759 -28.2756 -28.2754
   -28.2748 -28.2747 -28.2746 -28.2608 -14.9277 -14.9240 -14.9237 -14.9234
   -14.9232 -14.9229 -14.9229 -14.9226 -14.9223 -14.9222 -14.9219 -14.9214
   -14.9183 -14.9178 -14.9178 -14.9175 -14.9173 -14.9171 -14.9170 -14.9167
   -14.9165 -14.9164 -14.9160 -14.9107 -14.9094 -14.9061 -14.9057 -14.9054
   -14.9052 -14.9051 -14.9049 -14.9046 -14.9044 -14.9044 -14.9040 -14.8989
   -14.8695 -14.8658 -14.8655 -14.8653 -14.8650 -14.8649 -14.8648 -14.8644
   -14.8642 -14.8641 -14.8638 -14.8610 -14.8239 -14.8208 -14.8203 -14.8201
   -14.8198 -14.8198 -14.8196 -14.8193 -14.8191 -14.8190 -14.8186 -14.8136
   -10.3515 -10.3401 -10.3395 -10.3380 -10.3375 -10.3366 -10.3353 -10.3341
   -10.3332 -10.3301 -10.3276 -10.3197 -10.3179 -10.3113 -10.3079 -10.3063
   -10.3039 -10.3019 -10.3008 -10.2958 -10.2943 -10.2934 -10.2895 -10.2833
   -10.2780 -10.2704 -10.2687 -10.2678 -10.2661 -10.2652 -10.2636 -10.2625
   -10.2596 -10.2590 -10.2573 -10.2495  -6.8233  -6.7127  -6.4096  -6.4091
    -6.4083  -6.4039  -6.3050  -6.3040  -6.3002  -6.2309  -6.2305  -6.2291
    -5.9928  -5.9913  -5.9875  -5.8540  -5.8363  -5.8351  -5.8322  -5.7747
    -5.7736  -5.7705  -5.6568  -5.6565  -5.6556  -5.6520  -5.6132  -5.6127
    -5.6123  -5.6085  -5.5567  -5.5526  -5.5517  -5.5512  -5.5454  -5.5443
    -5.5420  -5.4539  -5.4352  -5.4349  -5.4346  -5.4323  -5.3740  -5.3453
    -5.3383  -5.3378  -5.3373  -5.2815  -0.6059  -0.6040  -0.6030  -0.4140
    -0.4126  -0.4110  -0.3483  -0.3327  -0.3020  -0.3012  -0.2989  -0.2745
     1.4078   1.4088   1.4108   1.5696   1.6129   1.6167   1.6191   1.6200
     1.6576   1.9342   1.9354   1.9377   2.0039   2.0481   2.0524   2.0534
     2.0570   2.0708   2.2754   2.2758   2.2774   2.3054   2.3885   2.3893
     2.3904   2.3931   2.4147   2.4162   2.4175   2.4559   2.6190   2.6224
     2.6244   2.6692   2.7183   2.7915   2.7973   2.7983   2.8025   2.8713
     2.8727   2.8762   2.9731   2.9751   2.9775   3.0429   3.0459   3.0470
     3.1029   3.1067   3.1076   3.1754   3.1977   3.2029   3.2044   3.2072
     3.2711   3.2739   3.2764   3.2843   3.3744   3.3820   3.3832   3.3842
     3.4184   3.4197   3.4206   3.4395   3.4399   3.4438   3.4479   3.4487
     3.4516   3.4771   3.4983   3.5164   3.5189   3.5195   3.5382   3.5446
     3.5486   3.5504   3.5549   3.6385   3.6441   3.6454   3.6472   3.6548
     3.6797   3.6802   3.6905   3.7720   3.8291   3.8748   3.8760   3.8791
     3.9094   3.9210   3.9938   3.9959   3.9973   4.0535   4.0557   4.0573
     4.0746   4.1165   4.1174   4.1211   4.1466   4.1475   4.1515   4.1639
     4.1698   4.1725   4.1744   4.2102   4.2490   4.2506   4.2540   4.2666
     4.4204   4.4217   4.4244   4.4828   4.5579   4.5596   4.5624   4.6050
     4.6059   4.6075   4.6768   4.8079   5.1345   5.1462   5.1527   5.1537
     5.1550   5.1635   5.1857   5.1870   5.1879   5.2146   5.2158   5.2170
     5.2192   5.2464   5.2479   5.2485   5.2575   5.2586   5.2597   5.2632
     5.2746   5.2765   5.2780   5.2801   5.3277   5.3293   5.3300   5.3308
     5.3335   5.3346   5.3406   5.3411   5.3443   5.3663   5.3712   5.3745
     5.3753   5.3893   5.4020   5.4186   5.4212   5.4221   5.5254   5.5309
     5.5327   5.5336   5.5813   5.5870   5.5882   5.5892   5.5902   5.6189
     5.6205   5.6214   5.6513   5.6517   5.6525   5.6606   5.6804   5.6810
     5.6826   5.7537   5.7552   5.7562   5.7898   5.7980   5.8155   5.8172
     5.8177   5.8709   5.8815   5.8834   5.8850   5.9868   5.9881   5.9893
     6.0420   6.0426   6.0442   6.0971   6.0984   6.0997   6.1752   6.1914
     6.1917   6.1933   6.2345   6.2680   6.2683   6.2696   6.3248   6.3258
     6.3283   6.3585   6.3600   6.3702   6.3718   6.3736   6.3955   6.4282
     6.4296   6.4306   6.4790   6.6399   6.6413   6.6419   6.6426   6.6432
     6.6441   6.6700   6.7073   6.7089   6.7105   6.7510   6.7528   6.7541
     6.9419   7.0043   7.0949   7.1699

          k = 0.0000 0.3849 0.0000 (115797 PWs)   bands (ev):

   -28.2939 -28.2775 -28.2765 -28.2765 -28.2760 -28.2759 -28.2756 -28.2754
   -28.2748 -28.2747 -28.2746 -28.2608 -14.9277 -14.9240 -14.9237 -14.9233
   -14.9232 -14.9229 -14.9229 -14.9226 -14.9223 -14.9223 -14.9219 -14.9214
   -14.9183 -14.9178 -14.9178 -14.9175 -14.9173 -14.9171 -14.9170 -14.9167
   -14.9165 -14.9165 -14.9160 -14.9107 -14.9094 -14.9061 -14.9057 -14.9054
   -14.9052 -14.9051 -14.9049 -14.9046 -14.9044 -14.9043 -14.9040 -14.8989
   -14.8695 -14.8658 -14.8655 -14.8652 -14.8650 -14.8649 -14.8648 -14.8644
   -14.8642 -14.8641 -14.8638 -14.8610 -14.8239 -14.8208 -14.8203 -14.8201
   -14.8198 -14.8198 -14.8196 -14.8193 -14.8191 -14.8190 -14.8186 -14.8136
   -10.3509 -10.3386 -10.3376 -10.3369 -10.3362 -10.3355 -10.3348 -10.3342
   -10.3333 -10.3324 -10.3286 -10.3203 -10.3170 -10.3074 -10.3065 -10.3055
   -10.3036 -10.3025 -10.3016 -10.2992 -10.2960 -10.2941 -10.2886 -10.2837
   -10.2783 -10.2695 -10.2689 -10.2680 -10.2663 -10.2647 -10.2634 -10.2630
   -10.2622 -10.2607 -10.2578 -10.2502  -6.7873  -6.5895  -6.4997  -6.4963
    -6.4391  -6.4343  -6.3659  -6.3472  -6.2855  -6.2834  -6.2489  -6.2460
    -5.9117  -5.9107  -5.8196  -5.8192  -5.8164  -5.7772  -5.7695  -5.7650
    -5.7323  -5.7239  -5.7229  -5.6910  -5.6881  -5.6473  -5.6389  -5.6351
    -5.6290  -5.5945  -5.5848  -5.5835  -5.5683  -5.5276  -5.5195  -5.5175
    -5.5162  -5.5039  -5.4627  -5.4508  -5.4370  -5.4364  -5.4199  -5.4145
    -5.3487  -5.3479  -5.3136  -5.2706  -0.5721  -0.5708  -0.5629  -0.4357
    -0.4045  -0.4040  -0.3773  -0.3399  -0.3375  -0.3346  -0.3130  -0.3037
     1.4180   1.4857   1.4895   1.5007   1.6401   1.6513   1.6887   1.7222
     1.7253   1.8295   1.8766   1.8785   1.9534   1.9558   1.9574   2.0272
     2.1157   2.2093   2.2294   2.2302   2.3388   2.3635   2.3839   2.3867
     2.3943   2.4087   2.4488   2.5367   2.5386   2.6133   2.6148   2.6204
     2.6577   2.7360   2.8115   2.8147   2.8224   2.8398   2.8414   2.8460
     2.8546   2.8846   2.9082   2.9088   2.9147   2.9615   2.9624   3.0036
     3.0501   3.0559   3.0587   3.1257   3.1485   3.1751   3.2038   3.2109
     3.2116   3.2316   3.2607   3.2615   3.2686   3.3232   3.3300   3.3311
     3.3405   3.3723   3.3946   3.3952   3.4333   3.4400   3.4419   3.4492
     3.4975   3.4983   3.5000   3.5091   3.5115   3.5136   3.5223   3.5429
     3.5610   3.6045   3.6055   3.6128   3.6346   3.6512   3.6786   3.6843
     3.6940   3.7024   3.7067   3.7093   3.7781   3.7833   3.8486   3.8592
     3.8970   3.9728   3.9751   3.9781   3.9798   4.0295   4.0356   4.0408
     4.0939   4.1109   4.1212   4.1221   4.1253   4.1625   4.1631   4.1778
     4.2467   4.2633   4.2710   4.2822   4.3026   4.3215   4.3245   4.3680
     4.3780   4.4150   4.4202   4.4827   4.5175   4.5277   4.5285   4.5299
     4.5903   4.5918   4.6280   4.7502   5.1426   5.1434   5.1460   5.1528
     5.1589   5.1622   5.1687   5.1741   5.2148   5.2173   5.2196   5.2220
     5.2287   5.2366   5.2475   5.2490   5.2504   5.2605   5.2678   5.2706
     5.2731   5.2884   5.3040   5.3051   5.3127   5.3182   5.3252   5.3289
     5.3362   5.3480   5.3508   5.3543   5.3572   5.3649   5.4128   5.4150
     5.4341   5.4504   5.4603   5.4616   5.4851   5.4930   5.4994   5.4998
     5.5023   5.5115   5.5284   5.5438   5.5558   5.5573   5.5609   5.6021
     5.6039   5.6301   5.6307   5.6328   5.6677   5.6776   5.6949   5.6958
     5.6967   5.7166   5.7292   5.7560   5.7746   5.7757   5.8079   5.8180
     5.8196   5.8633   5.8754   5.8766   5.9499   5.9513   5.9628   5.9646
     5.9897   6.0061   6.0071   6.0207   6.1381   6.1400   6.1441   6.1593
     6.2258   6.2293   6.2313   6.2515   6.2709   6.2883   6.2893   6.2985
     6.3603   6.3631   6.3768   6.3894   6.3907   6.4398   6.4860   6.4880
     6.5241   6.5369   6.5386   6.5759   6.6044   6.6506   6.6835   6.6923
     6.6932   6.7282   6.7369   6.7385   6.7627   6.7778   6.7939   6.8117
     6.8129   6.9039   6.9088   7.0807

          k = 0.0000 0.3849 0.2714 (115773 PWs)   bands (ev):

   -28.2939 -28.2775 -28.2765 -28.2765 -28.2760 -28.2759 -28.2756 -28.2754
   -28.2748 -28.2747 -28.2746 -28.2608 -14.9277 -14.9240 -14.9237 -14.9233
   -14.9232 -14.9229 -14.9229 -14.9226 -14.9223 -14.9223 -14.9219 -14.9214
   -14.9183 -14.9178 -14.9178 -14.9175 -14.9173 -14.9171 -14.9170 -14.9167
   -14.9165 -14.9165 -14.9160 -14.9107 -14.9094 -14.9061 -14.9057 -14.9054
   -14.9052 -14.9051 -14.9049 -14.9046 -14.9044 -14.9043 -14.9040 -14.8989
   -14.8695 -14.8658 -14.8655 -14.8652 -14.8650 -14.8649 -14.8648 -14.8644
   -14.8642 -14.8641 -14.8638 -14.8610 -14.8239 -14.8208 -14.8203 -14.8201
   -14.8198 -14.8198 -14.8196 -14.8193 -14.8191 -14.8190 -14.8186 -14.8136
   -10.3511 -10.3395 -10.3383 -10.3376 -10.3366 -10.3351 -10.3345 -10.3338
   -10.3330 -10.3307 -10.3290 -10.3203 -10.3172 -10.3098 -10.3066 -10.3052
   -10.3031 -10.3012 -10.2996 -10.2978 -10.2963 -10.2939 -10.2896 -10.2850
   -10.2781 -10.2693 -10.2687 -10.2682 -10.2663 -10.2650 -10.2633 -10.2628
   -10.2620 -10.2602 -10.2589 -10.2504  -6.7503  -6.6460  -6.5604  -6.4714
    -6.4234  -6.4182  -6.3631  -6.3291  -6.3273  -6.2580  -6.2251  -6.2224
    -5.9058  -5.9042  -5.8222  -5.8210  -5.8089  -5.8068  -5.7924  -5.7618
    -5.7565  -5.7323  -5.7112  -5.7100  -5.6720  -5.6349  -5.6292  -5.6282
    -5.6236  -5.6074  -5.6003  -5.5989  -5.5688  -5.5275  -5.5229  -5.5211
    -5.5202  -5.4947  -5.4681  -5.4328  -5.4290  -5.4285  -5.4226  -5.3622
    -5.3483  -5.3475  -5.3222  -5.3001  -0.5609  -0.5591  -0.5584  -0.4372
    -0.4350  -0.4252  -0.3942  -0.3736  -0.3201  -0.3165  -0.2993  -0.2794
     1.4331   1.4835   1.4866   1.4876   1.6245   1.6422   1.7707   1.7745
     1.7816   1.7931   1.7999   1.8016   1.9138   1.9957   1.9961   2.0770
     2.1550   2.2004   2.2131   2.2477   2.2480   2.3597   2.3921   2.3934
     2.3987   2.4480   2.5118   2.5122   2.5468   2.5896   2.5945   2.6087
     2.6439   2.7127   2.7609   2.7675   2.7713   2.7892   2.8069   2.8103
     2.8381   2.8749   2.9153   2.9167   2.9182   2.9816   3.0231   3.0241
     3.0697   3.1058   3.1072   3.1319   3.1705   3.1899   3.1928   3.1946
     3.2008   3.2321   3.2642   3.2659   3.2765   3.3178   3.3204   3.3223
     3.3246   3.3892   3.3898   3.4101   3.4448   3.4460   3.4686   3.4693
     3.4710   3.4733   3.4759   3.4771   3.5331   3.5347   3.5371   3.5934
     3.6095   3.6118   3.6176   3.6330   3.6416   3.6523   3.6584   3.6620
     3.6682   3.7103   3.7114   3.7121   3.8350   3.8393   3.8793   3.8883
     3.9038   3.9485   3.9515   3.9736   3.9815   4.0214   4.0469   4.0486
     4.0515   4.0650   4.1101   4.1118   4.1192   4.1333   4.1348   4.1477
     4.1903   4.2537   4.2642   4.2700   4.2868   4.2911   4.2946   4.3867
     4.3972   4.4372   4.4396   4.4671   4.5252   4.5264   4.5353   4.5957
     4.6101   4.6113   4.6233   4.7228   5.1501   5.1504   5.1534   5.1558
     5.1700   5.1741   5.1776   5.1834   5.1896   5.1979   5.2010   5.2072
     5.2080   5.2334   5.2344   5.2362   5.2545   5.2616   5.2654   5.2673
     5.2779   5.2970   5.3068   5.3117   5.3146   5.3283   5.3334   5.3383
     5.3568   5.3590   5.3602   5.3633   5.3795   5.3921   5.4067   5.4072
     5.4135   5.4311   5.4325   5.4439   5.4456   5.4922   5.5010   5.5023
     5.5099   5.5148   5.5534   5.5597   5.5736   5.5756   5.6020   5.6100
     5.6120   5.6184   5.6238   5.6263   5.6427   5.6697   5.6819   5.7131
     5.7147   5.7169   5.7336   5.7705   5.7727   5.7735   5.8014   5.8022
     5.8095   5.8582   5.8740   5.8760   5.8782   5.9143   5.9574   5.9586
     6.0335   6.0349   6.0353   6.0592   6.0778   6.0799   6.1729   6.2060
     6.2124   6.2147   6.2659   6.2669   6.2703   6.2778   6.2854   6.3477
     6.3492   6.3647   6.3707   6.4143   6.4238   6.4262   6.4272   6.4701
     6.4976   6.4994   6.5454   6.5586   6.5945   6.5962   6.6662   6.6682
     6.6773   6.7195   6.7356   6.7377   6.7477   6.8124   6.8144   6.8451
     6.8683   6.9280   6.9370   7.0522

          k = 0.3333 0.5774 0.0000 (115752 PWs)   bands (ev):

   -28.2939 -28.2775 -28.2765 -28.2765 -28.2760 -28.2759 -28.2756 -28.2754
   -28.2748 -28.2747 -28.2746 -28.2608 -14.9277 -14.9239 -14.9236 -14.9234
   -14.9232 -14.9230 -14.9229 -14.9226 -14.9223 -14.9223 -14.9219 -14.9214
   -14.9183 -14.9178 -14.9177 -14.9175 -14.9173 -14.9172 -14.9170 -14.9167
   -14.9165 -14.9165 -14.9160 -14.9107 -14.9094 -14.9061 -14.9057 -14.9054
   -14.9052 -14.9051 -14.9049 -14.9046 -14.9044 -14.9043 -14.9040 -14.8989
   -14.8695 -14.8658 -14.8655 -14.8653 -14.8650 -14.8649 -14.8648 -14.8644
   -14.8642 -14.8641 -14.8638 -14.8610 -14.8239 -14.8208 -14.8203 -14.8201
   -14.8198 -14.8198 -14.8196 -14.8193 -14.8191 -14.8190 -14.8186 -14.8136
   -10.3506 -10.3385 -10.3367 -10.3363 -10.3356 -10.3352 -10.3349 -10.3345
   -10.3331 -10.3312 -10.3301 -10.3205 -10.3166 -10.3071 -10.3052 -10.3043
   -10.3036 -10.3025 -10.3013 -10.3007 -10.2972 -10.2917 -10.2898 -10.2858
   -10.2779 -10.2693 -10.2680 -10.2671 -10.2666 -10.2657 -10.2648 -10.2642
   -10.2623 -10.2599 -10.2587 -10.2509  -6.6508  -6.6502  -6.6479  -6.3995
    -6.3993  -6.3990  -6.3986  -6.3985  -6.3928  -6.2928  -6.2905  -6.1923
    -5.8647  -5.8514  -5.8479  -5.7495  -5.7490  -5.7464  -5.7326  -5.7322
    -5.7315  -5.7088  -5.7075  -5.6948  -5.6944  -5.6928  -5.6856  -5.6848
    -5.6834  -5.6450  -5.5415  -5.5404  -5.5404  -5.5298  -5.5293  -5.5247
    -5.5114  -5.4726  -5.4717  -5.4698  -5.4672  -5.4666  -5.4638  -5.3972
    -5.3967  -5.3028  -5.3019  -5.3010  -0.5450  -0.5161  -0.5145  -0.5135
    -0.3966  -0.3959  -0.3911  -0.3905  -0.3897  -0.3102  -0.3098  -0.3088
     1.4829   1.4840   1.4858   1.6724   1.6753   1.6782   1.6851   1.6864
     1.6884   1.7331   1.7352   1.8014   2.0768   2.0813   2.0817   2.0831
     2.0855   2.1432   2.1449   2.1472   2.2543   2.3964   2.3972   2.3981
     2.4932   2.4945   2.4969   2.5626   2.5643   2.5649   2.5976   2.5989
     2.7730   2.7745   2.7772   2.8364   2.8371   2.8412   2.8440   2.8458
     2.8496   2.8523   2.8530   2.8610   2.8683   3.0080   3.0100   3.0115
     3.0245   3.0259   3.0272   3.0613   3.1321   3.1339   3.1366   3.1952
     3.1974   3.1979   3.2579   3.2595   3.2607   3.2701   3.2707   3.3615
     3.3693   3.3718   3.3724   3.3740   3.4238   3.4251   3.4269   3.4856
     3.4875   3.5015   3.5024   3.5037   3.5292   3.5300   3.5305   3.5468
     3.5496   3.5784   3.5799   3.5835   3.6497   3.6503   3.6569   3.7203
     3.7207   3.7231   3.7278   3.7340   3.7580   3.8005   3.8015   3.8040
     3.9561   3.9596   3.9597   3.9862   3.9888   4.0286   4.0309   4.0329
     4.0816   4.0844   4.0870   4.1406   4.1504   4.1511   4.1526   4.2841
     4.2855   4.2939   4.3141   4.3191   4.3199   4.3202   4.3219   4.3241
     4.3851   4.3866   4.3889   4.4968   4.5145   4.5151   4.5191   4.5216
     4.5224   4.6526   4.6551   4.6587   5.1372   5.1422   5.1440   5.1450
     5.1722   5.1736   5.1859   5.1870   5.1893   5.1954   5.1968   5.1982
     5.2459   5.2467   5.2486   5.2644   5.2661   5.2665   5.2971   5.2979
     5.2990   5.3012   5.3015   5.3028   5.3136   5.3184   5.3185   5.3203
     5.3383   5.3401   5.3415   5.4007   5.4030   5.4037   5.4079   5.4095
     5.4531   5.4547   5.4558   5.4581   5.4826   5.4836   5.4843   5.4883
     5.4890   5.5339   5.5352   5.5360   5.5632   5.5637   5.5651   5.5699
     5.5704   5.5727   5.6408   5.6712   5.6730   5.6926   5.6939   5.6963
     5.7054   5.7070   5.7084   5.7792   5.7807   5.7814   5.7983   5.7995
     5.8002   5.8236   5.8241   5.8433   5.9292   5.9313   5.9318   6.0446
     6.0467   6.0474   6.0479   6.0489   6.1376   6.1382   6.1390   6.1578
     6.2180   6.2198   6.2210   6.2565   6.2599   6.2610   6.2833   6.2850
     6.3742   6.4086   6.4107   6.4112   6.4167   6.4178   6.4233   6.4512
     6.4521   6.4534   6.6132   6.6149   6.6158   6.6753   6.6769   6.6774
     6.7261   6.7400   6.7420   6.8057   6.8064   6.8069   6.8099   6.8113
     6.8113   6.9384   6.9395   6.9402

          k = 0.3333 0.5774 0.2714 (115827 PWs)   bands (ev):

   -28.2939 -28.2775 -28.2765 -28.2765 -28.2760 -28.2759 -28.2756 -28.2754
   -28.2748 -28.2747 -28.2746 -28.2608 -14.9277 -14.9239 -14.9236 -14.9234
   -14.9232 -14.9230 -14.9229 -14.9226 -14.9223 -14.9223 -14.9219 -14.9214
   -14.9183 -14.9178 -14.9177 -14.9175 -14.9173 -14.9172 -14.9170 -14.9167
   -14.9165 -14.9165 -14.9160 -14.9107 -14.9094 -14.9061 -14.9057 -14.9054
   -14.9052 -14.9051 -14.9049 -14.9046 -14.9044 -14.9043 -14.9040 -14.8989
   -14.8695 -14.8658 -14.8655 -14.8653 -14.8650 -14.8649 -14.8648 -14.8644
   -14.8642 -14.8641 -14.8638 -14.8610 -14.8239 -14.8208 -14.8203 -14.8201
   -14.8198 -14.8198 -14.8196 -14.8193 -14.8191 -14.8190 -14.8186 -14.8136
   -10.3508 -10.3391 -10.3380 -10.3371 -10.3364 -10.3344 -10.3338 -10.3336
   -10.3326 -10.3309 -10.3302 -10.3205 -10.3167 -10.3081 -10.3071 -10.3062
   -10.3026 -10.3002 -10.2988 -10.2976 -10.2967 -10.2929 -10.2915 -10.2866
   -10.2780 -10.2694 -10.2681 -10.2672 -10.2666 -10.2648 -10.2646 -10.2633
   -10.2626 -10.2603 -10.2597 -10.2511  -6.6186  -6.6181  -6.6157  -6.5251
    -6.5246  -6.5221  -6.3076  -6.2897  -6.2892  -6.2859  -6.2575  -6.2134
    -5.8741  -5.8581  -5.8428  -5.7805  -5.7798  -5.7783  -5.7428  -5.7421
    -5.7402  -5.7156  -5.6885  -5.6879  -5.6868  -5.6737  -5.6722  -5.6715
    -5.6704  -5.6431  -5.5571  -5.5560  -5.5534  -5.5256  -5.5245  -5.5227
    -5.5052  -5.5034  -5.5032  -5.4970  -5.4590  -5.3986  -5.3983  -5.3969
    -5.3581  -5.3237  -5.3224  -5.3220  -0.5208  -0.5071  -0.5058  -0.5045
    -0.4616  -0.4182  -0.4170  -0.4161  -0.3549  -0.2933  -0.2929  -0.2916
     1.4810   1.4825   1.4841   1.6360   1.6383   1.6410   1.6895   1.7739
     1.7756   1.7763   1.7794   1.7955   1.9791   1.9816   1.9846   2.0545
     2.1700   2.1920   2.1933   2.1956   2.2459   2.3966   2.3977   2.3991
     2.4880   2.4892   2.4908   2.5573   2.5850   2.5881   2.5894   2.5933
     2.6805   2.7355   2.7373   2.7411   2.8218   2.8229   2.8241   2.8296
     2.9008   2.9019   2.9068   2.9229   2.9354   2.9542   2.9562   2.9572
     3.0583   3.0601   3.0623   3.0879   3.0884   3.0899   3.1269   3.1802
     3.2440   3.2450   3.2465   3.2699   3.2708   3.2723   3.3200   3.3254
     3.3275   3.3282   3.3728   3.4074   3.4208   3.4642   3.4653   3.4662
     3.4930   3.4980   3.4994   3.5003   3.5360   3.5371   3.5380   3.5417
     3.5609   3.6151   3.6161   3.6219   3.6540   3.6545   3.6602   3.6972
     3.6980   3.7013   3.7207   3.7451   3.8220   3.8403   3.8420   3.8429
     3.9379   3.9396   3.9406   3.9417   4.0287   4.0296   4.0314   4.0403
     4.0654   4.0677   4.0702   4.1089   4.1138   4.1148   4.1165   4.1687
     4.2716   4.2735   4.2751   4.2889   4.3150   4.3588   4.3612   4.3625
     4.4149   4.4166   4.4198   4.4921   4.4929   4.4952   4.5076   4.5131
     4.5639   4.6668   4.6676   4.6700   5.1482   5.1549   5.1570   5.1574
     5.1591   5.1808   5.1828   5.1839   5.1960   5.1977   5.1987   5.2097
     5.2242   5.2247   5.2264   5.2507   5.2512   5.2529   5.2569   5.2683
     5.2995   5.3024   5.3027   5.3095   5.3267   5.3287   5.3309   5.3673
     5.3677   5.3696   5.3744   5.3931   5.3949   5.4082   5.4091   5.4107
     5.4316   5.4322   5.4337   5.4381   5.4831   5.4846   5.4855   5.4920
     5.5371   5.5385   5.5399   5.5436   5.5649   5.5664   5.5690   5.6041
     5.6058   5.6063   5.6378   5.6397   5.6704   5.6715   5.6733   5.7017
     5.7037   5.7048   5.7167   5.7580   5.7600   5.7607   5.8012   5.8073
     5.8192   5.8223   5.8242   5.8259   5.8884   5.8905   5.8914   6.0566
     6.0591   6.0603   6.0611   6.0763   6.1191   6.1203   6.1213   6.1343
     6.1956   6.2370   6.2385   6.2401   6.2845   6.3006   6.3023   6.3034
     6.3069   6.3845   6.3851   6.3861   6.4495   6.4660   6.4677   6.4682
     6.4914   6.4929   6.5583   6.5593   6.5601   6.6465   6.6843   6.6852
     6.6863   6.7613   6.7773   6.7787   6.7793   6.7925   6.8543   6.8550
     6.8562   6.9354   6.9363   6.9372

          k =-0.3333 0.1925 0.0000 (115797 PWs)   bands (ev):

   -28.2939 -28.2775 -28.2765 -28.2765 -28.2760 -28.2759 -28.2756 -28.2754
   -28.2748 -28.2747 -28.2746 -28.2608 -14.9277 -14.9240 -14.9236 -14.9234
   -14.9232 -14.9230 -14.9229 -14.9226 -14.9223 -14.9223 -14.9219 -14.9214
   -14.9183 -14.9178 -14.9177 -14.9175 -14.9173 -14.9172 -14.9170 -14.9167
   -14.9165 -14.9164 -14.9160 -14.9107 -14.9094 -14.9061 -14.9057 -14.9054
   -14.9052 -14.9051 -14.9049 -14.9046 -14.9044 -14.9043 -14.9040 -14.8989
   -14.8695 -14.8658 -14.8655 -14.8653 -14.8650 -14.8649 -14.8648 -14.8644
   -14.8642 -14.8641 -14.8638 -14.8610 -14.8239 -14.8208 -14.8203 -14.8201
   -14.8198 -14.8198 -14.8196 -14.8193 -14.8191 -14.8190 -14.8186 -14.8136
   -10.3510 -10.3383 -10.3377 -10.3373 -10.3366 -10.3357 -10.3350 -10.3337
   -10.3329 -10.3323 -10.3285 -10.3200 -10.3169 -10.3076 -10.3070 -10.3052
   -10.3033 -10.3031 -10.3017 -10.2996 -10.2955 -10.2923 -10.2895 -10.2843
   -10.2781 -10.2699 -10.2686 -10.2672 -10.2669 -10.2658 -10.2632 -10.2626
   -10.2614 -10.2605 -10.2576 -10.2509  -6.7872  -6.5889  -6.4990  -6.4971
    -6.4383  -6.4374  -6.3646  -6.3487  -6.2852  -6.2824  -6.2485  -6.2464
    -5.9109  -5.9071  -5.8211  -5.8189  -5.8155  -5.7779  -5.7683  -5.7670
    -5.7321  -5.7244  -5.7232  -5.6906  -5.6900  -5.6483  -5.6389  -5.6380
    -5.6296  -5.5958  -5.5848  -5.5831  -5.5649  -5.5266  -5.5194  -5.5184
    -5.5158  -5.5037  -5.4603  -5.4519  -5.4367  -5.4363  -5.4221  -5.4130
    -5.3487  -5.3484  -5.3133  -5.2706  -0.5725  -0.5700  -0.5629  -0.4361
    -0.4044  -0.4024  -0.3781  -0.3385  -0.3379  -0.3374  -0.3129  -0.3032
     1.4194   1.4867   1.4875   1.5009   1.6387   1.6520   1.6878   1.7232
     1.7246   1.8283   1.8764   1.8784   1.9534   1.9551   1.9607   2.0290
     2.1164   2.2071   2.2292   2.2311   2.3393   2.3645   2.3851   2.3865
     2.3944   2.4088   2.4504   2.5364   2.5377   2.6128   2.6131   2.6170
     2.6572   2.7356   2.8117   2.8138   2.8232   2.8417   2.8422   2.8467
     2.8531   2.8845   2.9065   2.9099   2.9155   2.9603   2.9641   3.0040
     3.0490   3.0567   3.0599   3.1230   3.1476   3.1747   3.2045   3.2107
     3.2121   3.2337   3.2581   3.2609   3.2697   3.3225   3.3284   3.3307
     3.3386   3.3721   3.3949   3.3961   3.4330   3.4406   3.4424   3.4495
     3.4956   3.4979   3.5003   3.5097   3.5100   3.5149   3.5217   3.5439
     3.5625   3.6057   3.6087   3.6140   3.6369   3.6468   3.6791   3.6810
     3.6946   3.7026   3.7047   3.7162   3.7784   3.7799   3.8500   3.8610
     3.8949   3.9725   3.9744   3.9781   3.9809   4.0303   4.0373   4.0390
     4.0926   4.1102   4.1205   4.1214   4.1276   4.1619   4.1642   4.1779
     4.2484   4.2662   4.2681   4.2824   4.3007   4.3218   4.3240   4.3690
     4.3768   4.4154   4.4181   4.4837   4.5178   4.5271   4.5288   4.5310
     4.5893   4.5934   4.6265   4.7497   5.1425   5.1446   5.1466   5.1539
     5.1587   5.1607   5.1693   5.1751   5.2142   5.2180   5.2202   5.2210
     5.2274   5.2366   5.2472   5.2491   5.2501   5.2607   5.2688   5.2706
     5.2723   5.2894   5.3031   5.3045   5.3146   5.3188   5.3264   5.3271
     5.3356   5.3490   5.3512   5.3531   5.3579   5.3650   5.4128   5.4157
     5.4327   5.4512   5.4608   5.4616   5.4849   5.4924   5.4990   5.5005
     5.5023   5.5113   5.5264   5.5419   5.5562   5.5568   5.5611   5.6032
     5.6034   5.6284   5.6312   5.6326   5.6677   5.6773   5.6932   5.6966
     5.6971   5.7177   5.7293   5.7553   5.7744   5.7761   5.8081   5.8188
     5.8196   5.8640   5.8746   5.8757   5.9505   5.9524   5.9639   5.9654
     5.9903   6.0053   6.0067   6.0200   6.1378   6.1393   6.1449   6.1596
     6.2250   6.2299   6.2312   6.2514   6.2701   6.2890   6.2902   6.2981
     6.3607   6.3623   6.3763   6.3890   6.3905   6.4412   6.4856   6.4863
     6.5244   6.5372   6.5384   6.5754   6.6044   6.6513   6.6838   6.6922
     6.6933   6.7298   6.7363   6.7386   6.7625   6.7774   6.7923   6.8116
     6.8139   6.9042   6.9088   7.0809

          k = 0.3333 0.1925 0.0000 (115797 PWs)   bands (ev):

   -28.2939 -28.2775 -28.2765 -28.2765 -28.2760 -28.2759 -28.2756 -28.2754
   -28.2748 -28.2747 -28.2746 -28.2608 -14.9277 -14.9239 -14.9237 -14.9234
   -14.9231 -14.9230 -14.9229 -14.9226 -14.9223 -14.9223 -14.9219 -14.9214
   -14.9183 -14.9178 -14.9177 -14.9176 -14.9173 -14.9172 -14.9170 -14.9167
   -14.9165 -14.9165 -14.9160 -14.9107 -14.9094 -14.9061 -14.9057 -14.9054
   -14.9052 -14.9051 -14.9049 -14.9046 -14.9044 -14.9044 -14.9040 -14.8989
   -14.8695 -14.8658 -14.8655 -14.8653 -14.8650 -14.8649 -14.8648 -14.8644
   -14.8642 -14.8641 -14.8638 -14.8610 -14.8239 -14.8208 -14.8203 -14.8201
   -14.8198 -14.8198 -14.8196 -14.8193 -14.8191 -14.8190 -14.8186 -14.8136
   -10.3507 -10.3387 -10.3374 -10.3370 -10.3363 -10.3359 -10.3351 -10.3336
   -10.3331 -10.3324 -10.3287 -10.3203 -10.3169 -10.3077 -10.3066 -10.3050
   -10.3037 -10.3024 -10.3016 -10.2998 -10.2958 -10.2938 -10.2892 -10.2839
   -10.2778 -10.2698 -10.2691 -10.2679 -10.2664 -10.2649 -10.2638 -10.2628
   -10.2619 -10.2602 -10.2579 -10.2501  -6.7872  -6.5891  -6.4988  -6.4971
    -6.4384  -6.4366  -6.3640  -6.3487  -6.2850  -6.2834  -6.2486  -6.2470
    -5.9122  -5.9080  -5.8198  -5.8191  -5.8169  -5.7767  -5.7680  -5.7673
    -5.7316  -5.7244  -5.7220  -5.6904  -5.6898  -5.6478  -5.6385  -5.6362
    -5.6294  -5.5952  -5.5848  -5.5827  -5.5676  -5.5278  -5.5192  -5.5175
    -5.5158  -5.5042  -5.4612  -5.4516  -5.4369  -5.4361  -5.4218  -5.4137
    -5.3486  -5.3478  -5.3138  -5.2707  -0.5737  -0.5710  -0.5617  -0.4352
    -0.4055  -0.4038  -0.3767  -0.3381  -0.3380  -0.3371  -0.3116  -0.3030
     1.4182   1.4869   1.4893   1.5011   1.6400   1.6505   1.6880   1.7230
     1.7271   1.8273   1.8736   1.8775   1.9530   1.9559   1.9579   2.0282
     2.1158   2.2080   2.2295   2.2322   2.3383   2.3624   2.3853   2.3880
     2.3937   2.4090   2.4498   2.5363   2.5379   2.6122   2.6149   2.6181
     2.6596   2.7352   2.8133   2.8161   2.8223   2.8394   2.8411   2.8441
     2.8551   2.8863   2.9063   2.9098   2.9161   2.9618   2.9633   3.0035
     3.0505   3.0562   3.0579   3.1245   3.1483   3.1755   3.2023   3.2098
     3.2122   3.2334   3.2599   3.2612   3.2678   3.3237   3.3298   3.3308
     3.3388   3.3713   3.3928   3.3952   3.4339   3.4401   3.4435   3.4514
     3.4968   3.4982   3.5001   3.5095   3.5122   3.5134   3.5223   3.5416
     3.5619   3.6039   3.6068   3.6124   3.6357   3.6476   3.6795   3.6822
     3.6970   3.7023   3.7044   3.7158   3.7783   3.7803   3.8503   3.8608
     3.8959   3.9732   3.9755   3.9786   3.9794   4.0284   4.0384   4.0422
     4.0912   4.1093   4.1200   4.1217   4.1257   4.1613   4.1646   4.1778
     4.2478   4.2666   4.2681   4.2817   4.3026   4.3227   4.3239   4.3678
     4.3797   4.4165   4.4167   4.4832   4.5167   4.5270   4.5285   4.5306
     4.5883   4.5945   4.6264   4.7493   5.1417   5.1444   5.1474   5.1540
     5.1601   5.1607   5.1694   5.1734   5.2127   5.2192   5.2199   5.2218
     5.2280   5.2373   5.2472   5.2488   5.2504   5.2609   5.2651   5.2714
     5.2725   5.2891   5.3032   5.3052   5.3123   5.3181   5.3263   5.3290
     5.3366   5.3501   5.3509   5.3540   5.3573   5.3655   5.4133   5.4139
     5.4341   5.4498   5.4589   5.4614   5.4858   5.4927   5.4995   5.5005
     5.5023   5.5131   5.5284   5.5439   5.5559   5.5570   5.5602   5.6023
     5.6043   5.6292   5.6308   5.6319   5.6678   5.6786   5.6941   5.6959
     5.6972   5.7168   5.7294   5.7553   5.7734   5.7747   5.8077   5.8189
     5.8192   5.8627   5.8753   5.8762   5.9492   5.9522   5.9644   5.9653
     5.9885   6.0067   6.0073   6.0210   6.1380   6.1400   6.1456   6.1590
     6.2253   6.2300   6.2307   6.2510   6.2693   6.2883   6.2898   6.2993
     6.3601   6.3621   6.3775   6.3885   6.3913   6.4405   6.4859   6.4865
     6.5241   6.5382   6.5396   6.5763   6.6040   6.6507   6.6831   6.6922
     6.6941   6.7290   6.7368   6.7378   6.7625   6.7783   6.7927   6.8119
     6.8133   6.9037   6.9090   7.0807

          k = 0.0000-0.3849 0.2714 (115773 PWs)   bands (ev):

   -28.2939 -28.2775 -28.2765 -28.2765 -28.2760 -28.2759 -28.2756 -28.2754
   -28.2748 -28.2747 -28.2746 -28.2608 -14.9277 -14.9240 -14.9237 -14.9233
   -14.9232 -14.9229 -14.9229 -14.9226 -14.9223 -14.9223 -14.9219 -14.9214
   -14.9183 -14.9178 -14.9178 -14.9175 -14.9173 -14.9171 -14.9170 -14.9167
   -14.9165 -14.9165 -14.9160 -14.9107 -14.9094 -14.9061 -14.9057 -14.9054
   -14.9052 -14.9051 -14.9049 -14.9046 -14.9044 -14.9043 -14.9040 -14.8989
   -14.8695 -14.8658 -14.8655 -14.8652 -14.8650 -14.8649 -14.8648 -14.8644
   -14.8642 -14.8641 -14.8638 -14.8610 -14.8239 -14.8208 -14.8203 -14.8201
   -14.8198 -14.8198 -14.8196 -14.8193 -14.8191 -14.8190 -14.8186 -14.8136
   -10.3511 -10.3395 -10.3385 -10.3375 -10.3365 -10.3353 -10.3342 -10.3338
   -10.3332 -10.3306 -10.3291 -10.3203 -10.3172 -10.3095 -10.3075 -10.3046
   -10.3036 -10.3020 -10.2987 -10.2968 -10.2958 -10.2948 -10.2903 -10.2848
   -10.2782 -10.2691 -10.2689 -10.2678 -10.2667 -10.2644 -10.2630 -10.2627
   -10.2622 -10.2609 -10.2588 -10.2504  -6.7504  -6.6459  -6.5612  -6.4678
    -6.4202  -6.4148  -6.3627  -6.3409  -6.3391  -6.2648  -6.2113  -6.2087
    -5.9145  -5.9131  -5.8252  -5.8209  -5.8192  -5.8148  -5.7660  -5.7630
    -5.7532  -5.7335  -5.6834  -5.6826  -5.6813  -5.6636  -5.6432  -5.6388
    -5.6344  -5.6074  -5.5861  -5.5857  -5.5732  -5.5297  -5.5277  -5.5248
    -5.5167  -5.4866  -5.4636  -5.4386  -5.4376  -5.4371  -5.3985  -5.3706
    -5.3446  -5.3439  -5.3320  -5.2960  -0.5630  -0.5621  -0.5526  -0.4336
    -0.4298  -0.4280  -0.4113  -0.3612  -0.3234  -0.3197  -0.2905  -0.2837
     1.4044   1.4922   1.4963   1.5151   1.6128   1.7099   1.7130   1.7233
     1.7365   1.7732   1.8449   1.8466   1.9678   1.9859   2.0212   2.0228
     2.1291   2.2009   2.2088   2.2099   2.2846   2.3335   2.3971   2.4239
     2.4274   2.5185   2.5293   2.5310   2.5561   2.5580   2.5589   2.5632
     2.6006   2.6785   2.7631   2.7676   2.8196   2.8250   2.8257   2.8304
     2.8504   2.8553   2.8952   2.8964   2.9055   3.0079   3.0175   3.0186
     3.0772   3.0796   3.1173   3.1202   3.1333   3.1797   3.1807   3.1882
     3.2114   3.2456   3.2656   3.2846   3.2857   3.2960   3.3296   3.3320
     3.3751   3.3770   3.3787   3.3800   3.4461   3.4476   3.4494   3.4764
     3.4799   3.4813   3.5053   3.5190   3.5328   3.5348   3.5361   3.5597
     3.5855   3.5893   3.6105   3.6329   3.6400   3.6501   3.6835   3.6842
     3.6861   3.6953   3.7032   3.7082   3.8336   3.8415   3.8778   3.8799
     3.9421   3.9459   3.9461   3.9478   3.9709   4.0322   4.0544   4.0560
     4.0577   4.0623   4.1010   4.1028   4.1219   4.1235   4.1295   4.1332
     4.2219   4.2394   4.2652   4.2722   4.2894   4.2946   4.3129   4.3667
     4.3916   4.4341   4.4360   4.4803   4.5211   4.5449   4.5471   4.5851
     4.5950   4.5966   4.6325   4.7314   5.1464   5.1476   5.1521   5.1631
     5.1668   5.1690   5.1695   5.1729   5.1993   5.2044   5.2121   5.2170
     5.2196   5.2290   5.2399   5.2410   5.2597   5.2615   5.2647   5.2656
     5.2680   5.2728   5.3087   5.3117   5.3174   5.3339   5.3442   5.3471
     5.3584   5.3622   5.3636   5.3680   5.3692   5.3802   5.3875   5.3901
     5.4101   5.4331   5.4470   5.4508   5.4525   5.4686   5.4962   5.4974
     5.5164   5.5248   5.5557   5.5574   5.5678   5.5693   5.6011   5.6033
     5.6066   5.6195   5.6308   5.6492   5.6513   5.6602   5.6747   5.7079
     5.7094   5.7389   5.7592   5.7603   5.7696   5.7840   5.8036   5.8056
     5.8138   5.8390   5.8659   5.8677   5.8755   5.8942   5.9678   5.9684
     6.0187   6.0246   6.0258   6.1009   6.1023   6.1115   6.1592   6.1865
     6.2016   6.2039   6.2056   6.2617   6.2636   6.2886   6.3181   6.3411
     6.3543   6.3682   6.3690   6.4128   6.4184   6.4217   6.4517   6.4811
     6.4832   6.5052   6.5570   6.5665   6.6061   6.6084   6.6469   6.6661
     6.6682   6.7368   6.7382   6.7396   6.7487   6.8039   6.8051   6.8515
     6.8662   6.9184   6.9453   7.0384

          k =-0.3333 0.1925 0.2714 (115773 PWs)   bands (ev):

   -28.2939 -28.2775 -28.2765 -28.2765 -28.2760 -28.2759 -28.2756 -28.2754
   -28.2748 -28.2747 -28.2746 -28.2608 -14.9277 -14.9240 -14.9236 -14.9234
   -14.9232 -14.9230 -14.9229 -14.9226 -14.9223 -14.9223 -14.9219 -14.9214
   -14.9183 -14.9178 -14.9177 -14.9175 -14.9173 -14.9172 -14.9170 -14.9167
   -14.9165 -14.9164 -14.9160 -14.9107 -14.9094 -14.9061 -14.9057 -14.9054
   -14.9052 -14.9051 -14.9049 -14.9046 -14.9044 -14.9043 -14.9040 -14.8989
   -14.8695 -14.8658 -14.8655 -14.8653 -14.8650 -14.8649 -14.8648 -14.8644
   -14.8642 -14.8641 -14.8638 -14.8610 -14.8239 -14.8208 -14.8203 -14.8201
   -14.8198 -14.8198 -14.8196 -14.8193 -14.8191 -14.8190 -14.8186 -14.8136
   -10.3511 -10.3393 -10.3388 -10.3375 -10.3370 -10.3356 -10.3343 -10.3336
   -10.3326 -10.3308 -10.3288 -10.3203 -10.3170 -10.3094 -10.3075 -10.3053
   -10.3036 -10.3026 -10.2982 -10.2967 -10.2954 -10.2941 -10.2898 -10.2857
   -10.2781 -10.2696 -10.2686 -10.2678 -10.2669 -10.2652 -10.2630 -10.2621
   -10.2616 -10.2607 -10.2584 -10.2512  -6.7503  -6.6459  -6.5603  -6.4681
    -6.4194  -6.4187  -6.3629  -6.3404  -6.3380  -6.2650  -6.2111  -6.2082
    -5.9134  -5.9099  -5.8251  -5.8226  -5.8183  -5.8149  -5.7654  -5.7640
    -5.7538  -5.7342  -5.6836  -5.6822  -5.6816  -5.6634  -5.6425  -5.6417
    -5.6383  -5.6079  -5.5863  -5.5849  -5.5700  -5.5303  -5.5279  -5.5266
    -5.5142  -5.4845  -5.4653  -5.4388  -5.4375  -5.4357  -5.3998  -5.3697
    -5.3445  -5.3442  -5.3315  -5.2963  -0.5636  -0.5611  -0.5523  -0.4339
    -0.4292  -0.4279  -0.4121  -0.3607  -0.3226  -0.3214  -0.2905  -0.2836
     1.4054   1.4936   1.4941   1.5152   1.6124   1.7107   1.7126   1.7213
     1.7364   1.7731   1.8449   1.8475   1.9673   1.9865   2.0211   2.0259
     2.1311   2.1996   2.2076   2.2094   2.2864   2.3341   2.3966   2.4264
     2.4279   2.5181   2.5288   2.5300   2.5546   2.5579   2.5583   2.5600
     2.6002   2.6797   2.7630   2.7655   2.8241   2.8245   2.8251   2.8297
     2.8506   2.8532   2.8938   2.8979   2.9087   3.0080   3.0160   3.0195
     3.0759   3.0777   3.1180   3.1198   3.1332   3.1801   3.1812   3.1889
     3.2125   3.2457   3.2662   3.2830   3.2860   3.2951   3.3302   3.3309
     3.3722   3.3756   3.3787   3.3793   3.4463   3.4475   3.4506   3.4762
     3.4789   3.4834   3.5056   3.5203   3.5324   3.5337   3.5375   3.5596
     3.5870   3.5908   3.6136   3.6314   3.6395   3.6444   3.6826   3.6839
     3.6888   3.6963   3.7037   3.7119   3.8361   3.8368   3.8788   3.8808
     3.9406   3.9442   3.9458   3.9484   3.9711   4.0335   4.0534   4.0567
     4.0593   4.0621   4.1003   4.1024   4.1208   4.1235   4.1311   4.1345
     4.2221   4.2401   4.2682   4.2691   4.2893   4.2924   4.3123   4.3659
     4.3935   4.4338   4.4362   4.4809   4.5218   4.5440   4.5453   4.5851
     4.5942   4.5996   4.6310   4.7303   5.1470   5.1484   5.1529   5.1635
     5.1674   5.1683   5.1693   5.1730   5.1991   5.2047   5.2117   5.2179
     5.2192   5.2299   5.2403   5.2406   5.2596   5.2630   5.2637   5.2650
     5.2664   5.2739   5.3089   5.3107   5.3182   5.3339   5.3447   5.3465
     5.3590   5.3618   5.3636   5.3677   5.3695   5.3814   5.3875   5.3900
     5.4088   5.4321   5.4476   5.4513   5.4530   5.4679   5.4955   5.4970
     5.5157   5.5232   5.5556   5.5562   5.5687   5.5694   5.6021   5.6026
     5.6062   5.6197   5.6299   5.6497   5.6512   5.6602   5.6745   5.7077
     5.7096   5.7384   5.7594   5.7609   5.7702   5.7830   5.8040   5.8055
     5.8145   5.8391   5.8659   5.8673   5.8750   5.8957   5.9676   5.9697
     6.0194   6.0242   6.0254   6.1004   6.1021   6.1113   6.1598   6.1867
     6.2027   6.2036   6.2048   6.2625   6.2643   6.2868   6.3183   6.3408
     6.3541   6.3686   6.3703   6.4132   6.4184   6.4197   6.4509   6.4801
     6.4819   6.5070   6.5573   6.5656   6.6062   6.6079   6.6480   6.6660
     6.6674   6.7377   6.7388   6.7401   6.7479   6.8038   6.8051   6.8513
     6.8663   6.9184   6.9452   7.0391

          k = 0.3333 0.1925 0.2714 (115773 PWs)   bands (ev):

   -28.2939 -28.2775 -28.2765 -28.2765 -28.2760 -28.2759 -28.2756 -28.2754
   -28.2748 -28.2747 -28.2746 -28.2608 -14.9277 -14.9239 -14.9237 -14.9234
   -14.9231 -14.9230 -14.9229 -14.9226 -14.9223 -14.9223 -14.9219 -14.9214
   -14.9183 -14.9178 -14.9177 -14.9176 -14.9173 -14.9172 -14.9170 -14.9167
   -14.9165 -14.9165 -14.9160 -14.9107 -14.9094 -14.9061 -14.9057 -14.9054
   -14.9052 -14.9051 -14.9049 -14.9046 -14.9044 -14.9044 -14.9040 -14.8989
   -14.8695 -14.8658 -14.8655 -14.8653 -14.8650 -14.8649 -14.8648 -14.8644
   -14.8642 -14.8641 -14.8638 -14.8610 -14.8239 -14.8208 -14.8203 -14.8201
   -14.8198 -14.8198 -14.8196 -14.8193 -14.8191 -14.8190 -14.8186 -14.8136
   -10.3509 -10.3396 -10.3380 -10.3375 -10.3368 -10.3358 -10.3347 -10.3337
   -10.3322 -10.3307 -10.3293 -10.3205 -10.3170 -10.3098 -10.3061 -10.3054
   -10.3038 -10.3019 -10.2992 -10.2970 -10.2953 -10.2944 -10.2912 -10.2846
   -10.2777 -10.2695 -10.2688 -10.2682 -10.2667 -10.2648 -10.2635 -10.2623
   -10.2616 -10.2605 -10.2589 -10.2503  -6.7503  -6.6459  -6.5605  -6.4679
    -6.4193  -6.4178  -6.3628  -6.3405  -6.3389  -6.2644  -6.2106  -6.2095
    -5.9148  -5.9106  -5.8248  -5.8215  -5.8186  -5.8173  -5.7647  -5.7636
    -5.7523  -5.7338  -5.6831  -5.6824  -5.6808  -5.6634  -5.6420  -5.6407
    -5.6377  -5.6073  -5.5862  -5.5834  -5.5723  -5.5303  -5.5274  -5.5260
    -5.5160  -5.4857  -5.4651  -5.4395  -5.4374  -5.4359  -5.3993  -5.3698
    -5.3442  -5.3437  -5.3324  -5.2964  -0.5647  -0.5622  -0.5514  -0.4330
    -0.4303  -0.4290  -0.4103  -0.3608  -0.3221  -0.3219  -0.2895  -0.2833
     1.4047   1.4940   1.4962   1.5155   1.6110   1.7098   1.7134   1.7223
     1.7371   1.7725   1.8431   1.8486   1.9653   1.9844   2.0209   2.0220
     2.1309   2.2004   2.2082   2.2114   2.2864   2.3337   2.3960   2.4266
     2.4287   2.5179   2.5289   2.5309   2.5569   2.5581   2.5586   2.5619
     2.5984   2.6800   2.7627   2.7652   2.8235   2.8247   2.8263   2.8308
     2.8494   2.8530   2.8946   2.8973   2.9055   3.0092   3.0175   3.0210
     3.0759   3.0790   3.1169   3.1186   3.1343   3.1776   3.1811   3.1882
     3.2132   3.2457   3.2657   3.2838   3.2863   3.2951   3.3303   3.3311
     3.3749   3.3765   3.3779   3.3786   3.4466   3.4477   3.4501   3.4768
     3.4795   3.4821   3.5066   3.5176   3.5332   3.5348   3.5368   3.5586
     3.5856   3.5896   3.6134   3.6317   3.6399   3.6454   3.6828   3.6842
     3.6878   3.6970   3.7037   3.7109   3.8357   3.8377   3.8790   3.8810
     3.9423   3.9448   3.9469   3.9491   3.9713   4.0310   4.0525   4.0554
     4.0610   4.0620   4.0996   4.1021   4.1206   4.1240   4.1312   4.1324
     4.2238   4.2407   4.2688   4.2693   4.2904   4.2919   4.3126   4.3676
     4.3918   4.4339   4.4348   4.4795   4.5211   4.5441   4.5455   4.5852
     4.5941   4.6005   4.6314   4.7300   5.1455   5.1488   5.1527   5.1640
     5.1670   5.1684   5.1695   5.1728   5.1993   5.2038   5.2125   5.2165
     5.2205   5.2284   5.2405   5.2423   5.2598   5.2631   5.2647   5.2651
     5.2662   5.2726   5.3093   5.3113   5.3182   5.3324   5.3444   5.3479
     5.3599   5.3614   5.3633   5.3679   5.3698   5.3793   5.3879   5.3886
     5.4097   5.4330   5.4470   5.4507   5.4513   5.4685   5.4971   5.4988
     5.5169   5.5251   5.5551   5.5575   5.5673   5.5695   5.6012   5.6028
     5.6081   5.6199   5.6314   5.6475   5.6504   5.6609   5.6742   5.7074
     5.7088   5.7380   5.7583   5.7600   5.7704   5.7842   5.8041   5.8056
     5.8132   5.8398   5.8674   5.8675   5.8756   5.8929   5.9684   5.9696
     6.0178   6.0248   6.0261   6.1007   6.1025   6.1114   6.1588   6.1864
     6.2022   6.2035   6.2047   6.2619   6.2630   6.2869   6.3185   6.3417
     6.3549   6.3686   6.3703   6.4128   6.4189   6.4204   6.4517   6.4809
     6.4830   6.5065   6.5572   6.5670   6.6068   6.6074   6.6465   6.6663
     6.6681   6.7369   6.7385   6.7406   6.7482   6.8041   6.8056   6.8512
     6.8654   6.9177   6.9448   7.0391

          k =-0.3333-0.1925 0.2714 (115773 PWs)   bands (ev):

   -28.2939 -28.2775 -28.2765 -28.2765 -28.2760 -28.2759 -28.2756 -28.2754
   -28.2748 -28.2747 -28.2746 -28.2608 -14.9277 -14.9239 -14.9237 -14.9234
   -14.9231 -14.9230 -14.9229 -14.9226 -14.9223 -14.9223 -14.9219 -14.9214
   -14.9183 -14.9178 -14.9177 -14.9176 -14.9173 -14.9172 -14.9170 -14.9167
   -14.9165 -14.9165 -14.9160 -14.9107 -14.9094 -14.9061 -14.9057 -14.9054
   -14.9052 -14.9051 -14.9049 -14.9046 -14.9044 -14.9044 -14.9040 -14.8989
   -14.8695 -14.8658 -14.8655 -14.8653 -14.8650 -14.8649 -14.8648 -14.8644
   -14.8642 -14.8641 -14.8638 -14.8610 -14.8239 -14.8208 -14.8203 -14.8201
   -14.8198 -14.8198 -14.8196 -14.8193 -14.8191 -14.8190 -14.8186 -14.8136
   -10.3508 -10.3394 -10.3382 -10.3375 -10.3369 -10.3358 -10.3342 -10.3336
   -10.3327 -10.3309 -10.3290 -10.3204 -10.3170 -10.3093 -10.3067 -10.3061
   -10.3033 -10.3011 -10.2994 -10.2981 -10.2958 -10.2936 -10.2899 -10.2853
   -10.2781 -10.2699 -10.2691 -10.2674 -10.2661 -10.2650 -10.2636 -10.2627
   -10.2619 -10.2599 -10.2589 -10.2503  -6.7501  -6.6460  -6.5598  -6.4712
    -6.4226  -6.4210  -6.3631  -6.3287  -6.3270  -6.2579  -6.2244  -6.2235
    -5.9059  -5.9021  -5.8230  -5.8220  -5.8083  -5.8073  -5.7910  -5.7602
    -5.7590  -5.7313  -5.7110  -5.7101  -5.6711  -5.6356  -5.6292  -5.6279
    -5.6261  -5.6081  -5.6003  -5.5972  -5.5689  -5.5285  -5.5226  -5.5219
    -5.5190  -5.4965  -5.4668  -5.4322  -5.4292  -5.4270  -5.4226  -5.3637
    -5.3481  -5.3473  -5.3227  -5.2999  -0.5614  -0.5590  -0.5586  -0.4374
    -0.4360  -0.4249  -0.3931  -0.3732  -0.3189  -0.3186  -0.2984  -0.2790
     1.4327   1.4850   1.4867   1.4883   1.6258   1.6410   1.7723   1.7753
     1.7800   1.7891   1.7977   1.8015   1.9140   1.9948   1.9978   2.0774
     2.1570   2.1998   2.2114   2.2472   2.2500   2.3600   2.3924   2.3937
     2.3980   2.4480   2.5102   2.5129   2.5462   2.5903   2.5931   2.6104
     2.6425   2.7117   2.7613   2.7677   2.7719   2.7895   2.8088   2.8094
     2.8388   2.8745   2.9145   2.9173   2.9196   2.9823   3.0230   3.0263
     3.0678   3.1041   3.1069   3.1327   3.1696   3.1900   3.1930   3.1941
     3.2011   3.2312   3.2635   3.2645   3.2764   3.3184   3.3208   3.3216
     3.3237   3.3877   3.3896   3.4122   3.4448   3.4470   3.4682   3.4699
     3.4721   3.4731   3.4760   3.4771   3.5326   3.5349   3.5373   3.5919
     3.6105   3.6126   3.6167   3.6326   3.6420   3.6477   3.6584   3.6612
     3.6723   3.7096   3.7108   3.7183   3.8355   3.8364   3.8799   3.8891
     3.9039   3.9489   3.9524   3.9735   3.9817   4.0200   4.0470   4.0492
     4.0528   4.0659   4.1077   4.1112   4.1176   4.1322   4.1365   4.1472
     4.1919   4.2558   4.2667   4.2682   4.2884   4.2894   4.2931   4.3872
     4.3977   4.4369   4.4379   4.4668   4.5240   4.5253   4.5353   4.5962
     4.6088   4.6143   4.6234   4.7217   5.1480   5.1519   5.1534   5.1562
     5.1712   5.1754   5.1768   5.1831   5.1895   5.1971   5.2010   5.2068
     5.2085   5.2325   5.2349   5.2365   5.2535   5.2635   5.2650   5.2671
     5.2777   5.2972   5.3067   5.3122   5.3148   5.3280   5.3353   5.3369
     5.3571   5.3579   5.3592   5.3640   5.3799   5.3922   5.4053   5.4066
     5.4143   5.4311   5.4335   5.4453   5.4454   5.4919   5.5018   5.5033
     5.5091   5.5158   5.5525   5.5592   5.5736   5.5754   5.6031   5.6103
     5.6115   5.6198   5.6235   5.6255   5.6427   5.6704   5.6818   5.7126
     5.7133   5.7174   5.7324   5.7705   5.7724   5.7728   5.8015   5.8030
     5.8088   5.8581   5.8744   5.8757   5.8771   5.9142   5.9588   5.9599
     6.0330   6.0348   6.0361   6.0588   6.0780   6.0802   6.1727   6.2060
     6.2122   6.2132   6.2654   6.2666   6.2699   6.2773   6.2849   6.3484
     6.3506   6.3655   6.3719   6.4147   6.4241   6.4248   6.4263   6.4714
     6.4981   6.4991   6.5459   6.5589   6.5949   6.5969   6.6658   6.6682
     6.6762   6.7192   6.7358   6.7370   6.7474   6.8132   6.8147   6.8447
     6.8687   6.9282   6.9368   7.0520

          k = 0.3333-0.1925 0.2714 (115773 PWs)   bands (ev):

   -28.2939 -28.2775 -28.2765 -28.2765 -28.2760 -28.2759 -28.2756 -28.2754
   -28.2748 -28.2747 -28.2746 -28.2608 -14.9277 -14.9240 -14.9236 -14.9234
   -14.9232 -14.9230 -14.9229 -14.9226 -14.9223 -14.9223 -14.9219 -14.9214
   -14.9183 -14.9178 -14.9177 -14.9175 -14.9173 -14.9172 -14.9170 -14.9167
   -14.9165 -14.9164 -14.9160 -14.9107 -14.9094 -14.9061 -14.9057 -14.9054
   -14.9052 -14.9051 -14.9049 -14.9046 -14.9044 -14.9043 -14.9040 -14.8989
   -14.8695 -14.8658 -14.8655 -14.8653 -14.8650 -14.8649 -14.8648 -14.8644
   -14.8642 -14.8641 -14.8638 -14.8610 -14.8239 -14.8208 -14.8203 -14.8201
   -14.8198 -14.8198 -14.8196 -14.8193 -14.8191 -14.8190 -14.8186 -14.8136
   -10.3511 -10.3392 -10.3388 -10.3376 -10.3372 -10.3353 -10.3342 -10.3333
   -10.3330 -10.3308 -10.3289 -10.3202 -10.3170 -10.3098 -10.3069 -10.3060
   -10.3022 -10.3014 -10.3005 -10.2969 -10.2955 -10.2930 -10.2907 -10.2854
   -10.2779 -10.2699 -10.2683 -10.2673 -10.2667 -10.2659 -10.2628 -10.2625
   -10.2616 -10.2601 -10.2589 -10.2511  -6.7501  -6.6461  -6.5594  -6.4716
    -6.4227  -6.4218  -6.3632  -6.3287  -6.3264  -6.2583  -6.2249  -6.2219
    -5.9048  -5.9012  -5.8238  -5.8220  -5.8081  -5.8048  -5.7925  -5.7606
    -5.7595  -5.7325  -5.7108  -5.7105  -5.6723  -5.6358  -5.6290  -5.6282
    -5.6273  -5.6085  -5.6006  -5.5986  -5.5669  -5.5286  -5.5230  -5.5217
    -5.5176  -5.4969  -5.4657  -5.4313  -5.4289  -5.4273  -5.4225  -5.3639
    -5.3483  -5.3479  -5.3222  -5.2997  -0.5610  -0.5594  -0.5576  -0.4362
    -0.4349  -0.4256  -0.3947  -0.3737  -0.3193  -0.3182  -0.2996  -0.2790
     1.4343   1.4846   1.4853   1.4876   1.6240   1.6408   1.7720   1.7729
     1.7830   1.7900   1.7994   1.8024   1.9147   1.9948   2.0008   2.0775
     2.1568   2.2020   2.2110   2.2471   2.2483   2.3601   2.3924   2.3934
     2.3988   2.4497   2.5109   2.5132   2.5468   2.5891   2.5905   2.6071
     2.6431   2.7110   2.7618   2.7658   2.7690   2.7903   2.8092   2.8106
     2.8389   2.8747   2.9141   2.9171   2.9211   2.9820   3.0219   3.0244
     3.0666   3.1064   3.1100   3.1316   3.1712   3.1918   3.1927   3.1942
     3.1996   3.2319   3.2622   3.2653   3.2765   3.3172   3.3198   3.3218
     3.3248   3.3867   3.3899   3.4103   3.4450   3.4490   3.4673   3.4697
     3.4722   3.4736   3.4766   3.4773   3.5338   3.5345   3.5356   3.5908
     3.6106   3.6117   3.6162   3.6343   3.6426   3.6469   3.6590   3.6639
     3.6698   3.7101   3.7112   3.7208   3.8351   3.8357   3.8802   3.8890
     3.9034   3.9487   3.9511   3.9766   3.9814   4.0191   4.0444   4.0482
     4.0492   4.0671   4.1110   4.1126   4.1216   4.1321   4.1340   4.1485
     4.1903   4.2532   4.2658   4.2684   4.2878   4.2897   4.2939   4.3859
     4.3987   4.4376   4.4399   4.4679   4.5235   4.5250   4.5363   4.5969
     4.6092   4.6130   4.6221   4.7212   5.1497   5.1519   5.1547   5.1564
     5.1715   5.1744   5.1756   5.1830   5.1904   5.1975   5.2007   5.2068
     5.2101   5.2334   5.2341   5.2359   5.2545   5.2627   5.2646   5.2656
     5.2802   5.2986   5.3076   5.3111   5.3139   5.3277   5.3353   5.3367
     5.3569   5.3576   5.3601   5.3624   5.3800   5.3927   5.4063   5.4073
     5.4110   5.4302   5.4326   5.4445   5.4459   5.4928   5.5010   5.5026
     5.5088   5.5157   5.5535   5.5579   5.5741   5.5744   5.6007   5.6106
     5.6113   5.6177   5.6251   5.6264   5.6417   5.6699   5.6810   5.7139
     5.7150   5.7168   5.7335   5.7713   5.7726   5.7734   5.8015   5.8022
     5.8102   5.8585   5.8743   5.8754   5.8787   5.9144   5.9578   5.9595
     6.0327   6.0343   6.0354   6.0602   6.0778   6.0791   6.1728   6.2065
     6.2131   6.2147   6.2658   6.2670   6.2696   6.2771   6.2849   6.3483
     6.3497   6.3645   6.3718   6.4151   6.4237   6.4261   6.4279   6.4700
     6.4970   6.4978   6.5451   6.5585   6.5935   6.5959   6.6664   6.6674
     6.6775   6.7198   6.7357   6.7379   6.7468   6.8132   6.8147   6.8448
     6.8692   6.9278   6.9371   7.0524

          k =-0.3333-0.5774 0.2714 (115827 PWs)   bands (ev):

   -28.2939 -28.2775 -28.2765 -28.2765 -28.2760 -28.2759 -28.2756 -28.2754
   -28.2748 -28.2747 -28.2746 -28.2608 -14.9277 -14.9239 -14.9236 -14.9234
   -14.9232 -14.9230 -14.9229 -14.9226 -14.9223 -14.9223 -14.9219 -14.9214
   -14.9183 -14.9178 -14.9177 -14.9175 -14.9173 -14.9172 -14.9170 -14.9167
   -14.9165 -14.9165 -14.9160 -14.9107 -14.9094 -14.9061 -14.9057 -14.9054
   -14.9052 -14.9051 -14.9049 -14.9046 -14.9044 -14.9043 -14.9040 -14.8989
   -14.8695 -14.8658 -14.8655 -14.8653 -14.8650 -14.8649 -14.8648 -14.8644
   -14.8642 -14.8641 -14.8638 -14.8610 -14.8239 -14.8208 -14.8203 -14.8201
   -14.8198 -14.8198 -14.8196 -14.8193 -14.8191 -14.8190 -14.8186 -14.8136
   -10.3508 -10.3388 -10.3381 -10.3372 -10.3364 -10.3350 -10.3340 -10.3332
   -10.3320 -10.3314 -10.3302 -10.3205 -10.3167 -10.3082 -10.3074 -10.3050
   -10.3033 -10.3008 -10.2989 -10.2976 -10.2956 -10.2933 -10.2917 -10.2864
   -10.2781 -10.2693 -10.2684 -10.2670 -10.2662 -10.2657 -10.2644 -10.2633
   -10.2617 -10.2609 -10.2596 -10.2510  -6.6186  -6.6181  -6.6157  -6.5251
    -6.5246  -6.5222  -6.3078  -6.2897  -6.2892  -6.2859  -6.2565  -6.2142
    -5.8734  -5.8563  -5.8453  -5.7805  -5.7798  -5.7789  -5.7428  -5.7421
    -5.7398  -5.7160  -5.6886  -5.6881  -5.6869  -5.6729  -5.6720  -5.6716
    -5.6695  -5.6436  -5.5573  -5.5560  -5.5531  -5.5253  -5.5245  -5.5223
    -5.5054  -5.5034  -5.5030  -5.4988  -5.4587  -5.3986  -5.3977  -5.3966
    -5.3582  -5.3235  -5.3229  -5.3220  -0.5212  -0.5069  -0.5056  -0.5045
    -0.4611  -0.4184  -0.4171  -0.4162  -0.3551  -0.2932  -0.2930  -0.2915
     1.4810   1.4822   1.4839   1.6373   1.6384   1.6411   1.6896   1.7740
     1.7752   1.7766   1.7788   1.7956   1.9783   1.9811   1.9838   2.0543
     2.1697   2.1922   2.1933   2.1956   2.2470   2.3969   2.3977   2.3998
     2.4882   2.4900   2.4910   2.5575   2.5869   2.5880   2.5888   2.5946
     2.6782   2.7351   2.7374   2.7387   2.8216   2.8231   2.8247   2.8303
     2.9008   2.9032   2.9047   2.9240   2.9355   2.9539   2.9551   2.9584
     3.0590   3.0604   3.0618   3.0863   3.0879   3.0917   3.1262   3.1803
     3.2431   3.2445   3.2453   3.2699   3.2710   3.2719   3.3202   3.3260
     3.3273   3.3309   3.3741   3.4077   3.4194   3.4642   3.4656   3.4663
     3.4933   3.4981   3.4992   3.5010   3.5358   3.5372   3.5377   3.5423
     3.5602   3.6152   3.6166   3.6195   3.6540   3.6548   3.6611   3.6969
     3.6979   3.7021   3.7201   3.7443   3.8221   3.8408   3.8414   3.8443
     3.9361   3.9398   3.9405   3.9414   4.0289   4.0301   4.0319   4.0416
     4.0667   4.0679   4.0709   4.1087   4.1121   4.1145   4.1156   4.1685
     4.2708   4.2729   4.2751   4.2900   4.3134   4.3588   4.3614   4.3628
     4.4151   4.4171   4.4208   4.4918   4.4938   4.4942   4.5087   4.5125
     4.5639   4.6660   4.6676   4.6698   5.1484   5.1553   5.1565   5.1578
     5.1592   5.1808   5.1824   5.1836   5.1968   5.1978   5.2004   5.2110
     5.2240   5.2247   5.2261   5.2486   5.2519   5.2531   5.2565   5.2688
     5.2991   5.3021   5.3023   5.3085   5.3282   5.3288   5.3305   5.3657
     5.3674   5.3694   5.3741   5.3935   5.3960   5.4073   5.4087   5.4098
     5.4317   5.4327   5.4342   5.4392   5.4828   5.4848   5.4868   5.4901
     5.5386   5.5396   5.5410   5.5439   5.5651   5.5658   5.5676   5.6037
     5.6056   5.6064   5.6379   5.6392   5.6717   5.6721   5.6734   5.7011
     5.7031   5.7041   5.7170   5.7579   5.7592   5.7606   5.8007   5.8067
     5.8199   5.8229   5.8239   5.8252   5.8886   5.8910   5.8922   6.0566
     6.0591   6.0604   6.0613   6.0769   6.1185   6.1205   6.1209   6.1345
     6.1959   6.2365   6.2383   6.2389   6.2840   6.3012   6.3018   6.3045
     6.3065   6.3842   6.3856   6.3863   6.4501   6.4663   6.4677   6.4691
     6.4915   6.4931   6.5570   6.5586   6.5605   6.6453   6.6847   6.6856
     6.6866   6.7612   6.7775   6.7782   6.7789   6.7936   6.8543   6.8548
     6.8561   6.9354   6.9367   6.9368

     highest occupied level (ev):     7.1809

!    total energy              =   -9077.18723318 Ry
     estimated scf accuracy    <          8.8E-10 Ry

     The total energy is the sum of the following terms:
     one-electron contribution =   -2776.21832782 Ry
     hartree contribution      =    2019.85626311 Ry
     xc contribution           =   -2269.38205561 Ry
     ewald contribution        =   -3895.64636806 Ry
     one-center paw contrib.   =   -2155.79674480 Ry

     convergence has been achieved in  22 iterations

     negative rho (up, down):  7.902E-01 0.000E+00

     Forces acting on atoms (cartesian axes, Ry/au):

     atom    1 type  1   force =     0.00060259   -0.00015321    0.00091029
     atom    2 type  1   force =    -0.00016252    0.00024139   -0.00002082
     atom    3 type  1   force =    -0.00020135    0.00033325    0.00011128
     atom    4 type  1   force =    -0.00019680    0.00016694   -0.00000024
     atom    5 type  1   force =    -0.00008902   -0.00049876    0.00008407
     atom    6 type  1   force =    -0.00013279   -0.00030097    0.00006462
     atom    7 type  1   force =    -0.00019300   -0.00022576   -0.00001422
     atom    8 type  1   force =    -0.00006859   -0.00020388   -0.00011573
     atom    9 type  1   force =     0.00029959    0.00000109   -0.00001543
     atom   10 type  1   force =     0.00030439   -0.00001375   -0.00003721
     atom   11 type  1   force =     0.00033202   -0.00000002   -0.00003168
     atom   12 type  1   force =     0.00030751    0.00000416   -0.00000150
     atom   13 type  2   force =     0.00147113   -0.00256152   -0.00187988
     atom   14 type  2   force =     0.00017731   -0.00038011    0.00016353
     atom   15 type  2   force =     0.00019167   -0.00031768    0.00016707
     atom   16 type  2   force =     0.00022746   -0.00037266    0.00021099
     atom   17 type  2   force =     0.00023905    0.00036829    0.00018277
     atom   18 type  2   force =     0.00022769    0.00036692    0.00018789
     atom   19 type  2   force =     0.00023354    0.00037238    0.00018622
     atom   20 type  2   force =     0.00023632    0.00038100    0.00018996
     atom   21 type  2   force =    -0.00041367    0.00000344    0.00019880
     atom   22 type  2   force =    -0.00044121    0.00002760    0.00019641
     atom   23 type  2   force =    -0.00043685    0.00005895    0.00031796
     atom   24 type  2   force =    -0.00045256    0.00001239    0.00017854
     atom   25 type  2   force =    -0.00044160   -0.00003742   -0.00022834
     atom   26 type  2   force =    -0.00047545   -0.00001425   -0.00022535
     atom   27 type  2   force =    -0.00042932   -0.00004771   -0.00019194
     atom   28 type  2   force =    -0.00045035   -0.00001580   -0.00016609
     atom   29 type  2   force =     0.00418080   -0.00012934   -0.00268340
     atom   30 type  2   force =     0.00009816    0.00036839   -0.00025387
     atom   31 type  2   force =     0.00018173    0.00039499   -0.00018183
     atom   32 type  2   force =     0.00028479    0.00044832   -0.00008653
     atom   33 type  2   force =     0.00023581   -0.00037720   -0.00017930
     atom   34 type  2   force =     0.00021812   -0.00036019   -0.00018330
     atom   35 type  2   force =     0.00023622   -0.00038055   -0.00017786
     atom   36 type  2   force =     0.00023373   -0.00036212   -0.00018467
     atom   37 type  3   force =     0.00025488   -0.00033212   -0.00005345
     atom   38 type  3   force =     0.00022343   -0.00049633   -0.00002278
     atom   39 type  3   force =     0.00029142   -0.00044102   -0.00003150
     atom   40 type  3   force =     0.00024495   -0.00046002    0.00000664
     atom   41 type  3   force =     0.00039914    0.00048620    0.00003701
     atom   42 type  3   force =     0.00022115    0.00048471   -0.00003628
     atom   43 type  3   force =     0.00027074    0.00053102    0.00005016
     atom   44 type  3   force =     0.00026377    0.00047521   -0.00000191
     atom   45 type  3   force =    -0.00068528   -0.00003388   -0.00001981
     atom   46 type  3   force =     0.00190635    0.00140851    0.00012955
     atom   47 type  3   force =    -0.00066699   -0.00003291    0.00009331
     atom   48 type  3   force =    -0.00057294    0.00063147   -0.00002572
     atom   49 type  4   force =     0.00035695   -0.00011954   -0.00004225
     atom   50 type  4   force =     0.00035396   -0.00009711    0.00002071
     atom   51 type  4   force =     0.00035392   -0.00011449    0.00002890
     atom   52 type  4   force =     0.00036196   -0.00010166    0.00002181
     atom   53 type  4   force =     0.00011395    0.00065617   -0.00060579
     atom   54 type  4   force =     0.00000297    0.00037816    0.00001138
     atom   55 type  4   force =    -0.00008503    0.00031079   -0.00003484
     atom   56 type  4   force =    -0.00009274    0.00030412    0.00004454
     atom   57 type  4   force =    -0.00024792   -0.00061904   -0.00033676
     atom   58 type  4   force =    -0.00012398   -0.00040651   -0.00005760
     atom   59 type  4   force =    -0.00001712   -0.00039808    0.00000284
     atom   60 type  4   force =    -0.00033992   -0.00018685    0.00020228
     atom   61 type  4   force =     0.00077223   -0.00014709   -0.00051071
     atom   62 type  4   force =     0.00008504    0.00071512    0.00006624
     atom   63 type  4   force =    -0.00032039    0.00017976   -0.00003758
     atom   64 type  4   force =    -0.00020560    0.00009974   -0.00005067
     atom   65 type  4   force =     0.00032782    0.00009405   -0.00001115
     atom   66 type  4   force =     0.00036504    0.00009774   -0.00001637
     atom   67 type  4   force =     0.00035406    0.00008447   -0.00001180
     atom   68 type  4   force =     0.00035036    0.00010170   -0.00002201
     atom   69 type  4   force =    -0.00003771   -0.00034385    0.00000085
     atom   70 type  4   force =     0.00008767   -0.00066659   -0.00078306
     atom   71 type  4   force =    -0.00007203   -0.00030796   -0.00004837
     atom   72 type  4   force =    -0.00008359   -0.00035104    0.00000381
     atom   73 type  4   force =    -0.01272034    0.00370248    0.00501034
     atom   74 type  4   force =     0.00004331    0.00019414   -0.00024258
     atom   75 type  4   force =     0.00005594    0.00010566   -0.00025876
     atom   76 type  4   force =     0.00002735    0.00009966   -0.00029249
     atom   77 type  4   force =    -0.00012385    0.00000644   -0.00012717
     atom   78 type  4   force =    -0.00014074   -0.00007067   -0.00023728
     atom   79 type  4   force =    -0.00012564   -0.00007040   -0.00022901
     atom   80 type  4   force =    -0.00016184   -0.00006717   -0.00023280
     atom   81 type  4   force =     0.00010714   -0.00019448   -0.00017324
     atom   82 type  4   force =     0.00012776   -0.00008251   -0.00024322
     atom   83 type  4   force =     0.00012442   -0.00007727   -0.00026348
     atom   84 type  4   force =     0.00013989   -0.00010427   -0.00020786
     atom   85 type  4   force =     0.00014882    0.00004450    0.00030231
     atom   86 type  4   force =     0.00014234    0.00010477    0.00024524
     atom   87 type  4   force =     0.00013934    0.00009861    0.00026042
     atom   88 type  4   force =     0.00015400    0.00009021    0.00022558
     atom   89 type  4   force =     0.00076870    0.00038801    0.00019646
     atom   90 type  4   force =     0.00176822   -0.00143266    0.00041431
     atom   91 type  4   force =     0.00004013   -0.00015378    0.00019865
     atom   92 type  4   force =    -0.00031005   -0.00109742    0.00016779
     atom   93 type  4   force =    -0.00009656    0.00008321    0.00022859
     atom   94 type  4   force =    -0.00017063    0.00011751    0.00032377
     atom   95 type  4   force =    -0.00014602    0.00008214    0.00024472
     atom   96 type  4   force =    -0.00013676    0.00005381    0.00023885

     Total force =     0.016440     Total SCF correction =     0.000109
     Message from routine punch:
     Nothing written, as per user request (disk_io='none')

     init_run     :     37.26s CPU     39.57s WALL (       1 calls)
     electrons    :   1987.73s CPU   2087.01s WALL (       1 calls)
     forces       :     18.92s CPU     19.52s WALL (       1 calls)

     Called by init_run:
     wfcinit      :     33.85s CPU     35.89s WALL (       1 calls)
     potinit      :      1.05s CPU      1.09s WALL (       1 calls)
     hinit0       :      1.03s CPU      1.06s WALL (       1 calls)

     Called by electrons:
     c_bands      :   1756.45s CPU   1835.78s WALL (      22 calls)
     sum_band     :    205.71s CPU    221.13s WALL (      22 calls)
     v_of_rho     :      3.93s CPU      4.37s WALL (      23 calls)
     newd         :     15.99s CPU     20.06s WALL (      23 calls)
     PAW_pot      :      5.60s CPU      5.65s WALL (      23 calls)
     mix_rho      :      0.65s CPU      0.70s WALL (      22 calls)

     Called by c_bands:
     init_us_2    :     22.79s CPU     23.17s WALL (     322 calls)
     cegterg      :   1709.67s CPU   1788.30s WALL (     154 calls)

     Called by *egterg:
     cdiaghg      :     91.28s CPU     94.51s WALL (     909 calls)
     h_psi        :    930.06s CPU    990.08s WALL (     916 calls)
     s_psi        :    214.71s CPU    217.46s WALL (     916 calls)
     g_psi        :      2.94s CPU      2.98s WALL (     755 calls)

     Called by h_psi:
     h_psi:calbec :    224.50s CPU    228.67s WALL (     916 calls)
     vloc_psi     :    485.47s CPU    535.89s WALL (     916 calls)
     add_vuspsi   :    216.32s CPU    219.08s WALL (     916 calls)

     General routines
     calbec       :    314.19s CPU    320.02s WALL (    1098 calls)
     fft          :      3.63s CPU      4.09s WALL (     308 calls)
     ffts         :      0.71s CPU      0.74s WALL (      45 calls)
     fftw         :    411.61s CPU    457.43s WALL (  435506 calls)
     interpolate  :      0.89s CPU      0.95s WALL (      23 calls)

     Parallel routines

     PWSCF        :  34m 4.16s CPU  35m46.69s WALL


   This run was terminated on:   4:49:21  21Aug2026            

=------------------------------------------------------------------------------=
   JOB DONE.
=------------------------------------------------------------------------------=
