
     Program PWSCF v.7.3.1 starts on 21Aug2026 at  2:34:17 

     This program is part of the open-source Quantum ESPRESSO suite
     for quantum simulation of materials; please cite
         "P. Giannozzi et al., J. Phys.:Condens. Matter 21 395502 (2009);
         "P. Giannozzi et al., J. Phys.:Condens. Matter 29 465901 (2017);
         "P. Giannozzi et al., J. Chem. Phys. 152 154105 (2020);
          URL http://www.quantum-espresso.org", 
     in publications or presentations arising from this work. More details at
     http://www.quantum-espresso.org/quote

     Parallel version (MPI & OpenMP), running on      32 processor cores
     Number of MPI processes:                32
     Threads/MPI process:                     1

     MPI processes distributed on     1 nodes
     78038 MiB available memory on the printing compute node when the environment starts

     Reading input from scf.in

     Current dimensions of program PWSCF are:
     Max number of different atomic species (ntypx) = 10
     Max number of k-points (npk) =  40000
     Max angular momentum in pseudopotentials (lmaxx) =  4
     file Cu.paw.z_11.ld1.psl.v1.0.0-low.upf: wavefunction(s)  4S 3D renormalized

     K-points division:     npool     =       2
     R & G space division:  proc/nbgrp/npool/nimage =      16
     Subspace diagonalization in iterative solution of the eigenvalue problem:
     one sub-group per band group will be used
     scalapack distributed-memory algorithm (size of sub-group:  4*  4 procs)


     Parallelization info
     --------------------
     sticks:   dense  smooth     PW     G-vecs:    dense   smooth      PW
     Min        1193     597    157               163743    57882    7779
     Max        1194     599    158               163747    57885    7784
     Sum       19099    9565   2515              2619931   926125  124485

     Using Slab Decomposition



     bravais-lattice index     =            0
     lattice parameter (alat)  =      24.0273  a.u.
     unit-cell volume          =   14752.0463 (a.u.)^3
     number of atoms/cell      =           96
     number of atomic types    =            4
     number of electrons       =       840.00
     number of Kohn-Sham states=          420
     kinetic-energy cutoff     =      60.0000  Ry
     charge density cutoff     =     480.0000  Ry
     scf convergence threshold =      1.0E-09
     mixing beta               =       0.3000
     number of iterations used =            8  plain     mixing
     Exchange-correlation=  SLA  PW   PBX  PBC
                           (   1   4   3   4   0   0   0)

     celldm(1)=  24.027274  celldm(2)=   0.000000  celldm(3)=   0.000000
     celldm(4)=   0.000000  celldm(5)=   0.000000  celldm(6)=   0.000000

     crystal axes: (cart. coord. in units of alat)
               a(1) = (   1.000000   0.000000   0.000000 )  
               a(2) = (  -0.500000   0.866025   0.000000 )  
               a(3) = (   0.000000   0.000000   1.228028 )  

     reciprocal axes: (cart. coord. in units 2 pi/alat)
               b(1) = (  1.000000  0.577351 -0.000000 )  
               b(2) = (  0.000000  1.154701  0.000000 )  
               b(3) = (  0.000000 -0.000000  0.814314 )  


     PseudoPot. # 1 for Sr read from file:
     /home/yuhansun/pseudos/SSSP-1.3.0-PBE-precision/Sr_pbe_v1.uspp.F.UPF
     MD5 check sum: 6b418c05fbe9db5448babca5e47b7a5b
     Pseudo is Ultrasoft + core correction, Zval = 10.0
     Generated by new atomic code, or converted to UPF format
     Using radial grid of  883 points,  6 beta functions with: 
                l(1) =   0
                l(2) =   0
                l(3) =   1
                l(4) =   1
                l(5) =   2
                l(6) =   2
     Q(r) pseudized with  6 coefficients,  rinner =    1.400   1.400   1.400
                                                       1.400   1.400

     PseudoPot. # 2 for Cu read from file:
     /home/yuhansun/pseudos/SSSP-1.3.0-PBE-precision/Cu.paw.z_11.ld1.psl.v1.0.0-low.upf
     MD5 check sum: 619f40885d92a09a85a8b37550532d0c
     Pseudo is Projector augmented-wave + core cor, Zval = 11.0
     Generated using &quot;atomic&quot; code by A. Dal Corso  v.6.3MaX
     Shape of augmentation charge: PSQ
     Using radial grid of 1199 points,  6 beta functions with: 
                l(1) =   0
                l(2) =   0
                l(3) =   1
                l(4) =   1
                l(5) =   2
                l(6) =   2
     Q(r) pseudized with 0 coefficients 


     PseudoPot. # 3 for Sn read from file:
     /home/yuhansun/pseudos/SSSP-1.3.0-PBE-precision/Sn_pbe_v1.uspp.F.UPF
     MD5 check sum: 4cf58ce39ec5d5d420df3dd08604eb00
     Pseudo is Ultrasoft + core correction, Zval = 14.0
     Generated by new atomic code, or converted to UPF format
     Using radial grid of  891 points,  6 beta functions with: 
                l(1) =   0
                l(2) =   0
                l(3) =   1
                l(4) =   1
                l(5) =   2
                l(6) =   2
     Q(r) pseudized with  6 coefficients,  rinner =    1.200   1.200   1.200
                                                       1.200   1.200

     PseudoPot. # 4 for S  read from file:
     /home/yuhansun/pseudos/SSSP-1.3.0-PBE-precision/s_pbe_v1.4.uspp.F.UPF
     MD5 check sum: 88d86576ff6df21479756cfb9bdac1df
     Pseudo is Ultrasoft + core correction, Zval =  6.0
     Generated by new atomic code, or converted to UPF format
     Using radial grid of  907 points,  6 beta functions with: 
                l(1) =   0
                l(2) =   0
                l(3) =   1
                l(4) =   1
                l(5) =   2
                l(6) =   2
     Q(r) pseudized with  8 coefficients,  rinner =    1.300   1.300   1.300
                                                       1.300   1.300

     atomic species   valence    mass     pseudopotential
     Sr               10.00    87.62000     Sr( 1.00)
     Cu               11.00    63.54600     Cu( 1.00)
     Sn               14.00   118.71000     Sn( 1.00)
     S                 6.00    32.06500     S ( 1.00)

     No symmetry found



   Cartesian axes

     site n.     atom                  positions (alat units)
         1        Sr     tau(   1) = (  -0.1405753   0.2434834   0.2046717  )
         2        Sr     tau(   2) = (   0.3594247   0.2434834   0.2046717  )
         3        Sr     tau(   3) = (  -0.3905753   0.6764960   0.2046717  )
         4        Sr     tau(   4) = (   0.1094247   0.6764960   0.2046717  )
         5        Sr     tau(   5) = (   0.1094247   0.1895292   0.6140139  )
         6        Sr     tau(   6) = (   0.6094247   0.1895292   0.6140139  )
         7        Sr     tau(   7) = (  -0.1405753   0.6225418   0.6140139  )
         8        Sr     tau(   8) = (   0.3594247   0.6225418   0.6140139  )
         9        Sr     tau(   9) = (   0.2811505   0.0000000   1.0233574  )
        10        Sr     tau(  10) = (   0.7811505   0.0000000   1.0233574  )
        11        Sr     tau(  11) = (   0.0311505   0.4330126   1.0233574  )
        12        Sr     tau(  12) = (   0.5311505   0.4330126   1.0233574  )
        13        Cu     tau(  13) = (  -0.1239274   0.2774837   0.5086718  )
        14        Cu     tau(  14) = (   0.3773212   0.2753211   0.5061747  )
        15        Cu     tau(  15) = (  -0.3726788   0.7083337   0.5061747  )
        16        Cu     tau(  16) = (   0.1273212   0.7083337   0.5061747  )
        17        Cu     tau(  17) = (   0.0729045   0.1891087   0.9155169  )
        18        Cu     tau(  18) = (   0.5729045   0.1891087   0.9155169  )
        19        Cu     tau(  19) = (  -0.1770956   0.6221213   0.9155169  )
        20        Cu     tau(  20) = (   0.3229044   0.6221213   0.9155169  )
        21        Cu     tau(  21) = (   0.0497750   0.4015949   0.0968325  )
        22        Cu     tau(  22) = (   0.5497750   0.4015949   0.0968325  )
        23        Cu     tau(  23) = (  -0.2002251   0.8346075   0.0968325  )
        24        Cu     tau(  24) = (   0.2997749   0.8346075   0.0968325  )
        25        Cu     tau(  25) = (   0.2997745   0.0314177   0.7218532  )
        26        Cu     tau(  26) = (   0.7997745   0.0314177   0.7218532  )
        27        Cu     tau(  27) = (   0.0497745   0.4644302   0.7218532  )
        28        Cu     tau(  28) = (   0.5497745   0.4644302   0.7218532  )
        29        Cu     tau(  29) = (   0.1273207   0.1576915   0.3125110  )
        30        Cu     tau(  30) = (   0.6273207   0.1576915   0.3125110  )
        31        Cu     tau(  31) = (  -0.1226793   0.5907041   0.3125110  )
        32        Cu     tau(  32) = (   0.3773207   0.5907041   0.3125110  )
        33        Cu     tau(  33) = (   0.3229040   0.2439039   1.1311954  )
        34        Cu     tau(  34) = (   0.8229040   0.2439039   1.1311954  )
        35        Cu     tau(  35) = (   0.0729039   0.6769164   1.1311954  )
        36        Cu     tau(  36) = (   0.5729039   0.6769164   1.1311954  )
        37        Sn     tau(  37) = (  -0.1762580   0.3052877   0.8186857  )
        38        Sn     tau(  38) = (   0.3237420   0.3052877   0.8186857  )
        39        Sn     tau(  39) = (  -0.4262581   0.7383003   0.8186857  )
        40        Sn     tau(  40) = (   0.0737419   0.7383003   0.8186857  )
        41        Sn     tau(  41) = (   0.0737420   0.1277249   0.0000000  )
        42        Sn     tau(  42) = (   0.5737420   0.1277249   0.0000000  )
        43        Sn     tau(  43) = (  -0.1762581   0.5607374   0.0000000  )
        44        Sn     tau(  44) = (   0.3237419   0.5607374   0.0000000  )
        45        Sn     tau(  45) = (   0.3525160   0.0000000   0.4093422  )
        46        Sn     tau(  46) = (   0.8525160   0.0000000   0.4093422  )
        47        Sn     tau(  47) = (   0.1025160   0.4330126   0.4093422  )
        48        Sn     tau(  48) = (   0.6025160   0.4330126   0.4093422  )
        49        S      tau(  49) = (  -0.0988203   0.2103164   0.9671149  )
        50        S      tau(  50) = (   0.4011797   0.2103164   0.9671149  )
        51        S      tau(  51) = (  -0.3488203   0.6433290   0.9671149  )
        52        S      tau(  52) = (   0.1511797   0.6433290   0.9671149  )
        53        S      tau(  53) = (   0.1172707   0.2422736   0.1484293  )
        54        S      tau(  54) = (   0.6172707   0.2422736   0.1484293  )
        55        S      tau(  55) = (  -0.1327293   0.6752862   0.1484293  )
        56        S      tau(  56) = (   0.3672707   0.6752862   0.1484293  )
        57        S      tau(  57) = (  -0.0184505   0.4134352   0.5577727  )
        58        S      tau(  58) = (   0.4815495   0.4134352   0.5577727  )
        59        S      tau(  59) = (  -0.2684506   0.8464478   0.5577727  )
        60        S      tau(  60) = (   0.2315494   0.8464478   0.5577727  )
        61        S      tau(  61) = (   0.2315495   0.0195774   0.2609129  )
        62        S      tau(  62) = (   0.7315495   0.0195774   0.2609129  )
        63        S      tau(  63) = (  -0.0184505   0.4525899   0.2609129  )
        64        S      tau(  64) = (   0.4815495   0.4525899   0.2609129  )
        65        S      tau(  65) = (   0.1511797   0.2226962   1.0795986  )
        66        S      tau(  66) = (   0.6511797   0.2226962   1.0795986  )
        67        S      tau(  67) = (  -0.0988203   0.6557088   1.0795986  )
        68        S      tau(  68) = (   0.4011797   0.6557088   1.0795986  )
        69        S      tau(  69) = (   0.3672707   0.1907390   0.6702552  )
        70        S      tau(  70) = (   0.8672707   0.1907390   0.6702552  )
        71        S      tau(  71) = (   0.1172707   0.6237516   0.6702552  )
        72        S      tau(  72) = (   0.6172707   0.6237516   0.6702552  )
        73        S      tau(  73) = (  -0.0296498   0.1532012   0.4035914  )
        74        S      tau(  74) = (   0.4703502   0.1532012   0.4035914  )
        75        S      tau(  75) = (  -0.2796498   0.5862137   0.4035914  )
        76        S      tau(  76) = (   0.2203502   0.5862137   0.4035914  )
        77        S      tau(  77) = (   0.1321490   0.3307341   0.8129336  )
        78        S      tau(  78) = (   0.6321490   0.3307341   0.8129336  )
        79        S      tau(  79) = (  -0.1178511   0.7637467   0.8129336  )
        80        S      tau(  80) = (   0.3821489   0.7637467   0.8129336  )
        81        S      tau(  81) = (  -0.1024985   0.3820894   1.2222770  )
        82        S      tau(  82) = (   0.3975015   0.3820894   1.2222770  )
        83        S      tau(  83) = (  -0.3524986   0.8151020   1.2222770  )
        84        S      tau(  84) = (   0.1475014   0.8151020   1.2222770  )
        85        S      tau(  85) = (   0.1475010   0.0509231   0.8244365  )
        86        S      tau(  86) = (   0.6475010   0.0509231   0.8244365  )
        87        S      tau(  87) = (  -0.1024990   0.4839357   0.8244365  )
        88        S      tau(  88) = (   0.3975010   0.4839357   0.8244365  )
        89        S      tau(  89) = (   0.2203497   0.2798114   0.4150943  )
        90        S      tau(  90) = (   0.7203497   0.2798114   0.4150943  )
        91        S      tau(  91) = (  -0.0296503   0.7128240   0.4150943  )
        92        S      tau(  92) = (   0.4703497   0.7128240   0.4150943  )
        93        S      tau(  93) = (   0.3821485   0.1022784   0.0057509  )
        94        S      tau(  94) = (   0.8821485   0.1022784   0.0057509  )
        95        S      tau(  95) = (   0.1321485   0.5352910   0.0057509  )
        96        S      tau(  96) = (   0.6321485   0.5352910   0.0057509  )

     number of k points=    14
                       cart. coord. in units 2pi/alat
        k(    1) = (   0.0000000   0.0000000   0.0000000), wk =   0.0740741
        k(    2) = (   0.0000000   0.0000000   0.2714379), wk =   0.1481481
        k(    3) = (   0.0000000   0.3849003   0.0000000), wk =   0.1481481
        k(    4) = (   0.0000000   0.3849003   0.2714379), wk =   0.1481481
        k(    5) = (   0.3333333   0.5773505   0.0000000), wk =   0.1481481
        k(    6) = (   0.3333333   0.5773505   0.2714379), wk =   0.1481481
        k(    7) = (  -0.3333333   0.1924501   0.0000000), wk =   0.1481481
        k(    8) = (   0.3333333   0.1924502   0.0000000), wk =   0.1481481
        k(    9) = (   0.0000000  -0.3849003   0.2714379), wk =   0.1481481
        k(   10) = (  -0.3333333   0.1924501   0.2714379), wk =   0.1481481
        k(   11) = (   0.3333333   0.1924502   0.2714379), wk =   0.1481481
        k(   12) = (  -0.3333333  -0.1924502   0.2714379), wk =   0.1481481
        k(   13) = (   0.3333333  -0.1924501   0.2714379), wk =   0.1481481
        k(   14) = (  -0.3333333  -0.5773505   0.2714379), wk =   0.1481481

     Dense  grid:  2619931 G-vectors     FFT dimensions: ( 180, 180, 216)

     Smooth grid:   926125 G-vectors     FFT dimensions: ( 120, 120, 150)

     Estimated max dynamical RAM per process >       1.07 GB

     Estimated total dynamical RAM >      33.54 GB

     Initial potential from superposition of free atoms

     starting charge     827.5884, renormalised to     840.0000

     negative rho (up, down):  7.777E-01 0.000E+00
     Starting wfcs are  672 randomized atomic wfcs
     Checking if some PAW data can be deallocated... 

     total cpu time spent up to now is       48.1 secs

     Self-consistent Calculation

     iteration #  1     ecut=    60.00 Ry     beta= 0.30
     Davidson diagonalization with overlap
     ethr =  1.00E-02,  avg # of iterations =  2.0

     negative rho (up, down):  7.747E-01 0.000E+00

     total cpu time spent up to now is      129.1 secs

     total energy              =   -9070.29064568 Ry
     estimated scf accuracy    <      21.97874409 Ry

     iteration #  2     ecut=    60.00 Ry     beta= 0.30
     Davidson diagonalization with overlap
     ethr =  2.62E-03,  avg # of iterations =  4.8

     negative rho (up, down):  7.752E-01 0.000E+00

     total cpu time spent up to now is      226.2 secs

     total energy              =   -9076.61267463 Ry
     estimated scf accuracy    <       8.24260324 Ry

     iteration #  3     ecut=    60.00 Ry     beta= 0.30
     Davidson diagonalization with overlap
     ethr =  9.81E-04,  avg # of iterations =  2.0

     negative rho (up, down):  7.804E-01 0.000E+00

     total cpu time spent up to now is      308.0 secs

     total energy              =   -9076.48775266 Ry
     estimated scf accuracy    <       1.62516963 Ry

     iteration #  4     ecut=    60.00 Ry     beta= 0.30
     Davidson diagonalization with overlap
     ethr =  1.93E-04,  avg # of iterations =  6.0

     negative rho (up, down):  7.829E-01 0.000E+00

     total cpu time spent up to now is      420.0 secs

     total energy              =   -9076.70036610 Ry
     estimated scf accuracy    <       2.07638019 Ry

     iteration #  5     ecut=    60.00 Ry     beta= 0.30
     Davidson diagonalization with overlap
     ethr =  1.93E-04,  avg # of iterations =  5.4

     negative rho (up, down):  7.884E-01 0.000E+00

     total cpu time spent up to now is      511.7 secs

     total energy              =   -9077.13622568 Ry
     estimated scf accuracy    <       0.14604369 Ry

     iteration #  6     ecut=    60.00 Ry     beta= 0.30
     Davidson diagonalization with overlap
     ethr =  1.74E-05,  avg # of iterations =  5.8

     negative rho (up, down):  7.902E-01 0.000E+00

     total cpu time spent up to now is      609.4 secs

     total energy              =   -9077.18434526 Ry
     estimated scf accuracy    <       0.01307871 Ry

     iteration #  7     ecut=    60.00 Ry     beta= 0.30
     Davidson diagonalization with overlap
     ethr =  1.56E-06,  avg # of iterations =  5.1

     negative rho (up, down):  7.907E-01 0.000E+00

     total cpu time spent up to now is      721.4 secs

     total energy              =   -9077.18883335 Ry
     estimated scf accuracy    <       0.00578430 Ry

     iteration #  8     ecut=    60.00 Ry     beta= 0.30
     Davidson diagonalization with overlap
     ethr =  6.89E-07,  avg # of iterations =  6.7

     negative rho (up, down):  7.912E-01 0.000E+00

     total cpu time spent up to now is      848.0 secs

     total energy              =   -9077.17943585 Ry
     estimated scf accuracy    <       0.04773723 Ry

     iteration #  9     ecut=    60.00 Ry     beta= 0.30
     Davidson diagonalization with overlap
     ethr =  6.89E-07,  avg # of iterations =  6.5

     negative rho (up, down):  7.911E-01 0.000E+00

     total cpu time spent up to now is      984.0 secs

     total energy              =   -9077.18755429 Ry
     estimated scf accuracy    <       0.00209503 Ry

     iteration # 10     ecut=    60.00 Ry     beta= 0.30
     Davidson diagonalization with overlap
     ethr =  2.49E-07,  avg # of iterations =  2.0

     negative rho (up, down):  7.908E-01 0.000E+00

     total cpu time spent up to now is     1063.8 secs

     total energy              =   -9077.18741492 Ry
     estimated scf accuracy    <       0.00066048 Ry

     iteration # 11     ecut=    60.00 Ry     beta= 0.30
     Davidson diagonalization with overlap
     ethr =  7.86E-08,  avg # of iterations =  5.6

     negative rho (up, down):  7.905E-01 0.000E+00

     total cpu time spent up to now is     1175.1 secs

     total energy              =   -9077.18762666 Ry
     estimated scf accuracy    <       0.00018909 Ry

     iteration # 12     ecut=    60.00 Ry     beta= 0.30
     Davidson diagonalization with overlap
     ethr =  2.25E-08,  avg # of iterations =  5.1

     negative rho (up, down):  7.904E-01 0.000E+00

     total cpu time spent up to now is     1269.7 secs

     total energy              =   -9077.18763826 Ry
     estimated scf accuracy    <       0.00012386 Ry

     iteration # 13     ecut=    60.00 Ry     beta= 0.30
     Davidson diagonalization with overlap
     ethr =  1.47E-08,  avg # of iterations =  3.2

     negative rho (up, down):  7.903E-01 0.000E+00

     total cpu time spent up to now is     1357.1 secs

     total energy              =   -9077.18764770 Ry
     estimated scf accuracy    <       0.00002489 Ry

     iteration # 14     ecut=    60.00 Ry     beta= 0.30
     Davidson diagonalization with overlap
     ethr =  2.96E-09,  avg # of iterations =  6.1

     negative rho (up, down):  7.903E-01 0.000E+00

     total cpu time spent up to now is     1449.8 secs

     total energy              =   -9077.18765219 Ry
     estimated scf accuracy    <       0.00000165 Ry

     iteration # 15     ecut=    60.00 Ry     beta= 0.30
     Davidson diagonalization with overlap
     ethr =  1.96E-10,  avg # of iterations =  6.2

     negative rho (up, down):  7.902E-01 0.000E+00

     total cpu time spent up to now is     1582.9 secs

     total energy              =   -9077.18765333 Ry
     estimated scf accuracy    <       0.00000040 Ry

     iteration # 16     ecut=    60.00 Ry     beta= 0.30
     Davidson diagonalization with overlap
     ethr =  4.77E-11,  avg # of iterations =  5.0

     negative rho (up, down):  7.902E-01 0.000E+00

     total cpu time spent up to now is     1685.2 secs

     total energy              =   -9077.18765350 Ry
     estimated scf accuracy    <       0.00000009 Ry

     iteration # 17     ecut=    60.00 Ry     beta= 0.30
     Davidson diagonalization with overlap
     ethr =  1.07E-11,  avg # of iterations =  5.1

     negative rho (up, down):  7.902E-01 0.000E+00

     total cpu time spent up to now is     1784.8 secs

     total energy              =   -9077.18765355 Ry
     estimated scf accuracy    <       0.00000003 Ry

     iteration # 18     ecut=    60.00 Ry     beta= 0.30
     Davidson diagonalization with overlap
     ethr =  4.03E-12,  avg # of iterations =  3.9

     negative rho (up, down):  7.902E-01 0.000E+00

     total cpu time spent up to now is     1875.9 secs

     total energy              =   -9077.18765357 Ry
     estimated scf accuracy    <          6.0E-09 Ry

     iteration # 19     ecut=    60.00 Ry     beta= 0.30
     Davidson diagonalization with overlap
     ethr =  7.11E-13,  avg # of iterations =  6.9

     negative rho (up, down):  7.902E-01 0.000E+00

     total cpu time spent up to now is     1993.2 secs

     total energy              =   -9077.18765357 Ry
     estimated scf accuracy    <          7.3E-09 Ry

     iteration # 20     ecut=    60.00 Ry     beta= 0.30
     Davidson diagonalization with overlap
     ethr =  7.11E-13,  avg # of iterations =  4.4

     negative rho (up, down):  7.902E-01 0.000E+00

     total cpu time spent up to now is     2077.1 secs

     total energy              =   -9077.18765358 Ry
     estimated scf accuracy    <          1.5E-09 Ry

     iteration # 21     ecut=    60.00 Ry     beta= 0.30
     Davidson diagonalization with overlap
     ethr =  1.73E-13,  avg # of iterations =  7.8

     negative rho (up, down):  7.902E-01 0.000E+00

     total cpu time spent up to now is     2192.8 secs

     total energy              =   -9077.18765358 Ry
     estimated scf accuracy    <          1.6E-09 Ry

     iteration # 22     ecut=    60.00 Ry     beta= 0.30
     Davidson diagonalization with overlap
     ethr =  1.73E-13,  avg # of iterations =  3.3

     negative rho (up, down):  7.902E-01 0.000E+00

     total cpu time spent up to now is     2270.0 secs

     End of self-consistent calculation

          k = 0.0000 0.0000 0.0000 (115723 PWs)   bands (ev):

   -28.2761 -28.2760 -28.2760 -28.2760 -28.2759 -28.2758 -28.2757 -28.2756
   -28.2748 -28.2748 -28.2746 -28.2722 -14.9254 -14.9241 -14.9236 -14.9234
   -14.9231 -14.9230 -14.9226 -14.9226 -14.9224 -14.9219 -14.9219 -14.9194
   -14.9184 -14.9181 -14.9176 -14.9175 -14.9173 -14.9171 -14.9167 -14.9166
   -14.9165 -14.9160 -14.9160 -14.9125 -14.9073 -14.9061 -14.9055 -14.9054
   -14.9053 -14.9050 -14.9046 -14.9046 -14.9045 -14.9040 -14.9040 -14.9003
   -14.8672 -14.8660 -14.8653 -14.8652 -14.8652 -14.8648 -14.8645 -14.8644
   -14.8643 -14.8638 -14.8638 -14.8602 -14.8220 -14.8208 -14.8201 -14.8201
   -14.8200 -14.8197 -14.8193 -14.8192 -14.8192 -14.8186 -14.8186 -14.8151
   -10.3387 -10.3383 -10.3381 -10.3370 -10.3369 -10.3358 -10.3357 -10.3352
   -10.3341 -10.3313 -10.3301 -10.3240 -10.3093 -10.3091 -10.3084 -10.3046
   -10.3035 -10.3015 -10.3013 -10.3006 -10.2929 -10.2923 -10.2916 -10.2820
   -10.2709 -10.2709 -10.2693 -10.2653 -10.2650 -10.2647 -10.2630 -10.2623
   -10.2613 -10.2589 -10.2577 -10.2539  -6.8630  -6.5560  -6.5531  -6.4185
    -6.4174  -6.4151  -6.3008  -6.3000  -6.2958  -6.2200  -6.2186  -6.2162
    -5.9908  -5.9897  -5.9851  -5.8511  -5.8500  -5.8456  -5.7975  -5.7963
    -5.7939  -5.7392  -5.7360  -5.6218  -5.6204  -5.6181  -5.6140  -5.6134
    -5.6092  -5.6001  -5.5605  -5.5586  -5.5565  -5.5454  -5.5448  -5.5391
    -5.5184  -5.5167  -5.4325  -5.4303  -5.4290  -5.4278  -5.3733  -5.3679
    -5.3496  -5.3458  -5.3443  -5.2518  -0.6126  -0.6119  -0.6096  -0.3903
    -0.3888  -0.3867  -0.3506  -0.3166  -0.3160  -0.3132  -0.3019  -0.2999
     1.3835   1.3844   1.3872   1.5919   1.5943   1.6569   1.7160   1.7176
     1.7189   1.8043   1.8056   1.8087   2.0195   2.0404   2.0423   2.0825
     2.0845   2.0888   2.2455   2.2465   2.2485   2.3081   2.3111   2.4007
     2.4039   2.4061   2.4597   2.4599   2.4637   2.5467   2.5516   2.6623
     2.6625   2.6678   2.7824   2.7852   2.7875   2.8708   2.8743   2.9235
     2.9253   2.9275   2.9517   2.9552   2.9564   3.0264   3.0274   3.0297
     3.0447   3.0455   3.0477   3.1663   3.2128   3.2153   3.2173   3.2269
     3.2315   3.2566   3.2582   3.2623   3.3748   3.3773   3.3795   3.3925
     3.3946   3.4239   3.4256   3.4283   3.4348   3.4366   3.4399   3.4680
     3.4761   3.4771   3.4909   3.4941   3.4956   3.4973   3.5157   3.5181
     3.5833   3.5847   3.5873   3.6259   3.6276   3.6312   3.6894   3.6901
     3.6908   3.6936   3.6951   3.7083   3.7927   3.7958   3.8251   3.8260
     3.8276   3.9635   4.0202   4.0213   4.0248   4.0343   4.0366   4.0378
     4.1237   4.1245   4.1262   4.1284   4.1717   4.1741   4.1750   4.2013
     4.2086   4.2103   4.2130   4.2414   4.2432   4.2453   4.2805   4.2843
     4.4239   4.4246   4.4280   4.5167   4.5181   4.5219   4.5348   4.5367
     4.6194   4.6211   4.6236   4.8579   5.1247   5.1550   5.1558   5.1574
     5.1743   5.1746   5.1755   5.1775   5.1791   5.2227   5.2272   5.2280
     5.2287   5.2295   5.2307   5.2520   5.2523   5.2532   5.2666   5.2671
     5.2674   5.2783   5.2785   5.2798   5.3108   5.3116   5.3124   5.3126
     5.3135   5.3246   5.3375   5.3378   5.3385   5.3748   5.3758   5.3769
     5.4386   5.4390   5.4696   5.4718   5.4725   5.4748   5.4768   5.4778
     5.4792   5.4996   5.5002   5.6003   5.6012   5.6017   5.6176   5.6190
     5.6198   5.6266   5.6464   5.6474   5.6478   5.6587   5.6596   5.6601
     5.7248   5.7259   5.7434   5.7820   5.7824   5.7838   5.8190   5.8209
     5.8214   5.9031   5.9039   5.9043   5.9277   5.9281   5.9286   5.9965
     5.9973   6.0263   6.0276   6.0281   6.1494   6.1505   6.1513   6.1526
     6.2608   6.2624   6.2628   6.2630   6.2642   6.2650   6.2893   6.2898
     6.3343   6.3344   6.3368   6.3628   6.3643   6.3659   6.3888   6.3898
     6.3916   6.5517   6.5702   6.5711   6.5721   6.6372   6.6387   6.6395
     6.7473   6.7486   6.7495   6.7649   6.7658   6.7804   6.7822   6.7834
     6.8085   6.9645   7.1801   7.1810

          k = 0.0000 0.0000 0.2714 (115879 PWs)   bands (ev):

   -28.2761 -28.2760 -28.2760 -28.2760 -28.2759 -28.2758 -28.2757 -28.2756
   -28.2748 -28.2748 -28.2746 -28.2722 -14.9254 -14.9241 -14.9236 -14.9234
   -14.9231 -14.9230 -14.9226 -14.9226 -14.9224 -14.9219 -14.9219 -14.9194
   -14.9184 -14.9181 -14.9176 -14.9175 -14.9173 -14.9171 -14.9167 -14.9166
   -14.9165 -14.9160 -14.9160 -14.9125 -14.9073 -14.9061 -14.9055 -14.9054
   -14.9053 -14.9050 -14.9046 -14.9046 -14.9045 -14.9040 -14.9040 -14.9003
   -14.8672 -14.8660 -14.8653 -14.8652 -14.8652 -14.8648 -14.8645 -14.8644
   -14.8643 -14.8638 -14.8638 -14.8602 -14.8220 -14.8208 -14.8201 -14.8201
   -14.8200 -14.8197 -14.8193 -14.8192 -14.8192 -14.8186 -14.8186 -14.8151
   -10.3397 -10.3392 -10.3389 -10.3376 -10.3375 -10.3362 -10.3342 -10.3338
   -10.3332 -10.3321 -10.3279 -10.3250 -10.3120 -10.3080 -10.3078 -10.3066
   -10.3021 -10.3017 -10.3012 -10.2940 -10.2935 -10.2932 -10.2924 -10.2845
   -10.2704 -10.2703 -10.2688 -10.2661 -10.2656 -10.2652 -10.2625 -10.2619
   -10.2609 -10.2585 -10.2576 -10.2552  -6.8237  -6.7131  -6.4109  -6.4092
    -6.4084  -6.4051  -6.3053  -6.3046  -6.3003  -6.2325  -6.2305  -6.2290
    -5.9923  -5.9915  -5.9867  -5.8554  -5.8360  -5.8350  -5.8301  -5.7747
    -5.7734  -5.7717  -5.6596  -5.6578  -5.6556  -5.6515  -5.6137  -5.6125
    -5.6119  -5.6072  -5.5578  -5.5532  -5.5521  -5.5496  -5.5458  -5.5446
    -5.5375  -5.4544  -5.4372  -5.4352  -5.4343  -5.4319  -5.3730  -5.3454
    -5.3412  -5.3379  -5.3365  -5.2819  -0.6049  -0.6038  -0.6018  -0.4135
    -0.4127  -0.4100  -0.3481  -0.3325  -0.3018  -0.3014  -0.2982  -0.2741
     1.4077   1.4087   1.4115   1.5710   1.6151   1.6179   1.6193   1.6209
     1.6591   1.9341   1.9351   1.9382   2.0037   2.0464   2.0511   2.0526
     2.0566   2.0690   2.2740   2.2747   2.2769   2.3048   2.3861   2.3888
     2.3904   2.3923   2.4142   2.4160   2.4180   2.4561   2.6222   2.6227
     2.6275   2.6692   2.7189   2.7907   2.7968   2.7983   2.8019   2.8716
     2.8729   2.8756   2.9739   2.9757   2.9777   3.0445   3.0469   3.0495
     3.1063   3.1074   3.1096   3.1772   3.1989   3.2033   3.2055   3.2069
     3.2725   3.2744   3.2767   3.2857   3.3739   3.3825   3.3830   3.3859
     3.4155   3.4201   3.4214   3.4389   3.4406   3.4437   3.4467   3.4496
     3.4513   3.4766   3.4971   3.5150   3.5187   3.5203   3.5372   3.5450
     3.5486   3.5505   3.5536   3.6369   3.6442   3.6459   3.6474   3.6521
     3.6800   3.6813   3.6864   3.7718   3.8300   3.8756   3.8764   3.8777
     3.9088   3.9218   3.9950   3.9958   3.9994   4.0541   4.0565   4.0576
     4.0756   4.1173   4.1183   4.1216   4.1470   4.1491   4.1502   4.1670
     4.1702   4.1714   4.1733   4.2112   4.2492   4.2515   4.2527   4.2679
     4.4206   4.4220   4.4259   4.4830   4.5583   4.5597   4.5626   4.6042
     4.6061   4.6082   4.6772   4.8079   5.1360   5.1469   5.1542   5.1547
     5.1554   5.1644   5.1870   5.1874   5.1888   5.2165   5.2171   5.2172
     5.2187   5.2477   5.2487   5.2492   5.2588   5.2592   5.2598   5.2613
     5.2765   5.2773   5.2775   5.2786   5.3293   5.3305   5.3309   5.3324
     5.3338   5.3354   5.3409   5.3427   5.3439   5.3658   5.3738   5.3742
     5.3756   5.3903   5.4027   5.4205   5.4210   5.4219   5.5263   5.5323
     5.5331   5.5339   5.5825   5.5875   5.5888   5.5893   5.5900   5.6200
     5.6206   5.6212   5.6507   5.6511   5.6523   5.6613   5.6809   5.6818
     5.6833   5.7540   5.7548   5.7560   5.7905   5.7982   5.8158   5.8176
     5.8183   5.8715   5.8830   5.8838   5.8846   5.9878   5.9890   5.9900
     6.0426   6.0434   6.0444   6.0969   6.0982   6.0990   6.1754   6.1912
     6.1927   6.1951   6.2370   6.2674   6.2690   6.2708   6.3253   6.3261
     6.3275   6.3581   6.3597   6.3706   6.3720   6.3734   6.3948   6.4286
     6.4302   6.4317   6.4806   6.6402   6.6413   6.6422   6.6426   6.6437
     6.6447   6.6705   6.7088   6.7099   6.7120   6.7522   6.7535   6.7552
     6.9411   7.0052   7.0943   7.1703

          k = 0.0000 0.3849 0.0000 (115797 PWs)   bands (ev):

   -28.2761 -28.2760 -28.2760 -28.2760 -28.2759 -28.2758 -28.2757 -28.2756
   -28.2748 -28.2748 -28.2746 -28.2722 -14.9254 -14.9241 -14.9235 -14.9233
   -14.9232 -14.9230 -14.9226 -14.9226 -14.9223 -14.9219 -14.9219 -14.9194
   -14.9183 -14.9182 -14.9176 -14.9175 -14.9174 -14.9171 -14.9167 -14.9166
   -14.9165 -14.9161 -14.9160 -14.9125 -14.9073 -14.9061 -14.9055 -14.9054
   -14.9053 -14.9050 -14.9046 -14.9046 -14.9045 -14.9040 -14.9040 -14.9003
   -14.8672 -14.8660 -14.8653 -14.8652 -14.8652 -14.8648 -14.8645 -14.8644
   -14.8643 -14.8638 -14.8638 -14.8602 -14.8220 -14.8208 -14.8201 -14.8201
   -14.8200 -14.8197 -14.8193 -14.8192 -14.8192 -14.8186 -14.8186 -14.8151
   -10.3383 -10.3380 -10.3365 -10.3364 -10.3359 -10.3354 -10.3345 -10.3339
   -10.3330 -10.3322 -10.3311 -10.3263 -10.3074 -10.3069 -10.3063 -10.3041
   -10.3030 -10.3018 -10.3016 -10.3008 -10.2950 -10.2943 -10.2902 -10.2850
   -10.2699 -10.2695 -10.2686 -10.2670 -10.2660 -10.2636 -10.2631 -10.2628
   -10.2623 -10.2603 -10.2592 -10.2557  -6.7878  -6.5900  -6.5004  -6.4962
    -6.4391  -6.4364  -6.3664  -6.3472  -6.2863  -6.2834  -6.2494  -6.2462
    -5.9117  -5.9109  -5.8202  -5.8192  -5.8158  -5.7773  -5.7685  -5.7639
    -5.7334  -5.7246  -5.7232  -5.6916  -5.6867  -5.6478  -5.6391  -5.6351
    -5.6286  -5.5952  -5.5852  -5.5830  -5.5685  -5.5275  -5.5190  -5.5182
    -5.5159  -5.5027  -5.4628  -5.4511  -5.4390  -5.4359  -5.4190  -5.4133
    -5.3515  -5.3472  -5.3140  -5.2711  -0.5720  -0.5707  -0.5609  -0.4347
    -0.4046  -0.4038  -0.3774  -0.3389  -0.3376  -0.3325  -0.3132  -0.3039
     1.4182   1.4856   1.4902   1.5005   1.6400   1.6510   1.6906   1.7224
     1.7259   1.8278   1.8760   1.8779   1.9550   1.9561   1.9574   2.0282
     2.1151   2.2083   2.2292   2.2310   2.3382   2.3634   2.3851   2.3892
     2.3934   2.4089   2.4495   2.5353   2.5387   2.6117   2.6154   2.6208
     2.6569   2.7353   2.8125   2.8152   2.8223   2.8400   2.8418   2.8466
     2.8546   2.8839   2.9074   2.9088   2.9156   2.9618   2.9622   3.0048
     3.0500   3.0563   3.0576   3.1252   3.1514   3.1763   3.2043   3.2108
     3.2125   3.2358   3.2607   3.2643   3.2691   3.3223   3.3301   3.3341
     3.3391   3.3727   3.3945   3.3952   3.4331   3.4389   3.4420   3.4498
     3.4910   3.4995   3.5005   3.5079   3.5120   3.5133   3.5220   3.5427
     3.5616   3.6047   3.6058   3.6133   3.6347   3.6500   3.6786   3.6825
     3.6935   3.7028   3.7053   3.7098   3.7790   3.7823   3.8489   3.8586
     3.8958   3.9736   3.9742   3.9784   3.9811   4.0291   4.0394   4.0412
     4.0948   4.1116   4.1218   4.1238   4.1262   4.1623   4.1637   4.1786
     4.2489   4.2654   4.2691   4.2858   4.3024   4.3222   4.3239   4.3670
     4.3781   4.4163   4.4207   4.4827   4.5173   4.5262   4.5282   4.5299
     4.5901   4.5916   4.6297   4.7505   5.1434   5.1440   5.1478   5.1549
     5.1609   5.1616   5.1700   5.1742   5.2149   5.2193   5.2199   5.2227
     5.2291   5.2373   5.2490   5.2497   5.2503   5.2614   5.2679   5.2717
     5.2727   5.2892   5.3050   5.3058   5.3137   5.3196   5.3271   5.3281
     5.3366   5.3495   5.3528   5.3537   5.3579   5.3661   5.4137   5.4145
     5.4340   5.4515   5.4620   5.4629   5.4856   5.4936   5.4995   5.5003
     5.5034   5.5120   5.5282   5.5436   5.5564   5.5568   5.5613   5.6023
     5.6043   5.6304   5.6308   5.6317   5.6684   5.6779   5.6958   5.6961
     5.6968   5.7174   5.7294   5.7568   5.7748   5.7759   5.8079   5.8180
     5.8202   5.8631   5.8756   5.8766   5.9499   5.9518   5.9652   5.9667
     5.9908   6.0066   6.0077   6.0212   6.1384   6.1401   6.1446   6.1601
     6.2260   6.2295   6.2303   6.2510   6.2711   6.2884   6.2898   6.2995
     6.3610   6.3630   6.3770   6.3900   6.3913   6.4413   6.4863   6.4879
     6.5234   6.5382   6.5395   6.5756   6.6045   6.6507   6.6843   6.6926
     6.6936   6.7300   6.7382   6.7397   6.7626   6.7776   6.7936   6.8126
     6.8141   6.9039   6.9090   7.0804

          k = 0.0000 0.3849 0.2714 (115773 PWs)   bands (ev):

   -28.2761 -28.2760 -28.2760 -28.2760 -28.2759 -28.2758 -28.2757 -28.2756
   -28.2748 -28.2748 -28.2746 -28.2722 -14.9254 -14.9241 -14.9235 -14.9233
   -14.9232 -14.9230 -14.9226 -14.9226 -14.9223 -14.9219 -14.9219 -14.9194
   -14.9183 -14.9182 -14.9176 -14.9175 -14.9174 -14.9171 -14.9167 -14.9166
   -14.9165 -14.9161 -14.9160 -14.9125 -14.9073 -14.9061 -14.9055 -14.9054
   -14.9053 -14.9050 -14.9046 -14.9046 -14.9045 -14.9040 -14.9040 -14.9003
   -14.8672 -14.8660 -14.8653 -14.8652 -14.8652 -14.8648 -14.8645 -14.8644
   -14.8643 -14.8638 -14.8638 -14.8602 -14.8220 -14.8208 -14.8201 -14.8201
   -14.8200 -14.8197 -14.8193 -14.8192 -14.8192 -14.8186 -14.8186 -14.8151
   -10.3391 -10.3388 -10.3378 -10.3371 -10.3362 -10.3344 -10.3342 -10.3333
   -10.3328 -10.3314 -10.3298 -10.3269 -10.3103 -10.3068 -10.3062 -10.3059
   -10.3014 -10.3007 -10.3001 -10.2968 -10.2961 -10.2938 -10.2907 -10.2874
   -10.2701 -10.2689 -10.2686 -10.2670 -10.2659 -10.2639 -10.2629 -10.2625
   -10.2620 -10.2600 -10.2592 -10.2570  -6.7508  -6.6464  -6.5608  -6.4718
    -6.4234  -6.4204  -6.3631  -6.3294  -6.3282  -6.2581  -6.2250  -6.2230
    -5.9053  -5.9043  -5.8246  -5.8202  -5.8090  -5.8061  -5.7928  -5.7608
    -5.7565  -5.7333  -5.7130  -5.7077  -5.6723  -5.6361  -5.6294  -5.6281
    -5.6228  -5.6071  -5.6003  -5.5989  -5.5683  -5.5276  -5.5223  -5.5213
    -5.5190  -5.4933  -5.4681  -5.4329  -5.4313  -5.4280  -5.4230  -5.3617
    -5.3510  -5.3467  -5.3225  -5.3006  -0.5600  -0.5590  -0.5577  -0.4366
    -0.4345  -0.4237  -0.3943  -0.3738  -0.3195  -0.3153  -0.2996  -0.2793
     1.4328   1.4836   1.4865   1.4884   1.6254   1.6422   1.7709   1.7745
     1.7838   1.7910   1.8003   1.8013   1.9141   1.9953   1.9962   2.0783
     2.1547   2.1989   2.2123   2.2480   2.2490   2.3595   2.3923   2.3947
     2.3984   2.4485   2.5102   2.5127   2.5470   2.5903   2.5945   2.6073
     2.6439   2.7134   2.7628   2.7678   2.7706   2.7892   2.8085   2.8093
     2.8394   2.8736   2.9148   2.9173   2.9189   2.9819   3.0227   3.0249
     3.0687   3.1063   3.1066   3.1351   3.1701   3.1909   3.1938   3.1964
     3.1996   3.2328   3.2636   3.2672   3.2787   3.3173   3.3211   3.3233
     3.3256   3.3887   3.3902   3.4098   3.4441   3.4467   3.4632   3.4704
     3.4716   3.4744   3.4756   3.4779   3.5318   3.5346   3.5371   3.5930
     3.6097   3.6124   3.6160   3.6324   3.6422   3.6506   3.6584   3.6620
     3.6679   3.7083   3.7111   3.7139   3.8360   3.8379   3.8788   3.8884
     3.9039   3.9501   3.9511   3.9746   3.9831   4.0198   4.0482   4.0498
     4.0523   4.0654   4.1111   4.1125   4.1197   4.1332   4.1361   4.1482
     4.1930   4.2551   4.2655   4.2677   4.2879   4.2907   4.2970   4.3869
     4.3964   4.4381   4.4403   4.4669   4.5237   4.5266   4.5352   4.5958
     4.6094   4.6114   4.6252   4.7230   5.1504   5.1508   5.1553   5.1569
     5.1724   5.1766   5.1773   5.1839   5.1909   5.1983   5.2010   5.2075
     5.2080   5.2347   5.2351   5.2357   5.2551   5.2648   5.2656   5.2664
     5.2795   5.2980   5.3077   5.3130   5.3141   5.3294   5.3370   5.3383
     5.3584   5.3590   5.3600   5.3631   5.3806   5.3935   5.4070   5.4078
     5.4127   5.4319   5.4333   5.4450   5.4452   5.4928   5.5021   5.5028
     5.5101   5.5167   5.5536   5.5594   5.5743   5.5752   5.6022   5.6102
     5.6114   5.6193   5.6242   5.6255   5.6426   5.6710   5.6819   5.7140
     5.7152   5.7165   5.7341   5.7722   5.7728   5.7736   5.8009   5.8030
     5.8097   5.8590   5.8748   5.8759   5.8784   5.9145   5.9591   5.9608
     6.0340   6.0347   6.0354   6.0598   6.0790   6.0795   6.1732   6.2060
     6.2123   6.2137   6.2659   6.2668   6.2711   6.2774   6.2854   6.3480
     6.3502   6.3649   6.3728   6.4155   6.4248   6.4258   6.4277   6.4707
     6.4987   6.5000   6.5458   6.5599   6.5957   6.5967   6.6671   6.6679
     6.6770   6.7190   6.7370   6.7379   6.7480   6.8135   6.8157   6.8439
     6.8684   6.9284   6.9377   7.0518

          k = 0.3333 0.5774 0.0000 (115752 PWs)   bands (ev):

   -28.2761 -28.2760 -28.2760 -28.2760 -28.2759 -28.2758 -28.2757 -28.2756
   -28.2748 -28.2748 -28.2746 -28.2722 -14.9253 -14.9241 -14.9235 -14.9233
   -14.9233 -14.9230 -14.9226 -14.9226 -14.9224 -14.9219 -14.9219 -14.9194
   -14.9183 -14.9182 -14.9176 -14.9175 -14.9174 -14.9171 -14.9167 -14.9166
   -14.9165 -14.9161 -14.9160 -14.9125 -14.9073 -14.9061 -14.9055 -14.9054
   -14.9054 -14.9050 -14.9046 -14.9046 -14.9045 -14.9040 -14.9040 -14.9003
   -14.8672 -14.8660 -14.8653 -14.8652 -14.8652 -14.8648 -14.8645 -14.8644
   -14.8643 -14.8638 -14.8638 -14.8602 -14.8220 -14.8208 -14.8201 -14.8201
   -14.8200 -14.8197 -14.8193 -14.8192 -14.8192 -14.8186 -14.8186 -14.8151
   -10.3389 -10.3361 -10.3356 -10.3355 -10.3354 -10.3352 -10.3349 -10.3347
   -10.3336 -10.3304 -10.3303 -10.3292 -10.3072 -10.3051 -10.3049 -10.3043
   -10.3025 -10.3019 -10.3013 -10.3005 -10.2992 -10.2901 -10.2900 -10.2892
   -10.2697 -10.2677 -10.2671 -10.2669 -10.2664 -10.2652 -10.2643 -10.2642
   -10.2634 -10.2591 -10.2589 -10.2576  -6.6514  -6.6504  -6.6487  -6.4012
    -6.3997  -6.3990  -6.3988  -6.3986  -6.3922  -6.2934  -6.2916  -6.1925
    -5.8652  -5.8510  -5.8473  -5.7503  -5.7491  -5.7470  -5.7347  -5.7323
    -5.7301  -5.7085  -5.7074  -5.6958  -5.6942  -5.6916  -5.6870  -5.6850
    -5.6819  -5.6447  -5.5421  -5.5414  -5.5380  -5.5303  -5.5292  -5.5232
    -5.5113  -5.4734  -5.4721  -5.4691  -5.4685  -5.4668  -5.4613  -5.3992
    -5.3961  -5.3049  -5.3017  -5.3011  -0.5440  -0.5155  -0.5148  -0.5121
    -0.3969  -0.3953  -0.3916  -0.3907  -0.3872  -0.3110  -0.3098  -0.3072
     1.4824   1.4846   1.4865   1.6738   1.6751   1.6766   1.6852   1.6865
     1.6894   1.7324   1.7351   1.7997   2.0802   2.0818   2.0824   2.0830
     2.0862   2.1439   2.1450   2.1469   2.2558   2.3961   2.3969   2.3987
     2.4923   2.4943   2.4958   2.5619   2.5640   2.5646   2.5977   2.5990
     2.7715   2.7741   2.7773   2.8352   2.8376   2.8423   2.8441   2.8457
     2.8491   2.8522   2.8530   2.8613   2.8689   3.0093   3.0108   3.0140
     3.0236   3.0251   3.0265   3.0617   3.1323   3.1339   3.1367   3.1964
     3.1972   3.2017   3.2585   3.2596   3.2636   3.2703   3.2751   3.3618
     3.3679   3.3716   3.3724   3.3741   3.4242   3.4245   3.4274   3.4838
     3.4865   3.4976   3.5033   3.5035   3.5264   3.5292   3.5314   3.5477
     3.5487   3.5791   3.5799   3.5844   3.6493   3.6505   3.6550   3.7197
     3.7210   3.7249   3.7284   3.7325   3.7576   3.7986   3.8014   3.8030
     3.9575   3.9590   3.9608   3.9874   3.9892   4.0286   4.0304   4.0335
     4.0846   4.0850   4.0873   4.1423   4.1508   4.1514   4.1542   4.2828
     4.2850   4.2940   4.3183   4.3188   4.3194   4.3208   4.3213   4.3280
     4.3847   4.3868   4.3888   4.4961   4.5146   4.5172   4.5189   4.5210
     4.5220   4.6543   4.6545   4.6585   5.1381   5.1438   5.1445   5.1458
     5.1734   5.1743   5.1877   5.1885   5.1890   5.1967   5.1970   5.1986
     5.2471   5.2478   5.2485   5.2654   5.2663   5.2669   5.2982   5.2989
     5.3000   5.3014   5.3031   5.3034   5.3142   5.3186   5.3191   5.3201
     5.3401   5.3406   5.3415   5.4016   5.4032   5.4043   5.4085   5.4092
     5.4551   5.4559   5.4564   5.4578   5.4828   5.4839   5.4847   5.4882
     5.4888   5.5350   5.5355   5.5364   5.5639   5.5645   5.5658   5.5703
     5.5716   5.5727   5.6410   5.6721   5.6726   5.6937   5.6946   5.6958
     5.7061   5.7075   5.7081   5.7801   5.7808   5.7815   5.7987   5.7997
     5.8010   5.8241   5.8248   5.8441   5.9296   5.9314   5.9322   6.0463
     6.0471   6.0475   6.0487   6.0496   6.1375   6.1392   6.1405   6.1589
     6.2183   6.2189   6.2204   6.2594   6.2601   6.2606   6.2835   6.2852
     6.3743   6.4102   6.4106   6.4125   6.4159   6.4173   6.4239   6.4507
     6.4517   6.4538   6.6153   6.6156   6.6164   6.6757   6.6769   6.6780
     6.7258   6.7409   6.7425   6.8056   6.8066   6.8077   6.8103   6.8108
     6.8126   6.9381   6.9395   6.9401

          k = 0.3333 0.5774 0.2714 (115827 PWs)   bands (ev):

   -28.2761 -28.2760 -28.2760 -28.2760 -28.2759 -28.2758 -28.2757 -28.2756
   -28.2748 -28.2748 -28.2746 -28.2722 -14.9253 -14.9241 -14.9235 -14.9233
   -14.9233 -14.9230 -14.9226 -14.9226 -14.9224 -14.9219 -14.9219 -14.9194
   -14.9183 -14.9182 -14.9176 -14.9175 -14.9174 -14.9171 -14.9167 -14.9166
   -14.9166 -14.9161 -14.9160 -14.9125 -14.9073 -14.9061 -14.9055 -14.9054
   -14.9054 -14.9050 -14.9046 -14.9046 -14.9045 -14.9040 -14.9040 -14.9003
   -14.8672 -14.8660 -14.8653 -14.8652 -14.8652 -14.8648 -14.8645 -14.8644
   -14.8643 -14.8638 -14.8638 -14.8602 -14.8220 -14.8208 -14.8201 -14.8201
   -14.8200 -14.8197 -14.8193 -14.8192 -14.8192 -14.8186 -14.8186 -14.8151
   -10.3390 -10.3378 -10.3370 -10.3369 -10.3366 -10.3336 -10.3333 -10.3331
   -10.3324 -10.3306 -10.3304 -10.3291 -10.3078 -10.3077 -10.3073 -10.3049
   -10.3015 -10.3004 -10.2977 -10.2974 -10.2967 -10.2919 -10.2917 -10.2908
   -10.2699 -10.2685 -10.2669 -10.2666 -10.2664 -10.2643 -10.2639 -10.2635
   -10.2626 -10.2600 -10.2598 -10.2582  -6.6194  -6.6182  -6.6165  -6.5259
    -6.5249  -6.5225  -6.3086  -6.2901  -6.2892  -6.2857  -6.2580  -6.2140
    -5.8738  -5.8581  -5.8423  -5.7836  -5.7796  -5.7789  -5.7431  -5.7421
    -5.7404  -5.7148  -5.6891  -5.6881  -5.6860  -5.6743  -5.6726  -5.6719
    -5.6683  -5.6423  -5.5567  -5.5564  -5.5524  -5.5252  -5.5247  -5.5220
    -5.5054  -5.5032  -5.5029  -5.4957  -5.4596  -5.4008  -5.3982  -5.3957
    -5.3589  -5.3259  -5.3226  -5.3218  -0.5201  -0.5066  -0.5059  -0.5031
    -0.4607  -0.4182  -0.4172  -0.4145  -0.3547  -0.2939  -0.2930  -0.2902
     1.4804   1.4826   1.4846   1.6379   1.6391   1.6400   1.6892   1.7748
     1.7761   1.7762   1.7788   1.7932   1.9809   1.9819   1.9838   2.0560
     2.1694   2.1926   2.1934   2.1955   2.2488   2.3960   2.3974   2.3989
     2.4868   2.4893   2.4906   2.5570   2.5861   2.5883   2.5889   2.5937
     2.6798   2.7352   2.7376   2.7408   2.8216   2.8234   2.8244   2.8297
     2.9012   2.9027   2.9080   2.9236   2.9360   2.9541   2.9556   2.9575
     3.0588   3.0607   3.0616   3.0858   3.0884   3.0914   3.1267   3.1812
     3.2437   3.2450   3.2473   3.2702   3.2712   3.2776   3.3218   3.3252
     3.3277   3.3303   3.3732   3.4062   3.4200   3.4620   3.4656   3.4660
     3.4932   3.4961   3.4992   3.5014   3.5347   3.5367   3.5386   3.5403
     3.5608   3.6156   3.6161   3.6221   3.6534   3.6547   3.6585   3.6960
     3.6980   3.7008   3.7192   3.7459   3.8223   3.8398   3.8419   3.8428
     3.9375   3.9403   3.9409   3.9431   4.0283   4.0299   4.0323   4.0423
     4.0670   4.0677   4.0712   4.1099   4.1137   4.1146   4.1189   4.1677
     4.2720   4.2737   4.2759   4.2906   4.3135   4.3608   4.3619   4.3653
     4.4152   4.4175   4.4186   4.4910   4.4931   4.4951   4.5077   4.5127
     4.5652   4.6666   4.6675   4.6709   5.1492   5.1571   5.1575   5.1578
     5.1592   5.1829   5.1832   5.1838   5.1981   5.1985   5.1994   5.2112
     5.2251   5.2256   5.2266   5.2512   5.2525   5.2530   5.2574   5.2684
     5.3017   5.3024   5.3033   5.3096   5.3284   5.3292   5.3310   5.3678
     5.3682   5.3696   5.3745   5.3938   5.3960   5.4089   5.4095   5.4108
     5.4324   5.4335   5.4343   5.4388   5.4843   5.4851   5.4860   5.4919
     5.5390   5.5395   5.5401   5.5435   5.5664   5.5671   5.5679   5.6042
     5.6063   5.6066   5.6382   5.6390   5.6717   5.6725   5.6733   5.7030
     5.7041   5.7048   5.7172   5.7586   5.7595   5.7603   5.8014   5.8082
     5.8207   5.8241   5.8244   5.8252   5.8898   5.8907   5.8919   6.0570
     6.0592   6.0609   6.0621   6.0770   6.1196   6.1210   6.1213   6.1357
     6.1955   6.2367   6.2383   6.2400   6.2846   6.3008   6.3024   6.3029
     6.3071   6.3837   6.3862   6.3865   6.4499   6.4673   6.4682   6.4709
     6.4906   6.4935   6.5591   6.5600   6.5616   6.6468   6.6849   6.6853
     6.6868   6.7615   6.7780   6.7786   6.7795   6.7931   6.8544   6.8551
     6.8560   6.9354   6.9361   6.9370

          k =-0.3333 0.1925 0.0000 (115797 PWs)   bands (ev):

   -28.2761 -28.2760 -28.2760 -28.2760 -28.2759 -28.2758 -28.2757 -28.2756
   -28.2748 -28.2748 -28.2746 -28.2722 -14.9254 -14.9241 -14.9235 -14.9234
   -14.9232 -14.9230 -14.9226 -14.9226 -14.9224 -14.9219 -14.9219 -14.9194
   -14.9183 -14.9182 -14.9176 -14.9175 -14.9174 -14.9171 -14.9167 -14.9166
   -14.9165 -14.9161 -14.9160 -14.9125 -14.9073 -14.9061 -14.9055 -14.9054
   -14.9053 -14.9050 -14.9046 -14.9046 -14.9045 -14.9040 -14.9040 -14.9003
   -14.8672 -14.8660 -14.8653 -14.8652 -14.8652 -14.8648 -14.8645 -14.8644
   -14.8643 -14.8638 -14.8638 -14.8602 -14.8220 -14.8208 -14.8201 -14.8201
   -14.8200 -14.8197 -14.8193 -14.8192 -14.8192 -14.8186 -14.8186 -14.8151
   -10.3383 -10.3381 -10.3364 -10.3364 -10.3360 -10.3355 -10.3345 -10.3339
   -10.3330 -10.3321 -10.3312 -10.3263 -10.3074 -10.3069 -10.3063 -10.3042
   -10.3029 -10.3018 -10.3017 -10.3009 -10.2949 -10.2942 -10.2903 -10.2850
   -10.2699 -10.2695 -10.2686 -10.2670 -10.2660 -10.2635 -10.2633 -10.2628
   -10.2622 -10.2602 -10.2592 -10.2557  -6.7877  -6.5898  -6.4995  -6.4970
    -6.4385  -6.4377  -6.3646  -6.3488  -6.2860  -6.2834  -6.2496  -6.2471
    -5.9125  -5.9072  -5.8198  -5.8192  -5.8130  -5.7790  -5.7686  -5.7668
    -5.7323  -5.7253  -5.7224  -5.6906  -5.6896  -5.6482  -5.6390  -5.6376
    -5.6294  -5.5950  -5.5855  -5.5832  -5.5652  -5.5264  -5.5198  -5.5192
    -5.5155  -5.5021  -5.4602  -5.4527  -5.4382  -5.4369  -5.4221  -5.4113
    -5.3486  -5.3474  -5.3156  -5.2716  -0.5719  -0.5699  -0.5617  -0.4353
    -0.4047  -0.4027  -0.3769  -0.3382  -0.3380  -0.3360  -0.3122  -0.3030
     1.4176   1.4872   1.4895   1.5011   1.6408   1.6531   1.6883   1.7233
     1.7262   1.8290   1.8751   1.8768   1.9541   1.9560   1.9587   2.0281
     2.1160   2.2073   2.2280   2.2290   2.3377   2.3638   2.3863   2.3875
     2.3945   2.4073   2.4488   2.5374   2.5399   2.6122   2.6132   2.6168
     2.6563   2.7365   2.8127   2.8137   2.8258   2.8407   2.8431   2.8473
     2.8535   2.8850   2.9075   2.9085   2.9146   2.9619   2.9647   3.0055
     3.0507   3.0560   3.0588   3.1245   3.1493   3.1775   3.2045   3.2113
     3.2148   3.2355   3.2586   3.2625   3.2698   3.3242   3.3287   3.3309
     3.3406   3.3714   3.3913   3.3941   3.4327   3.4397   3.4427   3.4476
     3.4943   3.4988   3.5008   3.5093   3.5114   3.5136   3.5225   3.5390
     3.5618   3.6051   3.6099   3.6144   3.6367   3.6463   3.6791   3.6813
     3.6940   3.7024   3.7049   3.7128   3.7783   3.7800   3.8494   3.8615
     3.8963   3.9750   3.9758   3.9784   3.9813   4.0311   4.0382   4.0408
     4.0937   4.1117   4.1202   4.1221   4.1281   4.1596   4.1628   4.1786
     4.2484   4.2670   4.2686   4.2827   4.3039   4.3223   4.3231   4.3688
     4.3789   4.4167   4.4196   4.4841   4.5160   4.5270   4.5277   4.5303
     4.5895   4.5944   4.6276   4.7498   5.1438   5.1456   5.1475   5.1548
     5.1607   5.1615   5.1700   5.1748   5.2144   5.2199   5.2206   5.2219
     5.2285   5.2380   5.2487   5.2499   5.2510   5.2616   5.2669   5.2720
     5.2724   5.2896   5.3044   5.3049   5.3133   5.3188   5.3275   5.3285
     5.3368   5.3499   5.3519   5.3535   5.3577   5.3660   5.4140   5.4156
     5.4340   5.4516   5.4606   5.4611   5.4855   5.4933   5.4996   5.5011
     5.5025   5.5133   5.5280   5.5445   5.5570   5.5577   5.5609   5.6033
     5.6039   5.6296   5.6317   5.6321   5.6678   5.6771   5.6948   5.6961
     5.6964   5.7181   5.7296   5.7563   5.7742   5.7757   5.8083   5.8192
     5.8198   5.8643   5.8756   5.8768   5.9496   5.9526   5.9649   5.9669
     5.9907   6.0065   6.0082   6.0209   6.1387   6.1395   6.1458   6.1611
     6.2254   6.2289   6.2310   6.2503   6.2704   6.2882   6.2902   6.2991
     6.3608   6.3630   6.3776   6.3895   6.3923   6.4412   6.4851   6.4875
     6.5237   6.5370   6.5390   6.5768   6.6046   6.6513   6.6848   6.6923
     6.6927   6.7303   6.7377   6.7387   6.7634   6.7784   6.7932   6.8120
     6.8130   6.9049   6.9092   7.0811

          k = 0.3333 0.1925 0.0000 (115797 PWs)   bands (ev):

   -28.2761 -28.2760 -28.2760 -28.2760 -28.2759 -28.2758 -28.2757 -28.2756
   -28.2748 -28.2748 -28.2746 -28.2722 -14.9253 -14.9241 -14.9235 -14.9234
   -14.9233 -14.9230 -14.9226 -14.9226 -14.9224 -14.9219 -14.9219 -14.9194
   -14.9184 -14.9181 -14.9176 -14.9175 -14.9174 -14.9171 -14.9167 -14.9166
   -14.9165 -14.9160 -14.9160 -14.9125 -14.9073 -14.9061 -14.9055 -14.9054
   -14.9054 -14.9050 -14.9046 -14.9046 -14.9045 -14.9040 -14.9040 -14.9003
   -14.8672 -14.8660 -14.8653 -14.8652 -14.8652 -14.8648 -14.8645 -14.8644
   -14.8643 -14.8638 -14.8638 -14.8602 -14.8220 -14.8208 -14.8201 -14.8201
   -14.8200 -14.8197 -14.8193 -14.8192 -14.8192 -14.8186 -14.8186 -14.8151
   -10.3381 -10.3379 -10.3369 -10.3369 -10.3366 -10.3353 -10.3341 -10.3334
   -10.3329 -10.3321 -10.3311 -10.3263 -10.3074 -10.3071 -10.3060 -10.3046
   -10.3025 -10.3020 -10.3019 -10.3010 -10.2944 -10.2936 -10.2909 -10.2851
   -10.2699 -10.2698 -10.2682 -10.2669 -10.2667 -10.2642 -10.2624 -10.2621
   -10.2609 -10.2608 -10.2599 -10.2561  -6.7877  -6.5896  -6.4995  -6.4972
    -6.4399  -6.4373  -6.3646  -6.3495  -6.2856  -6.2829  -6.2489  -6.2464
    -5.9107  -5.9079  -5.8210  -5.8187  -5.8182  -5.7764  -5.7691  -5.7670
    -5.7330  -5.7241  -5.7213  -5.6919  -5.6896  -5.6495  -5.6384  -5.6355
    -5.6286  -5.5971  -5.5848  -5.5802  -5.5653  -5.5282  -5.5198  -5.5176
    -5.5155  -5.5040  -5.4600  -5.4522  -5.4378  -5.4358  -5.4219  -5.4121
    -5.3514  -5.3487  -5.3134  -5.2710  -0.5715  -0.5691  -0.5628  -0.4359
    -0.4048  -0.4015  -0.3765  -0.3396  -0.3382  -0.3370  -0.3115  -0.3018
     1.4207   1.4854   1.4871   1.5028   1.6398   1.6531   1.6873   1.7228
     1.7247   1.8266   1.8762   1.8790   1.9549   1.9560   1.9586   2.0283
     2.1162   2.2062   2.2291   2.2323   2.3393   2.3642   2.3856   2.3864
     2.3937   2.4079   2.4499   2.5361   2.5375   2.6120   2.6156   2.6170
     2.6590   2.7332   2.8118   2.8146   2.8210   2.8409   2.8425   2.8441
     2.8541   2.8864   2.9092   2.9094   2.9160   2.9627   2.9660   3.0053
     3.0489   3.0565   3.0584   3.1234   3.1480   3.1756   3.2060   3.2122
     3.2166   3.2331   3.2603   3.2615   3.2704   3.3229   3.3301   3.3317
     3.3376   3.3723   3.3953   3.3998   3.4323   3.4395   3.4421   3.4522
     3.4918   3.4981   3.4998   3.5072   3.5111   3.5149   3.5212   3.5436
     3.5629   3.6040   3.6062   3.6109   3.6358   3.6458   3.6794   3.6810
     3.6983   3.7023   3.7036   3.7136   3.7775   3.7803   3.8492   3.8595
     3.8944   3.9726   3.9765   3.9782   3.9831   4.0294   4.0385   4.0408
     4.0923   4.1119   4.1212   4.1224   4.1277   4.1628   4.1648   4.1783
     4.2490   4.2656   4.2676   4.2823   4.3045   4.3216   4.3241   4.3678
     4.3804   4.4155   4.4186   4.4831   4.5188   4.5260   4.5278   4.5318
     4.5915   4.5953   4.6251   4.7487   5.1444   5.1455   5.1472   5.1542
     5.1606   5.1610   5.1700   5.1753   5.2153   5.2193   5.2202   5.2223
     5.2277   5.2380   5.2491   5.2494   5.2504   5.2613   5.2683   5.2723
     5.2725   5.2897   5.3041   5.3047   5.3143   5.3188   5.3271   5.3281
     5.3368   5.3505   5.3530   5.3536   5.3572   5.3651   5.4132   5.4140
     5.4342   5.4510   5.4607   5.4618   5.4859   5.4941   5.5000   5.5011
     5.5034   5.5127   5.5274   5.5443   5.5559   5.5566   5.5616   5.6031
     5.6041   5.6308   5.6317   5.6322   5.6678   5.6780   5.6954   5.6963
     5.6969   5.7180   5.7288   5.7561   5.7747   5.7756   5.8085   5.8186
     5.8194   5.8643   5.8754   5.8764   5.9510   5.9520   5.9650   5.9654
     5.9905   6.0071   6.0075   6.0214   6.1395   6.1403   6.1445   6.1605
     6.2252   6.2301   6.2315   6.2505   6.2702   6.2888   6.2904   6.2994
     6.3607   6.3625   6.3783   6.3902   6.3904   6.4406   6.4853   6.4876
     6.5239   6.5371   6.5389   6.5759   6.6053   6.6511   6.6832   6.6929
     6.6953   6.7301   6.7369   6.7387   6.7625   6.7788   6.7932   6.8118
     6.8137   6.9047   6.9092   7.0804

          k = 0.0000-0.3849 0.2714 (115773 PWs)   bands (ev):

   -28.2761 -28.2760 -28.2760 -28.2760 -28.2759 -28.2758 -28.2757 -28.2756
   -28.2748 -28.2748 -28.2746 -28.2722 -14.9254 -14.9241 -14.9235 -14.9233
   -14.9232 -14.9230 -14.9226 -14.9226 -14.9223 -14.9219 -14.9219 -14.9194
   -14.9183 -14.9182 -14.9176 -14.9175 -14.9174 -14.9171 -14.9167 -14.9166
   -14.9165 -14.9161 -14.9160 -14.9125 -14.9073 -14.9061 -14.9055 -14.9054
   -14.9053 -14.9050 -14.9046 -14.9046 -14.9045 -14.9040 -14.9040 -14.9003
   -14.8672 -14.8660 -14.8653 -14.8652 -14.8652 -14.8648 -14.8645 -14.8644
   -14.8643 -14.8638 -14.8638 -14.8602 -14.8220 -14.8208 -14.8201 -14.8201
   -14.8200 -14.8197 -14.8193 -14.8192 -14.8192 -14.8186 -14.8186 -14.8151
   -10.3392 -10.3388 -10.3377 -10.3369 -10.3361 -10.3347 -10.3342 -10.3334
   -10.3328 -10.3310 -10.3298 -10.3270 -10.3100 -10.3081 -10.3055 -10.3047
   -10.3030 -10.3023 -10.2977 -10.2959 -10.2953 -10.2947 -10.2925 -10.2867
   -10.2695 -10.2691 -10.2682 -10.2678 -10.2666 -10.2630 -10.2626 -10.2624
   -10.2619 -10.2606 -10.2598 -10.2567  -6.7509  -6.6463  -6.5617  -6.4682
    -6.4202  -6.4168  -6.3628  -6.3416  -6.3395  -6.2649  -6.2113  -6.2091
    -5.9141  -5.9131  -5.8268  -5.8210  -5.8187  -5.8144  -5.7656  -5.7625
    -5.7529  -5.7353  -5.6846  -5.6827  -5.6803  -5.6640  -5.6422  -5.6393
    -5.6322  -5.6083  -5.5869  -5.5861  -5.5730  -5.5301  -5.5271  -5.5233
    -5.5163  -5.4868  -5.4624  -5.4398  -5.4382  -5.4359  -5.3989  -5.3711
    -5.3475  -5.3431  -5.3324  -5.2961  -0.5633  -0.5620  -0.5503  -0.4327
    -0.4297  -0.4269  -0.4117  -0.3612  -0.3228  -0.3185  -0.2908  -0.2836
     1.4045   1.4924   1.4971   1.5148   1.6122   1.7110   1.7129   1.7221
     1.7392   1.7738   1.8439   1.8467   1.9671   1.9856   2.0212   2.0223
     2.1292   2.1996   2.2093   2.2107   2.2852   2.3334   2.3965   2.4256
     2.4295   2.5196   2.5284   2.5304   2.5540   2.5581   2.5594   2.5624
     2.6010   2.6786   2.7638   2.7673   2.8223   2.8241   2.8280   2.8312
     2.8498   2.8538   2.8941   2.8970   2.9059   3.0074   3.0167   3.0195
     3.0771   3.0785   3.1175   3.1194   3.1352   3.1800   3.1811   3.1892
     3.2149   3.2479   3.2667   3.2844   3.2880   3.2955   3.3302   3.3347
     3.3738   3.3765   3.3784   3.3793   3.4432   3.4483   3.4501   3.4750
     3.4796   3.4828   3.5051   3.5190   3.5301   3.5354   3.5364   3.5585
     3.5866   3.5885   3.6100   3.6324   3.6391   3.6500   3.6821   3.6846
     3.6861   3.6951   3.7039   3.7073   3.8357   3.8402   3.8772   3.8802
     3.9414   3.9454   3.9463   3.9484   3.9725   4.0328   4.0540   4.0560
     4.0606   4.0634   4.1013   4.1037   4.1224   4.1233   4.1297   4.1345
     4.2262   4.2411   4.2681   4.2720   4.2896   4.2924   4.3126   4.3667
     4.3911   4.4348   4.4369   4.4802   4.5214   4.5440   4.5466   4.5850
     4.5947   4.5966   4.6338   4.7318   5.1474   5.1479   5.1534   5.1651
     5.1687   5.1691   5.1701   5.1734   5.2004   5.2053   5.2122   5.2182
     5.2189   5.2292   5.2412   5.2416   5.2608   5.2648   5.2657   5.2663
     5.2671   5.2735   5.3098   5.3110   5.3179   5.3339   5.3466   5.3475
     5.3590   5.3633   5.3641   5.3684   5.3704   5.3814   5.3887   5.3898
     5.4102   5.4334   5.4481   5.4519   5.4524   5.4695   5.4968   5.4977
     5.5166   5.5245   5.5565   5.5580   5.5684   5.5696   5.6014   5.6025
     5.6074   5.6204   5.6310   5.6491   5.6504   5.6603   5.6755   5.7087
     5.7096   5.7389   5.7594   5.7608   5.7704   5.7842   5.8042   5.8062
     5.8141   5.8390   5.8669   5.8681   5.8755   5.8944   5.9688   5.9707
     6.0196   6.0250   6.0262   6.1005   6.1024   6.1121   6.1601   6.1863
     6.2027   6.2033   6.2043   6.2627   6.2639   6.2884   6.3180   6.3429
     6.3548   6.3684   6.3694   6.4126   6.4194   6.4220   6.4514   6.4818
     6.4829   6.5075   6.5586   6.5668   6.6070   6.6085   6.6464   6.6676
     6.6696   6.7374   6.7384   6.7400   6.7484   6.8049   6.8061   6.8517
     6.8659   6.9177   6.9455   7.0384

          k =-0.3333 0.1925 0.2714 (115773 PWs)   bands (ev):

   -28.2761 -28.2760 -28.2760 -28.2760 -28.2759 -28.2758 -28.2757 -28.2756
   -28.2748 -28.2748 -28.2746 -28.2722 -14.9254 -14.9241 -14.9235 -14.9234
   -14.9232 -14.9230 -14.9226 -14.9226 -14.9224 -14.9219 -14.9219 -14.9194
   -14.9183 -14.9182 -14.9176 -14.9175 -14.9174 -14.9171 -14.9167 -14.9166
   -14.9165 -14.9161 -14.9160 -14.9125 -14.9073 -14.9061 -14.9055 -14.9054
   -14.9053 -14.9050 -14.9046 -14.9046 -14.9045 -14.9040 -14.9040 -14.9003
   -14.8672 -14.8660 -14.8653 -14.8652 -14.8652 -14.8648 -14.8645 -14.8644
   -14.8643 -14.8638 -14.8638 -14.8602 -14.8220 -14.8208 -14.8201 -14.8201
   -14.8200 -14.8197 -14.8193 -14.8192 -14.8192 -14.8186 -14.8186 -14.8151
   -10.3392 -10.3388 -10.3377 -10.3369 -10.3361 -10.3347 -10.3342 -10.3334
   -10.3328 -10.3310 -10.3298 -10.3271 -10.3100 -10.3080 -10.3056 -10.3046
   -10.3030 -10.3023 -10.2977 -10.2958 -10.2952 -10.2946 -10.2926 -10.2867
   -10.2695 -10.2691 -10.2682 -10.2677 -10.2667 -10.2629 -10.2627 -10.2624
   -10.2618 -10.2605 -10.2598 -10.2567  -6.7508  -6.6463  -6.5614  -6.4681
    -6.4194  -6.4185  -6.3629  -6.3416  -6.3394  -6.2648  -6.2117  -6.2090
    -5.9149  -5.9099  -5.8265  -5.8217  -5.8186  -5.8130  -5.7657  -5.7633
    -5.7546  -5.7342  -5.6834  -5.6823  -5.6815  -5.6640  -5.6427  -5.6415
    -5.6376  -5.6071  -5.5864  -5.5844  -5.5696  -5.5298  -5.5281  -5.5274
    -5.5132  -5.4848  -5.4651  -5.4392  -5.4386  -5.4348  -5.3992  -5.3697
    -5.3448  -5.3434  -5.3345  -5.2972  -0.5632  -0.5609  -0.5513  -0.4332
    -0.4296  -0.4274  -0.4107  -0.3604  -0.3224  -0.3212  -0.2899  -0.2832
     1.4041   1.4940   1.4964   1.5154   1.6134   1.7112   1.7129   1.7235
     1.7372   1.7731   1.8439   1.8485   1.9676   1.9858   2.0198   2.0216
     2.1303   2.1995   2.2084   2.2089   2.2854   2.3323   2.3946   2.4262
     2.4281   2.5183   2.5289   2.5301   2.5561   2.5582   2.5593   2.5612
     2.5991   2.6806   2.7635   2.7666   2.8241   2.8246   2.8256   2.8308
     2.8514   2.8526   2.8956   2.8971   2.9103   3.0080   3.0178   3.0196
     3.0771   3.0787   3.1179   3.1195   3.1351   3.1790   3.1815   3.1922
     3.2149   3.2467   3.2664   3.2816   3.2864   3.2953   3.3293   3.3323
     3.3724   3.3766   3.3779   3.3799   3.4454   3.4474   3.4489   3.4768
     3.4803   3.4836   3.5059   3.5136   3.5319   3.5349   3.5354   3.5590
     3.5865   3.5917   3.6123   3.6311   3.6400   3.6439   3.6832   3.6842
     3.6882   3.6961   3.7041   3.7102   3.8356   3.8364   3.8797   3.8810
     3.9414   3.9464   3.9467   3.9503   3.9726   4.0343   4.0535   4.0569
     4.0606   4.0639   4.0994   4.1017   4.1201   4.1224   4.1308   4.1351
     4.2238   4.2407   4.2680   4.2699   4.2903   4.2926   4.3145   4.3667
     4.3943   4.4342   4.4370   4.4798   4.5191   4.5444   4.5458   4.5854
     4.5947   4.6000   4.6320   4.7308   5.1477   5.1495   5.1537   5.1648
     5.1686   5.1693   5.1701   5.1730   5.1997   5.2052   5.2131   5.2181
     5.2211   5.2288   5.2410   5.2424   5.2606   5.2646   5.2651   5.2653
     5.2660   5.2731   5.3100   5.3104   5.3192   5.3335   5.3466   5.3468
     5.3600   5.3627   5.3638   5.3687   5.3703   5.3807   5.3887   5.3896
     5.4106   5.4334   5.4479   5.4519   5.4529   5.4688   5.4969   5.4989
     5.5170   5.5241   5.5552   5.5578   5.5687   5.5694   5.6025   5.6030
     5.6079   5.6200   5.6307   5.6498   5.6507   5.6599   5.6749   5.7084
     5.7087   5.7391   5.7589   5.7603   5.7705   5.7838   5.8050   5.8057
     5.8146   5.8406   5.8676   5.8680   5.8762   5.8944   5.9684   5.9705
     6.0197   6.0247   6.0262   6.1012   6.1022   6.1122   6.1591   6.1869
     6.2028   6.2033   6.2056   6.2614   6.2650   6.2878   6.3180   6.3425
     6.3541   6.3688   6.3701   6.4137   6.4194   6.4207   6.4511   6.4810
     6.4827   6.5077   6.5584   6.5671   6.6060   6.6075   6.6483   6.6669
     6.6682   6.7367   6.7385   6.7410   6.7486   6.8039   6.8056   6.8507
     6.8670   6.9187   6.9459   7.0393

          k = 0.3333 0.1925 0.2714 (115773 PWs)   bands (ev):

   -28.2761 -28.2760 -28.2760 -28.2760 -28.2759 -28.2758 -28.2757 -28.2756
   -28.2748 -28.2748 -28.2746 -28.2722 -14.9253 -14.9241 -14.9235 -14.9234
   -14.9233 -14.9230 -14.9226 -14.9226 -14.9224 -14.9219 -14.9219 -14.9194
   -14.9184 -14.9181 -14.9176 -14.9175 -14.9174 -14.9171 -14.9167 -14.9166
   -14.9165 -14.9160 -14.9160 -14.9125 -14.9073 -14.9061 -14.9055 -14.9054
   -14.9054 -14.9050 -14.9046 -14.9046 -14.9045 -14.9040 -14.9040 -14.9003
   -14.8672 -14.8660 -14.8653 -14.8652 -14.8652 -14.8648 -14.8645 -14.8644
   -14.8643 -14.8638 -14.8638 -14.8602 -14.8220 -14.8208 -14.8201 -14.8201
   -14.8200 -14.8197 -14.8193 -14.8192 -14.8192 -14.8186 -14.8186 -14.8151
   -10.3389 -10.3386 -10.3378 -10.3373 -10.3372 -10.3344 -10.3341 -10.3330
   -10.3323 -10.3313 -10.3294 -10.3273 -10.3100 -10.3077 -10.3055 -10.3053
   -10.3031 -10.3028 -10.2974 -10.2953 -10.2950 -10.2939 -10.2933 -10.2871
   -10.2695 -10.2694 -10.2681 -10.2675 -10.2671 -10.2632 -10.2619 -10.2617
   -10.2615 -10.2608 -10.2597 -10.2577  -6.7508  -6.6463  -6.5608  -6.4689
    -6.4209  -6.4189  -6.3630  -6.3409  -6.3377  -6.2650  -6.2114  -6.2086
    -5.9133  -5.9104  -5.8265  -5.8221  -5.8185  -5.8179  -5.7662  -5.7636
    -5.7508  -5.7356  -5.6848  -5.6833  -5.6792  -5.6618  -5.6422  -5.6412
    -5.6387  -5.6079  -5.5867  -5.5812  -5.5711  -5.5312  -5.5278  -5.5243
    -5.5139  -5.4850  -5.4656  -5.4390  -5.4378  -5.4356  -5.4013  -5.3693
    -5.3471  -5.3446  -5.3311  -5.2967  -0.5626  -0.5601  -0.5527  -0.4339
    -0.4294  -0.4277  -0.4098  -0.3601  -0.3227  -0.3223  -0.2896  -0.2824
     1.4068   1.4921   1.4938   1.5174   1.6125   1.7110   1.7130   1.7230
     1.7366   1.7721   1.8448   1.8469   1.9656   1.9860   2.0215   2.0251
     2.1304   2.1984   2.2084   2.2105   2.2853   2.3349   2.3973   2.4256
     2.4280   2.5173   2.5282   2.5310   2.5548   2.5576   2.5585   2.5607
     2.6007   2.6803   2.7646   2.7661   2.8220   2.8240   2.8257   2.8303
     2.8498   2.8517   2.8958   2.8986   2.9066   3.0089   3.0188   3.0228
     3.0737   3.0780   3.1182   3.1197   3.1343   3.1814   3.1829   3.1906
     3.2118   3.2489   3.2684   3.2848   3.2865   3.2944   3.3287   3.3310
     3.3735   3.3772   3.3792   3.3843   3.4427   3.4476   3.4515   3.4738
     3.4789   3.4803   3.5056   3.5201   3.5309   3.5348   3.5385   3.5591
     3.5864   3.5876   3.6135   3.6299   3.6393   3.6446   3.6828   3.6839
     3.6876   3.6987   3.7040   3.7068   3.8352   3.8373   3.8785   3.8809
     3.9397   3.9448   3.9472   3.9519   3.9705   4.0328   4.0525   4.0576
     4.0607   4.0619   4.1010   4.1032   4.1225   4.1239   4.1313   4.1379
     4.2220   4.2387   4.2681   4.2690   4.2900   4.2912   4.3150   4.3709
     4.3915   4.4338   4.4361   4.4810   4.5224   4.5430   4.5451   4.5868
     4.5967   4.6003   4.6302   4.7292   5.1483   5.1490   5.1531   5.1648
     5.1684   5.1692   5.1701   5.1733   5.1998   5.2049   5.2129   5.2184
     5.2194   5.2298   5.2409   5.2422   5.2606   5.2635   5.2646   5.2650
     5.2657   5.2741   5.3105   5.3115   5.3192   5.3347   5.3466   5.3473
     5.3610   5.3620   5.3639   5.3681   5.3695   5.3812   5.3885   5.3893
     5.4108   5.4332   5.4473   5.4517   5.4527   5.4696   5.4965   5.4977
     5.5171   5.5242   5.5565   5.5575   5.5679   5.5695   5.6018   5.6026
     5.6077   5.6201   5.6316   5.6494   5.6506   5.6608   5.6754   5.7085
     5.7093   5.7386   5.7601   5.7604   5.7704   5.7843   5.8049   5.8053
     5.8148   5.8402   5.8668   5.8682   5.8751   5.8956   5.9683   5.9692
     6.0191   6.0259   6.0269   6.1019   6.1026   6.1123   6.1601   6.1874
     6.2026   6.2038   6.2044   6.2629   6.2638   6.2865   6.3174   6.3422
     6.3556   6.3685   6.3704   6.4138   6.4186   6.4199   6.4518   6.4813
     6.4827   6.5073   6.5583   6.5668   6.6071   6.6080   6.6479   6.6663
     6.6687   6.7378   6.7385   6.7400   6.7488   6.8041   6.8058   6.8509
     6.8670   6.9183   6.9458   7.0386

          k =-0.3333-0.1925 0.2714 (115773 PWs)   bands (ev):

   -28.2761 -28.2760 -28.2760 -28.2760 -28.2759 -28.2758 -28.2757 -28.2756
   -28.2748 -28.2748 -28.2746 -28.2722 -14.9253 -14.9241 -14.9235 -14.9234
   -14.9233 -14.9230 -14.9226 -14.9226 -14.9224 -14.9219 -14.9219 -14.9194
   -14.9184 -14.9181 -14.9176 -14.9175 -14.9174 -14.9171 -14.9167 -14.9166
   -14.9165 -14.9160 -14.9160 -14.9125 -14.9073 -14.9061 -14.9055 -14.9054
   -14.9054 -14.9050 -14.9046 -14.9046 -14.9045 -14.9040 -14.9040 -14.9003
   -14.8672 -14.8660 -14.8653 -14.8652 -14.8652 -14.8648 -14.8645 -14.8644
   -14.8643 -14.8638 -14.8638 -14.8602 -14.8220 -14.8208 -14.8201 -14.8201
   -14.8200 -14.8197 -14.8193 -14.8192 -14.8192 -14.8186 -14.8186 -14.8151
   -10.3388 -10.3385 -10.3380 -10.3375 -10.3374 -10.3343 -10.3333 -10.3328
   -10.3325 -10.3318 -10.3297 -10.3271 -10.3102 -10.3069 -10.3067 -10.3058
   -10.3010 -10.3008 -10.3006 -10.2962 -10.2954 -10.2937 -10.2915 -10.2874
   -10.2699 -10.2697 -10.2673 -10.2670 -10.2667 -10.2645 -10.2623 -10.2618
   -10.2609 -10.2605 -10.2598 -10.2576  -6.7506  -6.6466  -6.5601  -6.4722
    -6.4245  -6.4217  -6.3632  -6.3296  -6.3258  -6.2584  -6.2253  -6.2224
    -5.9047  -5.9018  -5.8248  -5.8230  -5.8081  -5.8076  -5.7908  -5.7611
    -5.7588  -5.7309  -5.7130  -5.7104  -5.6707  -5.6367  -5.6296  -5.6279
    -5.6253  -5.6096  -5.6006  -5.5942  -5.5679  -5.5292  -5.5228  -5.5211
    -5.5164  -5.4974  -5.4652  -5.4310  -5.4297  -5.4276  -5.4227  -5.3650
    -5.3510  -5.3482  -5.3221  -5.2996  -0.5605  -0.5590  -0.5565  -0.4364
    -0.4349  -0.4259  -0.3928  -0.3725  -0.3195  -0.3190  -0.2982  -0.2783
     1.4356   1.4835   1.4851   1.4891   1.6257   1.6416   1.7710   1.7727
     1.7826   1.7889   1.8003   1.8029   1.9142   1.9956   1.9995   2.0765
     2.1560   2.2001   2.2100   2.2469   2.2506   2.3611   2.3918   2.3934
     2.3987   2.4472   2.5102   2.5128   2.5479   2.5899   2.5925   2.6103
     2.6416   2.7108   2.7609   2.7678   2.7704   2.7891   2.8080   2.8104
     2.8397   2.8739   2.9152   2.9186   2.9192   2.9837   3.0239   3.0284
     3.0651   3.1070   3.1082   3.1317   3.1724   3.1925   3.1932   3.1941
     3.2001   3.2343   3.2632   3.2650   3.2776   3.3169   3.3216   3.3222
     3.3260   3.3895   3.3932   3.4105   3.4435   3.4467   3.4641   3.4693
     3.4720   3.4729   3.4771   3.4777   3.5314   3.5343   3.5370   3.5901
     3.6110   3.6119   3.6165   3.6337   3.6424   3.6470   3.6582   3.6601
     3.6722   3.7097   3.7110   3.7154   3.8337   3.8374   3.8798   3.8880
     3.9033   3.9494   3.9552   3.9754   3.9813   4.0182   4.0469   4.0494
     4.0513   4.0661   4.1114   4.1117   4.1221   4.1330   4.1357   4.1517
     4.1902   4.2543   4.2652   4.2673   4.2881   4.2894   4.2956   4.3896
     4.3976   4.4376   4.4394   4.4674   4.5229   4.5257   4.5370   4.5976
     4.6107   4.6145   4.6210   4.7210   5.1515   5.1522   5.1548   5.1569
     5.1719   5.1757   5.1763   5.1840   5.1905   5.1983   5.2015   5.2079
     5.2096   5.2344   5.2352   5.2357   5.2547   5.2635   5.2656   5.2662
     5.2794   5.2988   5.3081   5.3124   5.3133   5.3286   5.3361   5.3369
     5.3580   5.3588   5.3603   5.3648   5.3806   5.3925   5.4074   5.4077
     5.4135   5.4327   5.4332   5.4445   5.4459   5.4923   5.5018   5.5032
     5.5092   5.5157   5.5545   5.5598   5.5740   5.5749   5.6032   5.6101
     5.6113   5.6201   5.6252   5.6261   5.6431   5.6707   5.6814   5.7143
     5.7147   5.7164   5.7338   5.7724   5.7727   5.7740   5.8016   5.8021
     5.8097   5.8588   5.8749   5.8758   5.8791   5.9144   5.9587   5.9595
     6.0349   6.0355   6.0365   6.0590   6.0790   6.0810   6.1732   6.2059
     6.2131   6.2137   6.2669   6.2673   6.2693   6.2774   6.2854   6.3481
     6.3492   6.3654   6.3719   6.4161   6.4237   6.4252   6.4281   6.4722
     6.4978   6.4994   6.5457   6.5597   6.5947   6.5965   6.6671   6.6688
     6.6770   6.7204   6.7362   6.7376   6.7471   6.8135   6.8147   6.8446
     6.8696   6.9287   6.9366   7.0522

          k = 0.3333-0.1925 0.2714 (115773 PWs)   bands (ev):

   -28.2761 -28.2760 -28.2760 -28.2760 -28.2759 -28.2758 -28.2757 -28.2756
   -28.2748 -28.2748 -28.2746 -28.2722 -14.9254 -14.9241 -14.9235 -14.9234
   -14.9232 -14.9230 -14.9226 -14.9226 -14.9224 -14.9219 -14.9219 -14.9194
   -14.9183 -14.9182 -14.9176 -14.9175 -14.9174 -14.9171 -14.9167 -14.9166
   -14.9165 -14.9161 -14.9160 -14.9125 -14.9073 -14.9061 -14.9055 -14.9054
   -14.9053 -14.9050 -14.9046 -14.9046 -14.9045 -14.9040 -14.9040 -14.9003
   -14.8672 -14.8660 -14.8653 -14.8652 -14.8652 -14.8648 -14.8645 -14.8644
   -14.8643 -14.8638 -14.8638 -14.8602 -14.8220 -14.8208 -14.8201 -14.8201
   -14.8200 -14.8197 -14.8193 -14.8192 -14.8192 -14.8186 -14.8186 -14.8151
   -10.3391 -10.3388 -10.3378 -10.3371 -10.3363 -10.3344 -10.3342 -10.3332
   -10.3328 -10.3314 -10.3298 -10.3269 -10.3103 -10.3068 -10.3063 -10.3059
   -10.3015 -10.3007 -10.3001 -10.2967 -10.2960 -10.2938 -10.2907 -10.2874
   -10.2701 -10.2690 -10.2686 -10.2669 -10.2660 -10.2639 -10.2630 -10.2625
   -10.2620 -10.2600 -10.2593 -10.2570  -6.7507  -6.6464  -6.5605  -6.4717
    -6.4227  -6.4218  -6.3633  -6.3297  -6.3276  -6.2580  -6.2255  -6.2229
    -5.9062  -5.9011  -5.8241  -5.8225  -5.8088  -5.8013  -5.7935  -5.7610
    -5.7601  -5.7318  -5.7112  -5.7106  -5.6724  -5.6355  -5.6294  -5.6277
    -5.6263  -5.6083  -5.6004  -5.5986  -5.5666  -5.5288  -5.5234  -5.5225
    -5.5158  -5.4967  -5.4661  -5.4313  -5.4302  -5.4265  -5.4224  -5.3639
    -5.3484  -5.3470  -5.3247  -5.3007  -0.5598  -0.5596  -0.5569  -0.4365
    -0.4346  -0.4248  -0.3935  -0.3732  -0.3191  -0.3179  -0.2988  -0.2788
     1.4325   1.4853   1.4862   1.4888   1.6259   1.6424   1.7730   1.7739
     1.7831   1.7909   1.7985   1.8022   1.9141   1.9938   1.9976   2.0780
     2.1560   2.2014   2.2111   2.2466   2.2469   2.3580   2.3931   2.3935
     2.3963   2.4499   2.5111   2.5135   2.5457   2.5901   2.5914   2.6074
     2.6438   2.7110   2.7629   2.7682   2.7710   2.7914   2.8088   2.8112
     2.8384   2.8741   2.9161   2.9163   2.9211   2.9829   3.0234   3.0257
     3.0681   3.1043   3.1080   3.1329   3.1735   3.1926   3.1940   3.1957
     3.2009   3.2348   3.2612   3.2667   3.2773   3.3169   3.3202   3.3215
     3.3262   3.3853   3.3896   3.4103   3.4444   3.4486   3.4646   3.4700
     3.4714   3.4730   3.4750   3.4768   3.5300   3.5357   3.5380   3.5922
     3.6109   3.6124   3.6144   3.6333   3.6400   3.6482   3.6590   3.6646
     3.6672   3.7103   3.7109   3.7192   3.8347   3.8365   3.8807   3.8896
     3.9051   3.9501   3.9514   3.9741   3.9827   4.0203   4.0480   4.0490
     4.0521   4.0686   4.1094   4.1113   4.1219   4.1320   4.1338   4.1475
     4.1909   4.2565   4.2663   4.2680   4.2886   4.2898   4.2950   4.3865
     4.3990   4.4377   4.4408   4.4674   4.5244   4.5249   4.5340   4.5962
     4.6097   4.6145   4.6230   4.7220   5.1505   5.1528   5.1550   5.1568
     5.1720   5.1761   5.1768   5.1833   5.1908   5.1980   5.2019   5.2079
     5.2095   5.2343   5.2351   5.2370   5.2548   5.2643   5.2656   5.2664
     5.2790   5.2984   5.3079   5.3131   5.3136   5.3290   5.3361   5.3377
     5.3575   5.3586   5.3602   5.3637   5.3801   5.3932   5.4067   5.4077
     5.4133   5.4314   5.4338   5.4459   5.4461   5.4924   5.5021   5.5038
     5.5091   5.5159   5.5528   5.5600   5.5747   5.5753   5.6022   5.6104
     5.6114   5.6193   5.6251   5.6261   5.6430   5.6705   5.6811   5.7132
     5.7144   5.7173   5.7338   5.7714   5.7728   5.7733   5.8022   5.8033
     5.8095   5.8589   5.8752   5.8762   5.8782   5.9156   5.9586   5.9604
     6.0342   6.0349   6.0354   6.0601   6.0788   6.0804   6.1739   6.2064
     6.2115   6.2154   6.2653   6.2672   6.2698   6.2775   6.2849   6.3488
     6.3507   6.3656   6.3717   6.4151   6.4240   6.4252   6.4272   6.4721
     6.4976   6.4994   6.5467   6.5599   6.5958   6.5962   6.6663   6.6673
     6.6775   6.7205   6.7358   6.7371   6.7477   6.8132   6.8143   6.8448
     6.8698   6.9288   6.9372   7.0526

          k =-0.3333-0.5774 0.2714 (115827 PWs)   bands (ev):

   -28.2761 -28.2760 -28.2760 -28.2760 -28.2759 -28.2758 -28.2757 -28.2756
   -28.2748 -28.2748 -28.2746 -28.2722 -14.9253 -14.9241 -14.9235 -14.9233
   -14.9233 -14.9230 -14.9226 -14.9226 -14.9224 -14.9219 -14.9219 -14.9194
   -14.9183 -14.9182 -14.9176 -14.9175 -14.9174 -14.9171 -14.9167 -14.9166
   -14.9166 -14.9161 -14.9160 -14.9125 -14.9073 -14.9061 -14.9055 -14.9054
   -14.9054 -14.9050 -14.9046 -14.9046 -14.9045 -14.9040 -14.9040 -14.9003
   -14.8672 -14.8660 -14.8653 -14.8652 -14.8652 -14.8648 -14.8645 -14.8644
   -14.8643 -14.8638 -14.8638 -14.8602 -14.8220 -14.8208 -14.8201 -14.8201
   -14.8200 -14.8197 -14.8193 -14.8192 -14.8192 -14.8186 -14.8186 -14.8151
   -10.3390 -10.3378 -10.3370 -10.3369 -10.3366 -10.3335 -10.3333 -10.3331
   -10.3326 -10.3305 -10.3304 -10.3291 -10.3078 -10.3078 -10.3072 -10.3049
   -10.3015 -10.3004 -10.2976 -10.2974 -10.2967 -10.2920 -10.2917 -10.2909
   -10.2699 -10.2685 -10.2669 -10.2667 -10.2664 -10.2643 -10.2639 -10.2635
   -10.2626 -10.2600 -10.2598 -10.2582  -6.6192  -6.6182  -6.6167  -6.5258
    -6.5248  -6.5227  -6.3088  -6.2899  -6.2893  -6.2857  -6.2573  -6.2145
    -5.8734  -5.8562  -5.8446  -5.7835  -5.7800  -5.7790  -5.7431  -5.7418
    -5.7405  -5.7150  -5.6890  -5.6888  -5.6854  -5.6743  -5.6720  -5.6715
    -5.6674  -5.6440  -5.5570  -5.5563  -5.5524  -5.5258  -5.5249  -5.5213
    -5.5057  -5.5033  -5.5029  -5.4950  -5.4590  -5.4004  -5.3980  -5.3968
    -5.3592  -5.3256  -5.3225  -5.3218  -0.5202  -0.5065  -0.5059  -0.5031
    -0.4607  -0.4183  -0.4170  -0.4146  -0.3548  -0.2940  -0.2929  -0.2901
     1.4806   1.4826   1.4848   1.6377   1.6385   1.6408   1.6897   1.7733
     1.7756   1.7763   1.7774   1.7946   1.9808   1.9821   1.9852   2.0555
     2.1721   2.1926   2.1931   2.1948   2.2466   2.3966   2.3973   2.3984
     2.4880   2.4891   2.4905   2.5573   2.5861   2.5885   2.5891   2.5942
     2.6790   2.7359   2.7373   2.7390   2.8222   2.8231   2.8247   2.8298
     2.9013   2.9020   2.9041   2.9237   2.9373   2.9548   2.9555   2.9595
     3.0581   3.0598   3.0629   3.0868   3.0886   3.0931   3.1261   3.1809
     3.2434   3.2448   3.2479   3.2702   3.2708   3.2748   3.3224   3.3264
     3.3275   3.3309   3.3728   3.4095   3.4198   3.4611   3.4656   3.4662
     3.4916   3.4965   3.4994   3.5003   3.5348   3.5365   3.5387   3.5414
     3.5599   3.6143   3.6160   3.6194   3.6536   3.6548   3.6596   3.6965
     3.6979   3.7029   3.7216   3.7434   3.8229   3.8396   3.8416   3.8430
     3.9374   3.9401   3.9406   3.9436   4.0282   4.0300   4.0317   4.0417
     4.0674   4.0680   4.0727   4.1104   4.1130   4.1145   4.1193   4.1672
     4.2723   4.2737   4.2757   4.2887   4.3146   4.3609   4.3615   4.3650
     4.4150   4.4169   4.4196   4.4922   4.4935   4.4940   4.5086   4.5122
     4.5651   4.6666   4.6675   4.6706   5.1494   5.1570   5.1572   5.1581
     5.1595   5.1827   5.1832   5.1839   5.1980   5.1986   5.1991   5.2117
     5.2249   5.2251   5.2260   5.2517   5.2527   5.2533   5.2571   5.2691
     5.3016   5.3024   5.3031   5.3094   5.3288   5.3298   5.3301   5.3676
     5.3688   5.3693   5.3748   5.3942   5.3955   5.4087   5.4096   5.4105
     5.4323   5.4335   5.4347   5.4387   5.4843   5.4852   5.4861   5.4915
     5.5386   5.5395   5.5398   5.5431   5.5666   5.5670   5.5675   5.6056
     5.6063   5.6067   5.6382   5.6389   5.6715   5.6725   5.6737   5.7029
     5.7036   5.7044   5.7177   5.7585   5.7596   5.7605   5.8017   5.8078
     5.8208   5.8239   5.8242   5.8251   5.8896   5.8909   5.8916   6.0564
     6.0602   6.0606   6.0619   6.0781   6.1198   6.1206   6.1214   6.1349
     6.1967   6.2367   6.2380   6.2391   6.2836   6.3011   6.3027   6.3041
     6.3068   6.3842   6.3855   6.3878   6.4505   6.4667   6.4680   6.4701
     6.4912   6.4934   6.5589   6.5595   6.5623   6.6459   6.6847   6.6860
     6.6867   6.7608   6.7778   6.7787   6.7794   6.7940   6.8545   6.8551
     6.8561   6.9352   6.9361   6.9372

     highest occupied level (ev):     7.1810

!    total energy              =   -9077.18765358 Ry
     estimated scf accuracy    <          4.7E-10 Ry

     The total energy is the sum of the following terms:
     one-electron contribution =   -2776.15019681 Ry
     hartree contribution      =    2019.83317206 Ry
     xc contribution           =   -2269.38549424 Ry
     ewald contribution        =   -3895.68892361 Ry
     one-center paw contrib.   =   -2155.79621098 Ry

     convergence has been achieved in  22 iterations

     negative rho (up, down):  7.902E-01 0.000E+00

     Forces acting on atoms (cartesian axes, Ry/au):

     atom    1 type  1   force =     0.00003439    0.00016286    0.00022698
     atom    2 type  1   force =    -0.00021812    0.00024428    0.00001638
     atom    3 type  1   force =    -0.00016416    0.00031574    0.00002287
     atom    4 type  1   force =    -0.00015444    0.00027621    0.00000880
     atom    5 type  1   force =    -0.00022641   -0.00036369   -0.00030943
     atom    6 type  1   force =    -0.00025246   -0.00029390   -0.00004031
     atom    7 type  1   force =    -0.00017463   -0.00023078   -0.00000471
     atom    8 type  1   force =    -0.00014580   -0.00024993   -0.00005528
     atom    9 type  1   force =     0.00030588    0.00000337    0.00002211
     atom   10 type  1   force =     0.00030556   -0.00000612    0.00004034
     atom   11 type  1   force =     0.00031700    0.00000159    0.00003358
     atom   12 type  1   force =     0.00030372    0.00000576    0.00002835
     atom   13 type  2   force =    -0.00009222   -0.00446872   -0.00404968
     atom   14 type  2   force =     0.00017850   -0.00037919    0.00016349
     atom   15 type  2   force =     0.00019788   -0.00037046    0.00018762
     atom   16 type  2   force =     0.00018795   -0.00038842    0.00018549
     atom   17 type  2   force =     0.00023496    0.00036463    0.00018984
     atom   18 type  2   force =     0.00022309    0.00037079    0.00019214
     atom   19 type  2   force =     0.00022888    0.00038073    0.00019057
     atom   20 type  2   force =     0.00022142    0.00036278    0.00020152
     atom   21 type  2   force =    -0.00042379   -0.00000165    0.00018570
     atom   22 type  2   force =    -0.00043785    0.00002691    0.00018768
     atom   23 type  2   force =    -0.00044251    0.00002875    0.00022217
     atom   24 type  2   force =    -0.00043540    0.00002024    0.00019814
     atom   25 type  2   force =    -0.00043846   -0.00002221   -0.00019998
     atom   26 type  2   force =    -0.00058802   -0.00017041   -0.00023559
     atom   27 type  2   force =    -0.00044509    0.00001001   -0.00009413
     atom   28 type  2   force =    -0.00045554   -0.00001969   -0.00018154
     atom   29 type  2   force =    -0.00013470    0.00016633   -0.00010329
     atom   30 type  2   force =     0.00011279    0.00021532   -0.00026625
     atom   31 type  2   force =     0.00021630    0.00038696   -0.00017051
     atom   32 type  2   force =     0.00020090    0.00039973   -0.00016267
     atom   33 type  2   force =     0.00023445   -0.00037002   -0.00018075
     atom   34 type  2   force =     0.00023037   -0.00036807   -0.00017287
     atom   35 type  2   force =     0.00023665   -0.00036954   -0.00018283
     atom   36 type  2   force =     0.00023523   -0.00036523   -0.00018671
     atom   37 type  3   force =     0.00022875   -0.00031833    0.00032199
     atom   38 type  3   force =     0.00028288   -0.00049858   -0.00001033
     atom   39 type  3   force =     0.00031543   -0.00049244   -0.00001716
     atom   40 type  3   force =     0.00025856   -0.00051425   -0.00000413
     atom   41 type  3   force =     0.00027909    0.00050774    0.00008034
     atom   42 type  3   force =     0.00025355    0.00041388   -0.00000669
     atom   43 type  3   force =     0.00027993    0.00045864    0.00002518
     atom   44 type  3   force =     0.00025851    0.00047308    0.00001698
     atom   45 type  3   force =    -0.00059292   -0.00000745   -0.00007758
     atom   46 type  3   force =     0.00013822    0.00080132   -0.00004497
     atom   47 type  3   force =    -0.00041542   -0.00008493   -0.00044952
     atom   48 type  3   force =    -0.00056758    0.00002270   -0.00003221
     atom   49 type  4   force =     0.00033944   -0.00011215   -0.00005420
     atom   50 type  4   force =     0.00035977   -0.00009325    0.00000891
     atom   51 type  4   force =     0.00034838   -0.00009818    0.00001099
     atom   52 type  4   force =     0.00035830   -0.00009714    0.00001164
     atom   53 type  4   force =    -0.00003692    0.00036094   -0.00006249
     atom   54 type  4   force =    -0.00006907    0.00039352    0.00010206
     atom   55 type  4   force =    -0.00009849    0.00034356   -0.00001147
     atom   56 type  4   force =    -0.00009328    0.00033964    0.00000998
     atom   57 type  4   force =     0.00101551    0.00201986    0.00120816
     atom   58 type  4   force =    -0.00017858   -0.00028059   -0.00003640
     atom   59 type  4   force =    -0.00022898   -0.00026737    0.00003174
     atom   60 type  4   force =    -0.00027936   -0.00023383    0.00000586
     atom   61 type  4   force =    -0.00012187    0.00024222   -0.00002838
     atom   62 type  4   force =    -0.00033419    0.00020325   -0.00001040
     atom   63 type  4   force =    -0.00027605    0.00025658   -0.00001814
     atom   64 type  4   force =    -0.00022575    0.00021725    0.00000656
     atom   65 type  4   force =     0.00035496    0.00010925   -0.00005206
     atom   66 type  4   force =     0.00035613    0.00011497   -0.00001018
     atom   67 type  4   force =     0.00035232    0.00010151   -0.00003957
     atom   68 type  4   force =     0.00035959    0.00010725   -0.00003322
     atom   69 type  4   force =    -0.00008964   -0.00034717   -0.00000044
     atom   70 type  4   force =    -0.00007638   -0.00094147    0.00118173
     atom   71 type  4   force =    -0.00007764   -0.00037343   -0.00002159
     atom   72 type  4   force =    -0.00009323   -0.00034505    0.00000185
     atom   73 type  4   force =    -0.00183449    0.00216424    0.00154542
     atom   74 type  4   force =     0.00002951    0.00017890   -0.00022364
     atom   75 type  4   force =     0.00002451    0.00011357   -0.00022815
     atom   76 type  4   force =     0.00004989    0.00018496   -0.00022997
     atom   77 type  4   force =    -0.00017477   -0.00004567   -0.00028045
     atom   78 type  4   force =    -0.00008192   -0.00008323   -0.00027918
     atom   79 type  4   force =    -0.00014151   -0.00006608   -0.00024761
     atom   80 type  4   force =    -0.00014042    0.00000726   -0.00026622
     atom   81 type  4   force =     0.00012770   -0.00007881   -0.00027332
     atom   82 type  4   force =     0.00013316   -0.00009108   -0.00025716
     atom   83 type  4   force =     0.00013500   -0.00008947   -0.00026230
     atom   84 type  4   force =     0.00012517   -0.00008731   -0.00026191
     atom   85 type  4   force =     0.00010952    0.00009435    0.00024421
     atom   86 type  4   force =     0.00014216    0.00012959    0.00025322
     atom   87 type  4   force =     0.00012158    0.00006468    0.00020216
     atom   88 type  4   force =     0.00015806    0.00009237    0.00023345
     atom   89 type  4   force =     0.00008623   -0.00012928    0.00029616
     atom   90 type  4   force =     0.00047755    0.00013605    0.00067820
     atom   91 type  4   force =     0.00001867   -0.00017619    0.00026051
     atom   92 type  4   force =    -0.00006280   -0.00025581    0.00026897
     atom   93 type  4   force =    -0.00012402    0.00007244    0.00023545
     atom   94 type  4   force =    -0.00015041    0.00005077    0.00020855
     atom   95 type  4   force =    -0.00014216    0.00006884    0.00023372
     atom   96 type  4   force =    -0.00014649    0.00005840    0.00023984

     Total force =     0.008479     Total SCF correction =     0.000064
     Message from routine punch:
     Nothing written, as per user request (disk_io='none')

     init_run     :     44.32s CPU     47.78s WALL (       1 calls)
     electrons    :   2097.00s CPU   2221.90s WALL (       1 calls)
     forces       :     19.51s CPU     19.96s WALL (       1 calls)

     Called by init_run:
     wfcinit      :     39.84s CPU     42.78s WALL (       1 calls)
     potinit      :      1.14s CPU      1.19s WALL (       1 calls)
     hinit0       :      1.28s CPU      1.32s WALL (       1 calls)

     Called by electrons:
     c_bands      :   1869.02s CPU   1964.62s WALL (      22 calls)
     sum_band     :    202.83s CPU    223.40s WALL (      22 calls)
     v_of_rho     :      4.01s CPU      4.52s WALL (      23 calls)
     newd         :     16.29s CPU     24.76s WALL (      23 calls)
     PAW_pot      :      5.43s CPU      5.46s WALL (      23 calls)
     mix_rho      :      0.77s CPU      0.84s WALL (      22 calls)

     Called by c_bands:
     init_us_2    :     24.17s CPU     24.55s WALL (     322 calls)
     cegterg      :   1815.55s CPU   1910.63s WALL (     154 calls)

     Called by *egterg:
     cdiaghg      :     95.00s CPU     99.12s WALL (     935 calls)
     h_psi        :    988.74s CPU   1059.51s WALL (     942 calls)
     s_psi        :    226.71s CPU    228.76s WALL (     942 calls)
     g_psi        :      3.19s CPU      3.23s WALL (     781 calls)

     Called by h_psi:
     h_psi:calbec :    237.45s CPU    240.63s WALL (     942 calls)
     vloc_psi     :    520.33s CPU    580.79s WALL (     942 calls)
     add_vuspsi   :    227.57s CPU    229.65s WALL (     942 calls)

     General routines
     calbec       :    328.46s CPU    332.73s WALL (    1124 calls)
     fft          :      4.45s CPU      4.97s WALL (     308 calls)
     ffts         :      0.77s CPU      0.81s WALL (      45 calls)
     fftw         :    438.25s CPU    496.03s WALL (  445558 calls)
     interpolate  :      0.91s CPU      0.97s WALL (      23 calls)

     Parallel routines

     PWSCF        :  36m 1.09s CPU  38m10.33s WALL


   This run was terminated on:   3:12:27  21Aug2026            

=------------------------------------------------------------------------------=
   JOB DONE.
=------------------------------------------------------------------------------=
