
     Program PWSCF v.7.3.1 starts on 21Aug2026 at  1:43:21 

     This program is part of the open-source Quantum ESPRESSO suite
     for quantum simulation of materials; please cite
         "P. Giannozzi et al., J. Phys.:Condens. Matter 21 395502 (2009);
         "P. Giannozzi et al., J. Phys.:Condens. Matter 29 465901 (2017);
         "P. Giannozzi et al., J. Chem. Phys. 152 154105 (2020);
          URL http://www.quantum-espresso.org", 
     in publications or presentations arising from this work. More details at
     http://www.quantum-espresso.org/quote

     Parallel version (MPI & OpenMP), running on      32 processor cores
     Number of MPI processes:                32
     Threads/MPI process:                     1

     MPI processes distributed on     1 nodes
     170546 MiB available memory on the printing compute node when the environment starts

     Reading input from scf.in

     Current dimensions of program PWSCF are:
     Max number of different atomic species (ntypx) = 10
     Max number of k-points (npk) =  40000
     Max angular momentum in pseudopotentials (lmaxx) =  4
     file Cu.paw.z_11.ld1.psl.v1.0.0-low.upf: wavefunction(s)  4S 3D renormalized

     K-points division:     npool     =       2
     R & G space division:  proc/nbgrp/npool/nimage =      16
     Subspace diagonalization in iterative solution of the eigenvalue problem:
     one sub-group per band group will be used
     scalapack distributed-memory algorithm (size of sub-group:  4*  4 procs)


     Parallelization info
     --------------------
     sticks:   dense  smooth     PW     G-vecs:    dense   smooth      PW
     Min        1193     597    157               163743    57882    7779
     Max        1194     599    158               163747    57885    7784
     Sum       19099    9565   2515              2619931   926125  124485

     Using Slab Decomposition



     bravais-lattice index     =            0
     lattice parameter (alat)  =      24.0273  a.u.
     unit-cell volume          =   14752.0463 (a.u.)^3
     number of atoms/cell      =           96
     number of atomic types    =            4
     number of electrons       =       840.00
     number of Kohn-Sham states=          420
     kinetic-energy cutoff     =      60.0000  Ry
     charge density cutoff     =     480.0000  Ry
     scf convergence threshold =      1.0E-09
     mixing beta               =       0.3000
     number of iterations used =            8  plain     mixing
     Exchange-correlation=  SLA  PW   PBX  PBC
                           (   1   4   3   4   0   0   0)

     celldm(1)=  24.027274  celldm(2)=   0.000000  celldm(3)=   0.000000
     celldm(4)=   0.000000  celldm(5)=   0.000000  celldm(6)=   0.000000

     crystal axes: (cart. coord. in units of alat)
               a(1) = (   1.000000   0.000000   0.000000 )  
               a(2) = (  -0.500000   0.866025   0.000000 )  
               a(3) = (   0.000000   0.000000   1.228028 )  

     reciprocal axes: (cart. coord. in units 2 pi/alat)
               b(1) = (  1.000000  0.577351 -0.000000 )  
               b(2) = (  0.000000  1.154701  0.000000 )  
               b(3) = (  0.000000 -0.000000  0.814314 )  


     PseudoPot. # 1 for Sr read from file:
     /home/yuhansun/pseudos/SSSP-1.3.0-PBE-precision/Sr_pbe_v1.uspp.F.UPF
     MD5 check sum: 6b418c05fbe9db5448babca5e47b7a5b
     Pseudo is Ultrasoft + core correction, Zval = 10.0
     Generated by new atomic code, or converted to UPF format
     Using radial grid of  883 points,  6 beta functions with: 
                l(1) =   0
                l(2) =   0
                l(3) =   1
                l(4) =   1
                l(5) =   2
                l(6) =   2
     Q(r) pseudized with  6 coefficients,  rinner =    1.400   1.400   1.400
                                                       1.400   1.400

     PseudoPot. # 2 for Cu read from file:
     /home/yuhansun/pseudos/SSSP-1.3.0-PBE-precision/Cu.paw.z_11.ld1.psl.v1.0.0-low.upf
     MD5 check sum: 619f40885d92a09a85a8b37550532d0c
     Pseudo is Projector augmented-wave + core cor, Zval = 11.0
     Generated using &quot;atomic&quot; code by A. Dal Corso  v.6.3MaX
     Shape of augmentation charge: PSQ
     Using radial grid of 1199 points,  6 beta functions with: 
                l(1) =   0
                l(2) =   0
                l(3) =   1
                l(4) =   1
                l(5) =   2
                l(6) =   2
     Q(r) pseudized with 0 coefficients 


     PseudoPot. # 3 for Sn read from file:
     /home/yuhansun/pseudos/SSSP-1.3.0-PBE-precision/Sn_pbe_v1.uspp.F.UPF
     MD5 check sum: 4cf58ce39ec5d5d420df3dd08604eb00
     Pseudo is Ultrasoft + core correction, Zval = 14.0
     Generated by new atomic code, or converted to UPF format
     Using radial grid of  891 points,  6 beta functions with: 
                l(1) =   0
                l(2) =   0
                l(3) =   1
                l(4) =   1
                l(5) =   2
                l(6) =   2
     Q(r) pseudized with  6 coefficients,  rinner =    1.200   1.200   1.200
                                                       1.200   1.200

     PseudoPot. # 4 for S  read from file:
     /home/yuhansun/pseudos/SSSP-1.3.0-PBE-precision/s_pbe_v1.4.uspp.F.UPF
     MD5 check sum: 88d86576ff6df21479756cfb9bdac1df
     Pseudo is Ultrasoft + core correction, Zval =  6.0
     Generated by new atomic code, or converted to UPF format
     Using radial grid of  907 points,  6 beta functions with: 
                l(1) =   0
                l(2) =   0
                l(3) =   1
                l(4) =   1
                l(5) =   2
                l(6) =   2
     Q(r) pseudized with  8 coefficients,  rinner =    1.300   1.300   1.300
                                                       1.300   1.300

     atomic species   valence    mass     pseudopotential
     Sr               10.00    87.62000     Sr( 1.00)
     Cu               11.00    63.54600     Cu( 1.00)
     Sn               14.00   118.71000     Sn( 1.00)
     S                 6.00    32.06500     S ( 1.00)

     No symmetry found



   Cartesian axes

     site n.     atom                  positions (alat units)
         1        Sr     tau(   1) = (  -0.1405753   0.2434834   0.2046717  )
         2        Sr     tau(   2) = (   0.3594247   0.2434834   0.2046717  )
         3        Sr     tau(   3) = (  -0.3905753   0.6764960   0.2046717  )
         4        Sr     tau(   4) = (   0.1094247   0.6764960   0.2046717  )
         5        Sr     tau(   5) = (   0.1094247   0.1895292   0.6140139  )
         6        Sr     tau(   6) = (   0.6094247   0.1895292   0.6140139  )
         7        Sr     tau(   7) = (  -0.1405753   0.6225418   0.6140139  )
         8        Sr     tau(   8) = (   0.3594247   0.6225418   0.6140139  )
         9        Sr     tau(   9) = (   0.2811505   0.0000000   1.0233574  )
        10        Sr     tau(  10) = (   0.7811505   0.0000000   1.0233574  )
        11        Sr     tau(  11) = (   0.0311505   0.4330126   1.0233574  )
        12        Sr     tau(  12) = (   0.5311505   0.4330126   1.0233574  )
        13        Cu     tau(  13) = (  -0.1226788   0.2753211   0.5061747  )
        14        Cu     tau(  14) = (   0.3773212   0.2753211   0.5061747  )
        15        Cu     tau(  15) = (  -0.3726788   0.7083337   0.5061747  )
        16        Cu     tau(  16) = (   0.1273212   0.7083337   0.5061747  )
        17        Cu     tau(  17) = (   0.0729045   0.1891087   0.9155169  )
        18        Cu     tau(  18) = (   0.5729045   0.1891087   0.9155169  )
        19        Cu     tau(  19) = (  -0.1770956   0.6221213   0.9155169  )
        20        Cu     tau(  20) = (   0.3229044   0.6221213   0.9155169  )
        21        Cu     tau(  21) = (   0.0497750   0.4015949   0.0968325  )
        22        Cu     tau(  22) = (   0.5497750   0.4015949   0.0968325  )
        23        Cu     tau(  23) = (  -0.2002251   0.8346075   0.0968325  )
        24        Cu     tau(  24) = (   0.2997749   0.8346075   0.0968325  )
        25        Cu     tau(  25) = (   0.2997745   0.0314177   0.7218532  )
        26        Cu     tau(  26) = (   0.7997745   0.0314177   0.7218532  )
        27        Cu     tau(  27) = (   0.0497745   0.4644302   0.7218532  )
        28        Cu     tau(  28) = (   0.5497745   0.4644302   0.7218532  )
        29        Cu     tau(  29) = (   0.1273207   0.1576915   0.3125110  )
        30        Cu     tau(  30) = (   0.6273207   0.1576915   0.3125110  )
        31        Cu     tau(  31) = (  -0.1226793   0.5907041   0.3125110  )
        32        Cu     tau(  32) = (   0.3773207   0.5907041   0.3125110  )
        33        Cu     tau(  33) = (   0.3229040   0.2439039   1.1311954  )
        34        Cu     tau(  34) = (   0.8229040   0.2439039   1.1311954  )
        35        Cu     tau(  35) = (   0.0729039   0.6769164   1.1311954  )
        36        Cu     tau(  36) = (   0.5729039   0.6769164   1.1311954  )
        37        Sn     tau(  37) = (  -0.1762580   0.3052877   0.8211828  )
        38        Sn     tau(  38) = (   0.3237420   0.3052877   0.8186857  )
        39        Sn     tau(  39) = (  -0.4262581   0.7383003   0.8186857  )
        40        Sn     tau(  40) = (   0.0737419   0.7383003   0.8186857  )
        41        Sn     tau(  41) = (   0.0737420   0.1277249   0.0000000  )
        42        Sn     tau(  42) = (   0.5737420   0.1277249   0.0000000  )
        43        Sn     tau(  43) = (  -0.1762581   0.5607374   0.0000000  )
        44        Sn     tau(  44) = (   0.3237419   0.5607374   0.0000000  )
        45        Sn     tau(  45) = (   0.3525160   0.0000000   0.4093422  )
        46        Sn     tau(  46) = (   0.8525160   0.0000000   0.4093422  )
        47        Sn     tau(  47) = (   0.1025160   0.4330126   0.4093422  )
        48        Sn     tau(  48) = (   0.6025160   0.4330126   0.4093422  )
        49        S      tau(  49) = (  -0.0988203   0.2103164   0.9671149  )
        50        S      tau(  50) = (   0.4011797   0.2103164   0.9671149  )
        51        S      tau(  51) = (  -0.3488203   0.6433290   0.9671149  )
        52        S      tau(  52) = (   0.1511797   0.6433290   0.9671149  )
        53        S      tau(  53) = (   0.1172707   0.2422736   0.1484293  )
        54        S      tau(  54) = (   0.6172707   0.2422736   0.1484293  )
        55        S      tau(  55) = (  -0.1327293   0.6752862   0.1484293  )
        56        S      tau(  56) = (   0.3672707   0.6752862   0.1484293  )
        57        S      tau(  57) = (  -0.0184505   0.4134352   0.5577727  )
        58        S      tau(  58) = (   0.4815495   0.4134352   0.5577727  )
        59        S      tau(  59) = (  -0.2684506   0.8464478   0.5577727  )
        60        S      tau(  60) = (   0.2315494   0.8464478   0.5577727  )
        61        S      tau(  61) = (   0.2315495   0.0195774   0.2609129  )
        62        S      tau(  62) = (   0.7315495   0.0195774   0.2609129  )
        63        S      tau(  63) = (  -0.0184505   0.4525899   0.2609129  )
        64        S      tau(  64) = (   0.4815495   0.4525899   0.2609129  )
        65        S      tau(  65) = (   0.1511797   0.2226962   1.0795986  )
        66        S      tau(  66) = (   0.6511797   0.2226962   1.0795986  )
        67        S      tau(  67) = (  -0.0988203   0.6557088   1.0795986  )
        68        S      tau(  68) = (   0.4011797   0.6557088   1.0795986  )
        69        S      tau(  69) = (   0.3672707   0.1907390   0.6702552  )
        70        S      tau(  70) = (   0.8672707   0.1907390   0.6702552  )
        71        S      tau(  71) = (   0.1172707   0.6237516   0.6702552  )
        72        S      tau(  72) = (   0.6172707   0.6237516   0.6702552  )
        73        S      tau(  73) = (  -0.0296498   0.1532012   0.4035914  )
        74        S      tau(  74) = (   0.4703502   0.1532012   0.4035914  )
        75        S      tau(  75) = (  -0.2796498   0.5862137   0.4035914  )
        76        S      tau(  76) = (   0.2203502   0.5862137   0.4035914  )
        77        S      tau(  77) = (   0.1321490   0.3307341   0.8129336  )
        78        S      tau(  78) = (   0.6321490   0.3307341   0.8129336  )
        79        S      tau(  79) = (  -0.1178511   0.7637467   0.8129336  )
        80        S      tau(  80) = (   0.3821489   0.7637467   0.8129336  )
        81        S      tau(  81) = (  -0.1024985   0.3820894   1.2222770  )
        82        S      tau(  82) = (   0.3975015   0.3820894   1.2222770  )
        83        S      tau(  83) = (  -0.3524986   0.8151020   1.2222770  )
        84        S      tau(  84) = (   0.1475014   0.8151020   1.2222770  )
        85        S      tau(  85) = (   0.1475010   0.0509231   0.8244365  )
        86        S      tau(  86) = (   0.6475010   0.0509231   0.8244365  )
        87        S      tau(  87) = (  -0.1024990   0.4839357   0.8244365  )
        88        S      tau(  88) = (   0.3975010   0.4839357   0.8244365  )
        89        S      tau(  89) = (   0.2203497   0.2798114   0.4150943  )
        90        S      tau(  90) = (   0.7203497   0.2798114   0.4150943  )
        91        S      tau(  91) = (  -0.0296503   0.7128240   0.4150943  )
        92        S      tau(  92) = (   0.4703497   0.7128240   0.4150943  )
        93        S      tau(  93) = (   0.3821485   0.1022784   0.0057509  )
        94        S      tau(  94) = (   0.8821485   0.1022784   0.0057509  )
        95        S      tau(  95) = (   0.1321485   0.5352910   0.0057509  )
        96        S      tau(  96) = (   0.6321485   0.5352910   0.0057509  )

     number of k points=    14
                       cart. coord. in units 2pi/alat
        k(    1) = (   0.0000000   0.0000000   0.0000000), wk =   0.0740741
        k(    2) = (   0.0000000   0.0000000   0.2714379), wk =   0.1481481
        k(    3) = (   0.0000000   0.3849003   0.0000000), wk =   0.1481481
        k(    4) = (   0.0000000   0.3849003   0.2714379), wk =   0.1481481
        k(    5) = (   0.3333333   0.5773505   0.0000000), wk =   0.1481481
        k(    6) = (   0.3333333   0.5773505   0.2714379), wk =   0.1481481
        k(    7) = (  -0.3333333   0.1924501   0.0000000), wk =   0.1481481
        k(    8) = (   0.3333333   0.1924502   0.0000000), wk =   0.1481481
        k(    9) = (   0.0000000  -0.3849003   0.2714379), wk =   0.1481481
        k(   10) = (  -0.3333333   0.1924501   0.2714379), wk =   0.1481481
        k(   11) = (   0.3333333   0.1924502   0.2714379), wk =   0.1481481
        k(   12) = (  -0.3333333  -0.1924502   0.2714379), wk =   0.1481481
        k(   13) = (   0.3333333  -0.1924501   0.2714379), wk =   0.1481481
        k(   14) = (  -0.3333333  -0.5773505   0.2714379), wk =   0.1481481

     Dense  grid:  2619931 G-vectors     FFT dimensions: ( 180, 180, 216)

     Smooth grid:   926125 G-vectors     FFT dimensions: ( 120, 120, 150)

     Estimated max dynamical RAM per process >       1.07 GB

     Estimated total dynamical RAM >      33.54 GB

     Initial potential from superposition of free atoms

     starting charge     827.5884, renormalised to     840.0000

     negative rho (up, down):  7.777E-01 0.000E+00
     Starting wfcs are  672 randomized atomic wfcs
     Checking if some PAW data can be deallocated... 

     total cpu time spent up to now is       44.4 secs

     Self-consistent Calculation

     iteration #  1     ecut=    60.00 Ry     beta= 0.30
     Davidson diagonalization with overlap
     ethr =  1.00E-02,  avg # of iterations =  2.0

     negative rho (up, down):  7.747E-01 0.000E+00

     total cpu time spent up to now is      121.2 secs

     total energy              =   -9070.28977194 Ry
     estimated scf accuracy    <      21.98057115 Ry

     iteration #  2     ecut=    60.00 Ry     beta= 0.30
     Davidson diagonalization with overlap
     ethr =  2.62E-03,  avg # of iterations =  4.8

     negative rho (up, down):  7.752E-01 0.000E+00

     total cpu time spent up to now is      216.4 secs

     total energy              =   -9076.61377973 Ry
     estimated scf accuracy    <       8.21847459 Ry

     iteration #  3     ecut=    60.00 Ry     beta= 0.30
     Davidson diagonalization with overlap
     ethr =  9.78E-04,  avg # of iterations =  2.0

     negative rho (up, down):  7.804E-01 0.000E+00

     total cpu time spent up to now is      292.6 secs

     total energy              =   -9076.48951493 Ry
     estimated scf accuracy    <       1.62179539 Ry

     iteration #  4     ecut=    60.00 Ry     beta= 0.30
     Davidson diagonalization with overlap
     ethr =  1.93E-04,  avg # of iterations =  5.0

     negative rho (up, down):  7.829E-01 0.000E+00

     total cpu time spent up to now is      397.1 secs

     total energy              =   -9076.71405585 Ry
     estimated scf accuracy    <       2.05396044 Ry

     iteration #  5     ecut=    60.00 Ry     beta= 0.30
     Davidson diagonalization with overlap
     ethr =  1.93E-04,  avg # of iterations =  5.5

     negative rho (up, down):  7.878E-01 0.000E+00

     total cpu time spent up to now is      486.3 secs

     total energy              =   -9077.15330022 Ry
     estimated scf accuracy    <       0.13287713 Ry

     iteration #  6     ecut=    60.00 Ry     beta= 0.30
     Davidson diagonalization with overlap
     ethr =  1.58E-05,  avg # of iterations =  5.5

     negative rho (up, down):  7.901E-01 0.000E+00

     total cpu time spent up to now is      585.8 secs

     total energy              =   -9077.18349511 Ry
     estimated scf accuracy    <       0.02281180 Ry

     iteration #  7     ecut=    60.00 Ry     beta= 0.30
     Davidson diagonalization with overlap
     ethr =  2.72E-06,  avg # of iterations =  4.3

     negative rho (up, down):  7.911E-01 0.000E+00

     total cpu time spent up to now is      679.4 secs

     total energy              =   -9077.18828061 Ry
     estimated scf accuracy    <       0.00514609 Ry

     iteration #  8     ecut=    60.00 Ry     beta= 0.30
     Davidson diagonalization with overlap
     ethr =  6.13E-07,  avg # of iterations =  6.6

     negative rho (up, down):  7.912E-01 0.000E+00

     total cpu time spent up to now is      810.4 secs

     total energy              =   -9077.17745219 Ry
     estimated scf accuracy    <       0.05828149 Ry

     iteration #  9     ecut=    60.00 Ry     beta= 0.30
     Davidson diagonalization with overlap
     ethr =  6.13E-07,  avg # of iterations =  8.9

     negative rho (up, down):  7.911E-01 0.000E+00

     total cpu time spent up to now is      944.3 secs

     total energy              =   -9077.18738793 Ry
     estimated scf accuracy    <       0.00151144 Ry

     iteration # 10     ecut=    60.00 Ry     beta= 0.30
     Davidson diagonalization with overlap
     ethr =  1.80E-07,  avg # of iterations =  3.4

     negative rho (up, down):  7.907E-01 0.000E+00

     total cpu time spent up to now is     1022.4 secs

     total energy              =   -9077.18736098 Ry
     estimated scf accuracy    <       0.00043351 Ry

     iteration # 11     ecut=    60.00 Ry     beta= 0.30
     Davidson diagonalization with overlap
     ethr =  5.16E-08,  avg # of iterations =  6.0

     negative rho (up, down):  7.906E-01 0.000E+00

     total cpu time spent up to now is     1119.7 secs

     total energy              =   -9077.18741611 Ry
     estimated scf accuracy    <       0.00024625 Ry

     iteration # 12     ecut=    60.00 Ry     beta= 0.30
     Davidson diagonalization with overlap
     ethr =  2.93E-08,  avg # of iterations =  5.7

     negative rho (up, down):  7.904E-01 0.000E+00

     total cpu time spent up to now is     1210.5 secs

     total energy              =   -9077.18746401 Ry
     estimated scf accuracy    <       0.00003207 Ry

     iteration # 13     ecut=    60.00 Ry     beta= 0.30
     Davidson diagonalization with overlap
     ethr =  3.82E-09,  avg # of iterations =  5.0

     negative rho (up, down):  7.904E-01 0.000E+00

     total cpu time spent up to now is     1318.1 secs

     total energy              =   -9077.18746603 Ry
     estimated scf accuracy    <       0.00004235 Ry

     iteration # 14     ecut=    60.00 Ry     beta= 0.30
     Davidson diagonalization with overlap
     ethr =  3.82E-09,  avg # of iterations =  4.6

     negative rho (up, down):  7.903E-01 0.000E+00

     total cpu time spent up to now is     1405.4 secs

     total energy              =   -9077.18746905 Ry
     estimated scf accuracy    <       0.00000560 Ry

     iteration # 15     ecut=    60.00 Ry     beta= 0.30
     Davidson diagonalization with overlap
     ethr =  6.67E-10,  avg # of iterations =  9.9

     negative rho (up, down):  7.902E-01 0.000E+00

     total cpu time spent up to now is     1523.2 secs

     total energy              =   -9077.18747041 Ry
     estimated scf accuracy    <       0.00000783 Ry

     iteration # 16     ecut=    60.00 Ry     beta= 0.30
     Davidson diagonalization with overlap
     ethr =  6.67E-10,  avg # of iterations =  6.5

     negative rho (up, down):  7.902E-01 0.000E+00

     total cpu time spent up to now is     1613.1 secs

     total energy              =   -9077.18747135 Ry
     estimated scf accuracy    <       0.00000055 Ry

     iteration # 17     ecut=    60.00 Ry     beta= 0.30
     Davidson diagonalization with overlap
     ethr =  6.58E-11,  avg # of iterations =  9.9

     negative rho (up, down):  7.902E-01 0.000E+00

     total cpu time spent up to now is     1746.3 secs

     total energy              =   -9077.18747141 Ry
     estimated scf accuracy    <       0.00000241 Ry

     iteration # 18     ecut=    60.00 Ry     beta= 0.30
     Davidson diagonalization with overlap
     ethr =  6.58E-11,  avg # of iterations =  6.8

     negative rho (up, down):  7.902E-01 0.000E+00

     total cpu time spent up to now is     1843.9 secs

     total energy              =   -9077.18747160 Ry
     estimated scf accuracy    <       0.00000013 Ry

     iteration # 19     ecut=    60.00 Ry     beta= 0.30
     Davidson diagonalization with overlap
     ethr =  1.56E-11,  avg # of iterations =  5.7

     negative rho (up, down):  7.902E-01 0.000E+00

     total cpu time spent up to now is     1946.8 secs

     total energy              =   -9077.18747164 Ry
     estimated scf accuracy    <       0.00000004 Ry

     iteration # 20     ecut=    60.00 Ry     beta= 0.30
     Davidson diagonalization with overlap
     ethr =  4.27E-12,  avg # of iterations =  3.9

     negative rho (up, down):  7.902E-01 0.000E+00

     total cpu time spent up to now is     2026.2 secs

     total energy              =   -9077.18747164 Ry
     estimated scf accuracy    <          7.4E-09 Ry

     iteration # 21     ecut=    60.00 Ry     beta= 0.30
     Davidson diagonalization with overlap
     ethr =  8.82E-13,  avg # of iterations =  8.4

     negative rho (up, down):  7.902E-01 0.000E+00

     total cpu time spent up to now is     2158.2 secs

     total energy              =   -9077.18747165 Ry
     estimated scf accuracy    <       0.00000003 Ry

     iteration # 22     ecut=    60.00 Ry     beta= 0.30
     Davidson diagonalization with overlap
     ethr =  8.82E-13,  avg # of iterations =  2.9

     negative rho (up, down):  7.902E-01 0.000E+00

     total cpu time spent up to now is     2232.4 secs

     total energy              =   -9077.18747165 Ry
     estimated scf accuracy    <       0.00000001 Ry

     iteration # 23     ecut=    60.00 Ry     beta= 0.30
     Davidson diagonalization with overlap
     ethr =  8.82E-13,  avg # of iterations =  8.4

     negative rho (up, down):  7.902E-01 0.000E+00

     total cpu time spent up to now is     2341.7 secs

     total energy              =   -9077.18747165 Ry
     estimated scf accuracy    <          4.0E-09 Ry

     iteration # 24     ecut=    60.00 Ry     beta= 0.30
     Davidson diagonalization with overlap
     ethr =  4.71E-13,  avg # of iterations =  3.4

     negative rho (up, down):  7.902E-01 0.000E+00

     total cpu time spent up to now is     2415.7 secs

     End of self-consistent calculation

          k = 0.0000 0.0000 0.0000 (115723 PWs)   bands (ev):

   -28.2835 -28.2817 -28.2764 -28.2755 -28.2754 -28.2754 -28.2754 -28.2753
   -28.2752 -28.2743 -28.2690 -28.2672 -14.9257 -14.9256 -14.9252 -14.9243
   -14.9234 -14.9233 -14.9225 -14.9217 -14.9217 -14.9208 -14.9199 -14.9197
   -14.9195 -14.9194 -14.9184 -14.9175 -14.9175 -14.9167 -14.9160 -14.9158
   -14.9158 -14.9150 -14.9140 -14.9136 -14.9076 -14.9074 -14.9064 -14.9055
   -14.9054 -14.9053 -14.9046 -14.9038 -14.9037 -14.9028 -14.9019 -14.9016
   -14.8674 -14.8672 -14.8662 -14.8653 -14.8652 -14.8651 -14.8644 -14.8636
   -14.8635 -14.8626 -14.8616 -14.8614 -14.8222 -14.8220 -14.8209 -14.8202
   -14.8201 -14.8200 -14.8192 -14.8184 -14.8184 -14.8176 -14.8165 -14.8162
   -10.3445 -10.3421 -10.3379 -10.3372 -10.3365 -10.3364 -10.3356 -10.3338
   -10.3326 -10.3293 -10.3286 -10.3220 -10.3127 -10.3096 -10.3087 -10.3057
   -10.3033 -10.3023 -10.3005 -10.2997 -10.2940 -10.2907 -10.2901 -10.2813
   -10.2752 -10.2704 -10.2695 -10.2673 -10.2660 -10.2641 -10.2635 -10.2608
   -10.2600 -10.2586 -10.2566 -10.2511  -6.8632  -6.5563  -6.5538  -6.4201
    -6.4167  -6.4144  -6.3001  -6.2991  -6.2990  -6.2206  -6.2185  -6.2160
    -5.9913  -5.9896  -5.9879  -5.8526  -5.8494  -5.8468  -5.7997  -5.7959
    -5.7935  -5.7397  -5.7337  -5.6265  -5.6187  -5.6172  -5.6136  -5.6131
    -5.6099  -5.5988  -5.5608  -5.5592  -5.5564  -5.5474  -5.5447  -5.5413
    -5.5218  -5.5112  -5.4322  -5.4311  -5.4278  -5.4237  -5.3737  -5.3717
    -5.3505  -5.3452  -5.3369  -5.2501  -0.6130  -0.6114  -0.6096  -0.3900
    -0.3887  -0.3875  -0.3508  -0.3166  -0.3154  -0.3144  -0.3028  -0.2992
     1.3826   1.3851   1.3873   1.5910   1.5935   1.6563   1.7155   1.7168
     1.7185   1.8038   1.8060   1.8084   2.0194   2.0400   2.0422   2.0816
     2.0852   2.0885   2.2454   2.2478   2.2505   2.3078   2.3113   2.3980
     2.4046   2.4111   2.4595   2.4612   2.4628   2.5459   2.5531   2.6600
     2.6631   2.6662   2.7816   2.7843   2.7866   2.8708   2.8727   2.9232
     2.9249   2.9272   2.9511   2.9537   2.9567   3.0264   3.0276   3.0286
     3.0458   3.0462   3.0466   3.1646   3.2134   3.2146   3.2160   3.2276
     3.2277   3.2569   3.2578   3.2587   3.3756   3.3777   3.3793   3.3931
     3.3935   3.4255   3.4264   3.4278   3.4360   3.4368   3.4374   3.4717
     3.4763   3.4795   3.4932   3.4943   3.4951   3.4963   3.5151   3.5222
     3.5844   3.5852   3.5862   3.6247   3.6272   3.6297   3.6892   3.6900
     3.6904   3.6920   3.6926   3.7062   3.7921   3.7985   3.8247   3.8260
     3.8272   3.9628   4.0188   4.0209   4.0232   4.0350   4.0362   4.0375
     4.1225   4.1241   4.1267   4.1277   4.1719   4.1735   4.1752   4.2013
     4.2094   4.2099   4.2100   4.2424   4.2446   4.2475   4.2807   4.2823
     4.4224   4.4248   4.4274   4.5174   4.5187   4.5190   4.5344   4.5386
     4.6204   4.6211   4.6215   4.8567   5.1247   5.1548   5.1555   5.1563
     5.1736   5.1744   5.1752   5.1771   5.1802   5.2221   5.2261   5.2277
     5.2285   5.2290   5.2306   5.2521   5.2523   5.2525   5.2661   5.2667
     5.2678   5.2785   5.2791   5.2792   5.3093   5.3115   5.3118   5.3127
     5.3146   5.3248   5.3364   5.3381   5.3392   5.3749   5.3758   5.3768
     5.4389   5.4393   5.4707   5.4714   5.4717   5.4744   5.4770   5.4780
     5.4784   5.4989   5.4994   5.6008   5.6015   5.6020   5.6183   5.6187
     5.6193   5.6268   5.6472   5.6474   5.6476   5.6580   5.6601   5.6618
     5.7253   5.7255   5.7446   5.7828   5.7830   5.7834   5.8202   5.8215
     5.8226   5.9012   5.9038   5.9062   5.9266   5.9279   5.9291   5.9953
     5.9975   6.0266   6.0268   6.0271   6.1484   6.1506   6.1514   6.1534
     6.2612   6.2615   6.2628   6.2633   6.2645   6.2650   6.2887   6.2922
     6.3341   6.3350   6.3360   6.3624   6.3638   6.3651   6.3894   6.3897
     6.3901   6.5524   6.5695   6.5716   6.5735   6.6367   6.6381   6.6395
     6.7462   6.7477   6.7493   6.7646   6.7655   6.7798   6.7818   6.7838
     6.8087   6.9647   7.1797   7.1818

          k = 0.0000 0.0000 0.2714 (115879 PWs)   bands (ev):

   -28.2835 -28.2818 -28.2764 -28.2755 -28.2754 -28.2754 -28.2754 -28.2753
   -28.2752 -28.2743 -28.2690 -28.2672 -14.9257 -14.9256 -14.9252 -14.9243
   -14.9234 -14.9233 -14.9225 -14.9217 -14.9217 -14.9208 -14.9199 -14.9197
   -14.9195 -14.9194 -14.9184 -14.9175 -14.9175 -14.9167 -14.9160 -14.9158
   -14.9158 -14.9150 -14.9140 -14.9136 -14.9076 -14.9074 -14.9064 -14.9055
   -14.9054 -14.9053 -14.9046 -14.9038 -14.9037 -14.9028 -14.9019 -14.9016
   -14.8674 -14.8672 -14.8662 -14.8653 -14.8652 -14.8651 -14.8644 -14.8637
   -14.8635 -14.8626 -14.8616 -14.8614 -14.8222 -14.8220 -14.8209 -14.8202
   -14.8201 -14.8200 -14.8192 -14.8184 -14.8184 -14.8176 -14.8165 -14.8162
   -10.3447 -10.3426 -10.3386 -10.3380 -10.3371 -10.3362 -10.3350 -10.3332
   -10.3319 -10.3290 -10.3279 -10.3224 -10.3131 -10.3118 -10.3075 -10.3059
   -10.3033 -10.3016 -10.3005 -10.2956 -10.2933 -10.2917 -10.2910 -10.2834
   -10.2746 -10.2699 -10.2695 -10.2674 -10.2661 -10.2645 -10.2633 -10.2605
   -10.2599 -10.2584 -10.2571 -10.2516  -6.8241  -6.7134  -6.4127  -6.4087
    -6.4078  -6.4055  -6.3057  -6.3037  -6.3027  -6.2326  -6.2312  -6.2282
    -5.9930  -5.9914  -5.9898  -5.8545  -5.8366  -5.8345  -5.8322  -5.7777
    -5.7731  -5.7695  -5.6631  -5.6559  -5.6545  -5.6486  -5.6134  -5.6124
    -5.6113  -5.6099  -5.5576  -5.5535  -5.5523  -5.5509  -5.5458  -5.5446
    -5.5412  -5.4544  -5.4371  -5.4341  -5.4333  -5.4286  -5.3751  -5.3470
    -5.3411  -5.3373  -5.3295  -5.2802  -0.6054  -0.6036  -0.6016  -0.4144
    -0.4122  -0.4102  -0.3482  -0.3325  -0.3013  -0.3008  -0.3003  -0.2740
     1.4067   1.4093   1.4117   1.5704   1.6146   1.6172   1.6186   1.6207
     1.6580   1.9334   1.9355   1.9374   2.0041   2.0452   2.0508   2.0534
     2.0563   2.0689   2.2735   2.2761   2.2792   2.3050   2.3866   2.3895
     2.3903   2.3918   2.4130   2.4167   2.4220   2.4562   2.6202   2.6229
     2.6257   2.6676   2.7184   2.7906   2.7956   2.7987   2.8016   2.8704
     2.8725   2.8746   2.9750   2.9759   2.9769   3.0449   3.0460   3.0474
     3.1056   3.1069   3.1081   3.1757   3.1990   3.2036   3.2048   3.2056
     3.2721   3.2744   3.2762   3.2843   3.3748   3.3828   3.3842   3.3848
     3.4191   3.4200   3.4208   3.4393   3.4404   3.4410   3.4482   3.4496
     3.4519   3.4770   3.4988   3.5169   3.5189   3.5206   3.5385   3.5439
     3.5495   3.5505   3.5520   3.6380   3.6433   3.6451   3.6483   3.6510
     3.6796   3.6809   3.6838   3.7730   3.8301   3.8752   3.8763   3.8777
     3.9080   3.9216   3.9940   3.9955   3.9970   4.0542   4.0560   4.0578
     4.0751   4.1162   4.1177   4.1192   4.1466   4.1488   4.1505   4.1652
     4.1706   4.1723   4.1744   4.2114   4.2507   4.2513   4.2523   4.2679
     4.4196   4.4221   4.4248   4.4836   4.5591   4.5599   4.5606   4.6053
     4.6061   4.6067   4.6769   4.8070   5.1359   5.1473   5.1540   5.1543
     5.1548   5.1647   5.1865   5.1873   5.1881   5.2157   5.2166   5.2176
     5.2179   5.2474   5.2484   5.2492   5.2585   5.2596   5.2598   5.2609
     5.2761   5.2774   5.2777   5.2782   5.3288   5.3296   5.3304   5.3324
     5.3339   5.3354   5.3420   5.3425   5.3431   5.3660   5.3740   5.3748
     5.3755   5.3898   5.4028   5.4202   5.4209   5.4214   5.5260   5.5325
     5.5329   5.5335   5.5821   5.5875   5.5888   5.5892   5.5903   5.6194
     5.6205   5.6214   5.6508   5.6524   5.6535   5.6611   5.6815   5.6824
     5.6831   5.7550   5.7555   5.7560   5.7905   5.7991   5.8162   5.8179
     5.8196   5.8710   5.8814   5.8838   5.8863   5.9883   5.9891   5.9898
     6.0425   6.0430   6.0435   6.0971   6.0983   6.0995   6.1752   6.1909
     6.1923   6.1937   6.2362   6.2673   6.2691   6.2710   6.3252   6.3263
     6.3274   6.3582   6.3614   6.3709   6.3716   6.3721   6.3953   6.4292
     6.4299   6.4307   6.4805   6.6396   6.6409   6.6420   6.6427   6.6446
     6.6454   6.6706   6.7067   6.7093   6.7121   6.7516   6.7532   6.7549
     6.9414   7.0053   7.0947   7.1702

          k = 0.0000 0.3849 0.0000 (115797 PWs)   bands (ev):

   -28.2835 -28.2818 -28.2764 -28.2755 -28.2754 -28.2754 -28.2754 -28.2753
   -28.2752 -28.2743 -28.2690 -28.2672 -14.9257 -14.9256 -14.9252 -14.9244
   -14.9234 -14.9233 -14.9225 -14.9217 -14.9216 -14.9208 -14.9198 -14.9197
   -14.9195 -14.9194 -14.9184 -14.9176 -14.9175 -14.9167 -14.9160 -14.9158
   -14.9158 -14.9150 -14.9140 -14.9137 -14.9076 -14.9074 -14.9064 -14.9055
   -14.9054 -14.9053 -14.9046 -14.9038 -14.9037 -14.9029 -14.9019 -14.9016
   -14.8674 -14.8672 -14.8662 -14.8653 -14.8652 -14.8651 -14.8644 -14.8637
   -14.8635 -14.8626 -14.8616 -14.8614 -14.8222 -14.8220 -14.8209 -14.8202
   -14.8201 -14.8200 -14.8192 -14.8184 -14.8184 -14.8176 -14.8165 -14.8162
   -10.3433 -10.3417 -10.3372 -10.3364 -10.3360 -10.3353 -10.3349 -10.3338
   -10.3321 -10.3297 -10.3288 -10.3238 -10.3103 -10.3091 -10.3068 -10.3047
   -10.3032 -10.3020 -10.3006 -10.2996 -10.2961 -10.2928 -10.2893 -10.2838
   -10.2740 -10.2704 -10.2694 -10.2674 -10.2658 -10.2652 -10.2631 -10.2626
   -10.2599 -10.2596 -10.2579 -10.2523  -6.7881  -6.5908  -6.4997  -6.4979
    -6.4379  -6.4362  -6.3656  -6.3487  -6.2853  -6.2847  -6.2501  -6.2480
    -5.9148  -5.9116  -5.8204  -5.8185  -5.8157  -5.7810  -5.7692  -5.7670
    -5.7334  -5.7257  -5.7185  -5.6903  -5.6872  -5.6470  -5.6386  -5.6367
    -5.6276  -5.5916  -5.5852  -5.5832  -5.5692  -5.5293  -5.5215  -5.5183
    -5.5156  -5.5029  -5.4638  -5.4524  -5.4382  -5.4328  -5.4212  -5.4140
    -5.3479  -5.3410  -5.3152  -5.2702  -0.5724  -0.5709  -0.5605  -0.4345
    -0.4049  -0.4035  -0.3781  -0.3377  -0.3363  -0.3360  -0.3132  -0.3041
     1.4168   1.4878   1.4909   1.4996   1.6417   1.6520   1.6905   1.7230
     1.7256   1.8294   1.8747   1.8763   1.9519   1.9544   1.9577   2.0261
     2.1152   2.2077   2.2273   2.2297   2.3363   2.3628   2.3870   2.3892
     2.3942   2.4071   2.4482   2.5380   2.5430   2.6123   2.6137   2.6173
     2.6567   2.7372   2.8133   2.8153   2.8225   2.8395   2.8432   2.8457
     2.8534   2.8845   2.9070   2.9091   2.9152   2.9604   2.9640   3.0043
     3.0518   3.0553   3.0581   3.1255   3.1500   3.1765   3.2027   3.2113
     3.2123   3.2364   3.2589   3.2606   3.2688   3.3236   3.3290   3.3314
     3.3403   3.3722   3.3906   3.3948   3.4343   3.4396   3.4418   3.4492
     3.4960   3.4984   3.5006   3.5103   3.5116   3.5148   3.5251   3.5396
     3.5596   3.6040   3.6069   3.6114   3.6355   3.6479   3.6795   3.6812
     3.6937   3.7032   3.7065   3.7089   3.7780   3.7807   3.8488   3.8605
     3.8988   3.9718   3.9742   3.9783   3.9827   4.0317   4.0396   4.0399
     4.0935   4.1112   4.1197   4.1210   4.1246   4.1597   4.1625   4.1779
     4.2488   4.2671   4.2714   4.2835   4.3018   4.3217   4.3233   4.3693
     4.3774   4.4173   4.4195   4.4849   4.5141   4.5262   4.5281   4.5306
     4.5892   4.5911   4.6291   4.7497   5.1427   5.1440   5.1473   5.1556
     5.1604   5.1610   5.1698   5.1740   5.2141   5.2190   5.2197   5.2223
     5.2287   5.2379   5.2486   5.2493   5.2506   5.2612   5.2663   5.2718
     5.2725   5.2892   5.3046   5.3055   5.3128   5.3186   5.3275   5.3284
     5.3371   5.3505   5.3528   5.3537   5.3580   5.3664   5.4132   5.4142
     5.4343   5.4510   5.4604   5.4619   5.4858   5.4935   5.4994   5.5008
     5.5030   5.5135   5.5292   5.5439   5.5566   5.5571   5.5612   5.6032
     5.6040   5.6296   5.6306   5.6325   5.6683   5.6786   5.6955   5.6961
     5.6970   5.7177   5.7296   5.7567   5.7743   5.7757   5.8084   5.8198
     5.8206   5.8623   5.8762   5.8774   5.9500   5.9511   5.9650   5.9659
     5.9895   6.0066   6.0083   6.0213   6.1387   6.1401   6.1453   6.1603
     6.2254   6.2281   6.2297   6.2506   6.2716   6.2885   6.2887   6.3007
     6.3618   6.3623   6.3781   6.3896   6.3912   6.4417   6.4857   6.4887
     6.5244   6.5376   6.5383   6.5762   6.6046   6.6521   6.6844   6.6917
     6.6936   6.7301   6.7377   6.7390   6.7621   6.7770   6.7942   6.8118
     6.8147   6.9031   6.9092   7.0799

          k = 0.0000 0.3849 0.2714 (115773 PWs)   bands (ev):

   -28.2835 -28.2817 -28.2764 -28.2755 -28.2754 -28.2754 -28.2754 -28.2753
   -28.2752 -28.2743 -28.2690 -28.2672 -14.9257 -14.9256 -14.9252 -14.9244
   -14.9234 -14.9233 -14.9225 -14.9217 -14.9216 -14.9208 -14.9198 -14.9197
   -14.9195 -14.9194 -14.9184 -14.9176 -14.9175 -14.9167 -14.9160 -14.9158
   -14.9158 -14.9150 -14.9140 -14.9137 -14.9076 -14.9074 -14.9064 -14.9055
   -14.9054 -14.9053 -14.9046 -14.9038 -14.9037 -14.9029 -14.9019 -14.9016
   -14.8674 -14.8672 -14.8662 -14.8653 -14.8652 -14.8651 -14.8644 -14.8637
   -14.8635 -14.8626 -14.8616 -14.8614 -14.8222 -14.8220 -14.8209 -14.8202
   -14.8201 -14.8200 -14.8192 -14.8184 -14.8184 -14.8176 -14.8165 -14.8162
   -10.3436 -10.3421 -10.3378 -10.3368 -10.3363 -10.3357 -10.3343 -10.3335
   -10.3310 -10.3294 -10.3286 -10.3238 -10.3118 -10.3097 -10.3064 -10.3059
   -10.3022 -10.3012 -10.2995 -10.2981 -10.2940 -10.2936 -10.2899 -10.2857
   -10.2739 -10.2709 -10.2694 -10.2670 -10.2655 -10.2649 -10.2632 -10.2626
   -10.2598 -10.2594 -10.2587 -10.2528  -6.7513  -6.6464  -6.5617  -6.4718
    -6.4219  -6.4200  -6.3643  -6.3306  -6.3283  -6.2586  -6.2256  -6.2246
    -5.9081  -5.9051  -5.8240  -5.8202  -5.8090  -5.8070  -5.7946  -5.7619
    -5.7587  -5.7304  -5.7113  -5.7076  -5.6732  -5.6343  -5.6285  -5.6274
    -5.6228  -5.6071  -5.6008  -5.5977  -5.5694  -5.5295  -5.5249  -5.5215
    -5.5205  -5.4948  -5.4695  -5.4335  -5.4300  -5.4264  -5.4201  -5.3623
    -5.3474  -5.3408  -5.3240  -5.3000  -0.5605  -0.5590  -0.5575  -0.4362
    -0.4343  -0.4234  -0.3950  -0.3744  -0.3183  -0.3176  -0.2996  -0.2793
     1.4313   1.4850   1.4865   1.4891   1.6270   1.6430   1.7734   1.7759
     1.7830   1.7930   1.7976   1.7983   1.9138   1.9911   1.9955   2.0762
     2.1538   2.2008   2.2121   2.2466   2.2486   2.3558   2.3933   2.3948
     2.3970   2.4499   2.5115   2.5162   2.5452   2.5907   2.5924   2.6083
     2.6440   2.7117   2.7622   2.7680   2.7701   2.7884   2.8094   2.8118
     2.8384   2.8757   2.9141   2.9167   2.9194   2.9804   3.0229   3.0254
     3.0700   3.1047   3.1071   3.1346   3.1698   3.1921   3.1933   3.1950
     3.2030   3.2319   3.2618   3.2651   3.2785   3.3183   3.3203   3.3227
     3.3238   3.3846   3.3889   3.4116   3.4442   3.4460   3.4670   3.4699
     3.4709   3.4735   3.4749   3.4790   3.5323   3.5362   3.5393   3.5924
     3.6094   3.6124   3.6133   3.6319   3.6401   3.6498   3.6589   3.6614
     3.6654   3.7109   3.7117   3.7168   3.8349   3.8365   3.8809   3.8898
     3.9071   3.9483   3.9498   3.9727   3.9843   4.0224   4.0480   4.0497
     4.0507   4.0652   4.1077   4.1102   4.1189   4.1317   4.1335   4.1473
     4.1928   4.2566   4.2666   4.2695   4.2885   4.2910   4.2934   4.3855
     4.3976   4.4381   4.4400   4.4679   4.5250   4.5265   4.5331   4.5945
     4.6094   4.6109   4.6244   4.7227   5.1492   5.1505   5.1545   5.1573
     5.1727   5.1768   5.1772   5.1834   5.1905   5.1978   5.2010   5.2069
     5.2078   5.2341   5.2346   5.2360   5.2546   5.2646   5.2657   5.2673
     5.2784   5.2975   5.3070   5.3136   5.3139   5.3290   5.3370   5.3380
     5.3582   5.3588   5.3605   5.3638   5.3802   5.3933   5.4062   5.4068
     5.4141   5.4316   5.4339   5.4447   5.4455   5.4929   5.5018   5.5025
     5.5102   5.5161   5.5532   5.5598   5.5742   5.5754   5.6032   5.6107
     5.6112   5.6201   5.6243   5.6252   5.6434   5.6702   5.6822   5.7138
     5.7146   5.7183   5.7328   5.7717   5.7729   5.7743   5.8031   5.8036
     5.8090   5.8585   5.8755   5.8766   5.8775   5.9140   5.9594   5.9600
     6.0338   6.0347   6.0359   6.0587   6.0791   6.0805   6.1729   6.2049
     6.2119   6.2133   6.2652   6.2666   6.2710   6.2779   6.2866   6.3491
     6.3496   6.3667   6.3732   6.4154   6.4240   6.4244   6.4279   6.4711
     6.4980   6.5006   6.5458   6.5597   6.5949   6.5960   6.6668   6.6674
     6.6776   6.7192   6.7364   6.7377   6.7492   6.8130   6.8153   6.8458
     6.8672   6.9276   6.9377   7.0516

          k = 0.3333 0.5774 0.0000 (115752 PWs)   bands (ev):

   -28.2835 -28.2817 -28.2764 -28.2755 -28.2754 -28.2754 -28.2754 -28.2753
   -28.2752 -28.2743 -28.2690 -28.2672 -14.9257 -14.9255 -14.9253 -14.9243
   -14.9234 -14.9233 -14.9225 -14.9218 -14.9216 -14.9208 -14.9198 -14.9197
   -14.9195 -14.9194 -14.9184 -14.9176 -14.9175 -14.9167 -14.9160 -14.9158
   -14.9158 -14.9150 -14.9140 -14.9137 -14.9076 -14.9074 -14.9064 -14.9055
   -14.9054 -14.9053 -14.9046 -14.9038 -14.9037 -14.9029 -14.9019 -14.9016
   -14.8674 -14.8672 -14.8662 -14.8653 -14.8652 -14.8651 -14.8644 -14.8637
   -14.8635 -14.8626 -14.8616 -14.8614 -14.8222 -14.8220 -14.8209 -14.8202
   -14.8201 -14.8200 -14.8192 -14.8184 -14.8184 -14.8176 -14.8165 -14.8162
   -10.3434 -10.3410 -10.3373 -10.3358 -10.3354 -10.3349 -10.3346 -10.3333
   -10.3324 -10.3304 -10.3271 -10.3254 -10.3099 -10.3087 -10.3054 -10.3044
   -10.3032 -10.3014 -10.3009 -10.3003 -10.2968 -10.2910 -10.2891 -10.2870
   -10.2737 -10.2706 -10.2683 -10.2667 -10.2663 -10.2650 -10.2643 -10.2627
   -10.2622 -10.2590 -10.2576 -10.2539  -6.6517  -6.6502  -6.6494  -6.4042
    -6.3997  -6.3988  -6.3981  -6.3973  -6.3943  -6.2946  -6.2905  -6.1930
    -5.8656  -5.8513  -5.8499  -5.7561  -5.7486  -5.7468  -5.7370  -5.7317
    -5.7275  -5.7107  -5.7059  -5.6977  -5.6941  -5.6929  -5.6858  -5.6842
    -5.6764  -5.6443  -5.5436  -5.5409  -5.5393  -5.5307  -5.5283  -5.5270
    -5.5113  -5.4767  -5.4716  -5.4704  -5.4687  -5.4661  -5.4577  -5.3992
    -5.3919  -5.3032  -5.3014  -5.2972  -0.5441  -0.5152  -0.5142  -0.5133
    -0.3970  -0.3953  -0.3911  -0.3900  -0.3887  -0.3113  -0.3097  -0.3077
     1.4820   1.4844   1.4866   1.6728   1.6753   1.6775   1.6829   1.6868
     1.6899   1.7315   1.7374   1.7998   2.0757   2.0816   2.0826   2.0830
     2.0882   2.1428   2.1448   2.1465   2.2554   2.3959   2.3973   2.3985
     2.4935   2.4945   2.4956   2.5609   2.5639   2.5667   2.5950   2.6000
     2.7725   2.7744   2.7762   2.8356   2.8374   2.8416   2.8442   2.8457
     2.8499   2.8515   2.8534   2.8560   2.8690   3.0083   3.0104   3.0124
     3.0225   3.0258   3.0289   3.0623   3.1313   3.1344   3.1376   3.1968
     3.1976   3.1982   3.2593   3.2599   3.2604   3.2692   3.2730   3.3613
     3.3680   3.3715   3.3725   3.3756   3.4248   3.4258   3.4267   3.4863
     3.4874   3.4986   3.5029   3.5063   3.5272   3.5302   3.5336   3.5471
     3.5491   3.5778   3.5801   3.5834   3.6488   3.6509   3.6534   3.7195
     3.7208   3.7224   3.7277   3.7297   3.7568   3.7999   3.8020   3.8038
     3.9549   3.9596   3.9639   3.9864   3.9880   4.0286   4.0304   4.0324
     4.0831   4.0849   4.0867   4.1409   4.1503   4.1515   4.1525   4.2826
     4.2868   4.2940   4.3171   4.3186   4.3204   4.3211   4.3218   4.3242
     4.3835   4.3867   4.3901   4.4962   4.5132   4.5166   4.5184   4.5209
     4.5248   4.6527   4.6550   4.6577   5.1376   5.1437   5.1442   5.1448
     5.1734   5.1736   5.1876   5.1883   5.1891   5.1962   5.1970   5.1981
     5.2462   5.2474   5.2486   5.2652   5.2661   5.2670   5.2973   5.2985
     5.3002   5.3010   5.3026   5.3037   5.3140   5.3183   5.3190   5.3201
     5.3396   5.3406   5.3419   5.4019   5.4032   5.4041   5.4084   5.4089
     5.4543   5.4556   5.4570   5.4584   5.4827   5.4837   5.4849   5.4889
     5.4891   5.5347   5.5358   5.5368   5.5640   5.5646   5.5652   5.5701
     5.5714   5.5726   5.6413   5.6714   5.6735   5.6947   5.6952   5.6957
     5.7067   5.7076   5.7083   5.7799   5.7806   5.7811   5.7980   5.7997
     5.8019   5.8241   5.8247   5.8445   5.9303   5.9312   5.9322   6.0448
     6.0468   6.0474   6.0488   6.0504   6.1382   6.1389   6.1396   6.1585
     6.2185   6.2194   6.2202   6.2592   6.2604   6.2617   6.2833   6.2854
     6.3746   6.4092   6.4106   6.4119   6.4164   6.4178   6.4236   6.4516
     6.4526   6.4534   6.6146   6.6155   6.6164   6.6749   6.6766   6.6784
     6.7252   6.7405   6.7420   6.8057   6.8064   6.8075   6.8091   6.8108
     6.8129   6.9385   6.9396   6.9406

          k = 0.3333 0.5774 0.2714 (115827 PWs)   bands (ev):

   -28.2835 -28.2818 -28.2764 -28.2755 -28.2754 -28.2754 -28.2754 -28.2753
   -28.2752 -28.2743 -28.2690 -28.2672 -14.9257 -14.9255 -14.9253 -14.9243
   -14.9234 -14.9233 -14.9225 -14.9218 -14.9216 -14.9208 -14.9198 -14.9197
   -14.9195 -14.9194 -14.9184 -14.9176 -14.9175 -14.9167 -14.9160 -14.9158
   -14.9158 -14.9150 -14.9140 -14.9137 -14.9076 -14.9074 -14.9064 -14.9055
   -14.9054 -14.9053 -14.9046 -14.9038 -14.9037 -14.9029 -14.9019 -14.9016
   -14.8674 -14.8672 -14.8662 -14.8653 -14.8652 -14.8651 -14.8644 -14.8637
   -14.8635 -14.8626 -14.8616 -14.8614 -14.8222 -14.8220 -14.8209 -14.8202
   -14.8201 -14.8200 -14.8192 -14.8184 -14.8184 -14.8176 -14.8165 -14.8162
   -10.3437 -10.3413 -10.3379 -10.3369 -10.3364 -10.3340 -10.3335 -10.3332
   -10.3318 -10.3303 -10.3271 -10.3252 -10.3104 -10.3098 -10.3070 -10.3056
   -10.3022 -10.2999 -10.2987 -10.2976 -10.2950 -10.2921 -10.2910 -10.2881
   -10.2738 -10.2705 -10.2683 -10.2672 -10.2660 -10.2645 -10.2636 -10.2630
   -10.2615 -10.2596 -10.2584 -10.2542  -6.6199  -6.6181  -6.6171  -6.5257
    -6.5250  -6.5232  -6.3085  -6.2903  -6.2889  -6.2884  -6.2585  -6.2141
    -5.8747  -5.8584  -5.8446  -5.7858  -5.7793  -5.7766  -5.7445  -5.7415
    -5.7395  -5.7158  -5.6910  -5.6873  -5.6865  -5.6753  -5.6721  -5.6713
    -5.6634  -5.6448  -5.5581  -5.5562  -5.5545  -5.5273  -5.5249  -5.5218
    -5.5045  -5.5034  -5.5025  -5.4978  -5.4600  -5.4000  -5.3977  -5.3942
    -5.3566  -5.3246  -5.3224  -5.3168  -0.5199  -0.5067  -0.5052  -0.5041
    -0.4613  -0.4171  -0.4167  -0.4161  -0.3548  -0.2938  -0.2928  -0.2911
     1.4796   1.4825   1.4854   1.6355   1.6382   1.6411   1.6898   1.7730
     1.7758   1.7786   1.7792   1.7943   1.9800   1.9815   1.9823   2.0554
     2.1705   2.1913   2.1934   2.1970   2.2471   2.3940   2.3971   2.3995
     2.4874   2.4889   2.4910   2.5567   2.5859   2.5875   2.5905   2.5923
     2.6812   2.7354   2.7368   2.7400   2.8204   2.8233   2.8248   2.8278
     2.9009   2.9031   2.9055   2.9247   2.9355   2.9529   2.9550   2.9578
     3.0593   3.0611   3.0638   3.0855   3.0884   3.0899   3.1254   3.1818
     3.2431   3.2451   3.2461   3.2706   3.2716   3.2724   3.3208   3.3251
     3.3282   3.3299   3.3743   3.4070   3.4213   3.4635   3.4654   3.4683
     3.4924   3.4976   3.5000   3.5024   3.5346   3.5376   3.5397   3.5411
     3.5614   3.6148   3.6162   3.6192   3.6526   3.6550   3.6573   3.6948
     3.6983   3.7020   3.7202   3.7444   3.8211   3.8396   3.8412   3.8425
     3.9372   3.9392   3.9415   3.9454   4.0281   4.0303   4.0330   4.0401
     4.0653   4.0680   4.0695   4.1086   4.1132   4.1149   4.1159   4.1681
     4.2719   4.2738   4.2745   4.2908   4.3146   4.3606   4.3609   4.3635
     4.4139   4.4171   4.4209   4.4907   4.4937   4.4965   4.5076   4.5122
     4.5647   4.6650   4.6677   4.6705   5.1487   5.1564   5.1575   5.1577
     5.1588   5.1818   5.1833   5.1839   5.1975   5.1983   5.1996   5.2110
     5.2245   5.2254   5.2262   5.2515   5.2522   5.2530   5.2572   5.2688
     5.3006   5.3023   5.3031   5.3095   5.3284   5.3298   5.3303   5.3676
     5.3686   5.3691   5.3747   5.3937   5.3956   5.4086   5.4093   5.4106
     5.4328   5.4337   5.4340   5.4388   5.4837   5.4848   5.4865   5.4914
     5.5381   5.5398   5.5407   5.5437   5.5656   5.5665   5.5679   5.6056
     5.6062   5.6069   5.6381   5.6394   5.6717   5.6727   5.6741   5.7035
     5.7038   5.7047   5.7171   5.7581   5.7597   5.7616   5.8020   5.8077
     5.8210   5.8225   5.8243   5.8263   5.8898   5.8911   5.8919   6.0568
     6.0597   6.0607   6.0619   6.0769   6.1197   6.1202   6.1222   6.1355
     6.1960   6.2375   6.2384   6.2393   6.2839   6.3017   6.3021   6.3037
     6.3071   6.3841   6.3858   6.3873   6.4498   6.4668   6.4685   6.4689
     6.4916   6.4930   6.5587   6.5599   6.5612   6.6460   6.6842   6.6857
     6.6867   6.7605   6.7767   6.7784   6.7811   6.7931   6.8532   6.8552
     6.8571   6.9348   6.9366   6.9378

          k =-0.3333 0.1925 0.0000 (115797 PWs)   bands (ev):

   -28.2835 -28.2817 -28.2764 -28.2755 -28.2754 -28.2754 -28.2754 -28.2753
   -28.2752 -28.2743 -28.2690 -28.2672 -14.9257 -14.9255 -14.9253 -14.9243
   -14.9234 -14.9233 -14.9225 -14.9218 -14.9217 -14.9207 -14.9199 -14.9197
   -14.9195 -14.9194 -14.9184 -14.9176 -14.9175 -14.9167 -14.9160 -14.9158
   -14.9158 -14.9150 -14.9140 -14.9137 -14.9076 -14.9074 -14.9064 -14.9055
   -14.9054 -14.9053 -14.9046 -14.9038 -14.9037 -14.9028 -14.9019 -14.9016
   -14.8674 -14.8672 -14.8662 -14.8653 -14.8652 -14.8651 -14.8644 -14.8637
   -14.8635 -14.8626 -14.8616 -14.8614 -14.8222 -14.8220 -14.8209 -14.8202
   -14.8201 -14.8200 -14.8192 -14.8184 -14.8184 -14.8176 -14.8165 -14.8162
   -10.3443 -10.3407 -10.3377 -10.3369 -10.3366 -10.3352 -10.3342 -10.3332
   -10.3326 -10.3301 -10.3275 -10.3239 -10.3109 -10.3088 -10.3069 -10.3048
   -10.3034 -10.3020 -10.3007 -10.3003 -10.2931 -10.2923 -10.2905 -10.2844
   -10.2746 -10.2694 -10.2691 -10.2676 -10.2661 -10.2658 -10.2625 -10.2617
   -10.2607 -10.2589 -10.2576 -10.2538  -6.7879  -6.5894  -6.5007  -6.4970
    -6.4404  -6.4381  -6.3661  -6.3488  -6.2862  -6.2840  -6.2487  -6.2466
    -5.9103  -5.9076  -5.8239  -5.8194  -5.8170  -5.7756  -5.7682  -5.7654
    -5.7349  -5.7263  -5.7202  -5.6925  -5.6895  -5.6523  -5.6379  -5.6362
    -5.6289  -5.5996  -5.5835  -5.5828  -5.5669  -5.5271  -5.5203  -5.5180
    -5.5118  -5.5053  -5.4611  -5.4511  -5.4367  -5.4324  -5.4210  -5.4147
    -5.3520  -5.3479  -5.3090  -5.2685  -0.5710  -0.5694  -0.5633  -0.4361
    -0.4042  -0.4026  -0.3762  -0.3392  -0.3388  -0.3370  -0.3118  -0.3022
     1.4205   1.4841   1.4876   1.5026   1.6380   1.6515   1.6861   1.7225
     1.7251   1.8268   1.8777   1.8793   1.9539   1.9562   1.9598   2.0293
     2.1161   2.2060   2.2302   2.2327   2.3411   2.3637   2.3831   2.3860
     2.3941   2.4106   2.4515   2.5329   2.5379   2.6119   2.6138   2.6176
     2.6584   2.7322   2.8113   2.8132   2.8211   2.8389   2.8434   2.8439
     2.8547   2.8850   2.9076   2.9098   2.9146   2.9607   2.9649   3.0045
     3.0487   3.0558   3.0589   3.1228   3.1464   3.1749   3.2060   3.2117
     3.2132   3.2319   3.2612   3.2629   3.2698   3.3235   3.3306   3.3324
     3.3376   3.3723   3.3959   3.3995   3.4328   3.4405   3.4426   3.4505
     3.4959   3.4982   3.5008   3.5078   3.5112   3.5165   3.5216   3.5483
     3.5646   3.6036   3.6070   3.6114   3.6347   3.6454   3.6786   3.6804
     3.6953   3.7009   3.7038   3.7086   3.7781   3.7807   3.8496   3.8591
     3.8933   3.9730   3.9762   3.9771   3.9825   4.0285   4.0382   4.0388
     4.0919   4.1114   4.1212   4.1225   4.1276   4.1636   4.1670   4.1778
     4.2474   4.2630   4.2675   4.2816   4.3043   4.3232   4.3250   4.3671
     4.3804   4.4147   4.4167   4.4823   4.5198   4.5261   4.5280   4.5336
     4.5916   4.5939   4.6246   4.7479   5.1438   5.1452   5.1467   5.1535
     5.1600   5.1608   5.1697   5.1756   5.2156   5.2195   5.2200   5.2216
     5.2273   5.2371   5.2488   5.2496   5.2500   5.2612   5.2691   5.2719
     5.2726   5.2894   5.3035   5.3043   5.3150   5.3195   5.3264   5.3275
     5.3371   5.3491   5.3520   5.3530   5.3573   5.3649   5.4141   5.4150
     5.4332   5.4514   5.4611   5.4624   5.4856   5.4932   5.5000   5.5014
     5.5030   5.5122   5.5263   5.5439   5.5566   5.5571   5.5620   5.6030
     5.6039   5.6302   5.6324   5.6331   5.6680   5.6780   5.6953   5.6964
     5.6972   5.7178   5.7298   5.7562   5.7755   5.7768   5.8093   5.8185
     5.8192   5.8656   5.8748   5.8760   5.9507   5.9526   5.9647   5.9655
     5.9915   6.0060   6.0078   6.0204   6.1382   6.1398   6.1451   6.1609
     6.2256   6.2303   6.2317   6.2524   6.2701   6.2905   6.2908   6.2982
     6.3614   6.3621   6.3768   6.3895   6.3910   6.4405   6.4842   6.4874
     6.5242   6.5383   6.5390   6.5753   6.6048   6.6501   6.6832   6.6923
     6.6942   6.7290   6.7375   6.7381   6.7629   6.7794   6.7918   6.8107
     6.8132   6.9053   6.9097   7.0819

          k = 0.3333 0.1925 0.0000 (115797 PWs)   bands (ev):

   -28.2835 -28.2818 -28.2764 -28.2755 -28.2754 -28.2754 -28.2754 -28.2753
   -28.2752 -28.2743 -28.2690 -28.2672 -14.9257 -14.9255 -14.9253 -14.9243
   -14.9234 -14.9233 -14.9225 -14.9218 -14.9217 -14.9208 -14.9198 -14.9197
   -14.9195 -14.9194 -14.9184 -14.9176 -14.9175 -14.9167 -14.9160 -14.9158
   -14.9158 -14.9150 -14.9140 -14.9137 -14.9076 -14.9074 -14.9064 -14.9055
   -14.9054 -14.9053 -14.9046 -14.9038 -14.9037 -14.9029 -14.9018 -14.9016
   -14.8674 -14.8672 -14.8662 -14.8653 -14.8652 -14.8651 -14.8644 -14.8637
   -14.8635 -14.8626 -14.8616 -14.8614 -14.8222 -14.8220 -14.8209 -14.8202
   -14.8201 -14.8200 -14.8192 -14.8184 -14.8184 -14.8176 -14.8165 -14.8162
   -10.3435 -10.3420 -10.3372 -10.3363 -10.3359 -10.3351 -10.3340 -10.3336
   -10.3333 -10.3304 -10.3277 -10.3240 -10.3108 -10.3090 -10.3065 -10.3048
   -10.3032 -10.3021 -10.3007 -10.2996 -10.2954 -10.2928 -10.2890 -10.2842
   -10.2742 -10.2709 -10.2691 -10.2670 -10.2652 -10.2641 -10.2636 -10.2625
   -10.2618 -10.2598 -10.2568 -10.2529  -6.7880  -6.5900  -6.5003  -6.4975
    -6.4396  -6.4372  -6.3655  -6.3492  -6.2850  -6.2846  -6.2490  -6.2475
    -5.9129  -5.9091  -5.8233  -5.8190  -5.8157  -5.7791  -5.7690  -5.7669
    -5.7320  -5.7238  -5.7218  -5.6929  -5.6869  -5.6474  -5.6395  -5.6373
    -5.6279  -5.5960  -5.5846  -5.5835  -5.5679  -5.5299  -5.5188  -5.5182
    -5.5146  -5.5019  -5.4624  -5.4507  -5.4369  -5.4350  -5.4217  -5.4146
    -5.3498  -5.3432  -5.3125  -5.2695  -0.5719  -0.5698  -0.5620  -0.4354
    -0.4048  -0.4027  -0.3771  -0.3382  -0.3376  -0.3371  -0.3123  -0.3030
     1.4187   1.4846   1.4904   1.5012   1.6397   1.6520   1.6882   1.7210
     1.7274   1.8281   1.8766   1.8775   1.9532   1.9558   1.9579   2.0277
     2.1155   2.2067   2.2290   2.2312   2.3389   2.3637   2.3833   2.3887
     2.3940   2.4089   2.4500   2.5342   2.5414   2.6123   2.6131   2.6178
     2.6574   2.7349   2.8125   2.8133   2.8218   2.8396   2.8420   2.8461
     2.8540   2.8848   2.9080   2.9089   2.9154   2.9620   2.9631   3.0044
     3.0492   3.0568   3.0582   3.1242   3.1483   3.1758   3.2042   3.2105
     3.2137   3.2342   3.2609   3.2613   3.2691   3.3239   3.3296   3.3318
     3.3391   3.3722   3.3951   3.3956   3.4332   3.4399   3.4426   3.4495
     3.4950   3.4983   3.4996   3.5108   3.5120   3.5147   3.5246   3.5432
     3.5620   3.6054   3.6055   3.6113   3.6350   3.6466   3.6785   3.6810
     3.6944   3.7013   3.7056   3.7092   3.7778   3.7810   3.8490   3.8598
     3.8962   3.9736   3.9749   3.9778   3.9815   4.0299   4.0383   4.0401
     4.0927   4.1114   4.1209   4.1218   4.1261   4.1626   4.1635   4.1778
     4.2481   4.2660   4.2685   4.2826   4.3031   4.3209   4.3254   4.3685
     4.3786   4.4151   4.4191   4.4835   4.5177   4.5261   4.5288   4.5306
     4.5900   4.5929   4.6269   4.7488   5.1439   5.1440   5.1470   5.1547
     5.1603   5.1607   5.1697   5.1747   5.2149   5.2194   5.2197   5.2220
     5.2280   5.2375   5.2490   5.2493   5.2502   5.2612   5.2677   5.2721
     5.2722   5.2895   5.3044   5.3045   5.3140   5.3188   5.3267   5.3280
     5.3369   5.3499   5.3524   5.3534   5.3576   5.3659   5.4132   5.4150
     5.4339   5.4512   5.4611   5.4617   5.4856   5.4935   5.5004   5.5005
     5.5028   5.5130   5.5278   5.5439   5.5569   5.5571   5.5614   5.6032
     5.6038   5.6306   5.6317   5.6320   5.6681   5.6783   5.6944   5.6962
     5.6981   5.7178   5.7297   5.7564   5.7747   5.7765   5.8088   5.8190
     5.8200   5.8639   5.8760   5.8762   5.9506   5.9517   5.9650   5.9656
     5.9904   6.0063   6.0078   6.0211   6.1386   6.1401   6.1450   6.1606
     6.2255   6.2297   6.2304   6.2514   6.2709   6.2895   6.2897   6.2993
     6.3615   6.3622   6.3774   6.3899   6.3908   6.4412   6.4857   6.4873
     6.5241   6.5383   6.5384   6.5759   6.6047   6.6510   6.6839   6.6912
     6.6946   6.7296   6.7371   6.7390   6.7627   6.7780   6.7927   6.8113
     6.8144   6.9044   6.9092   7.0809

          k = 0.0000-0.3849 0.2714 (115773 PWs)   bands (ev):

   -28.2835 -28.2817 -28.2764 -28.2755 -28.2754 -28.2754 -28.2754 -28.2753
   -28.2752 -28.2743 -28.2690 -28.2672 -14.9257 -14.9256 -14.9252 -14.9244
   -14.9234 -14.9233 -14.9225 -14.9217 -14.9216 -14.9208 -14.9198 -14.9197
   -14.9195 -14.9194 -14.9184 -14.9176 -14.9175 -14.9167 -14.9160 -14.9158
   -14.9158 -14.9150 -14.9140 -14.9137 -14.9076 -14.9074 -14.9064 -14.9055
   -14.9054 -14.9053 -14.9046 -14.9038 -14.9037 -14.9029 -14.9019 -14.9016
   -14.8674 -14.8672 -14.8662 -14.8653 -14.8652 -14.8651 -14.8644 -14.8637
   -14.8635 -14.8626 -14.8616 -14.8614 -14.8222 -14.8220 -14.8209 -14.8202
   -14.8201 -14.8200 -14.8192 -14.8184 -14.8184 -14.8176 -14.8165 -14.8162
   -10.3436 -10.3421 -10.3379 -10.3366 -10.3362 -10.3355 -10.3344 -10.3336
   -10.3310 -10.3296 -10.3286 -10.3238 -10.3115 -10.3106 -10.3057 -10.3053
   -10.3035 -10.3012 -10.2982 -10.2976 -10.2947 -10.2934 -10.2915 -10.2849
   -10.2735 -10.2707 -10.2690 -10.2677 -10.2658 -10.2652 -10.2625 -10.2624
   -10.2603 -10.2595 -10.2586 -10.2527  -6.7512  -6.6467  -6.5629  -6.4675
    -6.4186  -6.4165  -6.3635  -6.3424  -6.3401  -6.2660  -6.2121  -6.2106
    -5.9171  -5.9140  -5.8275  -5.8203  -5.8184  -5.8143  -5.7678  -5.7635
    -5.7552  -5.7309  -5.6845  -5.6818  -5.6782  -5.6645  -5.6427  -5.6411
    -5.6355  -5.6045  -5.5878  -5.5827  -5.5734  -5.5312  -5.5285  -5.5254
    -5.5175  -5.4877  -5.4649  -5.4400  -5.4386  -5.4330  -5.3961  -5.3707
    -5.3437  -5.3379  -5.3349  -5.2955  -0.5638  -0.5622  -0.5496  -0.4323
    -0.4293  -0.4273  -0.4127  -0.3610  -0.3214  -0.3211  -0.2905  -0.2839
     1.4034   1.4950   1.4978   1.5137   1.6133   1.7106   1.7128   1.7247
     1.7385   1.7729   1.8429   1.8455   1.9683   1.9852   2.0174   2.0223
     2.1282   2.1999   2.2087   2.2107   2.2838   2.3303   2.3932   2.4266
     2.4305   2.5182   2.5287   2.5313   2.5569   2.5587   2.5596   2.5636
     2.5973   2.6778   2.7627   2.7663   2.8244   2.8255   2.8269   2.8308
     2.8511   2.8549   2.8944   2.8973   2.9055   3.0086   3.0169   3.0195
     3.0777   3.0806   3.1164   3.1194   3.1349   3.1791   3.1816   3.1882
     3.2155   3.2464   3.2664   3.2827   3.2843   3.2960   3.3303   3.3329
     3.3733   3.3746   3.3775   3.3788   3.4466   3.4487   3.4492   3.4784
     3.4795   3.4820   3.5061   3.5139   3.5337   3.5342   3.5370   3.5580
     3.5857   3.5884   3.6105   3.6328   3.6413   3.6455   3.6833   3.6839
     3.6874   3.6960   3.7038   3.7069   3.8359   3.8378   3.8789   3.8807
     3.9425   3.9436   3.9455   3.9506   3.9750   4.0326   4.0537   4.0564
     4.0609   4.0616   4.0982   4.1002   4.1196   4.1221   4.1289   4.1333
     4.2259   4.2428   4.2683   4.2716   4.2909   4.2934   4.3124   4.3650
     4.3925   4.4351   4.4362   4.4797   4.5184   4.5452   4.5472   4.5843
     4.5945   4.5961   4.6332   4.7313   5.1467   5.1476   5.1543   5.1650
     5.1681   5.1688   5.1696   5.1734   5.1999   5.2050   5.2121   5.2176
     5.2191   5.2283   5.2411   5.2419   5.2601   5.2649   5.2654   5.2660
     5.2673   5.2726   5.3099   5.3110   5.3185   5.3332   5.3471   5.3473
     5.3600   5.3630   5.3633   5.3687   5.3702   5.3804   5.3888   5.3890
     5.4103   5.4338   5.4477   5.4506   5.4520   5.4692   5.4968   5.4987
     5.5175   5.5255   5.5562   5.5573   5.5680   5.5691   5.6019   5.6023
     5.6084   5.6207   5.6310   5.6495   5.6504   5.6615   5.6749   5.7079
     5.7095   5.7385   5.7598   5.7605   5.7711   5.7848   5.8058   5.8065
     5.8135   5.8398   5.8684   5.8687   5.8750   5.8926   5.9689   5.9698
     6.0183   6.0253   6.0265   6.1014   6.1031   6.1122   6.1595   6.1879
     6.2019   6.2026   6.2047   6.2615   6.2623   6.2887   6.3177   6.3432
     6.3554   6.3676   6.3691   6.4131   6.4202   6.4213   6.4524   6.4814
     6.4834   6.5072   6.5579   6.5679   6.6066   6.6083   6.6477   6.6671
     6.6690   6.7363   6.7385   6.7397   6.7485   6.8039   6.8063   6.8518
     6.8652   6.9190   6.9463   7.0373

          k =-0.3333 0.1925 0.2714 (115773 PWs)   bands (ev):

   -28.2835 -28.2817 -28.2764 -28.2755 -28.2754 -28.2754 -28.2754 -28.2753
   -28.2752 -28.2743 -28.2690 -28.2672 -14.9257 -14.9255 -14.9253 -14.9243
   -14.9234 -14.9233 -14.9225 -14.9218 -14.9217 -14.9207 -14.9199 -14.9197
   -14.9195 -14.9194 -14.9184 -14.9176 -14.9175 -14.9167 -14.9160 -14.9158
   -14.9158 -14.9150 -14.9140 -14.9137 -14.9076 -14.9074 -14.9064 -14.9055
   -14.9054 -14.9053 -14.9046 -14.9038 -14.9037 -14.9028 -14.9019 -14.9016
   -14.8674 -14.8672 -14.8662 -14.8653 -14.8652 -14.8651 -14.8644 -14.8637
   -14.8635 -14.8626 -14.8616 -14.8614 -14.8222 -14.8220 -14.8209 -14.8202
   -14.8201 -14.8200 -14.8192 -14.8184 -14.8184 -14.8176 -14.8165 -14.8162
   -10.3445 -10.3411 -10.3383 -10.3376 -10.3369 -10.3355 -10.3340 -10.3324
   -10.3317 -10.3293 -10.3274 -10.3243 -10.3115 -10.3100 -10.3076 -10.3049
   -10.3035 -10.3023 -10.2980 -10.2956 -10.2944 -10.2920 -10.2916 -10.2864
   -10.2745 -10.2694 -10.2689 -10.2677 -10.2665 -10.2652 -10.2622 -10.2615
   -10.2611 -10.2586 -10.2579 -10.2546  -6.7511  -6.6465  -6.5603  -6.4699
    -6.4221  -6.4194  -6.3639  -6.3409  -6.3386  -6.2652  -6.2110  -6.2096
    -5.9131  -5.9104  -5.8277  -5.8222  -5.8190  -5.8161  -5.7663  -5.7628
    -5.7506  -5.7369  -5.6865  -5.6824  -5.6807  -5.6615  -5.6421  -5.6403
    -5.6394  -5.6111  -5.5873  -5.5832  -5.5721  -5.5307  -5.5281  -5.5249
    -5.5145  -5.4842  -5.4652  -5.4394  -5.4372  -5.4337  -5.4014  -5.3701
    -5.3470  -5.3440  -5.3253  -5.2938  -0.5620  -0.5602  -0.5533  -0.4340
    -0.4302  -0.4279  -0.4092  -0.3602  -0.3226  -0.3225  -0.2898  -0.2827
     1.4065   1.4908   1.4940   1.5170   1.6114   1.7099   1.7132   1.7213
     1.7355   1.7729   1.8459   1.8484   1.9644   1.9863   2.0216   2.0262
     2.1306   2.1983   2.2082   2.2101   2.2869   2.3375   2.3996   2.4238
     2.4279   2.5171   2.5278   2.5302   2.5542   2.5573   2.5588   2.5599
     2.6023   2.6789   2.7625   2.7662   2.8208   2.8241   2.8253   2.8289
     2.8491   2.8515   2.8939   2.8971   2.9068   3.0073   3.0172   3.0205
     3.0742   3.0774   3.1177   3.1205   3.1328   3.1805   3.1826   3.1887
     3.2115   3.2459   3.2659   3.2857   3.2881   3.2954   3.3293   3.3316
     3.3740   3.3783   3.3805   3.3843   3.4457   3.4481   3.4514   3.4751
     3.4791   3.4814   3.5060   3.5239   3.5330   3.5356   3.5396   3.5589
     3.5856   3.5880   3.6114   3.6300   3.6383   3.6450   3.6795   3.6833
     3.6891   3.6976   3.7036   3.7058   3.8355   3.8374   3.8774   3.8805
     3.9391   3.9455   3.9470   3.9494   3.9696   4.0320   4.0528   4.0577
     4.0600   4.0606   4.1012   4.1023   4.1230   4.1258   4.1321   4.1339
     4.2215   4.2377   4.2662   4.2698   4.2900   4.2919   4.3151   4.3696
     4.3919   4.4335   4.4346   4.4819   4.5244   4.5426   4.5445   4.5869
     4.5968   4.5996   4.6296   4.7284   5.1479   5.1490   5.1524   5.1640
     5.1682   5.1688   5.1703   5.1726   5.1995   5.2048   5.2132   5.2186
     5.2198   5.2300   5.2406   5.2415   5.2604   5.2632   5.2643   5.2648
     5.2658   5.2744   5.3095   5.3110   5.3188   5.3348   5.3465   5.3468
     5.3601   5.3629   5.3634   5.3677   5.3694   5.3812   5.3891   5.3894
     5.4101   5.4327   5.4478   5.4518   5.4530   5.4691   5.4960   5.4979
     5.5165   5.5232   5.5561   5.5574   5.5689   5.5699   5.6026   5.6029
     5.6069   5.6201   5.6316   5.6503   5.6512   5.6601   5.6751   5.7088
     5.7102   5.7401   5.7603   5.7611   5.7703   5.7841   5.8046   5.8053
     5.8159   5.8398   5.8666   5.8670   5.8756   5.8972   5.9688   5.9697
     6.0198   6.0247   6.0265   6.1005   6.1022   6.1117   6.1599   6.1868
     6.2025   6.2045   6.2052   6.2636   6.2644   6.2862   6.3192   6.3412
     6.3545   6.3701   6.3714   6.4134   6.4185   6.4197   6.4522   6.4805
     6.4824   6.5071   6.5579   6.5654   6.6064   6.6081   6.6472   6.6657
     6.6675   6.7372   6.7394   6.7402   6.7488   6.8032   6.8055   6.8505
     6.8677   6.9178   6.9454   7.0406

          k = 0.3333 0.1925 0.2714 (115773 PWs)   bands (ev):

   -28.2835 -28.2818 -28.2764 -28.2755 -28.2754 -28.2754 -28.2754 -28.2753
   -28.2752 -28.2743 -28.2690 -28.2672 -14.9257 -14.9255 -14.9253 -14.9243
   -14.9234 -14.9233 -14.9225 -14.9218 -14.9217 -14.9208 -14.9198 -14.9197
   -14.9195 -14.9194 -14.9184 -14.9176 -14.9175 -14.9167 -14.9160 -14.9158
   -14.9158 -14.9150 -14.9140 -14.9137 -14.9076 -14.9074 -14.9064 -14.9055
   -14.9054 -14.9053 -14.9046 -14.9038 -14.9037 -14.9029 -14.9018 -14.9016
   -14.8674 -14.8672 -14.8662 -14.8653 -14.8652 -14.8651 -14.8644 -14.8637
   -14.8635 -14.8626 -14.8616 -14.8614 -14.8222 -14.8220 -14.8209 -14.8202
   -14.8201 -14.8200 -14.8192 -14.8184 -14.8184 -14.8176 -14.8165 -14.8162
   -10.3437 -10.3424 -10.3380 -10.3369 -10.3364 -10.3349 -10.3343 -10.3330
   -10.3320 -10.3299 -10.3274 -10.3243 -10.3113 -10.3104 -10.3072 -10.3057
   -10.3019 -10.3016 -10.2982 -10.2969 -10.2951 -10.2933 -10.2907 -10.2856
   -10.2740 -10.2711 -10.2687 -10.2666 -10.2658 -10.2641 -10.2633 -10.2620
   -10.2614 -10.2606 -10.2572 -10.2533  -6.7512  -6.6466  -6.5614  -6.4689
    -6.4211  -6.4180  -6.3637  -6.3407  -6.3395  -6.2657  -6.2113  -6.2100
    -5.9156  -5.9115  -5.8298  -5.8198  -5.8190  -5.8148  -5.7660  -5.7644
    -5.7534  -5.7337  -5.6870  -5.6819  -5.6777  -5.6634  -5.6454  -5.6409
    -5.6337  -5.6072  -5.5865  -5.5845  -5.5727  -5.5329  -5.5270  -5.5238
    -5.5159  -5.4856  -5.4650  -5.4395  -5.4379  -5.4365  -5.3975  -5.3699
    -5.3456  -5.3395  -5.3307  -5.2950  -0.5633  -0.5608  -0.5515  -0.4331
    -0.4299  -0.4275  -0.4110  -0.3606  -0.3222  -0.3217  -0.2901  -0.2832
     1.4050   1.4912   1.4973   1.5155   1.6124   1.7092   1.7142   1.7226
     1.7373   1.7730   1.8434   1.8479   1.9664   1.9858   2.0216   2.0222
     2.1292   2.1990   2.2089   2.2099   2.2853   2.3341   2.3966   2.4242
     2.4299   2.5180   2.5286   2.5297   2.5548   2.5581   2.5587   2.5627
     2.5999   2.6784   2.7635   2.7655   2.8219   2.8241   2.8270   2.8302
     2.8503   2.8530   2.8950   2.8969   2.9061   3.0079   3.0176   3.0197
     3.0763   3.0783   3.1176   3.1196   3.1338   3.1806   3.1815   3.1884
     3.2135   3.2462   3.2664   3.2848   3.2859   3.2956   3.3299   3.3324
     3.3754   3.3769   3.3787   3.3797   3.4450   3.4487   3.4507   3.4750
     3.4799   3.4828   3.5062   3.5194   3.5332   3.5354   3.5374   3.5582
     3.5867   3.5869   3.6107   3.6314   3.6403   3.6449   3.6813   3.6845
     3.6876   3.6956   3.7043   3.7069   3.8350   3.8381   3.8784   3.8802
     3.9407   3.9457   3.9463   3.9494   3.9721   4.0324   4.0538   4.0565
     4.0596   4.0620   4.1003   4.1014   4.1213   4.1240   4.1300   4.1335
     4.2235   4.2404   4.2680   4.2703   4.2901   4.2927   4.3138   4.3672
     4.3920   4.4332   4.4367   4.4809   4.5213   4.5434   4.5465   4.5853
     4.5956   4.5979   4.6315   4.7299   5.1475   5.1481   5.1536   5.1643
     5.1679   5.1688   5.1704   5.1728   5.1998   5.2048   5.2126   5.2180
     5.2195   5.2293   5.2407   5.2419   5.2603   5.2638   5.2649   5.2656
     5.2664   5.2734   5.3098   5.3109   5.3187   5.3341   5.3466   5.3470
     5.3600   5.3628   5.3635   5.3682   5.3698   5.3808   5.3889   5.3894
     5.4102   5.4333   5.4478   5.4510   5.4528   5.4692   5.4962   5.4985
     5.5170   5.5242   5.5562   5.5573   5.5687   5.5693   5.6022   5.6025
     5.6077   5.6205   5.6312   5.6501   5.6506   5.6610   5.6749   5.7076
     5.7106   5.7393   5.7603   5.7605   5.7707   5.7845   5.8041   5.8068
     5.8148   5.8398   5.8675   5.8678   5.8754   5.8948   5.9683   5.9703
     6.0191   6.0256   6.0259   6.1015   6.1020   6.1120   6.1596   6.1873
     6.2015   6.2036   6.2058   6.2625   6.2635   6.2874   6.3184   6.3423
     6.3549   6.3685   6.3705   6.4126   6.4192   6.4213   6.4523   6.4818
     6.4820   6.5072   6.5578   6.5667   6.6058   6.6089   6.6476   6.6656
     6.6690   6.7359   6.7397   6.7400   6.7488   6.8026   6.8068   6.8512
     6.8664   6.9184   6.9458   7.0389

          k =-0.3333-0.1925 0.2714 (115773 PWs)   bands (ev):

   -28.2835 -28.2818 -28.2764 -28.2755 -28.2754 -28.2754 -28.2754 -28.2753
   -28.2752 -28.2743 -28.2690 -28.2672 -14.9257 -14.9255 -14.9253 -14.9243
   -14.9234 -14.9233 -14.9225 -14.9218 -14.9217 -14.9208 -14.9198 -14.9197
   -14.9195 -14.9194 -14.9184 -14.9176 -14.9175 -14.9167 -14.9160 -14.9158
   -14.9158 -14.9150 -14.9140 -14.9137 -14.9076 -14.9074 -14.9064 -14.9055
   -14.9054 -14.9053 -14.9046 -14.9038 -14.9037 -14.9029 -14.9018 -14.9016
   -14.8674 -14.8672 -14.8662 -14.8653 -14.8652 -14.8651 -14.8644 -14.8637
   -14.8635 -14.8626 -14.8616 -14.8614 -14.8222 -14.8220 -14.8209 -14.8202
   -14.8201 -14.8200 -14.8192 -14.8184 -14.8184 -14.8176 -14.8165 -14.8162
   -10.3437 -10.3424 -10.3381 -10.3368 -10.3363 -10.3348 -10.3343 -10.3331
   -10.3320 -10.3299 -10.3276 -10.3240 -10.3117 -10.3103 -10.3066 -10.3056
   -10.3023 -10.3004 -10.2996 -10.2971 -10.2955 -10.2932 -10.2895 -10.2860
   -10.2740 -10.2710 -10.2681 -10.2672 -10.2656 -10.2646 -10.2633 -10.2623
   -10.2614 -10.2601 -10.2570 -10.2534  -6.7510  -6.6468  -6.5606  -6.4722
    -6.4245  -6.4210  -6.3641  -6.3298  -6.3272  -6.2590  -6.2247  -6.2242
    -5.9065  -5.9032  -5.8292  -5.8181  -5.8096  -5.8054  -5.7919  -5.7611
    -5.7596  -5.7325  -5.7151  -5.7046  -5.6715  -5.6351  -5.6306  -5.6280
    -5.6256  -5.6085  -5.5999  -5.5980  -5.5692  -5.5301  -5.5220  -5.5207
    -5.5195  -5.4954  -5.4677  -5.4328  -5.4310  -5.4278  -5.4185  -5.3639
    -5.3494  -5.3424  -5.3214  -5.2985  -0.5603  -0.5593  -0.5569  -0.4375
    -0.4339  -0.4249  -0.3936  -0.3733  -0.3188  -0.3186  -0.2991  -0.2788
     1.4335   1.4822   1.4866   1.4897   1.6253   1.6417   1.7687   1.7760
     1.7829   1.7908   1.7999   1.8008   1.9144   1.9958   1.9966   2.0772
     2.1550   2.2000   2.2106   2.2470   2.2492   2.3600   2.3908   2.3959
     2.3984   2.4485   2.5095   2.5145   2.5472   2.5888   2.5920   2.6085
     2.6429   2.7111   2.7615   2.7672   2.7698   2.7889   2.8092   2.8093
     2.8391   2.8746   2.9158   2.9161   2.9190   2.9816   3.0228   3.0255
     3.0677   3.1059   3.1078   3.1324   3.1708   3.1907   3.1938   3.1955
     3.2002   3.2322   3.2646   3.2650   3.2770   3.3180   3.3217   3.3220
     3.3245   3.3890   3.3902   3.4105   3.4445   3.4464   3.4650   3.4700
     3.4718   3.4748   3.4759   3.4802   3.5332   3.5366   3.5373   3.5912
     3.6107   3.6120   3.6137   3.6332   3.6422   3.6479   3.6587   3.6607
     3.6676   3.7089   3.7111   3.7158   3.8357   3.8361   3.8796   3.8880
     3.9050   3.9495   3.9510   3.9748   3.9820   4.0201   4.0473   4.0488
     4.0506   4.0659   4.1105   4.1116   4.1197   4.1328   4.1341   4.1477
     4.1908   4.2553   4.2651   4.2693   4.2881   4.2908   4.2945   4.3872
     4.3978   4.4362   4.4403   4.4680   4.5235   4.5263   4.5358   4.5963
     4.6101   4.6119   4.6226   4.7214   5.1509   5.1510   5.1543   5.1570
     5.1715   5.1758   5.1766   5.1835   5.1907   5.1980   5.2014   5.2077
     5.2083   5.2345   5.2350   5.2356   5.2548   5.2632   5.2654   5.2673
     5.2792   5.2982   5.3075   5.3131   5.3132   5.3287   5.3358   5.3380
     5.3581   5.3584   5.3605   5.3638   5.3803   5.3928   5.4070   5.4074
     5.4131   5.4320   5.4333   5.4451   5.4454   5.4928   5.5020   5.5026
     5.5095   5.5160   5.5537   5.5599   5.5744   5.5751   5.6026   5.6111
     5.6115   5.6190   5.6253   5.6254   5.6431   5.6702   5.6822   5.7136
     5.7157   5.7173   5.7342   5.7719   5.7728   5.7743   5.8017   5.8035
     5.8103   5.8585   5.8754   5.8758   5.8787   5.9147   5.9590   5.9598
     6.0331   6.0349   6.0368   6.0596   6.0781   6.0804   6.1732   6.2066
     6.2126   6.2141   6.2656   6.2668   6.2707   6.2774   6.2856   6.3492
     6.3494   6.3658   6.3722   6.4151   6.4247   6.4253   6.4274   6.4712
     6.4981   6.4991   6.5458   6.5594   6.5959   6.5961   6.6664   6.6678
     6.6771   6.7197   6.7362   6.7372   6.7478   6.8127   6.8147   6.8449
     6.8691   6.9284   6.9372   7.0524

          k = 0.3333-0.1925 0.2714 (115773 PWs)   bands (ev):

   -28.2835 -28.2817 -28.2764 -28.2755 -28.2754 -28.2754 -28.2754 -28.2753
   -28.2752 -28.2743 -28.2690 -28.2672 -14.9257 -14.9255 -14.9253 -14.9243
   -14.9234 -14.9233 -14.9225 -14.9218 -14.9217 -14.9207 -14.9199 -14.9197
   -14.9195 -14.9194 -14.9184 -14.9176 -14.9175 -14.9167 -14.9160 -14.9158
   -14.9158 -14.9150 -14.9140 -14.9137 -14.9076 -14.9074 -14.9064 -14.9055
   -14.9054 -14.9053 -14.9046 -14.9038 -14.9037 -14.9028 -14.9019 -14.9016
   -14.8674 -14.8672 -14.8662 -14.8653 -14.8652 -14.8651 -14.8644 -14.8637
   -14.8635 -14.8626 -14.8616 -14.8614 -14.8222 -14.8220 -14.8209 -14.8202
   -14.8201 -14.8200 -14.8192 -14.8184 -14.8184 -14.8176 -14.8165 -14.8162
   -10.3445 -10.3412 -10.3381 -10.3376 -10.3372 -10.3354 -10.3333 -10.3330
   -10.3316 -10.3295 -10.3274 -10.3242 -10.3115 -10.3106 -10.3069 -10.3060
   -10.3021 -10.3005 -10.3001 -10.2959 -10.2939 -10.2930 -10.2914 -10.2860
   -10.2744 -10.2692 -10.2688 -10.2677 -10.2663 -10.2654 -10.2627 -10.2616
   -10.2603 -10.2594 -10.2580 -10.2543  -6.7507  -6.6471  -6.5599  -6.4725
    -6.4252  -6.4226  -6.3638  -6.3292  -6.3269  -6.2593  -6.2247  -6.2235
    -5.9047  -5.9020  -5.8265  -5.8222  -5.8082  -5.8065  -5.7895  -5.7614
    -5.7575  -5.7347  -5.7125  -5.7091  -5.6704  -5.6419  -5.6297  -5.6278
    -5.6256  -5.6094  -5.5998  -5.5975  -5.5689  -5.5290  -5.5231  -5.5205
    -5.5168  -5.4977  -5.4651  -5.4321  -5.4291  -5.4267  -5.4205  -5.3650
    -5.3509  -5.3475  -5.3177  -5.2963  -0.5609  -0.5584  -0.5566  -0.4372
    -0.4351  -0.4264  -0.3925  -0.3721  -0.3195  -0.3189  -0.2987  -0.2785
     1.4355   1.4823   1.4855   1.4888   1.6240   1.6401   1.7683   1.7727
     1.7816   1.7885   1.8026   1.8033   1.9149   1.9969   2.0011   2.0783
     2.1568   2.1991   2.2093   2.2476   2.2495   2.3643   2.3897   2.3932
     2.4020   2.4471   2.5079   2.5128   2.5492   2.5896   2.5910   2.6074
     2.6419   2.7103   2.7605   2.7675   2.7692   2.7898   2.8067   2.8095
     2.8392   2.8733   2.9151   2.9172   2.9187   2.9827   3.0227   3.0256
     3.0655   3.1063   3.1089   3.1301   3.1718   3.1925   3.1931   3.1940
     3.1981   3.2325   3.2636   3.2670   3.2759   3.3171   3.3215   3.3229
     3.3255   3.3902   3.3941   3.4102   3.4450   3.4473   3.4663   3.4698
     3.4716   3.4733   3.4769   3.4820   3.5328   3.5365   3.5372   3.5901
     3.6109   3.6128   3.6142   3.6336   3.6445   3.6474   3.6576   3.6599
     3.6711   3.7072   3.7114   3.7126   3.8353   3.8371   3.8787   3.8868
     3.9021   3.9505   3.9523   3.9762   3.9804   4.0177   4.0469   4.0487
     4.0492   4.0665   4.1118   4.1134   4.1211   4.1333   4.1355   4.1484
     4.1889   4.2538   4.2649   4.2678   4.2879   4.2902   4.2960   4.3890
     4.3980   4.4364   4.4385   4.4680   4.5231   4.5246   4.5386   4.5983
     4.6112   4.6131   4.6203   4.7200   5.1512   5.1524   5.1544   5.1564
     5.1713   5.1750   5.1755   5.1837   5.1907   5.1980   5.2017   5.2084
     5.2092   5.2341   5.2353   5.2359   5.2550   5.2629   5.2652   5.2661
     5.2801   5.2987   5.3081   5.3126   5.3129   5.3286   5.3357   5.3366
     5.3579   5.3582   5.3606   5.3633   5.3803   5.3922   5.4076   5.4082
     5.4125   5.4318   5.4332   5.4449   5.4458   5.4925   5.5022   5.5027
     5.5087   5.5158   5.5541   5.5601   5.5741   5.5753   5.6022   5.6112
     5.6119   5.6180   5.6255   5.6263   5.6427   5.6704   5.6821   5.7146
     5.7152   5.7168   5.7356   5.7714   5.7732   5.7746   5.8017   5.8022
     5.8114   5.8586   5.8744   5.8751   5.8806   5.9156   5.9588   5.9594
     6.0342   6.0347   6.0359   6.0607   6.0780   6.0795   6.1734   6.2079
     6.2137   6.2146   6.2664   6.2682   6.2691   6.2767   6.2848   6.3490
     6.3495   6.3646   6.3711   6.4153   6.4242   6.4255   6.4282   6.4714
     6.4966   6.4992   6.5460   6.5591   6.5958   6.5969   6.6667   6.6676
     6.6768   6.7204   6.7357   6.7369   6.7460   6.8123   6.8144   6.8440
     6.8711   6.9294   6.9367   7.0533

          k =-0.3333-0.5774 0.2714 (115827 PWs)   bands (ev):

   -28.2835 -28.2818 -28.2764 -28.2755 -28.2754 -28.2754 -28.2754 -28.2753
   -28.2752 -28.2743 -28.2690 -28.2672 -14.9257 -14.9255 -14.9253 -14.9243
   -14.9234 -14.9233 -14.9225 -14.9218 -14.9216 -14.9208 -14.9198 -14.9197
   -14.9195 -14.9194 -14.9184 -14.9176 -14.9175 -14.9167 -14.9160 -14.9158
   -14.9158 -14.9150 -14.9140 -14.9137 -14.9076 -14.9074 -14.9064 -14.9055
   -14.9054 -14.9053 -14.9046 -14.9038 -14.9037 -14.9029 -14.9019 -14.9016
   -14.8674 -14.8672 -14.8662 -14.8653 -14.8652 -14.8651 -14.8644 -14.8637
   -14.8635 -14.8626 -14.8616 -14.8614 -14.8222 -14.8220 -14.8209 -14.8202
   -14.8201 -14.8200 -14.8192 -14.8184 -14.8184 -14.8176 -14.8165 -14.8162
   -10.3436 -10.3414 -10.3377 -10.3370 -10.3363 -10.3342 -10.3334 -10.3329
   -10.3319 -10.3303 -10.3272 -10.3251 -10.3104 -10.3098 -10.3071 -10.3057
   -10.3023 -10.2996 -10.2983 -10.2975 -10.2958 -10.2926 -10.2901 -10.2884
   -10.2739 -10.2703 -10.2683 -10.2674 -10.2657 -10.2647 -10.2637 -10.2627
   -10.2621 -10.2597 -10.2579 -10.2543  -6.6199  -6.6179  -6.6172  -6.5261
    -6.5241  -6.5238  -6.3089  -6.2900  -6.2893  -6.2882  -6.2573  -6.2151
    -5.8748  -5.8576  -5.8448  -5.7870  -5.7794  -5.7770  -5.7435  -5.7421
    -5.7384  -5.7147  -5.6922  -5.6879  -5.6860  -5.6758  -5.6720  -5.6714
    -5.6659  -5.6406  -5.5581  -5.5558  -5.5543  -5.5277  -5.5241  -5.5221
    -5.5072  -5.5034  -5.5022  -5.5009  -5.4564  -5.3997  -5.3974  -5.3939
    -5.3573  -5.3246  -5.3223  -5.3169  -0.5205  -0.5065  -0.5053  -0.5040
    -0.4604  -0.4174  -0.4167  -0.4164  -0.3552  -0.2939  -0.2924  -0.2911
     1.4794   1.4826   1.4853   1.6359   1.6391   1.6415   1.6903   1.7730
     1.7740   1.7770   1.7792   1.7946   1.9809   1.9817   1.9831   2.0550
     2.1705   2.1898   2.1932   2.1953   2.2479   2.3955   2.3978   2.4008
     2.4876   2.4897   2.4907   2.5572   2.5850   2.5883   2.5900   2.5943
     2.6767   2.7344   2.7378   2.7387   2.8216   2.8231   2.8260   2.8275
     2.8997   2.9023   2.9042   2.9233   2.9377   2.9539   2.9564   2.9588
     3.0570   3.0599   3.0616   3.0875   3.0889   3.0919   3.1284   3.1802
     3.2438   3.2449   3.2466   3.2700   3.2711   3.2721   3.3214   3.3258
     3.3279   3.3312   3.3737   3.4076   3.4202   3.4628   3.4662   3.4674
     3.4923   3.4973   3.4994   3.5024   3.5346   3.5368   3.5387   3.5417
     3.5613   3.6144   3.6167   3.6183   3.6533   3.6553   3.6578   3.6949
     3.6982   3.7020   3.7200   3.7445   3.8222   3.8406   3.8421   3.8432
     3.9360   3.9384   3.9409   3.9446   4.0270   4.0299   4.0317   4.0408
     4.0667   4.0682   4.0711   4.1088   4.1133   4.1141   4.1158   4.1683
     4.2724   4.2732   4.2749   4.2897   4.3152   4.3603   4.3627   4.3631
     4.4133   4.4172   4.4205   4.4910   4.4935   4.4966   4.5072   4.5127
     4.5648   4.6650   4.6675   4.6705   5.1489   5.1563   5.1573   5.1577
     5.1587   5.1820   5.1829   5.1842   5.1973   5.1983   5.1994   5.2111
     5.2245   5.2253   5.2262   5.2518   5.2524   5.2531   5.2571   5.2689
     5.3010   5.3018   5.3033   5.3093   5.3287   5.3292   5.3306   5.3679
     5.3683   5.3693   5.3749   5.3938   5.3956   5.4084   5.4096   5.4103
     5.4328   5.4331   5.4341   5.4386   5.4835   5.4851   5.4861   5.4914
     5.5385   5.5394   5.5410   5.5438   5.5656   5.5670   5.5679   5.6053
     5.6061   5.6067   5.6381   5.6395   5.6715   5.6729   5.6740   5.7033
     5.7042   5.7046   5.7180   5.7578   5.7598   5.7613   5.8010   5.8082
     5.8209   5.8228   5.8246   5.8267   5.8899   5.8907   5.8921   6.0567
     6.0598   6.0610   6.0618   6.0777   6.1190   6.1210   6.1215   6.1348
     6.1954   6.2375   6.2383   6.2392   6.2846   6.3013   6.3029   6.3035
     6.3060   6.3842   6.3858   6.3874   6.4507   6.4676   6.4680   6.4696
     6.4919   6.4929   6.5584   6.5597   6.5609   6.6458   6.6845   6.6856
     6.6871   6.7608   6.7762   6.7786   6.7807   6.7931   6.8532   6.8550
     6.8572   6.9349   6.9363   6.9379

     highest occupied level (ev):     7.1818

!    total energy              =   -9077.18747165 Ry
     estimated scf accuracy    <          7.7E-10 Ry

     The total energy is the sum of the following terms:
     one-electron contribution =   -2776.56453679 Ry
     hartree contribution      =    2020.03888800 Ry
     xc contribution           =   -2269.38696071 Ry
     ewald contribution        =   -3895.47850341 Ry
     one-center paw contrib.   =   -2155.79635873 Ry

     convergence has been achieved in  24 iterations

     negative rho (up, down):  7.902E-01 0.000E+00

     Forces acting on atoms (cartesian axes, Ry/au):

     atom    1 type  1   force =    -0.00015414    0.00026491    0.00018644
     atom    2 type  1   force =    -0.00015729    0.00027885    0.00007250
     atom    3 type  1   force =    -0.00016753    0.00025919    0.00007703
     atom    4 type  1   force =    -0.00014433    0.00025776    0.00007421
     atom    5 type  1   force =    -0.00072587   -0.00028813    0.00006423
     atom    6 type  1   force =     0.00054983   -0.00018388    0.00017215
     atom    7 type  1   force =    -0.00019693   -0.00034896   -0.00011438
     atom    8 type  1   force =    -0.00018451   -0.00017946   -0.00004316
     atom    9 type  1   force =     0.00036707   -0.00006743   -0.00004086
     atom   10 type  1   force =     0.00000520   -0.00048498    0.00006592
     atom   11 type  1   force =     0.00074057    0.00057265    0.00017231
     atom   12 type  1   force =     0.00021344    0.00000346   -0.00011557
     atom   13 type  2   force =     0.00013532   -0.00058047    0.00064882
     atom   14 type  2   force =     0.00019115   -0.00039162    0.00018728
     atom   15 type  2   force =     0.00020397   -0.00038547    0.00017916
     atom   16 type  2   force =     0.00025484   -0.00031723    0.00016001
     atom   17 type  2   force =     0.00072681    0.00040903    0.00002636
     atom   18 type  2   force =     0.00019522    0.00036845    0.00012307
     atom   19 type  2   force =     0.00030928    0.00037124    0.00018650
     atom   20 type  2   force =     0.00026582    0.00040850    0.00016201
     atom   21 type  2   force =    -0.00039683    0.00002245    0.00021739
     atom   22 type  2   force =    -0.00042630    0.00001497    0.00019934
     atom   23 type  2   force =    -0.00043401    0.00000739    0.00019836
     atom   24 type  2   force =    -0.00046966   -0.00000110    0.00020480
     atom   25 type  2   force =    -0.00038348   -0.00001179   -0.00021308
     atom   26 type  2   force =    -0.00015622    0.00038220   -0.00034760
     atom   27 type  2   force =    -0.00046154   -0.00004611   -0.00024331
     atom   28 type  2   force =    -0.00039068    0.00003942   -0.00018164
     atom   29 type  2   force =     0.00016769    0.00036766   -0.00016475
     atom   30 type  2   force =     0.00022567    0.00041876   -0.00015406
     atom   31 type  2   force =     0.00020417    0.00039370   -0.00017179
     atom   32 type  2   force =     0.00019524    0.00039097   -0.00017302
     atom   33 type  2   force =     0.00032028   -0.00035436   -0.00022096
     atom   34 type  2   force =     0.00002991   -0.00032503    0.00027639
     atom   35 type  2   force =     0.00022296   -0.00037503   -0.00019496
     atom   36 type  2   force =     0.00023488   -0.00036865   -0.00020510
     atom   37 type  3   force =    -0.00186040   -0.00095849   -0.01442049
     atom   38 type  3   force =     0.00037700   -0.00049777    0.00001861
     atom   39 type  3   force =     0.00016710   -0.00053911    0.00001452
     atom   40 type  3   force =     0.00029865   -0.00037622    0.00002179
     atom   41 type  3   force =     0.00034835    0.00043013    0.00019541
     atom   42 type  3   force =     0.00026542    0.00039363    0.00019988
     atom   43 type  3   force =     0.00024689    0.00064134   -0.00005763
     atom   44 type  3   force =     0.00028613    0.00050080    0.00001975
     atom   45 type  3   force =    -0.00051346   -0.00000156    0.00003057
     atom   46 type  3   force =    -0.00054089    0.00009349    0.00020626
     atom   47 type  3   force =    -0.00061335    0.00003213    0.00020538
     atom   48 type  3   force =    -0.00040935   -0.00010571   -0.00004700
     atom   49 type  4   force =     0.00335726   -0.00361853    0.00611639
     atom   50 type  4   force =     0.00024358   -0.00016670    0.00009966
     atom   51 type  4   force =     0.00040013   -0.00012682    0.00002899
     atom   52 type  4   force =     0.00038229   -0.00013308    0.00005918
     atom   53 type  4   force =    -0.00010456    0.00033789   -0.00006915
     atom   54 type  4   force =    -0.00010641    0.00033817   -0.00005210
     atom   55 type  4   force =    -0.00010447    0.00030738   -0.00000054
     atom   56 type  4   force =    -0.00009766    0.00035902   -0.00001675
     atom   57 type  4   force =    -0.00017042   -0.00023852   -0.00010663
     atom   58 type  4   force =    -0.00025735   -0.00024675    0.00014390
     atom   59 type  4   force =    -0.00024707   -0.00027840    0.00001371
     atom   60 type  4   force =    -0.00036974   -0.00049165   -0.00013500
     atom   61 type  4   force =    -0.00026454    0.00024675   -0.00004952
     atom   62 type  4   force =    -0.00028682    0.00025068   -0.00010026
     atom   63 type  4   force =    -0.00028792    0.00025011   -0.00008429
     atom   64 type  4   force =    -0.00031342    0.00026722   -0.00003313
     atom   65 type  4   force =     0.00009510    0.00012524   -0.00016125
     atom   66 type  4   force =     0.00041384    0.00017232   -0.00013614
     atom   67 type  4   force =     0.00036091    0.00009900    0.00011818
     atom   68 type  4   force =     0.00033932    0.00012421   -0.00001171
     atom   69 type  4   force =    -0.00010539   -0.00031379    0.00003255
     atom   70 type  4   force =    -0.00142646    0.00345625    0.00556135
     atom   71 type  4   force =    -0.00020207   -0.00041641    0.00007026
     atom   72 type  4   force =    -0.00009185   -0.00029919    0.00000127
     atom   73 type  4   force =    -0.00002019    0.00015781   -0.00039241
     atom   74 type  4   force =    -0.00000023    0.00015411   -0.00027530
     atom   75 type  4   force =     0.00000783    0.00017807   -0.00025523
     atom   76 type  4   force =     0.00001469    0.00014734   -0.00028160
     atom   77 type  4   force =    -0.00022207   -0.00000085   -0.00015732
     atom   78 type  4   force =    -0.00003131    0.00001200    0.00064119
     atom   79 type  4   force =    -0.00018978   -0.00006914   -0.00026164
     atom   80 type  4   force =    -0.00020156   -0.00006876   -0.00015375
     atom   81 type  4   force =     0.00015072   -0.00017131   -0.00035730
     atom   82 type  4   force =     0.00010303   -0.00009902   -0.00025381
     atom   83 type  4   force =     0.00011011   -0.00004715   -0.00027425
     atom   84 type  4   force =     0.00014183   -0.00006234   -0.00031888
     atom   85 type  4   force =     0.00009145    0.00004740    0.00034041
     atom   86 type  4   force =     0.00014754   -0.00000641    0.00033447
     atom   87 type  4   force =     0.00021375    0.00005575    0.00113317
     atom   88 type  4   force =     0.00009568    0.00005734    0.00023299
     atom   89 type  4   force =     0.00004921   -0.00015745    0.00017388
     atom   90 type  4   force =    -0.00003892   -0.00009639    0.00013704
     atom   91 type  4   force =    -0.00000103   -0.00017352    0.00023836
     atom   92 type  4   force =     0.00004635   -0.00019283    0.00021767
     atom   93 type  4   force =    -0.00015062    0.00006838    0.00021423
     atom   94 type  4   force =    -0.00015763    0.00002941    0.00010970
     atom   95 type  4   force =    -0.00015083    0.00005193    0.00022102
     atom   96 type  4   force =    -0.00012639    0.00004673    0.00024132

     Total force =     0.018418     Total SCF correction =     0.000104
     Message from routine punch:
     Nothing written, as per user request (disk_io='none')

     init_run     :     40.73s CPU     44.06s WALL (       1 calls)
     electrons    :   2230.00s CPU   2371.30s WALL (       1 calls)
     forces       :     18.71s CPU     19.51s WALL (       1 calls)

     Called by init_run:
     wfcinit      :     36.32s CPU     39.12s WALL (       1 calls)
     potinit      :      1.15s CPU      1.20s WALL (       1 calls)
     hinit0       :      1.07s CPU      1.12s WALL (       1 calls)

     Called by electrons:
     c_bands      :   1988.05s CPU   2093.90s WALL (      24 calls)
     sum_band     :    216.59s CPU    242.40s WALL (      24 calls)
     v_of_rho     :      4.25s CPU      4.84s WALL (      25 calls)
     newd         :     15.22s CPU     24.43s WALL (      25 calls)
     PAW_pot      :      5.81s CPU      5.84s WALL (      25 calls)
     mix_rho      :      0.76s CPU      0.84s WALL (      24 calls)

     Called by c_bands:
     init_us_2    :     24.06s CPU     24.58s WALL (     350 calls)
     cegterg      :   1917.36s CPU   2022.56s WALL (     168 calls)

     Called by *egterg:
     cdiaghg      :    105.12s CPU    108.94s WALL (    1124 calls)
     h_psi        :   1037.56s CPU   1116.82s WALL (    1131 calls)
     s_psi        :    247.65s CPU    249.76s WALL (    1131 calls)
     g_psi        :      3.46s CPU      3.49s WALL (     956 calls)

     Called by h_psi:
     h_psi:calbec :    249.04s CPU    253.38s WALL (    1131 calls)
     vloc_psi     :    537.17s CPU    604.53s WALL (    1131 calls)
     add_vuspsi   :    247.83s CPU    250.06s WALL (    1131 calls)

     General routines
     calbec       :    342.70s CPU    348.52s WALL (    1327 calls)
     fft          :      3.76s CPU      4.33s WALL (     334 calls)
     ffts         :      0.77s CPU      0.82s WALL (      49 calls)
     fftw         :    482.89s CPU    552.26s WALL (  488492 calls)
     interpolate  :      0.93s CPU      1.00s WALL (      25 calls)

     Parallel routines

     PWSCF        :  38m 9.72s CPU  40m35.55s WALL


   This run was terminated on:   2:23:56  21Aug2026            

=------------------------------------------------------------------------------=
   JOB DONE.
=------------------------------------------------------------------------------=
