
     Program PWSCF v.7.3.1 starts on 21Aug2026 at  3:11:45 

     This program is part of the open-source Quantum ESPRESSO suite
     for quantum simulation of materials; please cite
         "P. Giannozzi et al., J. Phys.:Condens. Matter 21 395502 (2009);
         "P. Giannozzi et al., J. Phys.:Condens. Matter 29 465901 (2017);
         "P. Giannozzi et al., J. Chem. Phys. 152 154105 (2020);
          URL http://www.quantum-espresso.org", 
     in publications or presentations arising from this work. More details at
     http://www.quantum-espresso.org/quote

     Parallel version (MPI & OpenMP), running on      32 processor cores
     Number of MPI processes:                32
     Threads/MPI process:                     1

     MPI processes distributed on     1 nodes
     172490 MiB available memory on the printing compute node when the environment starts

     Reading input from scf.in

     Current dimensions of program PWSCF are:
     Max number of different atomic species (ntypx) = 10
     Max number of k-points (npk) =  40000
     Max angular momentum in pseudopotentials (lmaxx) =  4
     file Cu.paw.z_11.ld1.psl.v1.0.0-low.upf: wavefunction(s)  4S 3D renormalized

     K-points division:     npool     =       2
     R & G space division:  proc/nbgrp/npool/nimage =      16
     Subspace diagonalization in iterative solution of the eigenvalue problem:
     one sub-group per band group will be used
     scalapack distributed-memory algorithm (size of sub-group:  4*  4 procs)


     Parallelization info
     --------------------
     sticks:   dense  smooth     PW     G-vecs:    dense   smooth      PW
     Min        1193     597    157               163743    57882    7779
     Max        1194     599    158               163747    57885    7784
     Sum       19099    9565   2515              2619931   926125  124485

     Using Slab Decomposition



     bravais-lattice index     =            0
     lattice parameter (alat)  =      24.0273  a.u.
     unit-cell volume          =   14752.0463 (a.u.)^3
     number of atoms/cell      =           96
     number of atomic types    =            4
     number of electrons       =       840.00
     number of Kohn-Sham states=          420
     kinetic-energy cutoff     =      60.0000  Ry
     charge density cutoff     =     480.0000  Ry
     scf convergence threshold =      1.0E-09
     mixing beta               =       0.3000
     number of iterations used =            8  plain     mixing
     Exchange-correlation=  SLA  PW   PBX  PBC
                           (   1   4   3   4   0   0   0)

     celldm(1)=  24.027274  celldm(2)=   0.000000  celldm(3)=   0.000000
     celldm(4)=   0.000000  celldm(5)=   0.000000  celldm(6)=   0.000000

     crystal axes: (cart. coord. in units of alat)
               a(1) = (   1.000000   0.000000   0.000000 )  
               a(2) = (  -0.500000   0.866025   0.000000 )  
               a(3) = (   0.000000   0.000000   1.228028 )  

     reciprocal axes: (cart. coord. in units 2 pi/alat)
               b(1) = (  1.000000  0.577351 -0.000000 )  
               b(2) = (  0.000000  1.154701  0.000000 )  
               b(3) = (  0.000000 -0.000000  0.814314 )  


     PseudoPot. # 1 for Sr read from file:
     /home/yuhansun/pseudos/SSSP-1.3.0-PBE-precision/Sr_pbe_v1.uspp.F.UPF
     MD5 check sum: 6b418c05fbe9db5448babca5e47b7a5b
     Pseudo is Ultrasoft + core correction, Zval = 10.0
     Generated by new atomic code, or converted to UPF format
     Using radial grid of  883 points,  6 beta functions with: 
                l(1) =   0
                l(2) =   0
                l(3) =   1
                l(4) =   1
                l(5) =   2
                l(6) =   2
     Q(r) pseudized with  6 coefficients,  rinner =    1.400   1.400   1.400
                                                       1.400   1.400

     PseudoPot. # 2 for Cu read from file:
     /home/yuhansun/pseudos/SSSP-1.3.0-PBE-precision/Cu.paw.z_11.ld1.psl.v1.0.0-low.upf
     MD5 check sum: 619f40885d92a09a85a8b37550532d0c
     Pseudo is Projector augmented-wave + core cor, Zval = 11.0
     Generated using &quot;atomic&quot; code by A. Dal Corso  v.6.3MaX
     Shape of augmentation charge: PSQ
     Using radial grid of 1199 points,  6 beta functions with: 
                l(1) =   0
                l(2) =   0
                l(3) =   1
                l(4) =   1
                l(5) =   2
                l(6) =   2
     Q(r) pseudized with 0 coefficients 


     PseudoPot. # 3 for Sn read from file:
     /home/yuhansun/pseudos/SSSP-1.3.0-PBE-precision/Sn_pbe_v1.uspp.F.UPF
     MD5 check sum: 4cf58ce39ec5d5d420df3dd08604eb00
     Pseudo is Ultrasoft + core correction, Zval = 14.0
     Generated by new atomic code, or converted to UPF format
     Using radial grid of  891 points,  6 beta functions with: 
                l(1) =   0
                l(2) =   0
                l(3) =   1
                l(4) =   1
                l(5) =   2
                l(6) =   2
     Q(r) pseudized with  6 coefficients,  rinner =    1.200   1.200   1.200
                                                       1.200   1.200

     PseudoPot. # 4 for S  read from file:
     /home/yuhansun/pseudos/SSSP-1.3.0-PBE-precision/s_pbe_v1.4.uspp.F.UPF
     MD5 check sum: 88d86576ff6df21479756cfb9bdac1df
     Pseudo is Ultrasoft + core correction, Zval =  6.0
     Generated by new atomic code, or converted to UPF format
     Using radial grid of  907 points,  6 beta functions with: 
                l(1) =   0
                l(2) =   0
                l(3) =   1
                l(4) =   1
                l(5) =   2
                l(6) =   2
     Q(r) pseudized with  8 coefficients,  rinner =    1.300   1.300   1.300
                                                       1.300   1.300

     atomic species   valence    mass     pseudopotential
     Sr               10.00    87.62000     Sr( 1.00)
     Cu               11.00    63.54600     Cu( 1.00)
     Sn               14.00   118.71000     Sn( 1.00)
     S                 6.00    32.06500     S ( 1.00)

     No symmetry found



   Cartesian axes

     site n.     atom                  positions (alat units)
         1        Sr     tau(   1) = (  -0.1405753   0.2434834   0.2046717  )
         2        Sr     tau(   2) = (   0.3594247   0.2434834   0.2046717  )
         3        Sr     tau(   3) = (  -0.3905753   0.6764960   0.2046717  )
         4        Sr     tau(   4) = (   0.1094247   0.6764960   0.2046717  )
         5        Sr     tau(   5) = (   0.1094247   0.1895292   0.6140139  )
         6        Sr     tau(   6) = (   0.6094247   0.1895292   0.6140139  )
         7        Sr     tau(   7) = (  -0.1405753   0.6225418   0.6140139  )
         8        Sr     tau(   8) = (   0.3594247   0.6225418   0.6140139  )
         9        Sr     tau(   9) = (   0.2811505   0.0000000   1.0233574  )
        10        Sr     tau(  10) = (   0.7811505   0.0000000   1.0233574  )
        11        Sr     tau(  11) = (   0.0311505   0.4330126   1.0233574  )
        12        Sr     tau(  12) = (   0.5311505   0.4330126   1.0233574  )
        13        Cu     tau(  13) = (  -0.1226788   0.2753211   0.5061747  )
        14        Cu     tau(  14) = (   0.3773212   0.2753211   0.5061747  )
        15        Cu     tau(  15) = (  -0.3726788   0.7083337   0.5061747  )
        16        Cu     tau(  16) = (   0.1273212   0.7083337   0.5061747  )
        17        Cu     tau(  17) = (   0.0729045   0.1891087   0.9155169  )
        18        Cu     tau(  18) = (   0.5729045   0.1891087   0.9155169  )
        19        Cu     tau(  19) = (  -0.1770956   0.6221213   0.9155169  )
        20        Cu     tau(  20) = (   0.3229044   0.6221213   0.9155169  )
        21        Cu     tau(  21) = (   0.0497750   0.4015949   0.0968325  )
        22        Cu     tau(  22) = (   0.5497750   0.4015949   0.0968325  )
        23        Cu     tau(  23) = (  -0.2002251   0.8346075   0.0968325  )
        24        Cu     tau(  24) = (   0.2997749   0.8346075   0.0968325  )
        25        Cu     tau(  25) = (   0.2997745   0.0314177   0.7218532  )
        26        Cu     tau(  26) = (   0.7997745   0.0314177   0.7218532  )
        27        Cu     tau(  27) = (   0.0497745   0.4644302   0.7218532  )
        28        Cu     tau(  28) = (   0.5497745   0.4644302   0.7218532  )
        29        Cu     tau(  29) = (   0.1273207   0.1576915   0.3125110  )
        30        Cu     tau(  30) = (   0.6273207   0.1576915   0.3125110  )
        31        Cu     tau(  31) = (  -0.1226793   0.5907041   0.3125110  )
        32        Cu     tau(  32) = (   0.3773207   0.5907041   0.3125110  )
        33        Cu     tau(  33) = (   0.3229040   0.2439039   1.1311954  )
        34        Cu     tau(  34) = (   0.8229040   0.2439039   1.1311954  )
        35        Cu     tau(  35) = (   0.0729039   0.6769164   1.1311954  )
        36        Cu     tau(  36) = (   0.5729039   0.6769164   1.1311954  )
        37        Sn     tau(  37) = (  -0.1762580   0.3052877   0.8186857  )
        38        Sn     tau(  38) = (   0.3237420   0.3052877   0.8186857  )
        39        Sn     tau(  39) = (  -0.4262581   0.7383003   0.8186857  )
        40        Sn     tau(  40) = (   0.0737419   0.7383003   0.8186857  )
        41        Sn     tau(  41) = (   0.0737420   0.1277249   0.0000000  )
        42        Sn     tau(  42) = (   0.5737420   0.1277249   0.0000000  )
        43        Sn     tau(  43) = (  -0.1762581   0.5607374   0.0000000  )
        44        Sn     tau(  44) = (   0.3237419   0.5607374   0.0000000  )
        45        Sn     tau(  45) = (   0.3525160   0.0000000   0.4093422  )
        46        Sn     tau(  46) = (   0.8525160   0.0000000   0.4093422  )
        47        Sn     tau(  47) = (   0.1025160   0.4330126   0.4093422  )
        48        Sn     tau(  48) = (   0.6025160   0.4330126   0.4093422  )
        49        S      tau(  49) = (  -0.1025660   0.2124790   0.9671149  )
        50        S      tau(  50) = (   0.4011797   0.2103164   0.9671149  )
        51        S      tau(  51) = (  -0.3488203   0.6433290   0.9671149  )
        52        S      tau(  52) = (   0.1511797   0.6433290   0.9671149  )
        53        S      tau(  53) = (   0.1172707   0.2422736   0.1484293  )
        54        S      tau(  54) = (   0.6172707   0.2422736   0.1484293  )
        55        S      tau(  55) = (  -0.1327293   0.6752862   0.1484293  )
        56        S      tau(  56) = (   0.3672707   0.6752862   0.1484293  )
        57        S      tau(  57) = (  -0.0184505   0.4134352   0.5577727  )
        58        S      tau(  58) = (   0.4815495   0.4134352   0.5577727  )
        59        S      tau(  59) = (  -0.2684506   0.8464478   0.5577727  )
        60        S      tau(  60) = (   0.2315494   0.8464478   0.5577727  )
        61        S      tau(  61) = (   0.2315495   0.0195774   0.2609129  )
        62        S      tau(  62) = (   0.7315495   0.0195774   0.2609129  )
        63        S      tau(  63) = (  -0.0184505   0.4525899   0.2609129  )
        64        S      tau(  64) = (   0.4815495   0.4525899   0.2609129  )
        65        S      tau(  65) = (   0.1511797   0.2226962   1.0795986  )
        66        S      tau(  66) = (   0.6511797   0.2226962   1.0795986  )
        67        S      tau(  67) = (  -0.0988203   0.6557088   1.0795986  )
        68        S      tau(  68) = (   0.4011797   0.6557088   1.0795986  )
        69        S      tau(  69) = (   0.3672707   0.1907390   0.6702552  )
        70        S      tau(  70) = (   0.8672707   0.1907390   0.6702552  )
        71        S      tau(  71) = (   0.1172707   0.6237516   0.6702552  )
        72        S      tau(  72) = (   0.6172707   0.6237516   0.6702552  )
        73        S      tau(  73) = (  -0.0296498   0.1532012   0.4035914  )
        74        S      tau(  74) = (   0.4703502   0.1532012   0.4035914  )
        75        S      tau(  75) = (  -0.2796498   0.5862137   0.4035914  )
        76        S      tau(  76) = (   0.2203502   0.5862137   0.4035914  )
        77        S      tau(  77) = (   0.1321490   0.3307341   0.8129336  )
        78        S      tau(  78) = (   0.6321490   0.3307341   0.8129336  )
        79        S      tau(  79) = (  -0.1178511   0.7637467   0.8129336  )
        80        S      tau(  80) = (   0.3821489   0.7637467   0.8129336  )
        81        S      tau(  81) = (  -0.1024985   0.3820894   1.2222770  )
        82        S      tau(  82) = (   0.3975015   0.3820894   1.2222770  )
        83        S      tau(  83) = (  -0.3524986   0.8151020   1.2222770  )
        84        S      tau(  84) = (   0.1475014   0.8151020   1.2222770  )
        85        S      tau(  85) = (   0.1475010   0.0509231   0.8244365  )
        86        S      tau(  86) = (   0.6475010   0.0509231   0.8244365  )
        87        S      tau(  87) = (  -0.1024990   0.4839357   0.8244365  )
        88        S      tau(  88) = (   0.3975010   0.4839357   0.8244365  )
        89        S      tau(  89) = (   0.2203497   0.2798114   0.4150943  )
        90        S      tau(  90) = (   0.7203497   0.2798114   0.4150943  )
        91        S      tau(  91) = (  -0.0296503   0.7128240   0.4150943  )
        92        S      tau(  92) = (   0.4703497   0.7128240   0.4150943  )
        93        S      tau(  93) = (   0.3821485   0.1022784   0.0057509  )
        94        S      tau(  94) = (   0.8821485   0.1022784   0.0057509  )
        95        S      tau(  95) = (   0.1321485   0.5352910   0.0057509  )
        96        S      tau(  96) = (   0.6321485   0.5352910   0.0057509  )

     number of k points=    14
                       cart. coord. in units 2pi/alat
        k(    1) = (   0.0000000   0.0000000   0.0000000), wk =   0.0740741
        k(    2) = (   0.0000000   0.0000000   0.2714379), wk =   0.1481481
        k(    3) = (   0.0000000   0.3849003   0.0000000), wk =   0.1481481
        k(    4) = (   0.0000000   0.3849003   0.2714379), wk =   0.1481481
        k(    5) = (   0.3333333   0.5773505   0.0000000), wk =   0.1481481
        k(    6) = (   0.3333333   0.5773505   0.2714379), wk =   0.1481481
        k(    7) = (  -0.3333333   0.1924501   0.0000000), wk =   0.1481481
        k(    8) = (   0.3333333   0.1924502   0.0000000), wk =   0.1481481
        k(    9) = (   0.0000000  -0.3849003   0.2714379), wk =   0.1481481
        k(   10) = (  -0.3333333   0.1924501   0.2714379), wk =   0.1481481
        k(   11) = (   0.3333333   0.1924502   0.2714379), wk =   0.1481481
        k(   12) = (  -0.3333333  -0.1924502   0.2714379), wk =   0.1481481
        k(   13) = (   0.3333333  -0.1924501   0.2714379), wk =   0.1481481
        k(   14) = (  -0.3333333  -0.5773505   0.2714379), wk =   0.1481481

     Dense  grid:  2619931 G-vectors     FFT dimensions: ( 180, 180, 216)

     Smooth grid:   926125 G-vectors     FFT dimensions: ( 120, 120, 150)

     Estimated max dynamical RAM per process >       1.07 GB

     Estimated total dynamical RAM >      33.54 GB

     Initial potential from superposition of free atoms

     starting charge     827.5884, renormalised to     840.0000

     negative rho (up, down):  7.777E-01 0.000E+00
     Starting wfcs are  672 randomized atomic wfcs
     Checking if some PAW data can be deallocated... 

     total cpu time spent up to now is       44.4 secs

     Self-consistent Calculation

     iteration #  1     ecut=    60.00 Ry     beta= 0.30
     Davidson diagonalization with overlap
     ethr =  1.00E-02,  avg # of iterations =  2.0

     negative rho (up, down):  7.747E-01 0.000E+00

     total cpu time spent up to now is      117.7 secs

     total energy              =   -9070.31378982 Ry
     estimated scf accuracy    <      21.92552651 Ry

     iteration #  2     ecut=    60.00 Ry     beta= 0.30
     Davidson diagonalization with overlap
     ethr =  2.61E-03,  avg # of iterations =  4.8

     negative rho (up, down):  7.752E-01 0.000E+00

     total cpu time spent up to now is      203.9 secs

     total energy              =   -9076.61603565 Ry
     estimated scf accuracy    <       8.16835895 Ry

     iteration #  3     ecut=    60.00 Ry     beta= 0.30
     Davidson diagonalization with overlap
     ethr =  9.72E-04,  avg # of iterations =  2.0

     negative rho (up, down):  7.804E-01 0.000E+00

     total cpu time spent up to now is      275.0 secs

     total energy              =   -9076.49248601 Ry
     estimated scf accuracy    <       1.61317963 Ry

     iteration #  4     ecut=    60.00 Ry     beta= 0.30
     Davidson diagonalization with overlap
     ethr =  1.92E-04,  avg # of iterations =  6.1

     negative rho (up, down):  7.829E-01 0.000E+00

     total cpu time spent up to now is      378.9 secs

     total energy              =   -9076.70131556 Ry
     estimated scf accuracy    <       2.06531958 Ry

     iteration #  5     ecut=    60.00 Ry     beta= 0.30
     Davidson diagonalization with overlap
     ethr =  1.92E-04,  avg # of iterations =  5.6

     negative rho (up, down):  7.883E-01 0.000E+00

     total cpu time spent up to now is      463.4 secs

     total energy              =   -9077.13709345 Ry
     estimated scf accuracy    <       0.15006174 Ry

     iteration #  6     ecut=    60.00 Ry     beta= 0.30
     Davidson diagonalization with overlap
     ethr =  1.79E-05,  avg # of iterations =  5.9

     negative rho (up, down):  7.902E-01 0.000E+00

     total cpu time spent up to now is      556.9 secs

     total energy              =   -9077.18342914 Ry
     estimated scf accuracy    <       0.01294113 Ry

     iteration #  7     ecut=    60.00 Ry     beta= 0.30
     Davidson diagonalization with overlap
     ethr =  1.54E-06,  avg # of iterations =  5.0

     negative rho (up, down):  7.907E-01 0.000E+00

     total cpu time spent up to now is      668.8 secs

     total energy              =   -9077.18759302 Ry
     estimated scf accuracy    <       0.00537628 Ry

     iteration #  8     ecut=    60.00 Ry     beta= 0.30
     Davidson diagonalization with overlap
     ethr =  6.40E-07,  avg # of iterations =  6.1

     negative rho (up, down):  7.912E-01 0.000E+00

     total cpu time spent up to now is      802.9 secs

     total energy              =   -9077.17849557 Ry
     estimated scf accuracy    <       0.04916478 Ry

     iteration #  9     ecut=    60.00 Ry     beta= 0.30
     Davidson diagonalization with overlap
     ethr =  6.40E-07,  avg # of iterations =  7.3

     negative rho (up, down):  7.911E-01 0.000E+00

     total cpu time spent up to now is      938.9 secs

     total energy              =   -9077.18684840 Ry
     estimated scf accuracy    <       0.00134704 Ry

     iteration # 10     ecut=    60.00 Ry     beta= 0.30
     Davidson diagonalization with overlap
     ethr =  1.60E-07,  avg # of iterations =  3.4

     negative rho (up, down):  7.907E-01 0.000E+00

     total cpu time spent up to now is     1023.0 secs

     total energy              =   -9077.18678198 Ry
     estimated scf accuracy    <       0.00035637 Ry

     iteration # 11     ecut=    60.00 Ry     beta= 0.30
     Davidson diagonalization with overlap
     ethr =  4.24E-08,  avg # of iterations =  6.2

     negative rho (up, down):  7.905E-01 0.000E+00

     total cpu time spent up to now is     1137.9 secs

     total energy              =   -9077.18692720 Ry
     estimated scf accuracy    <       0.00016117 Ry

     iteration # 12     ecut=    60.00 Ry     beta= 0.30
     Davidson diagonalization with overlap
     ethr =  1.92E-08,  avg # of iterations =  3.5

     negative rho (up, down):  7.904E-01 0.000E+00

     total cpu time spent up to now is     1229.6 secs

     total energy              =   -9077.18693383 Ry
     estimated scf accuracy    <       0.00004769 Ry

     iteration # 13     ecut=    60.00 Ry     beta= 0.30
     Davidson diagonalization with overlap
     ethr =  5.68E-09,  avg # of iterations =  5.8

     negative rho (up, down):  7.903E-01 0.000E+00

     total cpu time spent up to now is     1333.8 secs

     total energy              =   -9077.18694684 Ry
     estimated scf accuracy    <       0.00000885 Ry

     iteration # 14     ecut=    60.00 Ry     beta= 0.30
     Davidson diagonalization with overlap
     ethr =  1.05E-09,  avg # of iterations =  4.8

     negative rho (up, down):  7.902E-01 0.000E+00

     total cpu time spent up to now is     1430.4 secs

     total energy              =   -9077.18694926 Ry
     estimated scf accuracy    <       0.00000159 Ry

     iteration # 15     ecut=    60.00 Ry     beta= 0.30
     Davidson diagonalization with overlap
     ethr =  1.89E-10,  avg # of iterations =  3.6

     negative rho (up, down):  7.902E-01 0.000E+00

     total cpu time spent up to now is     1516.8 secs

     total energy              =   -9077.18694949 Ry
     estimated scf accuracy    <       0.00000066 Ry

     iteration # 16     ecut=    60.00 Ry     beta= 0.30
     Davidson diagonalization with overlap
     ethr =  7.88E-11,  avg # of iterations =  6.2

     negative rho (up, down):  7.902E-01 0.000E+00

     total cpu time spent up to now is     1630.9 secs

     total energy              =   -9077.18694971 Ry
     estimated scf accuracy    <       0.00000044 Ry

     iteration # 17     ecut=    60.00 Ry     beta= 0.30
     Davidson diagonalization with overlap
     ethr =  5.25E-11,  avg # of iterations =  2.8

     negative rho (up, down):  7.902E-01 0.000E+00

     total cpu time spent up to now is     1711.9 secs

     total energy              =   -9077.18694976 Ry
     estimated scf accuracy    <       0.00000008 Ry

     iteration # 18     ecut=    60.00 Ry     beta= 0.30
     Davidson diagonalization with overlap
     ethr =  9.49E-12,  avg # of iterations =  5.6

     negative rho (up, down):  7.902E-01 0.000E+00

     total cpu time spent up to now is     1807.7 secs

     total energy              =   -9077.18694980 Ry
     estimated scf accuracy    <       0.00000001 Ry

     iteration # 19     ecut=    60.00 Ry     beta= 0.30
     Davidson diagonalization with overlap
     ethr =  1.39E-12,  avg # of iterations =  8.0

     negative rho (up, down):  7.902E-01 0.000E+00

     total cpu time spent up to now is     1908.9 secs

     total energy              =   -9077.18694981 Ry
     estimated scf accuracy    <          5.0E-09 Ry

     iteration # 20     ecut=    60.00 Ry     beta= 0.30
     Davidson diagonalization with overlap
     ethr =  5.98E-13,  avg # of iterations =  4.6

     negative rho (up, down):  7.902E-01 0.000E+00

     total cpu time spent up to now is     1992.4 secs

     total energy              =   -9077.18694981 Ry
     estimated scf accuracy    <          2.1E-09 Ry

     iteration # 21     ecut=    60.00 Ry     beta= 0.30
     Davidson diagonalization with overlap
     ethr =  2.53E-13,  avg # of iterations =  6.3

     negative rho (up, down):  7.902E-01 0.000E+00

     total cpu time spent up to now is     2085.3 secs

     End of self-consistent calculation

          k = 0.0000 0.0000 0.0000 (115723 PWs)   bands (ev):

   -28.2842 -28.2766 -28.2764 -28.2758 -28.2755 -28.2752 -28.2752 -28.2751
   -28.2742 -28.2737 -28.2736 -28.2726 -14.9300 -14.9249 -14.9232 -14.9229
   -14.9224 -14.9222 -14.9221 -14.9221 -14.9218 -14.9215 -14.9212 -14.9203
   -14.9198 -14.9190 -14.9173 -14.9170 -14.9167 -14.9164 -14.9163 -14.9162
   -14.9160 -14.9156 -14.9154 -14.9142 -14.9077 -14.9070 -14.9052 -14.9049
   -14.9045 -14.9043 -14.9042 -14.9041 -14.9039 -14.9036 -14.9033 -14.9017
   -14.8668 -14.8650 -14.8648 -14.8642 -14.8642 -14.8640 -14.8640 -14.8639
   -14.8638 -14.8634 -14.8632 -14.8614 -14.8219 -14.8216 -14.8198 -14.8196
   -14.8192 -14.8190 -14.8189 -14.8187 -14.8186 -14.8182 -14.8180 -14.8167
   -10.3446 -10.3385 -10.3380 -10.3368 -10.3367 -10.3359 -10.3353 -10.3351
   -10.3340 -10.3312 -10.3300 -10.3240 -10.3123 -10.3090 -10.3084 -10.3054
   -10.3036 -10.3016 -10.3012 -10.3008 -10.2938 -10.2922 -10.2913 -10.2822
   -10.2742 -10.2706 -10.2693 -10.2670 -10.2648 -10.2645 -10.2631 -10.2622
   -10.2610 -10.2589 -10.2576 -10.2540  -6.8644  -6.5571  -6.5549  -6.4241
    -6.4168  -6.4157  -6.3052  -6.2994  -6.2983  -6.2241  -6.2181  -6.2173
    -5.9910  -5.9893  -5.9875  -5.8506  -5.8492  -5.8471  -5.7966  -5.7957
    -5.7951  -5.7383  -5.7363  -5.6231  -5.6181  -5.6174  -5.6139  -5.6131
    -5.6118  -5.6007  -5.5598  -5.5582  -5.5571  -5.5460  -5.5446  -5.5435
    -5.5194  -5.5162  -5.4333  -5.4313  -5.4279  -5.4275  -5.3732  -5.3713
    -5.3487  -5.3446  -5.3443  -5.2515  -0.6140  -0.6110  -0.6097  -0.3897
    -0.3887  -0.3880  -0.3526  -0.3185  -0.3157  -0.3146  -0.3013  -0.2999
     1.3826   1.3851   1.3864   1.5909   1.5936   1.6575   1.7157   1.7174
     1.7193   1.8029   1.8058   1.8072   2.0189   2.0386   2.0409   2.0855
     2.0860   2.0876   2.2456   2.2481   2.2493   2.3081   2.3097   2.4041
     2.4049   2.4087   2.4587   2.4607   2.4628   2.5495   2.5518   2.6596
     2.6633   2.6652   2.7832   2.7839   2.7849   2.8683   2.8727   2.9215
     2.9255   2.9261   2.9500   2.9541   2.9545   3.0268   3.0280   3.0285
     3.0456   3.0467   3.0490   3.1657   3.2101   3.2150   3.2165   3.2283
     3.2296   3.2542   3.2582   3.2590   3.3779   3.3785   3.3814   3.3898
     3.3939   3.4263   3.4278   3.4302   3.4354   3.4362   3.4388   3.4764
     3.4767   3.4822   3.4944   3.4949   3.4954   3.5009   3.5166   3.5258
     3.5849   3.5850   3.5884   3.6258   3.6281   3.6293   3.6863   3.6899
     3.6911   3.6912   3.6925   3.7073   3.7951   3.7967   3.8230   3.8260
     3.8271   3.9628   4.0185   4.0218   4.0231   4.0330   4.0368   4.0381
     4.1228   4.1249   4.1264   4.1279   4.1714   4.1740   4.1754   4.2008
     4.2092   4.2094   4.2131   4.2414   4.2451   4.2475   4.2791   4.2838
     4.4248   4.4263   4.4271   4.5176   4.5192   4.5214   4.5357   4.5396
     4.6204   4.6223   4.6237   4.8582   5.1259   5.1542   5.1566   5.1581
     5.1736   5.1753   5.1773   5.1778   5.1824   5.2234   5.2269   5.2281
     5.2304   5.2308   5.2329   5.2516   5.2533   5.2549   5.2669   5.2676
     5.2699   5.2783   5.2796   5.2819   5.3098   5.3122   5.3125   5.3132
     5.3166   5.3257   5.3376   5.3390   5.3398   5.3739   5.3767   5.3788
     5.4395   5.4412   5.4710   5.4716   5.4732   5.4753   5.4770   5.4782
     5.4805   5.4994   5.5001   5.6014   5.6027   5.6038   5.6179   5.6197
     5.6212   5.6276   5.6475   5.6485   5.6495   5.6578   5.6611   5.6635
     5.7246   5.7275   5.7457   5.7825   5.7836   5.7845   5.8207   5.8212
     5.8239   5.9032   5.9040   5.9047   5.9266   5.9278   5.9291   5.9954
     5.9981   6.0272   6.0279   6.0296   6.1482   6.1509   6.1515   6.1531
     6.2600   6.2620   6.2637   6.2638   6.2648   6.2661   6.2890   6.2929
     6.3335   6.3343   6.3379   6.3626   6.3637   6.3661   6.3887   6.3903
     6.3913   6.5529   6.5683   6.5724   6.5739   6.6365   6.6382   6.6416
     6.7458   6.7467   6.7498   6.7654   6.7655   6.7804   6.7825   6.7830
     6.8073   6.9641   7.1794   7.1811

          k = 0.0000 0.0000 0.2714 (115879 PWs)   bands (ev):

   -28.2842 -28.2766 -28.2764 -28.2758 -28.2755 -28.2752 -28.2752 -28.2751
   -28.2742 -28.2737 -28.2736 -28.2726 -14.9300 -14.9249 -14.9232 -14.9229
   -14.9224 -14.9222 -14.9221 -14.9221 -14.9218 -14.9215 -14.9212 -14.9203
   -14.9198 -14.9190 -14.9173 -14.9170 -14.9167 -14.9164 -14.9163 -14.9162
   -14.9160 -14.9156 -14.9154 -14.9142 -14.9077 -14.9070 -14.9052 -14.9049
   -14.9045 -14.9043 -14.9042 -14.9041 -14.9039 -14.9036 -14.9033 -14.9017
   -14.8668 -14.8650 -14.8648 -14.8642 -14.8642 -14.8640 -14.8640 -14.8639
   -14.8638 -14.8634 -14.8632 -14.8614 -14.8219 -14.8216 -14.8198 -14.8196
   -14.8192 -14.8190 -14.8189 -14.8188 -14.8186 -14.8182 -14.8180 -14.8167
   -10.3449 -10.3394 -10.3389 -10.3378 -10.3372 -10.3363 -10.3343 -10.3336
   -10.3329 -10.3322 -10.3280 -10.3250 -10.3134 -10.3098 -10.3077 -10.3066
   -10.3030 -10.3016 -10.3012 -10.2952 -10.2934 -10.2929 -10.2924 -10.2846
   -10.2737 -10.2701 -10.2687 -10.2675 -10.2654 -10.2649 -10.2630 -10.2616
   -10.2607 -10.2586 -10.2575 -10.2552  -6.8251  -6.7145  -6.4170  -6.4087
    -6.4079  -6.4075  -6.3097  -6.3039  -6.3030  -6.2365  -6.2304  -6.2295
    -5.9924  -5.9910  -5.9895  -5.8545  -5.8353  -5.8343  -5.8324  -5.7746
    -5.7728  -5.7721  -5.6607  -5.6557  -5.6542  -5.6519  -5.6136  -5.6123
    -5.6118  -5.6104  -5.5576  -5.5525  -5.5516  -5.5508  -5.5451  -5.5442
    -5.5437  -5.4547  -5.4386  -5.4338  -5.4333  -5.4331  -5.3746  -5.3462
    -5.3406  -5.3367  -5.3364  -5.2819  -0.6062  -0.6030  -0.6020  -0.4133
    -0.4125  -0.4114  -0.3498  -0.3329  -0.3032  -0.3010  -0.3000  -0.2731
     1.4068   1.4093   1.4110   1.5707   1.6146   1.6174   1.6194   1.6207
     1.6577   1.9332   1.9363   1.9371   2.0022   2.0458   2.0525   2.0540
     2.0557   2.0675   2.2736   2.2766   2.2783   2.3056   2.3866   2.3898
     2.3901   2.3923   2.4164   2.4171   2.4210   2.4541   2.6202   2.6228
     2.6246   2.6682   2.7161   2.7920   2.7969   2.7976   2.7990   2.8704
     2.8727   2.8732   2.9755   2.9766   2.9787   3.0413   3.0469   3.0475
     3.1040   3.1075   3.1081   3.1768   3.2000   3.2021   3.2050   3.2078
     3.2718   3.2742   3.2754   3.2860   3.3762   3.3842   3.3845   3.3883
     3.4196   3.4205   3.4243   3.4394   3.4404   3.4420   3.4491   3.4502
     3.4534   3.4780   3.5012   3.5177   3.5195   3.5249   3.5388   3.5432
     3.5492   3.5511   3.5562   3.6361   3.6434   3.6460   3.6463   3.6526
     3.6787   3.6814   3.6822   3.7741   3.8299   3.8715   3.8763   3.8782
     3.9090   3.9213   3.9937   3.9961   3.9967   4.0526   4.0566   4.0578
     4.0761   4.1166   4.1186   4.1194   4.1462   4.1492   4.1516   4.1654
     4.1713   4.1726   4.1753   4.2119   4.2484   4.2512   4.2537   4.2686
     4.4219   4.4232   4.4242   4.4845   4.5595   4.5603   4.5632   4.6052
     4.6066   4.6090   4.6785   4.8086   5.1367   5.1486   5.1540   5.1555
     5.1566   5.1661   5.1870   5.1889   5.1900   5.2165   5.2173   5.2184
     5.2203   5.2478   5.2499   5.2505   5.2590   5.2599   5.2615   5.2631
     5.2763   5.2780   5.2791   5.2806   5.3278   5.3309   5.3320   5.3337
     5.3346   5.3374   5.3419   5.3430   5.3453   5.3671   5.3731   5.3754
     5.3781   5.3909   5.4044   5.4191   5.4217   5.4241   5.5263   5.5328
     5.5338   5.5353   5.5829   5.5875   5.5895   5.5908   5.5914   5.6201
     5.6214   5.6229   5.6510   5.6531   5.6545   5.6617   5.6810   5.6833
     5.6848   5.7549   5.7558   5.7571   5.7912   5.8000   5.8170   5.8178
     5.8202   5.8711   5.8835   5.8841   5.8851   5.9888   5.9897   5.9900
     6.0423   6.0441   6.0458   6.0968   6.0986   6.1009   6.1754   6.1917
     6.1925   6.1940   6.2357   6.2684   6.2698   6.2702   6.3244   6.3261
     6.3283   6.3583   6.3623   6.3692   6.3723   6.3728   6.3954   6.4288
     6.4301   6.4324   6.4804   6.6381   6.6418   6.6424   6.6438   6.6447
     6.6467   6.6709   6.7078   6.7095   6.7110   6.7521   6.7535   6.7543
     6.9406   7.0054   7.0940   7.1700

          k = 0.0000 0.3849 0.0000 (115797 PWs)   bands (ev):

   -28.2842 -28.2766 -28.2764 -28.2758 -28.2755 -28.2752 -28.2752 -28.2751
   -28.2742 -28.2737 -28.2736 -28.2726 -14.9299 -14.9249 -14.9232 -14.9229
   -14.9224 -14.9222 -14.9222 -14.9221 -14.9218 -14.9215 -14.9213 -14.9203
   -14.9198 -14.9190 -14.9173 -14.9170 -14.9167 -14.9164 -14.9163 -14.9162
   -14.9160 -14.9156 -14.9154 -14.9142 -14.9077 -14.9070 -14.9052 -14.9049
   -14.9045 -14.9043 -14.9042 -14.9041 -14.9039 -14.9036 -14.9033 -14.9017
   -14.8668 -14.8650 -14.8648 -14.8642 -14.8642 -14.8640 -14.8640 -14.8639
   -14.8638 -14.8634 -14.8632 -14.8614 -14.8219 -14.8216 -14.8198 -14.8196
   -14.8192 -14.8190 -14.8189 -14.8188 -14.8186 -14.8182 -14.8180 -14.8167
   -10.3439 -10.3379 -10.3371 -10.3362 -10.3359 -10.3353 -10.3346 -10.3339
   -10.3327 -10.3317 -10.3311 -10.3263 -10.3108 -10.3069 -10.3065 -10.3042
   -10.3036 -10.3016 -10.3013 -10.3010 -10.2960 -10.2940 -10.2901 -10.2851
   -10.2736 -10.2695 -10.2687 -10.2673 -10.2659 -10.2646 -10.2633 -10.2626
   -10.2618 -10.2598 -10.2592 -10.2557  -6.7893  -6.5919  -6.5013  -6.4984
    -6.4409  -6.4371  -6.3675  -6.3494  -6.2897  -6.2846  -6.2521  -6.2478
    -5.9134  -5.9088  -5.8199  -5.8190  -5.8162  -5.7784  -5.7685  -5.7670
    -5.7325  -5.7243  -5.7222  -5.6900  -5.6895  -5.6478  -5.6388  -5.6365
    -5.6297  -5.5946  -5.5847  -5.5829  -5.5680  -5.5282  -5.5213  -5.5179
    -5.5162  -5.5038  -5.4624  -5.4522  -5.4393  -5.4353  -5.4218  -5.4144
    -5.3486  -5.3473  -5.3144  -5.2710  -0.5738  -0.5702  -0.5613  -0.4354
    -0.4049  -0.4034  -0.3771  -0.3385  -0.3375  -0.3366  -0.3140  -0.3033
     1.4180   1.4877   1.4888   1.5014   1.6406   1.6522   1.6882   1.7224
     1.7250   1.8277   1.8740   1.8788   1.9540   1.9560   1.9593   2.0258
     2.1149   2.2066   2.2289   2.2316   2.3381   2.3630   2.3866   2.3872
     2.3941   2.4090   2.4492   2.5374   2.5382   2.6121   2.6144   2.6173
     2.6586   2.7351   2.8134   2.8140   2.8221   2.8403   2.8423   2.8439
     2.8543   2.8841   2.9040   2.9082   2.9154   2.9603   2.9630   3.0047
     3.0502   3.0560   3.0576   3.1237   3.1493   3.1759   3.2040   3.2120
     3.2138   3.2347   3.2584   3.2641   3.2696   3.3235   3.3305   3.3353
     3.3383   3.3713   3.3955   3.3996   3.4342   3.4404   3.4429   3.4524
     3.4972   3.4988   3.5034   3.5106   3.5124   3.5170   3.5240   3.5494
     3.5625   3.6041   3.6071   3.6106   3.6344   3.6468   3.6781   3.6815
     3.6930   3.7022   3.7045   3.7100   3.7764   3.7806   3.8501   3.8605
     3.8968   3.9737   3.9749   3.9788   3.9808   4.0306   4.0378   4.0411
     4.0930   4.1121   4.1181   4.1234   4.1262   4.1590   4.1667   4.1778
     4.2485   4.2667   4.2688   4.2821   4.3037   4.3211   4.3259   4.3691
     4.3800   4.4167   4.4193   4.4846   4.5192   4.5274   4.5291   4.5317
     4.5917   4.5945   4.6274   4.7497   5.1436   5.1466   5.1480   5.1556
     5.1613   5.1618   5.1705   5.1762   5.2156   5.2197   5.2213   5.2238
     5.2293   5.2390   5.2490   5.2510   5.2527   5.2619   5.2687   5.2721
     5.2751   5.2904   5.3042   5.3067   5.3149   5.3201   5.3276   5.3288
     5.3379   5.3513   5.3523   5.3550   5.3589   5.3665   5.4131   5.4165
     5.4353   5.4519   5.4594   5.4640   5.4865   5.4943   5.5006   5.5025
     5.5040   5.5133   5.5287   5.5447   5.5569   5.5589   5.5628   5.6037
     5.6056   5.6302   5.6312   5.6355   5.6690   5.6792   5.6952   5.6965
     5.6985   5.7184   5.7304   5.7563   5.7745   5.7781   5.8101   5.8197
     5.8208   5.8643   5.8766   5.8773   5.9503   5.9532   5.9651   5.9660
     5.9906   6.0071   6.0089   6.0219   6.1390   6.1403   6.1451   6.1600
     6.2256   6.2289   6.2303   6.2520   6.2723   6.2863   6.2921   6.2999
     6.3611   6.3630   6.3774   6.3910   6.3911   6.4417   6.4868   6.4876
     6.5249   6.5368   6.5392   6.5760   6.6049   6.6515   6.6840   6.6916
     6.6947   6.7302   6.7368   6.7405   6.7624   6.7769   6.7933   6.8121
     6.8135   6.9034   6.9087   7.0796

          k = 0.0000 0.3849 0.2714 (115773 PWs)   bands (ev):

   -28.2842 -28.2766 -28.2764 -28.2758 -28.2755 -28.2752 -28.2752 -28.2751
   -28.2742 -28.2737 -28.2736 -28.2726 -14.9299 -14.9249 -14.9232 -14.9229
   -14.9224 -14.9222 -14.9222 -14.9221 -14.9218 -14.9215 -14.9213 -14.9203
   -14.9198 -14.9190 -14.9173 -14.9170 -14.9167 -14.9164 -14.9163 -14.9162
   -14.9160 -14.9156 -14.9154 -14.9142 -14.9077 -14.9070 -14.9052 -14.9049
   -14.9045 -14.9043 -14.9042 -14.9041 -14.9039 -14.9036 -14.9033 -14.9017
   -14.8668 -14.8650 -14.8648 -14.8642 -14.8642 -14.8640 -14.8640 -14.8639
   -14.8638 -14.8634 -14.8632 -14.8614 -14.8219 -14.8216 -14.8198 -14.8196
   -14.8192 -14.8190 -14.8189 -14.8187 -14.8186 -14.8182 -14.8180 -14.8167
   -10.3442 -10.3387 -10.3377 -10.3370 -10.3365 -10.3354 -10.3338 -10.3334
   -10.3324 -10.3312 -10.3296 -10.3269 -10.3121 -10.3081 -10.3061 -10.3059
   -10.3027 -10.3006 -10.2999 -10.2977 -10.2958 -10.2938 -10.2905 -10.2875
   -10.2736 -10.2695 -10.2689 -10.2668 -10.2660 -10.2643 -10.2635 -10.2625
   -10.2614 -10.2596 -10.2590 -10.2571  -6.7523  -6.6478  -6.5627  -6.4732
    -6.4246  -6.4215  -6.3651  -6.3339  -6.3278  -6.2599  -6.2288  -6.2240
    -5.9068  -5.9029  -5.8228  -5.8219  -5.8090  -5.8057  -5.7932  -5.7614
    -5.7588  -5.7319  -5.7117  -5.7089  -5.6725  -5.6347  -5.6293  -5.6276
    -5.6261  -5.6079  -5.6000  -5.5985  -5.5688  -5.5287  -5.5238  -5.5216
    -5.5202  -5.4962  -5.4681  -5.4334  -5.4311  -5.4271  -5.4218  -5.3637
    -5.3487  -5.3463  -5.3236  -5.3003  -0.5617  -0.5587  -0.5575  -0.4366
    -0.4353  -0.4248  -0.3946  -0.3741  -0.3189  -0.3181  -0.2998  -0.2789
     1.4330   1.4854   1.4868   1.4881   1.6253   1.6420   1.7733   1.7741
     1.7813   1.7906   1.7970   1.8019   1.9126   1.9954   1.9996   2.0756
     2.1537   2.2003   2.2109   2.2470   2.2499   2.3594   2.3925   2.3938
     2.3987   2.4487   2.5117   2.5131   2.5478   2.5892   2.5922   2.6085
     2.6427   2.7097   2.7609   2.7672   2.7692   2.7880   2.8080   2.8096
     2.8389   2.8755   2.9148   2.9153   2.9199   2.9809   3.0222   3.0242
     3.0684   3.1055   3.1086   3.1334   3.1716   3.1915   3.1942   3.1950
     3.2003   3.2321   3.2621   3.2683   3.2766   3.3182   3.3216   3.3239
     3.3270   3.3893   3.3950   3.4114   3.4453   3.4458   3.4690   3.4701
     3.4726   3.4744   3.4769   3.4858   3.5328   3.5366   3.5414   3.5923
     3.6103   3.6121   3.6148   3.6331   3.6414   3.6490   3.6580   3.6605
     3.6665   3.7110   3.7114   3.7130   3.8315   3.8375   3.8805   3.8890
     3.9049   3.9486   3.9508   3.9747   3.9826   4.0206   4.0482   4.0496
     4.0510   4.0653   4.1059   4.1147   4.1203   4.1316   4.1366   4.1488
     4.1915   4.2554   4.2668   4.2687   4.2875   4.2910   4.2956   4.3891
     4.3979   4.4379   4.4405   4.4687   4.5245   4.5264   4.5368   4.5980
     4.6116   4.6136   4.6227   4.7222   5.1508   5.1534   5.1553   5.1581
     5.1728   5.1765   5.1780   5.1846   5.1922   5.1990   5.2027   5.2074
     5.2116   5.2345   5.2361   5.2379   5.2561   5.2646   5.2659   5.2680
     5.2802   5.2999   5.3083   5.3140   5.3143   5.3297   5.3366   5.3387
     5.3578   5.3599   5.3620   5.3651   5.3816   5.3942   5.4061   5.4106
     5.4140   5.4325   5.4344   5.4449   5.4468   5.4933   5.5020   5.5043
     5.5102   5.5167   5.5544   5.5606   5.5747   5.5764   5.6037   5.6105
     5.6134   5.6201   5.6244   5.6284   5.6438   5.6712   5.6823   5.7140
     5.7165   5.7180   5.7342   5.7720   5.7734   5.7758   5.8027   5.8040
     5.8111   5.8586   5.8759   5.8765   5.8801   5.9147   5.9595   5.9610
     6.0338   6.0364   6.0371   6.0595   6.0791   6.0808   6.1734   6.2050
     6.2129   6.2133   6.2642   6.2679   6.2704   6.2779   6.2867   6.3488
     6.3507   6.3659   6.3730   6.4159   6.4226   6.4264   6.4291   6.4709
     6.4989   6.4997   6.5467   6.5592   6.5948   6.5972   6.6662   6.6686
     6.6767   6.7196   6.7365   6.7384   6.7481   6.8126   6.8153   6.8446
     6.8681   6.9280   6.9367   7.0514

          k = 0.3333 0.5774 0.0000 (115752 PWs)   bands (ev):

   -28.2842 -28.2766 -28.2764 -28.2758 -28.2755 -28.2752 -28.2752 -28.2751
   -28.2742 -28.2737 -28.2736 -28.2726 -14.9299 -14.9249 -14.9232 -14.9229
   -14.9223 -14.9222 -14.9221 -14.9221 -14.9219 -14.9215 -14.9213 -14.9203
   -14.9197 -14.9190 -14.9173 -14.9171 -14.9167 -14.9164 -14.9163 -14.9162
   -14.9160 -14.9156 -14.9154 -14.9142 -14.9077 -14.9070 -14.9052 -14.9050
   -14.9045 -14.9043 -14.9042 -14.9041 -14.9040 -14.9036 -14.9033 -14.9017
   -14.8668 -14.8650 -14.8648 -14.8642 -14.8642 -14.8640 -14.8640 -14.8639
   -14.8638 -14.8634 -14.8632 -14.8614 -14.8219 -14.8216 -14.8198 -14.8196
   -14.8192 -14.8190 -14.8189 -14.8188 -14.8186 -14.8182 -14.8180 -14.8167
   -10.3438 -10.3380 -10.3360 -10.3355 -10.3351 -10.3348 -10.3344 -10.3340
   -10.3335 -10.3307 -10.3297 -10.3293 -10.3104 -10.3063 -10.3047 -10.3042
   -10.3030 -10.3018 -10.3011 -10.3006 -10.2991 -10.2910 -10.2896 -10.2891
   -10.2734 -10.2688 -10.2671 -10.2667 -10.2664 -10.2651 -10.2645 -10.2637
   -10.2631 -10.2596 -10.2583 -10.2578  -6.6558  -6.6499  -6.6495  -6.4078
    -6.3998  -6.3983  -6.3981  -6.3978  -6.3976  -6.2966  -6.2919  -6.1946
    -5.8651  -5.8508  -5.8495  -5.7523  -5.7483  -5.7475  -5.7339  -5.7315
    -5.7307  -5.7091  -5.7063  -5.6967  -5.6937  -5.6931  -5.6863  -5.6841
    -5.6834  -5.6446  -5.5414  -5.5405  -5.5399  -5.5299  -5.5284  -5.5280
    -5.5126  -5.4738  -5.4716  -5.4705  -5.4675  -5.4659  -5.4653  -5.3986
    -5.3960  -5.3049  -5.3011  -5.3002  -0.5446  -0.5172  -0.5144  -0.5131
    -0.3974  -0.3956  -0.3913  -0.3900  -0.3881  -0.3118  -0.3094  -0.3087
     1.4835   1.4852   1.4859   1.6722   1.6760   1.6768   1.6846   1.6868
     1.6879   1.7341   1.7352   1.8006   2.0770   2.0817   2.0828   2.0833
     2.0843   2.1434   2.1449   2.1456   2.2558   2.3942   2.3971   2.3978
     2.4929   2.4945   2.4958   2.5624   2.5631   2.5645   2.5967   2.5981
     2.7728   2.7753   2.7763   2.8339   2.8368   2.8430   2.8449   2.8469
     2.8494   2.8519   2.8535   2.8539   2.8687   3.0074   3.0107   3.0119
     3.0256   3.0263   3.0285   3.0632   3.1330   3.1347   3.1357   3.1960
     3.1978   3.1994   3.2583   3.2613   3.2624   3.2716   3.2735   3.3613
     3.3696   3.3716   3.3732   3.3752   3.4229   3.4258   3.4269   3.4863
     3.4898   3.5031   3.5034   3.5090   3.5296   3.5303   3.5347   3.5476
     3.5517   3.5790   3.5808   3.5828   3.6483   3.6515   3.6542   3.7171
     3.7216   3.7229   3.7272   3.7303   3.7557   3.7990   3.8021   3.8046
     3.9574   3.9602   3.9619   3.9865   3.9880   4.0296   4.0314   4.0318
     4.0838   4.0852   4.0876   4.1402   4.1494   4.1521   4.1527   4.2828
     4.2864   4.2946   4.3177   4.3200   4.3203   4.3212   4.3235   4.3248
     4.3854   4.3871   4.3891   4.4965   4.5152   4.5170   4.5209   4.5217
     4.5246   4.6552   4.6561   4.6577   5.1389   5.1441   5.1455   5.1467
     5.1745   5.1748   5.1884   5.1893   5.1906   5.1965   5.1983   5.1994
     5.2470   5.2491   5.2497   5.2658   5.2672   5.2687   5.2977   5.2996
     5.3006   5.3018   5.3036   5.3050   5.3150   5.3189   5.3200   5.3222
     5.3402   5.3419   5.3436   5.4024   5.4038   5.4052   5.4086   5.4099
     5.4548   5.4564   5.4584   5.4597   5.4831   5.4851   5.4862   5.4887
     5.4909   5.5349   5.5364   5.5384   5.5648   5.5659   5.5663   5.5710
     5.5723   5.5734   5.6420   5.6729   5.6737   5.6942   5.6959   5.6976
     5.7076   5.7082   5.7090   5.7804   5.7816   5.7821   5.7995   5.8003
     5.8010   5.8239   5.8256   5.8451   5.9305   5.9320   5.9339   6.0457
     6.0470   6.0481   6.0492   6.0505   6.1382   6.1390   6.1404   6.1587
     6.2182   6.2200   6.2205   6.2596   6.2608   6.2627   6.2832   6.2859
     6.3754   6.4084   6.4109   6.4129   6.4169   6.4178   6.4237   6.4515
     6.4526   6.4535   6.6145   6.6158   6.6173   6.6745   6.6761   6.6780
     6.7252   6.7412   6.7422   6.8036   6.8066   6.8078   6.8095   6.8113
     6.8127   6.9380   6.9393   6.9406

          k = 0.3333 0.5774 0.2714 (115827 PWs)   bands (ev):

   -28.2842 -28.2766 -28.2764 -28.2758 -28.2755 -28.2752 -28.2752 -28.2751
   -28.2742 -28.2737 -28.2736 -28.2726 -14.9299 -14.9249 -14.9232 -14.9229
   -14.9223 -14.9222 -14.9221 -14.9221 -14.9219 -14.9215 -14.9213 -14.9203
   -14.9197 -14.9190 -14.9173 -14.9171 -14.9167 -14.9164 -14.9163 -14.9162
   -14.9160 -14.9156 -14.9154 -14.9142 -14.9077 -14.9070 -14.9052 -14.9050
   -14.9045 -14.9043 -14.9042 -14.9041 -14.9040 -14.9036 -14.9033 -14.9017
   -14.8668 -14.8650 -14.8648 -14.8642 -14.8642 -14.8640 -14.8640 -14.8639
   -14.8638 -14.8634 -14.8632 -14.8614 -14.8219 -14.8216 -14.8198 -14.8196
   -14.8192 -14.8190 -14.8189 -14.8188 -14.8186 -14.8182 -14.8180 -14.8167
   -10.3441 -10.3385 -10.3374 -10.3366 -10.3360 -10.3346 -10.3334 -10.3326
   -10.3319 -10.3309 -10.3296 -10.3293 -10.3111 -10.3078 -10.3070 -10.3051
   -10.3022 -10.3003 -10.2987 -10.2972 -10.2964 -10.2924 -10.2913 -10.2908
   -10.2735 -10.2690 -10.2679 -10.2667 -10.2657 -10.2645 -10.2643 -10.2627
   -10.2626 -10.2603 -10.2591 -10.2585  -6.6237  -6.6178  -6.6173  -6.5295
    -6.5244  -6.5238  -6.3112  -6.2929  -6.2890  -6.2884  -6.2590  -6.2164
    -5.8745  -5.8576  -5.8439  -5.7827  -5.7789  -5.7782  -5.7462  -5.7413
    -5.7406  -5.7148  -5.6895  -5.6874  -5.6867  -5.6735  -5.6722  -5.6709
    -5.6706  -5.6433  -5.5567  -5.5556  -5.5551  -5.5252  -5.5238  -5.5236
    -5.5051  -5.5029  -5.5028  -5.5010  -5.4606  -5.4010  -5.3975  -5.3964
    -5.3582  -5.3254  -5.3222  -5.3212  -0.5211  -0.5082  -0.5055  -0.5041
    -0.4607  -0.4187  -0.4168  -0.4153  -0.3557  -0.2941  -0.2924  -0.2913
     1.4817   1.4831   1.4840   1.6361   1.6392   1.6404   1.6906   1.7729
     1.7765   1.7767   1.7783   1.7948   1.9797   1.9820   1.9832   2.0549
     2.1702   2.1918   2.1931   2.1943   2.2474   2.3935   2.3974   2.3985
     2.4872   2.4889   2.4898   2.5563   2.5863   2.5882   2.5890   2.5925
     2.6787   2.7362   2.7377   2.7402   2.8202   2.8219   2.8242   2.8279
     2.9013   2.9029   2.9039   2.9239   2.9352   2.9538   2.9561   2.9595
     3.0592   3.0608   3.0621   3.0880   3.0898   3.0913   3.1279   3.1823
     3.2432   3.2452   3.2468   3.2705   3.2720   3.2731   3.3226   3.3268
     3.3280   3.3312   3.3764   3.4071   3.4213   3.4653   3.4667   3.4678
     3.4931   3.4994   3.5002   3.5050   3.5371   3.5378   3.5393   3.5445
     3.5637   3.6137   3.6166   3.6184   3.6519   3.6554   3.6572   3.6951
     3.6989   3.7005   3.7194   3.7439   3.8222   3.8371   3.8413   3.8426
     3.9379   3.9401   3.9419   3.9440   4.0298   4.0309   4.0321   4.0398
     4.0668   4.0685   4.0700   4.1091   4.1130   4.1147   4.1162   4.1681
     4.2723   4.2749   4.2761   4.2894   4.3163   4.3606   4.3630   4.3636
     4.4163   4.4176   4.4190   4.4926   4.4943   4.4966   4.5086   4.5134
     4.5655   4.6677   4.6688   4.6705   5.1499   5.1575   5.1581   5.1590
     5.1601   5.1837   5.1839   5.1851   5.1976   5.1993   5.2001   5.2117
     5.2247   5.2267   5.2277   5.2522   5.2535   5.2550   5.2585   5.2708
     5.3020   5.3029   5.3056   5.3101   5.3281   5.3302   5.3318   5.3685
     5.3693   5.3713   5.3753   5.3934   5.3969   5.4088   5.4102   5.4136
     5.4332   5.4341   5.4347   5.4399   5.4853   5.4860   5.4863   5.4938
     5.5390   5.5395   5.5408   5.5449   5.5670   5.5677   5.5689   5.6061
     5.6068   5.6087   5.6384   5.6407   5.6717   5.6728   5.6747   5.7040
     5.7052   5.7059   5.7177   5.7592   5.7606   5.7618   5.8026   5.8085
     5.8213   5.8238   5.8252   5.8262   5.8900   5.8916   5.8931   6.0572
     6.0596   6.0610   6.0622   6.0771   6.1202   6.1218   6.1224   6.1359
     6.1966   6.2368   6.2391   6.2394   6.2839   6.3007   6.3029   6.3046
     6.3070   6.3836   6.3864   6.3883   6.4506   6.4661   6.4689   6.4698
     6.4917   6.4936   6.5594   6.5607   6.5614   6.6461   6.6830   6.6854
     6.6867   6.7603   6.7766   6.7791   6.7800   6.7936   6.8536   6.8555
     6.8563   6.9345   6.9362   6.9377

          k =-0.3333 0.1925 0.0000 (115797 PWs)   bands (ev):

   -28.2842 -28.2766 -28.2764 -28.2758 -28.2755 -28.2752 -28.2752 -28.2751
   -28.2742 -28.2737 -28.2736 -28.2726 -14.9300 -14.9249 -14.9232 -14.9229
   -14.9224 -14.9222 -14.9221 -14.9221 -14.9219 -14.9215 -14.9213 -14.9203
   -14.9197 -14.9190 -14.9173 -14.9171 -14.9167 -14.9164 -14.9163 -14.9162
   -14.9160 -14.9156 -14.9154 -14.9142 -14.9077 -14.9070 -14.9052 -14.9050
   -14.9045 -14.9042 -14.9042 -14.9041 -14.9039 -14.9036 -14.9033 -14.9017
   -14.8668 -14.8650 -14.8648 -14.8642 -14.8642 -14.8640 -14.8640 -14.8639
   -14.8638 -14.8634 -14.8632 -14.8614 -14.8219 -14.8216 -14.8198 -14.8196
   -14.8192 -14.8190 -14.8189 -14.8188 -14.8186 -14.8182 -14.8180 -14.8167
   -10.3442 -10.3380 -10.3371 -10.3366 -10.3363 -10.3352 -10.3341 -10.3331
   -10.3326 -10.3321 -10.3310 -10.3263 -10.3109 -10.3070 -10.3065 -10.3046
   -10.3031 -10.3021 -10.3016 -10.3008 -10.2946 -10.2935 -10.2912 -10.2852
   -10.2737 -10.2696 -10.2683 -10.2670 -10.2665 -10.2649 -10.2623 -10.2619
   -10.2611 -10.2608 -10.2598 -10.2561  -6.7893  -6.5917  -6.5017  -6.4981
    -6.4413  -6.4375  -6.3681  -6.3491  -6.2891  -6.2845  -6.2515  -6.2477
    -5.9103  -5.9100  -5.8210  -5.8189  -5.8175  -5.7765  -5.7682  -5.7674
    -5.7319  -5.7260  -5.7224  -5.6911  -5.6903  -5.6485  -5.6379  -5.6366
    -5.6294  -5.5974  -5.5838  -5.5831  -5.5668  -5.5273  -5.5202  -5.5185
    -5.5160  -5.5041  -5.4613  -5.4529  -5.4374  -5.4357  -5.4226  -5.4141
    -5.3511  -5.3470  -5.3133  -5.2707  -0.5714  -0.5704  -0.5630  -0.4371
    -0.4044  -0.4032  -0.3767  -0.3393  -0.3380  -0.3361  -0.3131  -0.3034
     1.4194   1.4871   1.4877   1.5022   1.6394   1.6521   1.6861   1.7242
     1.7251   1.8280   1.8765   1.8778   1.9538   1.9559   1.9571   2.0277
     2.1160   2.2059   2.2297   2.2312   2.3385   2.3627   2.3843   2.3868
     2.3936   2.4081   2.4496   2.5365   2.5393   2.6118   2.6143   2.6176
     2.6583   2.7356   2.8127   2.8133   2.8227   2.8388   2.8423   2.8439
     2.8544   2.8852   2.9054   2.9086   2.9141   2.9615   2.9640   3.0053
     3.0511   3.0573   3.0580   3.1242   3.1483   3.1762   3.2056   3.2123
     3.2138   3.2358   3.2598   3.2617   3.2716   3.3261   3.3303   3.3319
     3.3376   3.3705   3.3959   3.3968   3.4348   3.4409   3.4421   3.4511
     3.4980   3.4993   3.5013   3.5110   3.5141   3.5190   3.5252   3.5450
     3.5625   3.6045   3.6065   3.6123   3.6343   3.6464   3.6780   3.6813
     3.6931   3.7015   3.7051   3.7101   3.7754   3.7797   3.8502   3.8616
     3.8961   3.9736   3.9765   3.9779   3.9812   4.0303   4.0380   4.0394
     4.0940   4.1132   4.1201   4.1218   4.1268   4.1623   4.1639   4.1778
     4.2465   4.2662   4.2680   4.2807   4.3049   4.3223   4.3249   4.3691
     4.3797   4.4171   4.4198   4.4840   4.5195   4.5271   4.5293   4.5310
     4.5917   4.5934   4.6291   4.7507   5.1445   5.1457   5.1476   5.1539
     5.1613   5.1625   5.1706   5.1769   5.2167   5.2195   5.2220   5.2236
     5.2283   5.2386   5.2491   5.2507   5.2518   5.2619   5.2688   5.2734
     5.2743   5.2900   5.3045   5.3053   5.3147   5.3195   5.3271   5.3297
     5.3399   5.3494   5.3527   5.3539   5.3582   5.3660   5.4141   5.4165
     5.4347   5.4514   5.4613   5.4619   5.4872   5.4955   5.5016   5.5024
     5.5044   5.5142   5.5274   5.5452   5.5574   5.5592   5.5626   5.6039
     5.6047   5.6313   5.6329   5.6340   5.6688   5.6802   5.6960   5.6971
     5.6988   5.7176   5.7304   5.7567   5.7759   5.7763   5.8101   5.8184
     5.8193   5.8650   5.8752   5.8762   5.9517   5.9535   5.9642   5.9664
     5.9917   6.0075   6.0091   6.0208   6.1385   6.1393   6.1460   6.1607
     6.2258   6.2312   6.2318   6.2526   6.2712   6.2893   6.2913   6.2985
     6.3616   6.3626   6.3769   6.3894   6.3906   6.4418   6.4850   6.4871
     6.5243   6.5385   6.5396   6.5755   6.6058   6.6501   6.6826   6.6930
     6.6949   6.7296   6.7362   6.7392   6.7624   6.7784   6.7917   6.8116
     6.8142   6.9047   6.9092   7.0811

          k = 0.3333 0.1925 0.0000 (115797 PWs)   bands (ev):

   -28.2842 -28.2766 -28.2764 -28.2758 -28.2755 -28.2752 -28.2752 -28.2751
   -28.2742 -28.2737 -28.2736 -28.2726 -14.9299 -14.9249 -14.9232 -14.9229
   -14.9223 -14.9222 -14.9221 -14.9221 -14.9219 -14.9215 -14.9213 -14.9203
   -14.9197 -14.9190 -14.9173 -14.9171 -14.9167 -14.9164 -14.9163 -14.9162
   -14.9160 -14.9156 -14.9154 -14.9142 -14.9077 -14.9070 -14.9052 -14.9050
   -14.9045 -14.9043 -14.9042 -14.9041 -14.9039 -14.9036 -14.9033 -14.9017
   -14.8668 -14.8650 -14.8648 -14.8642 -14.8642 -14.8640 -14.8640 -14.8639
   -14.8638 -14.8634 -14.8632 -14.8614 -14.8219 -14.8216 -14.8198 -14.8196
   -14.8192 -14.8190 -14.8189 -14.8188 -14.8186 -14.8182 -14.8180 -14.8167
   -10.3441 -10.3382 -10.3371 -10.3361 -10.3358 -10.3352 -10.3342 -10.3340
   -10.3327 -10.3316 -10.3313 -10.3263 -10.3109 -10.3071 -10.3061 -10.3049
   -10.3028 -10.3018 -10.3015 -10.3012 -10.2953 -10.2941 -10.2903 -10.2851
   -10.2737 -10.2692 -10.2687 -10.2677 -10.2659 -10.2640 -10.2629 -10.2627
   -10.2621 -10.2600 -10.2594 -10.2558  -6.7891  -6.5907  -6.5006  -6.4992
    -6.4448  -6.4373  -6.3655  -6.3517  -6.2873  -6.2843  -6.2507  -6.2479
    -5.9117  -5.9104  -5.8214  -5.8184  -5.8171  -5.7777  -5.7678  -5.7660
    -5.7327  -5.7243  -5.7221  -5.6906  -5.6887  -5.6480  -5.6393  -5.6371
    -5.6297  -5.5960  -5.5847  -5.5837  -5.5682  -5.5276  -5.5204  -5.5179
    -5.5164  -5.5043  -5.4625  -5.4516  -5.4379  -5.4355  -5.4210  -5.4149
    -5.3508  -5.3469  -5.3135  -5.2708  -0.5725  -0.5701  -0.5622  -0.4367
    -0.4041  -0.4031  -0.3771  -0.3415  -0.3371  -0.3364  -0.3123  -0.3029
     1.4188   1.4864   1.4891   1.5010   1.6389   1.6504   1.6906   1.7238
     1.7257   1.8290   1.8765   1.8779   1.9543   1.9556   1.9566   2.0268
     2.1162   2.2058   2.2285   2.2301   2.3388   2.3632   2.3848   2.3872
     2.3945   2.4070   2.4494   2.5383   2.5400   2.6115   2.6143   2.6165
     2.6571   2.7358   2.8108   2.8132   2.8221   2.8396   2.8432   2.8455
     2.8536   2.8840   2.9078   2.9094   2.9140   2.9618   2.9627   3.0039
     3.0494   3.0570   3.0578   3.1253   3.1492   3.1765   3.2035   3.2124
     3.2133   3.2359   3.2608   3.2624   3.2693   3.3242   3.3318   3.3323
     3.3390   3.3723   3.3946   3.3955   3.4329   3.4398   3.4414   3.4509
     3.4986   3.4995   3.5029   3.5113   3.5135   3.5159   3.5287   3.5433
     3.5629   3.6053   3.6065   3.6104   3.6376   3.6479   3.6801   3.6809
     3.6945   3.6991   3.7045   3.7096   3.7796   3.7818   3.8490   3.8573
     3.8974   3.9729   3.9744   3.9788   3.9811   4.0305   4.0390   4.0407
     4.0925   4.1117   4.1201   4.1222   4.1254   4.1626   4.1635   4.1775
     4.2494   4.2665   4.2696   4.2854   4.3025   4.3229   4.3236   4.3693
     4.3800   4.4166   4.4195   4.4860   4.5180   4.5277   4.5290   4.5300
     4.5915   4.5929   4.6281   4.7499   5.1429   5.1451   5.1490   5.1578
     5.1599   5.1636   5.1716   5.1750   5.2150   5.2201   5.2209   5.2232
     5.2305   5.2386   5.2496   5.2502   5.2518   5.2622   5.2686   5.2718
     5.2741   5.2902   5.3050   5.3068   5.3146   5.3198   5.3271   5.3301
     5.3362   5.3498   5.3535   5.3558   5.3595   5.3693   5.4137   5.4151
     5.4343   5.4528   5.4623   5.4633   5.4868   5.4924   5.4995   5.5005
     5.5035   5.5136   5.5308   5.5442   5.5575   5.5588   5.5629   5.6038
     5.6055   5.6296   5.6318   5.6333   5.6687   5.6784   5.6953   5.6964
     5.6982   5.7194   5.7304   5.7580   5.7754   5.7767   5.8100   5.8199
     5.8215   5.8634   5.8761   5.8784   5.9500   5.9520   5.9659   5.9668
     5.9903   6.0061   6.0083   6.0210   6.1396   6.1411   6.1451   6.1609
     6.2257   6.2289   6.2310   6.2508   6.2707   6.2901   6.2910   6.3005
     6.3620   6.3634   6.3786   6.3895   6.3916   6.4407   6.4852   6.4882
     6.5243   6.5368   6.5392   6.5755   6.6051   6.6523   6.6847   6.6918
     6.6932   6.7294   6.7378   6.7388   6.7624   6.7782   6.7933   6.8110
     6.8131   6.9042   6.9088   7.0807

          k = 0.0000-0.3849 0.2714 (115773 PWs)   bands (ev):

   -28.2842 -28.2766 -28.2764 -28.2758 -28.2755 -28.2752 -28.2752 -28.2751
   -28.2742 -28.2737 -28.2736 -28.2726 -14.9299 -14.9249 -14.9232 -14.9229
   -14.9224 -14.9222 -14.9222 -14.9221 -14.9218 -14.9215 -14.9213 -14.9203
   -14.9198 -14.9190 -14.9173 -14.9170 -14.9167 -14.9164 -14.9163 -14.9162
   -14.9160 -14.9156 -14.9154 -14.9142 -14.9077 -14.9070 -14.9052 -14.9049
   -14.9045 -14.9043 -14.9042 -14.9041 -14.9039 -14.9036 -14.9033 -14.9017
   -14.8668 -14.8650 -14.8648 -14.8642 -14.8642 -14.8640 -14.8640 -14.8639
   -14.8638 -14.8634 -14.8632 -14.8614 -14.8219 -14.8216 -14.8198 -14.8196
   -14.8192 -14.8190 -14.8189 -14.8187 -14.8186 -14.8182 -14.8180 -14.8167
   -10.3443 -10.3388 -10.3375 -10.3370 -10.3364 -10.3354 -10.3340 -10.3335
   -10.3323 -10.3310 -10.3297 -10.3269 -10.3120 -10.3089 -10.3058 -10.3049
   -10.3030 -10.3022 -10.2990 -10.2967 -10.2950 -10.2943 -10.2925 -10.2867
   -10.2734 -10.2692 -10.2685 -10.2676 -10.2666 -10.2643 -10.2628 -10.2621
   -10.2611 -10.2602 -10.2597 -10.2567  -6.7524  -6.6478  -6.5637  -6.4695
    -6.4210  -6.4183  -6.3647  -6.3457  -6.3396  -6.2667  -6.2150  -6.2104
    -5.9158  -5.9114  -5.8260  -5.8209  -5.8188  -5.8155  -5.7664  -5.7637
    -5.7537  -5.7338  -5.6832  -5.6816  -5.6810  -5.6639  -5.6425  -5.6403
    -5.6372  -5.6073  -5.5864  -5.5845  -5.5726  -5.5303  -5.5275  -5.5267
    -5.5164  -5.4867  -5.4653  -5.4413  -5.4385  -5.4361  -5.3988  -5.3701
    -5.3450  -5.3430  -5.3331  -5.2968  -0.5651  -0.5613  -0.5510  -0.4325
    -0.4294  -0.4284  -0.4112  -0.3627  -0.3220  -0.3215  -0.2913  -0.2827
     1.4046   1.4944   1.4956   1.5159   1.6126   1.7100   1.7131   1.7228
     1.7368   1.7724   1.8434   1.8475   1.9663   1.9840   2.0214   2.0257
     2.1283   2.1991   2.2079   2.2102   2.2842   2.3329   2.3973   2.4268
     2.4284   2.5169   2.5281   2.5298   2.5574   2.5583   2.5594   2.5613
     2.5998   2.6777   2.7629   2.7651   2.8232   2.8251   2.8257   2.8290
     2.8494   2.8542   2.8950   2.8952   2.9063   3.0074   3.0167   3.0182
     3.0772   3.0782   3.1171   3.1193   3.1341   3.1810   3.1822   3.1899
     3.2141   3.2469   3.2658   3.2818   3.2893   3.2961   3.3310   3.3329
     3.3742   3.3776   3.3790   3.3878   3.4472   3.4486   3.4542   3.4775
     3.4800   3.4806   3.5057   3.5231   3.5336   3.5361   3.5428   3.5598
     3.5860   3.5878   3.6097   3.6310   3.6408   3.6447   3.6828   3.6850
     3.6859   3.6955   3.7029   3.7058   3.8325   3.8381   3.8784   3.8814
     3.9423   3.9447   3.9465   3.9492   3.9725   4.0326   4.0540   4.0565
     4.0600   4.0621   4.0980   4.1042   4.1195   4.1265   4.1304   4.1338
     4.2242   4.2407   4.2682   4.2714   4.2898   4.2930   4.3145   4.3690
     4.3920   4.4345   4.4365   4.4815   4.5223   4.5451   4.5465   4.5874
     4.5967   4.5997   4.6320   4.7307   5.1484   5.1498   5.1546   5.1650
     5.1689   5.1704   5.1717   5.1738   5.2009   5.2056   5.2139   5.2180
     5.2218   5.2309   5.2415   5.2428   5.2614   5.2646   5.2656   5.2667
     5.2675   5.2756   5.3100   5.3119   5.3198   5.3350   5.3461   5.3494
     5.3613   5.3640   5.3646   5.3692   5.3705   5.3821   5.3894   5.3915
     5.4112   5.4345   5.4489   5.4505   5.4544   5.4700   5.4967   5.4997
     5.5180   5.5249   5.5571   5.5578   5.5681   5.5715   5.6026   5.6045
     5.6080   5.6212   5.6314   5.6492   5.6530   5.6621   5.6757   5.7087
     5.7108   5.7394   5.7605   5.7621   5.7714   5.7850   5.8060   5.8064
     5.8152   5.8399   5.8679   5.8688   5.8755   5.8971   5.9697   5.9703
     6.0184   6.0257   6.0273   6.1009   6.1033   6.1129   6.1608   6.1874
     6.2022   6.2038   6.2049   6.2621   6.2622   6.2883   6.3184   6.3425
     6.3555   6.3675   6.3717   6.4134   6.4195   6.4208   6.4526   6.4816
     6.4829   6.5078   6.5580   6.5670   6.6061   6.6095   6.6477   6.6666
     6.6694   6.7363   6.7391   6.7403   6.7480   6.8036   6.8067   6.8514
     6.8658   6.9182   6.9459   7.0372

          k =-0.3333 0.1925 0.2714 (115773 PWs)   bands (ev):

   -28.2842 -28.2766 -28.2764 -28.2758 -28.2755 -28.2752 -28.2752 -28.2751
   -28.2742 -28.2737 -28.2736 -28.2726 -14.9300 -14.9249 -14.9232 -14.9229
   -14.9224 -14.9222 -14.9221 -14.9221 -14.9219 -14.9215 -14.9213 -14.9203
   -14.9197 -14.9190 -14.9173 -14.9171 -14.9167 -14.9164 -14.9163 -14.9162
   -14.9160 -14.9156 -14.9154 -14.9142 -14.9077 -14.9070 -14.9052 -14.9050
   -14.9045 -14.9042 -14.9042 -14.9041 -14.9039 -14.9036 -14.9033 -14.9017
   -14.8668 -14.8650 -14.8648 -14.8642 -14.8642 -14.8640 -14.8640 -14.8639
   -14.8638 -14.8634 -14.8632 -14.8614 -14.8219 -14.8216 -14.8198 -14.8196
   -14.8192 -14.8190 -14.8189 -14.8188 -14.8186 -14.8182 -14.8180 -14.8167
   -10.3445 -10.3388 -10.3378 -10.3374 -10.3368 -10.3348 -10.3336 -10.3328
   -10.3320 -10.3317 -10.3292 -10.3273 -10.3119 -10.3083 -10.3070 -10.3052
   -10.3031 -10.3026 -10.2979 -10.2954 -10.2947 -10.2944 -10.2931 -10.2872
   -10.2736 -10.2693 -10.2682 -10.2673 -10.2669 -10.2643 -10.2619 -10.2616
   -10.2612 -10.2605 -10.2599 -10.2576  -6.7524  -6.6479  -6.5631  -6.4704
    -6.4222  -6.4186  -6.3646  -6.3438  -6.3398  -6.2666  -6.2147  -6.2100
    -5.9129  -5.9127  -5.8258  -5.8224  -5.8189  -5.8169  -5.7648  -5.7642
    -5.7523  -5.7346  -5.6846  -5.6822  -5.6804  -5.6632  -5.6425  -5.6408
    -5.6379  -5.6093  -5.5859  -5.5840  -5.5719  -5.5305  -5.5283  -5.5265
    -5.5152  -5.4853  -5.4657  -5.4398  -5.4383  -5.4363  -5.4014  -5.3698
    -5.3468  -5.3427  -5.3308  -5.2968  -0.5628  -0.5613  -0.5525  -0.4352
    -0.4290  -0.4279  -0.4112  -0.3606  -0.3230  -0.3224  -0.2901  -0.2829
     1.4058   1.4937   1.4944   1.5167   1.6121   1.7110   1.7127   1.7230
     1.7356   1.7717   1.8462   1.8477   1.9666   1.9849   2.0201   2.0228
     2.1294   2.1989   2.2092   2.2103   2.2843   2.3337   2.3964   2.4245
     2.4276   2.5164   2.5272   2.5301   2.5569   2.5583   2.5596   2.5610
     2.6007   2.6784   2.7630   2.7647   2.8233   2.8242   2.8259   2.8277
     2.8491   2.8547   2.8940   2.8968   2.9073   3.0085   3.0160   3.0198
     3.0763   3.0785   3.1186   3.1201   3.1353   3.1811   3.1819   3.1899
     3.2156   3.2464   3.2679   3.2849   3.2872   3.2972   3.3309   3.3326
     3.3763   3.3787   3.3800   3.3807   3.4474   3.4486   3.4508   3.4774
     3.4801   3.4839   3.5061   3.5212   3.5349   3.5370   3.5424   3.5575
     3.5847   3.5889   3.6098   3.6303   3.6406   3.6451   3.6808   3.6860
     3.6879   3.6955   3.7021   3.7051   3.8320   3.8370   3.8788   3.8813
     3.9423   3.9455   3.9474   3.9490   3.9715   4.0330   4.0552   4.0572
     4.0597   4.0609   4.1007   4.1016   4.1225   4.1236   4.1309   4.1341
     4.2227   4.2390   4.2684   4.2707   4.2895   4.2931   4.3154   4.3692
     4.3919   4.4357   4.4358   4.4818   4.5216   4.5439   4.5480   4.5866
     4.5968   4.5982   4.6339   4.7321   5.1488   5.1497   5.1523   5.1646
     5.1695   5.1701   5.1715   5.1736   5.2005   5.2056   5.2156   5.2184
     5.2218   5.2312   5.2417   5.2435   5.2617   5.2639   5.2653   5.2659
     5.2668   5.2749   5.3112   5.3124   5.3200   5.3359   5.3460   5.3484
     5.3608   5.3635   5.3655   5.3685   5.3702   5.3808   5.3889   5.3909
     5.4120   5.4337   5.4480   5.4526   5.4538   5.4703   5.4977   5.4995
     5.5187   5.5239   5.5562   5.5587   5.5691   5.5706   5.6033   5.6041
     5.6089   5.6212   5.6337   5.6503   5.6511   5.6619   5.6759   5.7094
     5.7111   5.7408   5.7598   5.7608   5.7712   5.7852   5.8049   5.8059
     5.8158   5.8408   5.8671   5.8677   5.8765   5.8964   5.9691   5.9710
     6.0202   6.0256   6.0267   6.1008   6.1019   6.1136   6.1610   6.1867
     6.2027   6.2046   6.2055   6.2623   6.2641   6.2863   6.3187   6.3412
     6.3551   6.3704   6.3717   6.4135   6.4193   6.4209   6.4531   6.4803
     6.4822   6.5080   6.5581   6.5662   6.6071   6.6081   6.6464   6.6664
     6.6674   6.7380   6.7389   6.7408   6.7483   6.8045   6.8059   6.8501
     6.8665   6.9173   6.9454   7.0396

          k = 0.3333 0.1925 0.2714 (115773 PWs)   bands (ev):

   -28.2842 -28.2766 -28.2764 -28.2758 -28.2755 -28.2752 -28.2752 -28.2751
   -28.2742 -28.2737 -28.2736 -28.2726 -14.9299 -14.9249 -14.9232 -14.9229
   -14.9223 -14.9222 -14.9221 -14.9221 -14.9219 -14.9215 -14.9213 -14.9203
   -14.9197 -14.9190 -14.9173 -14.9171 -14.9167 -14.9164 -14.9163 -14.9162
   -14.9160 -14.9156 -14.9154 -14.9142 -14.9077 -14.9070 -14.9052 -14.9050
   -14.9045 -14.9043 -14.9042 -14.9041 -14.9039 -14.9036 -14.9033 -14.9017
   -14.8668 -14.8650 -14.8648 -14.8642 -14.8642 -14.8640 -14.8640 -14.8639
   -14.8638 -14.8634 -14.8632 -14.8614 -14.8219 -14.8216 -14.8198 -14.8196
   -14.8192 -14.8190 -14.8189 -14.8188 -14.8186 -14.8182 -14.8180 -14.8167
   -10.3444 -10.3390 -10.3379 -10.3369 -10.3362 -10.3345 -10.3341 -10.3334
   -10.3328 -10.3308 -10.3297 -10.3271 -10.3119 -10.3088 -10.3065 -10.3047
   -10.3031 -10.3026 -10.2979 -10.2965 -10.2951 -10.2945 -10.2925 -10.2869
   -10.2735 -10.2689 -10.2685 -10.2678 -10.2666 -10.2635 -10.2625 -10.2623
   -10.2617 -10.2602 -10.2599 -10.2568  -6.7522  -6.6477  -6.5619  -6.4706
    -6.4267  -6.4181  -6.3646  -6.3422  -6.3396  -6.2670  -6.2126  -6.2103
    -5.9142  -5.9128  -5.8261  -5.8218  -5.8175  -5.8162  -5.7650  -5.7635
    -5.7533  -5.7348  -5.6852  -5.6818  -5.6809  -5.6633  -5.6428  -5.6407
    -5.6381  -5.6072  -5.5863  -5.5849  -5.5728  -5.5297  -5.5281  -5.5260
    -5.5166  -5.4867  -5.4643  -5.4391  -5.4383  -5.4363  -5.3994  -5.3717
    -5.3469  -5.3428  -5.3317  -5.2959  -0.5634  -0.5612  -0.5518  -0.4354
    -0.4298  -0.4278  -0.4111  -0.3600  -0.3244  -0.3212  -0.2899  -0.2829
     1.4048   1.4932   1.4963   1.5150   1.6132   1.7114   1.7131   1.7229
     1.7368   1.7724   1.8450   1.8467   1.9672   1.9865   2.0207   2.0225
     2.1287   2.1978   2.2070   2.2099   2.2856   2.3338   2.3969   2.4263
     2.4280   2.5146   2.5290   2.5298   2.5556   2.5577   2.5590   2.5625
     2.5993   2.6772   2.7645   2.7662   2.8209   2.8250   2.8267   2.8303
     2.8482   2.8543   2.8949   2.8958   2.9056   3.0073   3.0178   3.0191
     3.0776   3.0787   3.1191   3.1202   3.1356   3.1809   3.1823   3.1892
     3.2145   3.2461   3.2663   3.2841   3.2856   3.2966   3.3313   3.3329
     3.3758   3.3778   3.3788   3.3799   3.4476   3.4495   3.4510   3.4793
     3.4800   3.4823   3.5093   3.5196   3.5349   3.5360   3.5405   3.5596
     3.5860   3.5886   3.6134   3.6301   3.6376   3.6454   3.6791   3.6843
     3.6875   3.6965   3.7046   3.7071   3.8362   3.8391   3.8755   3.8799
     3.9416   3.9454   3.9459   3.9489   3.9726   4.0324   4.0541   4.0575
     4.0610   4.0629   4.1002   4.1018   4.1215   4.1230   4.1296   4.1339
     4.2247   4.2424   4.2675   4.2711   4.2912   4.2934   4.3132   4.3667
     4.3943   4.4348   4.4365   4.4820   4.5219   4.5440   4.5473   4.5871
     4.5959   4.5987   4.6324   4.7311   5.1474   5.1490   5.1565   5.1663
     5.1687   5.1702   5.1717   5.1750   5.2016   5.2066   5.2121   5.2185
     5.2199   5.2299   5.2408   5.2438   5.2600   5.2648   5.2660   5.2677
     5.2694   5.2747   5.3095   5.3123   5.3194   5.3338   5.3474   5.3490
     5.3604   5.3632   5.3644   5.3696   5.3732   5.3823   5.3890   5.3907
     5.4093   5.4354   5.4492   5.4511   5.4546   5.4700   5.4973   5.4996
     5.5169   5.5269   5.5574   5.5585   5.5690   5.5698   5.6026   5.6034
     5.6080   5.6211   5.6306   5.6503   5.6518   5.6622   5.6752   5.7083
     5.7104   5.7392   5.7609   5.7620   5.7717   5.7856   5.8059   5.8075
     5.8151   5.8395   5.8676   5.8696   5.8753   5.8949   5.9697   5.9707
     6.0189   6.0251   6.0273   6.1019   6.1035   6.1116   6.1592   6.1873
     6.2025   6.2040   6.2051   6.2624   6.2650   6.2876   6.3187   6.3431
     6.3552   6.3685   6.3699   6.4125   6.4201   6.4216   6.4534   6.4810
     6.4837   6.5068   6.5578   6.5679   6.6058   6.6086   6.6484   6.6672
     6.6681   6.7355   6.7384   6.7407   6.7488   6.8032   6.8058   6.8502
     6.8662   6.9183   6.9459   7.0389

          k =-0.3333-0.1925 0.2714 (115773 PWs)   bands (ev):

   -28.2842 -28.2766 -28.2764 -28.2758 -28.2755 -28.2752 -28.2752 -28.2751
   -28.2742 -28.2737 -28.2736 -28.2726 -14.9299 -14.9249 -14.9232 -14.9229
   -14.9223 -14.9222 -14.9221 -14.9221 -14.9219 -14.9215 -14.9213 -14.9203
   -14.9197 -14.9190 -14.9173 -14.9171 -14.9167 -14.9164 -14.9163 -14.9162
   -14.9160 -14.9156 -14.9154 -14.9142 -14.9077 -14.9070 -14.9052 -14.9050
   -14.9045 -14.9043 -14.9042 -14.9041 -14.9039 -14.9036 -14.9033 -14.9017
   -14.8668 -14.8650 -14.8648 -14.8642 -14.8642 -14.8640 -14.8640 -14.8639
   -14.8638 -14.8634 -14.8632 -14.8614 -14.8219 -14.8216 -14.8198 -14.8196
   -14.8192 -14.8190 -14.8189 -14.8188 -14.8186 -14.8182 -14.8180 -14.8167
   -10.3444 -10.3390 -10.3377 -10.3371 -10.3365 -10.3344 -10.3340 -10.3330
   -10.3325 -10.3314 -10.3298 -10.3269 -10.3120 -10.3087 -10.3063 -10.3055
   -10.3020 -10.3008 -10.3004 -10.2971 -10.2960 -10.2938 -10.2908 -10.2875
   -10.2735 -10.2691 -10.2684 -10.2678 -10.2660 -10.2642 -10.2628 -10.2624
   -10.2617 -10.2597 -10.2595 -10.2571  -6.7519  -6.6480  -6.5613  -6.4737
    -6.4296  -6.4215  -6.3648  -6.3304  -6.3285  -6.2606  -6.2264  -6.2241
    -5.9051  -5.9041  -5.8248  -5.8214  -5.8079  -5.8069  -5.7932  -5.7601
    -5.7580  -5.7321  -5.7122  -5.7091  -5.6723  -5.6353  -5.6294  -5.6277
    -5.6265  -5.6091  -5.6001  -5.5993  -5.5686  -5.5275  -5.5230  -5.5212
    -5.5204  -5.4957  -5.4678  -5.4330  -5.4306  -5.4276  -5.4239  -5.3628
    -5.3504  -5.3465  -5.3216  -5.3005  -0.5613  -0.5585  -0.5578  -0.4373
    -0.4352  -0.4260  -0.3932  -0.3736  -0.3211  -0.3179  -0.2992  -0.2781
     1.4331   1.4838   1.4866   1.4879   1.6249   1.6428   1.7722   1.7754
     1.7833   1.7918   1.8000   1.8010   1.9131   1.9951   1.9964   2.0774
     2.1546   2.2001   2.2096   2.2452   2.2483   2.3601   2.3908   2.3935
     2.3986   2.4477   2.5130   2.5141   2.5464   2.5895   2.5934   2.6077
     2.6396   2.7098   2.7626   2.7670   2.7693   2.7887   2.8083   2.8119
     2.8390   2.8754   2.9142   2.9158   2.9188   2.9820   3.0231   3.0250
     3.0679   3.1065   3.1078   3.1341   3.1707   3.1929   3.1937   3.1958
     3.2011   3.2320   3.2642   3.2651   3.2783   3.3189   3.3218   3.3225
     3.3260   3.3889   3.3896   3.4112   3.4448   3.4459   3.4700   3.4713
     3.4729   3.4743   3.4762   3.4842   3.5345   3.5367   3.5422   3.5896
     3.6120   3.6123   3.6147   3.6342   3.6437   3.6474   3.6587   3.6621
     3.6684   3.7050   3.7114   3.7132   3.8363   3.8371   3.8768   3.8891
     3.9059   3.9497   3.9510   3.9748   3.9825   4.0202   4.0475   4.0493
     4.0508   4.0654   4.1108   4.1120   4.1197   4.1328   4.1341   4.1472
     4.1929   4.2567   4.2671   4.2694   4.2879   4.2903   4.2949   4.3879
     4.3989   4.4386   4.4398   4.4695   4.5240   4.5270   4.5366   4.5973
     4.6107   4.6132   4.6233   4.7225   5.1500   5.1511   5.1560   5.1593
     5.1743   5.1765   5.1797   5.1845   5.1922   5.1994   5.2016   5.2083
     5.2091   5.2346   5.2353   5.2373   5.2560   5.2654   5.2666   5.2685
     5.2810   5.2983   5.3083   5.3129   5.3154   5.3288   5.3383   5.3407
     5.3581   5.3599   5.3621   5.3643   5.3811   5.3947   5.4068   5.4080
     5.4139   5.4315   5.4345   5.4452   5.4464   5.4950   5.5019   5.5033
     5.5126   5.5175   5.5545   5.5597   5.5752   5.5764   5.6021   5.6111
     5.6123   5.6199   5.6250   5.6266   5.6439   5.6705   5.6828   5.7146
     5.7159   5.7187   5.7346   5.7729   5.7739   5.7750   5.8030   5.8044
     5.8104   5.8584   5.8757   5.8783   5.8787   5.9145   5.9595   5.9604
     6.0328   6.0350   6.0361   6.0591   6.0789   6.0822   6.1737   6.2059
     6.2135   6.2153   6.2663   6.2681   6.2705   6.2781   6.2862   6.3487
     6.3509   6.3670   6.3725   6.4143   6.4239   6.4250   6.4271   6.4720
     6.4980   6.5003   6.5457   6.5603   6.5954   6.5967   6.6659   6.6681
     6.6776   6.7200   6.7347   6.7374   6.7488   6.8122   6.8141   6.8447
     6.8692   6.9283   6.9366   7.0523

          k = 0.3333-0.1925 0.2714 (115773 PWs)   bands (ev):

   -28.2842 -28.2766 -28.2764 -28.2758 -28.2755 -28.2752 -28.2752 -28.2751
   -28.2742 -28.2737 -28.2736 -28.2726 -14.9300 -14.9249 -14.9232 -14.9229
   -14.9224 -14.9222 -14.9221 -14.9221 -14.9219 -14.9215 -14.9213 -14.9203
   -14.9197 -14.9190 -14.9173 -14.9171 -14.9167 -14.9164 -14.9163 -14.9162
   -14.9160 -14.9156 -14.9154 -14.9142 -14.9077 -14.9070 -14.9052 -14.9050
   -14.9045 -14.9042 -14.9042 -14.9041 -14.9039 -14.9036 -14.9033 -14.9017
   -14.8668 -14.8650 -14.8648 -14.8642 -14.8642 -14.8640 -14.8640 -14.8639
   -14.8638 -14.8634 -14.8632 -14.8614 -14.8219 -14.8216 -14.8198 -14.8196
   -14.8192 -14.8190 -14.8189 -14.8188 -14.8186 -14.8182 -14.8180 -14.8167
   -10.3445 -10.3387 -10.3379 -10.3374 -10.3370 -10.3344 -10.3332 -10.3330
   -10.3324 -10.3317 -10.3295 -10.3270 -10.3120 -10.3086 -10.3065 -10.3059
   -10.3019 -10.3009 -10.3001 -10.2963 -10.2953 -10.2942 -10.2916 -10.2874
   -10.2736 -10.2696 -10.2677 -10.2669 -10.2667 -10.2649 -10.2625 -10.2618
   -10.2611 -10.2605 -10.2594 -10.2576  -6.7522  -6.6480  -6.5622  -6.4740
    -6.4256  -6.4218  -6.3650  -6.3323  -6.3279  -6.2600  -6.2284  -6.2238
    -5.9044  -5.9041  -5.8255  -5.8221  -5.8084  -5.8065  -5.7904  -5.7610
    -5.7595  -5.7322  -5.7113  -5.7101  -5.6709  -5.6377  -5.6291  -5.6279
    -5.6263  -5.6088  -5.5996  -5.5983  -5.5685  -5.5289  -5.5229  -5.5215
    -5.5192  -5.4975  -5.4665  -5.4321  -5.4303  -5.4277  -5.4221  -5.3653
    -5.3505  -5.3463  -5.3224  -5.2994  -0.5620  -0.5580  -0.5576  -0.4361
    -0.4355  -0.4263  -0.3938  -0.3735  -0.3198  -0.3190  -0.2993  -0.2783
     1.4348   1.4854   1.4856   1.4885   1.6243   1.6412   1.7715   1.7737
     1.7814   1.7901   1.7999   1.8017   1.9137   1.9959   1.9977   2.0776
     2.1554   2.1988   2.2105   2.2483   2.2495   2.3602   2.3885   2.3935
     2.3981   2.4492   2.5102   2.5148   2.5480   2.5897   2.5908   2.6063
     2.6426   2.7095   2.7612   2.7675   2.7685   2.7889   2.8084   2.8105
     2.8380   2.8760   2.9148   2.9169   2.9203   2.9821   3.0216   3.0254
     3.0691   3.1061   3.1078   3.1335   3.1725   3.1926   3.1933   3.1955
     3.2008   3.2335   3.2639   3.2665   3.2782   3.3194   3.3217   3.3228
     3.3265   3.3904   3.3908   3.4122   3.4459   3.4471   3.4691   3.4711
     3.4728   3.4749   3.4768   3.4793   3.5331   3.5369   3.5442   3.5919
     3.6102   3.6127   3.6130   3.6336   3.6393   3.6479   3.6568   3.6600
     3.6681   3.7091   3.7114   3.7153   3.8324   3.8364   3.8805   3.8883
     3.9038   3.9492   3.9515   3.9758   3.9818   4.0207   4.0482   4.0496
     4.0504   4.0668   4.1112   4.1117   4.1207   4.1331   4.1344   4.1485
     4.1901   4.2554   4.2658   4.2679   4.2885   4.2921   4.2945   4.3882
     4.3975   4.4382   4.4399   4.4683   4.5242   4.5272   4.5369   4.5974
     4.6112   4.6132   4.6246   4.7238   5.1528   5.1534   5.1542   5.1576
     5.1716   5.1763   5.1772   5.1847   5.1919   5.1989   5.2039   5.2089
     5.2103   5.2348   5.2363   5.2375   5.2555   5.2630   5.2667   5.2672
     5.2792   5.2997   5.3088   5.3140   5.3160   5.3300   5.3345   5.3371
     5.3588   5.3593   5.3625   5.3655   5.3809   5.3920   5.4085   5.4091
     5.4149   5.4331   5.4349   5.4457   5.4477   5.4929   5.5029   5.5046
     5.5092   5.5164   5.5545   5.5617   5.5756   5.5763   5.6050   5.6119
     5.6127   5.6198   5.6256   5.6266   5.6438   5.6713   5.6832   5.7143
     5.7160   5.7176   5.7359   5.7715   5.7735   5.7743   5.8021   5.8031
     5.8117   5.8589   5.8745   5.8757   5.8799   5.9163   5.9593   5.9607
     6.0344   6.0360   6.0370   6.0616   6.0781   6.0799   6.1738   6.2087
     6.2135   6.2143   6.2661   6.2673   6.2701   6.2762   6.2843   6.3483
     6.3507   6.3651   6.3724   6.4159   6.4248   6.4259   6.4273   6.4721
     6.4965   6.4987   6.5464   6.5598   6.5965   6.5981   6.6667   6.6680
     6.6762   6.7192   6.7353   6.7382   6.7468   6.8129   6.8157   6.8433
     6.8702   6.9285   6.9371   7.0524

          k =-0.3333-0.5774 0.2714 (115827 PWs)   bands (ev):

   -28.2842 -28.2766 -28.2764 -28.2758 -28.2755 -28.2752 -28.2752 -28.2751
   -28.2742 -28.2737 -28.2736 -28.2726 -14.9299 -14.9249 -14.9232 -14.9229
   -14.9223 -14.9222 -14.9221 -14.9221 -14.9219 -14.9215 -14.9213 -14.9203
   -14.9197 -14.9190 -14.9173 -14.9171 -14.9167 -14.9164 -14.9163 -14.9162
   -14.9160 -14.9156 -14.9154 -14.9142 -14.9077 -14.9070 -14.9052 -14.9050
   -14.9045 -14.9043 -14.9042 -14.9041 -14.9040 -14.9036 -14.9033 -14.9017
   -14.8668 -14.8650 -14.8648 -14.8642 -14.8642 -14.8640 -14.8640 -14.8639
   -14.8638 -14.8634 -14.8632 -14.8614 -14.8219 -14.8216 -14.8198 -14.8196
   -14.8192 -14.8190 -14.8189 -14.8188 -14.8186 -14.8182 -14.8180 -14.8167
   -10.3441 -10.3383 -10.3377 -10.3365 -10.3360 -10.3344 -10.3332 -10.3328
   -10.3323 -10.3304 -10.3299 -10.3292 -10.3111 -10.3077 -10.3070 -10.3052
   -10.3023 -10.3002 -10.2983 -10.2974 -10.2966 -10.2926 -10.2912 -10.2908
   -10.2735 -10.2689 -10.2680 -10.2664 -10.2662 -10.2646 -10.2637 -10.2631
   -10.2625 -10.2603 -10.2593 -10.2584  -6.6237  -6.6177  -6.6174  -6.5296
    -6.5243  -6.5239  -6.3108  -6.2930  -6.2891  -6.2884  -6.2598  -6.2158
    -5.8745  -5.8570  -5.8446  -5.7839  -5.7790  -5.7784  -5.7445  -5.7411
    -5.7403  -5.7146  -5.6909  -5.6872  -5.6865  -5.6740  -5.6715  -5.6711
    -5.6706  -5.6430  -5.5565  -5.5557  -5.5548  -5.5254  -5.5242  -5.5233
    -5.5074  -5.5030  -5.5027  -5.5009  -5.4580  -5.4016  -5.3970  -5.3966
    -5.3589  -5.3254  -5.3219  -5.3213  -0.5205  -0.5083  -0.5055  -0.5041
    -0.4617  -0.4185  -0.4169  -0.4151  -0.3552  -0.2941  -0.2924  -0.2915
     1.4817   1.4832   1.4838   1.6367   1.6389   1.6413   1.6901   1.7728
     1.7763   1.7767   1.7782   1.7948   1.9796   1.9820   1.9836   2.0547
     2.1701   2.1905   2.1931   2.1942   2.2478   2.3959   2.3967   2.3980
     2.4864   2.4888   2.4897   2.5569   2.5856   2.5888   2.5893   2.5925
     2.6779   2.7369   2.7374   2.7391   2.8208   2.8229   2.8254   2.8275
     2.9019   2.9028   2.9061   2.9219   2.9364   2.9538   2.9557   2.9573
     3.0592   3.0613   3.0622   3.0880   3.0890   3.0909   3.1283   3.1819
     3.2434   3.2456   3.2460   3.2691   3.2722   3.2738   3.3228   3.3273
     3.3286   3.3302   3.3749   3.4075   3.4234   3.4649   3.4666   3.4691
     3.4932   3.4992   3.4997   3.5067   3.5366   3.5373   3.5386   3.5413
     3.5642   3.6143   3.6171   3.6186   3.6519   3.6559   3.6577   3.6946
     3.6982   3.7010   3.7198   3.7431   3.8211   3.8396   3.8420   3.8434
     3.9368   3.9396   3.9415   3.9429   4.0291   4.0305   4.0315   4.0412
     4.0674   4.0694   4.0703   4.1083   4.1132   4.1152   4.1162   4.1694
     4.2721   4.2740   4.2754   4.2909   4.3130   4.3606   4.3629   4.3639
     4.4167   4.4176   4.4209   4.4925   4.4938   4.4956   4.5092   4.5130
     4.5658   4.6677   4.6687   4.6705   5.1502   5.1568   5.1583   5.1593
     5.1608   5.1828   5.1839   5.1848   5.1984   5.1998   5.2013   5.2122
     5.2253   5.2271   5.2281   5.2503   5.2537   5.2548   5.2578   5.2694
     5.3013   5.3029   5.3046   5.3104   5.3291   5.3304   5.3336   5.3673
     5.3691   5.3707   5.3765   5.3943   5.3978   5.4076   5.4104   5.4119
     5.4335   5.4342   5.4352   5.4406   5.4848   5.4860   5.4870   5.4910
     5.5394   5.5409   5.5421   5.5454   5.5660   5.5671   5.5680   5.6066
     5.6071   5.6076   5.6385   5.6405   5.6722   5.6746   5.6749   5.7031
     5.7045   5.7060   5.7188   5.7586   5.7604   5.7614   5.8014   5.8085
     5.8213   5.8240   5.8251   5.8268   5.8905   5.8914   5.8933   6.0575
     6.0599   6.0616   6.0622   6.0782   6.1196   6.1206   6.1227   6.1350
     6.1952   6.2380   6.2388   6.2403   6.2848   6.3006   6.3029   6.3034
     6.3069   6.3836   6.3864   6.3882   6.4505   6.4672   6.4692   6.4702
     6.4915   6.4940   6.5583   6.5597   6.5617   6.6469   6.6838   6.6853
     6.6868   6.7609   6.7764   6.7787   6.7800   6.7932   6.8527   6.8555
     6.8563   6.9354   6.9360   6.9371

     highest occupied level (ev):     7.1811

!    total energy              =   -9077.18694982 Ry
     estimated scf accuracy    <          7.2E-10 Ry

     The total energy is the sum of the following terms:
     one-electron contribution =   -2776.79177205 Ry
     hartree contribution      =    2020.16242618 Ry
     xc contribution           =   -2269.39625778 Ry
     ewald contribution        =   -3895.36647997 Ry
     one-center paw contrib.   =   -2155.79486620 Ry

     convergence has been achieved in  21 iterations

     negative rho (up, down):  7.902E-01 0.000E+00

     Forces acting on atoms (cartesian axes, Ry/au):

     atom    1 type  1   force =    -0.00017185    0.00035085    0.00010522
     atom    2 type  1   force =    -0.00014120    0.00025472    0.00002156
     atom    3 type  1   force =    -0.00013821    0.00025354    0.00002925
     atom    4 type  1   force =    -0.00017597    0.00024881    0.00002281
     atom    5 type  1   force =    -0.00013629   -0.00022629   -0.00002793
     atom    6 type  1   force =    -0.00018177   -0.00017204    0.00006905
     atom    7 type  1   force =    -0.00014526   -0.00034846    0.00011311
     atom    8 type  1   force =    -0.00012228   -0.00032973   -0.00000175
     atom    9 type  1   force =     0.00035217   -0.00006642   -0.00000195
     atom   10 type  1   force =    -0.00008142   -0.00018111   -0.00000328
     atom   11 type  1   force =     0.00018665    0.00028295   -0.00010685
     atom   12 type  1   force =     0.00035433   -0.00005617   -0.00008662
     atom   13 type  2   force =     0.00021592   -0.00031591    0.00014958
     atom   14 type  2   force =     0.00021628   -0.00036365    0.00017893
     atom   15 type  2   force =     0.00019560   -0.00039693    0.00020826
     atom   16 type  2   force =     0.00019968   -0.00039253    0.00019128
     atom   17 type  2   force =    -0.00408989    0.00130003    0.00177967
     atom   18 type  2   force =     0.00024428    0.00042173    0.00023085
     atom   19 type  2   force =     0.00019080    0.00034900    0.00024716
     atom   20 type  2   force =     0.00022155    0.00032570    0.00018119
     atom   21 type  2   force =    -0.00046223    0.00001740    0.00020297
     atom   22 type  2   force =    -0.00042435    0.00001214    0.00019501
     atom   23 type  2   force =    -0.00042728    0.00002013    0.00020175
     atom   24 type  2   force =    -0.00053390   -0.00006176    0.00021817
     atom   25 type  2   force =    -0.00028942    0.00002387   -0.00025802
     atom   26 type  2   force =    -0.00044720   -0.00006591   -0.00018283
     atom   27 type  2   force =    -0.00045310   -0.00000529   -0.00014555
     atom   28 type  2   force =    -0.00041310   -0.00001649   -0.00024351
     atom   29 type  2   force =     0.00020689    0.00038788   -0.00017021
     atom   30 type  2   force =     0.00019433    0.00039790   -0.00017938
     atom   31 type  2   force =     0.00020319    0.00038440   -0.00018210
     atom   32 type  2   force =     0.00020685    0.00038162   -0.00016658
     atom   33 type  2   force =     0.00046217   -0.00034517   -0.00024834
     atom   34 type  2   force =    -0.00105028    0.00035395    0.00220197
     atom   35 type  2   force =     0.00022370   -0.00037820   -0.00020685
     atom   36 type  2   force =     0.00024245   -0.00035950   -0.00020482
     atom   37 type  3   force =    -0.00404422    0.00519094   -0.00758045
     atom   38 type  3   force =     0.00043876   -0.00051042    0.00009918
     atom   39 type  3   force =     0.00034710   -0.00069047   -0.00009420
     atom   40 type  3   force =     0.00027212   -0.00044809   -0.00007555
     atom   41 type  3   force =     0.00047597    0.00042268    0.00015327
     atom   42 type  3   force =     0.00014738    0.00077867   -0.00037380
     atom   43 type  3   force =     0.00026305    0.00049726    0.00000321
     atom   44 type  3   force =     0.00025828    0.00045429   -0.00000375
     atom   45 type  3   force =    -0.00051495    0.00001186    0.00000194
     atom   46 type  3   force =    -0.00051524   -0.00000950    0.00004096
     atom   47 type  3   force =    -0.00057133   -0.00001434    0.00004324
     atom   48 type  3   force =    -0.00059816   -0.00000613    0.00009545
     atom   49 type  4   force =     0.01603671   -0.00793675    0.00344826
     atom   50 type  4   force =     0.00035464   -0.00012085    0.00002013
     atom   51 type  4   force =     0.00034323   -0.00006170    0.00003131
     atom   52 type  4   force =     0.00035645   -0.00005771    0.00005037
     atom   53 type  4   force =    -0.00011930    0.00034247    0.00001006
     atom   54 type  4   force =    -0.00005765    0.00034255    0.00004051
     atom   55 type  4   force =    -0.00009423    0.00036082    0.00000393
     atom   56 type  4   force =    -0.00007980    0.00038737   -0.00000109
     atom   57 type  4   force =    -0.00024102   -0.00026236   -0.00000578
     atom   58 type  4   force =    -0.00029155   -0.00021561   -0.00008372
     atom   59 type  4   force =    -0.00030487   -0.00024475    0.00003986
     atom   60 type  4   force =    -0.00025042   -0.00025049   -0.00001931
     atom   61 type  4   force =    -0.00027565    0.00024563   -0.00000234
     atom   62 type  4   force =    -0.00024122    0.00027450   -0.00008377
     atom   63 type  4   force =    -0.00025602    0.00024974   -0.00001696
     atom   64 type  4   force =    -0.00026804    0.00025608   -0.00005695
     atom   65 type  4   force =    -0.00155531   -0.00012189   -0.00110986
     atom   66 type  4   force =    -0.00149823   -0.00043684    0.00098938
     atom   67 type  4   force =     0.00033991    0.00008474    0.00000094
     atom   68 type  4   force =     0.00033703    0.00015624   -0.00002939
     atom   69 type  4   force =    -0.00015120   -0.00034036   -0.00000710
     atom   70 type  4   force =    -0.00003581   -0.00041536    0.00037616
     atom   71 type  4   force =    -0.00006394   -0.00034028    0.00000727
     atom   72 type  4   force =    -0.00012284   -0.00034781    0.00002871
     atom   73 type  4   force =    -0.00000191    0.00015019   -0.00025870
     atom   74 type  4   force =     0.00000972    0.00014745   -0.00025328
     atom   75 type  4   force =     0.00000824    0.00016046   -0.00026258
     atom   76 type  4   force =     0.00001115    0.00016614   -0.00025571
     atom   77 type  4   force =    -0.00107819   -0.00022352   -0.00001508
     atom   78 type  4   force =     0.00002150   -0.00005676   -0.00048073
     atom   79 type  4   force =    -0.00020103   -0.00001126   -0.00022933
     atom   80 type  4   force =    -0.00014426    0.00007130   -0.00012186
     atom   81 type  4   force =     0.00032092    0.00015840    0.00016068
     atom   82 type  4   force =     0.00006559   -0.00007510   -0.00025285
     atom   83 type  4   force =     0.00006088   -0.00007706   -0.00027105
     atom   84 type  4   force =     0.00014586   -0.00008077   -0.00027968
     atom   85 type  4   force =    -0.00079214    0.00050811    0.00073453
     atom   86 type  4   force =     0.00011729    0.00004367    0.00028461
     atom   87 type  4   force =     0.00011535    0.00025420   -0.00023192
     atom   88 type  4   force =    -0.00004388    0.00007812    0.00025065
     atom   89 type  4   force =     0.00001075   -0.00016695    0.00023234
     atom   90 type  4   force =     0.00005173   -0.00016733    0.00023828
     atom   91 type  4   force =     0.00001971   -0.00014929    0.00022990
     atom   92 type  4   force =     0.00001346   -0.00014934    0.00023153
     atom   93 type  4   force =    -0.00031910    0.00001232    0.00030141
     atom   94 type  4   force =    -0.00016816    0.00038453   -0.00033141
     atom   95 type  4   force =    -0.00013829    0.00005222    0.00025123
     atom   96 type  4   force =    -0.00013667    0.00006106    0.00025769

     Total force =     0.022056     Total SCF correction =     0.000067
     Message from routine punch:
     Nothing written, as per user request (disk_io='none')

     init_run     :     41.93s CPU     44.10s WALL (       1 calls)
     electrons    :   1960.99s CPU   2040.88s WALL (       1 calls)
     forces       :     17.50s CPU     17.88s WALL (       1 calls)

     Called by init_run:
     wfcinit      :     38.10s CPU     40.00s WALL (       1 calls)
     potinit      :      1.16s CPU      1.20s WALL (       1 calls)
     hinit0       :      1.06s CPU      1.09s WALL (       1 calls)

     Called by electrons:
     c_bands      :   1739.97s CPU   1802.82s WALL (      21 calls)
     sum_band     :    194.93s CPU    208.20s WALL (      21 calls)
     v_of_rho     :      3.69s CPU      4.07s WALL (      22 calls)
     newd         :     17.21s CPU     20.63s WALL (      22 calls)
     PAW_pot      :      5.29s CPU      5.32s WALL (      22 calls)
     mix_rho      :      0.72s CPU      0.75s WALL (      21 calls)

     Called by c_bands:
     init_us_2    :     18.87s CPU     19.04s WALL (     308 calls)
     cegterg      :   1692.40s CPU   1754.85s WALL (     147 calls)

     Called by *egterg:
     cdiaghg      :     90.31s CPU     92.28s WALL (     908 calls)
     h_psi        :    927.95s CPU    978.04s WALL (     915 calls)
     s_psi        :    216.61s CPU    218.23s WALL (     915 calls)
     g_psi        :      3.06s CPU      3.09s WALL (     761 calls)

     Called by h_psi:
     h_psi:calbec :    219.11s CPU    221.54s WALL (     915 calls)
     vloc_psi     :    487.87s CPU    531.71s WALL (     915 calls)
     add_vuspsi   :    217.20s CPU    218.79s WALL (     915 calls)

     General routines
     calbec       :    302.40s CPU    305.73s WALL (    1090 calls)
     fft          :      4.34s CPU      4.77s WALL (     295 calls)
     ffts         :      0.75s CPU      0.77s WALL (      43 calls)
     fftw         :    394.93s CPU    435.39s WALL (  425650 calls)
     interpolate  :      0.92s CPU      0.97s WALL (      22 calls)

     Parallel routines

     PWSCF        :  33m40.71s CPU  35m 3.56s WALL


   This run was terminated on:   3:46:49  21Aug2026            

=------------------------------------------------------------------------------=
   JOB DONE.
=------------------------------------------------------------------------------=
