
     Program PWSCF v.7.3.1 starts on 21Aug2026 at  3: 8: 4 

     This program is part of the open-source Quantum ESPRESSO suite
     for quantum simulation of materials; please cite
         "P. Giannozzi et al., J. Phys.:Condens. Matter 21 395502 (2009);
         "P. Giannozzi et al., J. Phys.:Condens. Matter 29 465901 (2017);
         "P. Giannozzi et al., J. Chem. Phys. 152 154105 (2020);
          URL http://www.quantum-espresso.org", 
     in publications or presentations arising from this work. More details at
     http://www.quantum-espresso.org/quote

     Parallel version (MPI & OpenMP), running on      32 processor cores
     Number of MPI processes:                32
     Threads/MPI process:                     1

     MPI processes distributed on     1 nodes
     251032 MiB available memory on the printing compute node when the environment starts

     Reading input from scf.in

     Current dimensions of program PWSCF are:
     Max number of different atomic species (ntypx) = 10
     Max number of k-points (npk) =  40000
     Max angular momentum in pseudopotentials (lmaxx) =  4
     file Cu.paw.z_11.ld1.psl.v1.0.0-low.upf: wavefunction(s)  4S 3D renormalized

     K-points division:     npool     =       2
     R & G space division:  proc/nbgrp/npool/nimage =      16
     Subspace diagonalization in iterative solution of the eigenvalue problem:
     one sub-group per band group will be used
     scalapack distributed-memory algorithm (size of sub-group:  4*  4 procs)


     Parallelization info
     --------------------
     sticks:   dense  smooth     PW     G-vecs:    dense   smooth      PW
     Min        1193     597    157               163743    57882    7779
     Max        1194     599    158               163747    57885    7784
     Sum       19099    9565   2515              2619931   926125  124485

     Using Slab Decomposition



     bravais-lattice index     =            0
     lattice parameter (alat)  =      24.0273  a.u.
     unit-cell volume          =   14752.0463 (a.u.)^3
     number of atoms/cell      =           96
     number of atomic types    =            4
     number of electrons       =       840.00
     number of Kohn-Sham states=          420
     kinetic-energy cutoff     =      60.0000  Ry
     charge density cutoff     =     480.0000  Ry
     scf convergence threshold =      1.0E-09
     mixing beta               =       0.3000
     number of iterations used =            8  plain     mixing
     Exchange-correlation=  SLA  PW   PBX  PBC
                           (   1   4   3   4   0   0   0)

     celldm(1)=  24.027274  celldm(2)=   0.000000  celldm(3)=   0.000000
     celldm(4)=   0.000000  celldm(5)=   0.000000  celldm(6)=   0.000000

     crystal axes: (cart. coord. in units of alat)
               a(1) = (   1.000000   0.000000   0.000000 )  
               a(2) = (  -0.500000   0.866025   0.000000 )  
               a(3) = (   0.000000   0.000000   1.228028 )  

     reciprocal axes: (cart. coord. in units 2 pi/alat)
               b(1) = (  1.000000  0.577351 -0.000000 )  
               b(2) = (  0.000000  1.154701  0.000000 )  
               b(3) = (  0.000000 -0.000000  0.814314 )  


     PseudoPot. # 1 for Sr read from file:
     /home/yuhansun/pseudos/SSSP-1.3.0-PBE-precision/Sr_pbe_v1.uspp.F.UPF
     MD5 check sum: 6b418c05fbe9db5448babca5e47b7a5b
     Pseudo is Ultrasoft + core correction, Zval = 10.0
     Generated by new atomic code, or converted to UPF format
     Using radial grid of  883 points,  6 beta functions with: 
                l(1) =   0
                l(2) =   0
                l(3) =   1
                l(4) =   1
                l(5) =   2
                l(6) =   2
     Q(r) pseudized with  6 coefficients,  rinner =    1.400   1.400   1.400
                                                       1.400   1.400

     PseudoPot. # 2 for Cu read from file:
     /home/yuhansun/pseudos/SSSP-1.3.0-PBE-precision/Cu.paw.z_11.ld1.psl.v1.0.0-low.upf
     MD5 check sum: 619f40885d92a09a85a8b37550532d0c
     Pseudo is Projector augmented-wave + core cor, Zval = 11.0
     Generated using &quot;atomic&quot; code by A. Dal Corso  v.6.3MaX
     Shape of augmentation charge: PSQ
     Using radial grid of 1199 points,  6 beta functions with: 
                l(1) =   0
                l(2) =   0
                l(3) =   1
                l(4) =   1
                l(5) =   2
                l(6) =   2
     Q(r) pseudized with 0 coefficients 


     PseudoPot. # 3 for Sn read from file:
     /home/yuhansun/pseudos/SSSP-1.3.0-PBE-precision/Sn_pbe_v1.uspp.F.UPF
     MD5 check sum: 4cf58ce39ec5d5d420df3dd08604eb00
     Pseudo is Ultrasoft + core correction, Zval = 14.0
     Generated by new atomic code, or converted to UPF format
     Using radial grid of  891 points,  6 beta functions with: 
                l(1) =   0
                l(2) =   0
                l(3) =   1
                l(4) =   1
                l(5) =   2
                l(6) =   2
     Q(r) pseudized with  6 coefficients,  rinner =    1.200   1.200   1.200
                                                       1.200   1.200

     PseudoPot. # 4 for S  read from file:
     /home/yuhansun/pseudos/SSSP-1.3.0-PBE-precision/s_pbe_v1.4.uspp.F.UPF
     MD5 check sum: 88d86576ff6df21479756cfb9bdac1df
     Pseudo is Ultrasoft + core correction, Zval =  6.0
     Generated by new atomic code, or converted to UPF format
     Using radial grid of  907 points,  6 beta functions with: 
                l(1) =   0
                l(2) =   0
                l(3) =   1
                l(4) =   1
                l(5) =   2
                l(6) =   2
     Q(r) pseudized with  8 coefficients,  rinner =    1.300   1.300   1.300
                                                       1.300   1.300

     atomic species   valence    mass     pseudopotential
     Sr               10.00    87.62000     Sr( 1.00)
     Cu               11.00    63.54600     Cu( 1.00)
     Sn               14.00   118.71000     Sn( 1.00)
     S                 6.00    32.06500     S ( 1.00)

     No symmetry found



   Cartesian axes

     site n.     atom                  positions (alat units)
         1        Sr     tau(   1) = (  -0.1405753   0.2434834   0.2046717  )
         2        Sr     tau(   2) = (   0.3594247   0.2434834   0.2046717  )
         3        Sr     tau(   3) = (  -0.3905753   0.6764960   0.2046717  )
         4        Sr     tau(   4) = (   0.1094247   0.6764960   0.2046717  )
         5        Sr     tau(   5) = (   0.1094247   0.1895292   0.6140139  )
         6        Sr     tau(   6) = (   0.6094247   0.1895292   0.6140139  )
         7        Sr     tau(   7) = (  -0.1405753   0.6225418   0.6140139  )
         8        Sr     tau(   8) = (   0.3594247   0.6225418   0.6140139  )
         9        Sr     tau(   9) = (   0.2811505   0.0000000   1.0233574  )
        10        Sr     tau(  10) = (   0.7811505   0.0000000   1.0233574  )
        11        Sr     tau(  11) = (   0.0311505   0.4330126   1.0233574  )
        12        Sr     tau(  12) = (   0.5311505   0.4330126   1.0233574  )
        13        Cu     tau(  13) = (  -0.1226788   0.2753211   0.5061747  )
        14        Cu     tau(  14) = (   0.3773212   0.2753211   0.5061747  )
        15        Cu     tau(  15) = (  -0.3726788   0.7083337   0.5061747  )
        16        Cu     tau(  16) = (   0.1273212   0.7083337   0.5061747  )
        17        Cu     tau(  17) = (   0.0729045   0.1891087   0.9155169  )
        18        Cu     tau(  18) = (   0.5729045   0.1891087   0.9155169  )
        19        Cu     tau(  19) = (  -0.1770956   0.6221213   0.9155169  )
        20        Cu     tau(  20) = (   0.3229044   0.6221213   0.9155169  )
        21        Cu     tau(  21) = (   0.0497750   0.4015949   0.0968325  )
        22        Cu     tau(  22) = (   0.5497750   0.4015949   0.0968325  )
        23        Cu     tau(  23) = (  -0.2002251   0.8346075   0.0968325  )
        24        Cu     tau(  24) = (   0.2997749   0.8346075   0.0968325  )
        25        Cu     tau(  25) = (   0.2997745   0.0314177   0.7218532  )
        26        Cu     tau(  26) = (   0.7997745   0.0314177   0.7218532  )
        27        Cu     tau(  27) = (   0.0497745   0.4644302   0.7218532  )
        28        Cu     tau(  28) = (   0.5497745   0.4644302   0.7218532  )
        29        Cu     tau(  29) = (   0.1273207   0.1576915   0.3125110  )
        30        Cu     tau(  30) = (   0.6273207   0.1576915   0.3125110  )
        31        Cu     tau(  31) = (  -0.1226793   0.5907041   0.3125110  )
        32        Cu     tau(  32) = (   0.3773207   0.5907041   0.3125110  )
        33        Cu     tau(  33) = (   0.3229040   0.2439039   1.1311954  )
        34        Cu     tau(  34) = (   0.8229040   0.2439039   1.1311954  )
        35        Cu     tau(  35) = (   0.0729039   0.6769164   1.1311954  )
        36        Cu     tau(  36) = (   0.5729039   0.6769164   1.1311954  )
        37        Sn     tau(  37) = (  -0.1762580   0.3052877   0.8236800  )
        38        Sn     tau(  38) = (   0.3237420   0.3052877   0.8186857  )
        39        Sn     tau(  39) = (  -0.4262581   0.7383003   0.8186857  )
        40        Sn     tau(  40) = (   0.0737419   0.7383003   0.8186857  )
        41        Sn     tau(  41) = (   0.0737420   0.1277249   0.0000000  )
        42        Sn     tau(  42) = (   0.5737420   0.1277249   0.0000000  )
        43        Sn     tau(  43) = (  -0.1762581   0.5607374   0.0000000  )
        44        Sn     tau(  44) = (   0.3237419   0.5607374   0.0000000  )
        45        Sn     tau(  45) = (   0.3525160   0.0000000   0.4093422  )
        46        Sn     tau(  46) = (   0.8525160   0.0000000   0.4093422  )
        47        Sn     tau(  47) = (   0.1025160   0.4330126   0.4093422  )
        48        Sn     tau(  48) = (   0.6025160   0.4330126   0.4093422  )
        49        S      tau(  49) = (  -0.0988203   0.2103164   0.9671149  )
        50        S      tau(  50) = (   0.4011797   0.2103164   0.9671149  )
        51        S      tau(  51) = (  -0.3488203   0.6433290   0.9671149  )
        52        S      tau(  52) = (   0.1511797   0.6433290   0.9671149  )
        53        S      tau(  53) = (   0.1172707   0.2422736   0.1484293  )
        54        S      tau(  54) = (   0.6172707   0.2422736   0.1484293  )
        55        S      tau(  55) = (  -0.1327293   0.6752862   0.1484293  )
        56        S      tau(  56) = (   0.3672707   0.6752862   0.1484293  )
        57        S      tau(  57) = (  -0.0184505   0.4134352   0.5577727  )
        58        S      tau(  58) = (   0.4815495   0.4134352   0.5577727  )
        59        S      tau(  59) = (  -0.2684506   0.8464478   0.5577727  )
        60        S      tau(  60) = (   0.2315494   0.8464478   0.5577727  )
        61        S      tau(  61) = (   0.2315495   0.0195774   0.2609129  )
        62        S      tau(  62) = (   0.7315495   0.0195774   0.2609129  )
        63        S      tau(  63) = (  -0.0184505   0.4525899   0.2609129  )
        64        S      tau(  64) = (   0.4815495   0.4525899   0.2609129  )
        65        S      tau(  65) = (   0.1511797   0.2226962   1.0795986  )
        66        S      tau(  66) = (   0.6511797   0.2226962   1.0795986  )
        67        S      tau(  67) = (  -0.0988203   0.6557088   1.0795986  )
        68        S      tau(  68) = (   0.4011797   0.6557088   1.0795986  )
        69        S      tau(  69) = (   0.3672707   0.1907390   0.6702552  )
        70        S      tau(  70) = (   0.8672707   0.1907390   0.6702552  )
        71        S      tau(  71) = (   0.1172707   0.6237516   0.6702552  )
        72        S      tau(  72) = (   0.6172707   0.6237516   0.6702552  )
        73        S      tau(  73) = (  -0.0296498   0.1532012   0.4035914  )
        74        S      tau(  74) = (   0.4703502   0.1532012   0.4035914  )
        75        S      tau(  75) = (  -0.2796498   0.5862137   0.4035914  )
        76        S      tau(  76) = (   0.2203502   0.5862137   0.4035914  )
        77        S      tau(  77) = (   0.1321490   0.3307341   0.8129336  )
        78        S      tau(  78) = (   0.6321490   0.3307341   0.8129336  )
        79        S      tau(  79) = (  -0.1178511   0.7637467   0.8129336  )
        80        S      tau(  80) = (   0.3821489   0.7637467   0.8129336  )
        81        S      tau(  81) = (  -0.1024985   0.3820894   1.2222770  )
        82        S      tau(  82) = (   0.3975015   0.3820894   1.2222770  )
        83        S      tau(  83) = (  -0.3524986   0.8151020   1.2222770  )
        84        S      tau(  84) = (   0.1475014   0.8151020   1.2222770  )
        85        S      tau(  85) = (   0.1475010   0.0509231   0.8244365  )
        86        S      tau(  86) = (   0.6475010   0.0509231   0.8244365  )
        87        S      tau(  87) = (  -0.1024990   0.4839357   0.8244365  )
        88        S      tau(  88) = (   0.3975010   0.4839357   0.8244365  )
        89        S      tau(  89) = (   0.2203497   0.2798114   0.4150943  )
        90        S      tau(  90) = (   0.7203497   0.2798114   0.4150943  )
        91        S      tau(  91) = (  -0.0296503   0.7128240   0.4150943  )
        92        S      tau(  92) = (   0.4703497   0.7128240   0.4150943  )
        93        S      tau(  93) = (   0.3821485   0.1022784   0.0057509  )
        94        S      tau(  94) = (   0.8821485   0.1022784   0.0057509  )
        95        S      tau(  95) = (   0.1321485   0.5352910   0.0057509  )
        96        S      tau(  96) = (   0.6321485   0.5352910   0.0057509  )

     number of k points=    14
                       cart. coord. in units 2pi/alat
        k(    1) = (   0.0000000   0.0000000   0.0000000), wk =   0.0740741
        k(    2) = (   0.0000000   0.0000000   0.2714379), wk =   0.1481481
        k(    3) = (   0.0000000   0.3849003   0.0000000), wk =   0.1481481
        k(    4) = (   0.0000000   0.3849003   0.2714379), wk =   0.1481481
        k(    5) = (   0.3333333   0.5773505   0.0000000), wk =   0.1481481
        k(    6) = (   0.3333333   0.5773505   0.2714379), wk =   0.1481481
        k(    7) = (  -0.3333333   0.1924501   0.0000000), wk =   0.1481481
        k(    8) = (   0.3333333   0.1924502   0.0000000), wk =   0.1481481
        k(    9) = (   0.0000000  -0.3849003   0.2714379), wk =   0.1481481
        k(   10) = (  -0.3333333   0.1924501   0.2714379), wk =   0.1481481
        k(   11) = (   0.3333333   0.1924502   0.2714379), wk =   0.1481481
        k(   12) = (  -0.3333333  -0.1924502   0.2714379), wk =   0.1481481
        k(   13) = (   0.3333333  -0.1924501   0.2714379), wk =   0.1481481
        k(   14) = (  -0.3333333  -0.5773505   0.2714379), wk =   0.1481481

     Dense  grid:  2619931 G-vectors     FFT dimensions: ( 180, 180, 216)

     Smooth grid:   926125 G-vectors     FFT dimensions: ( 120, 120, 150)

     Estimated max dynamical RAM per process >       1.07 GB

     Estimated total dynamical RAM >      33.54 GB

     Initial potential from superposition of free atoms

     starting charge     827.5884, renormalised to     840.0000

     negative rho (up, down):  7.777E-01 0.000E+00
     Starting wfcs are  672 randomized atomic wfcs
     Checking if some PAW data can be deallocated... 

     total cpu time spent up to now is       41.3 secs

     Self-consistent Calculation

     iteration #  1     ecut=    60.00 Ry     beta= 0.30
     Davidson diagonalization with overlap
     ethr =  1.00E-02,  avg # of iterations =  2.0

     negative rho (up, down):  7.747E-01 0.000E+00

     total cpu time spent up to now is      113.9 secs

     total energy              =   -9070.28309565 Ry
     estimated scf accuracy    <      21.99283157 Ry

     iteration #  2     ecut=    60.00 Ry     beta= 0.30
     Davidson diagonalization with overlap
     ethr =  2.62E-03,  avg # of iterations =  4.7

     negative rho (up, down):  7.752E-01 0.000E+00

     total cpu time spent up to now is      202.2 secs

     total energy              =   -9076.61610684 Ry
     estimated scf accuracy    <       8.18579148 Ry

     iteration #  3     ecut=    60.00 Ry     beta= 0.30
     Davidson diagonalization with overlap
     ethr =  9.74E-04,  avg # of iterations =  2.0

     negative rho (up, down):  7.804E-01 0.000E+00

     total cpu time spent up to now is      272.2 secs

     total energy              =   -9076.49364219 Ry
     estimated scf accuracy    <       1.61546082 Ry

     iteration #  4     ecut=    60.00 Ry     beta= 0.30
     Davidson diagonalization with overlap
     ethr =  1.92E-04,  avg # of iterations =  5.9

     negative rho (up, down):  7.828E-01 0.000E+00

     total cpu time spent up to now is      372.9 secs

     total energy              =   -9076.73330683 Ry
     estimated scf accuracy    <       2.05979708 Ry

     iteration #  5     ecut=    60.00 Ry     beta= 0.30
     Davidson diagonalization with overlap
     ethr =  1.92E-04,  avg # of iterations =  4.5

     negative rho (up, down):  7.871E-01 0.000E+00

     total cpu time spent up to now is      453.1 secs

     total energy              =   -9077.15092913 Ry
     estimated scf accuracy    <       0.09657768 Ry

     iteration #  6     ecut=    60.00 Ry     beta= 0.30
     Davidson diagonalization with overlap
     c_bands:  1 eigenvalues not converged
     ethr =  1.15E-05,  avg # of iterations =  6.1

     negative rho (up, down):  7.898E-01 0.000E+00

     total cpu time spent up to now is      559.4 secs

     total energy              =   -9077.17736015 Ry
     estimated scf accuracy    <       0.06141426 Ry

     iteration #  7     ecut=    60.00 Ry     beta= 0.30
     Davidson diagonalization with overlap
     ethr =  7.31E-06,  avg # of iterations =  4.4

     negative rho (up, down):  7.913E-01 0.000E+00

     total cpu time spent up to now is      633.7 secs

     total energy              =   -9077.18905150 Ry
     estimated scf accuracy    <       0.00886776 Ry

     iteration #  8     ecut=    60.00 Ry     beta= 0.30
     Davidson diagonalization with overlap
     ethr =  1.06E-06,  avg # of iterations =  9.6

     negative rho (up, down):  7.912E-01 0.000E+00

     total cpu time spent up to now is      741.7 secs

     total energy              =   -9077.17694494 Ry
     estimated scf accuracy    <       0.06429861 Ry

     iteration #  9     ecut=    60.00 Ry     beta= 0.30
     Davidson diagonalization with overlap
     ethr =  1.06E-06,  avg # of iterations =  7.4

     negative rho (up, down):  7.912E-01 0.000E+00

     total cpu time spent up to now is      845.6 secs

     total energy              =   -9077.18602717 Ry
     estimated scf accuracy    <       0.00063687 Ry

     iteration # 10     ecut=    60.00 Ry     beta= 0.30
     Davidson diagonalization with overlap
     ethr =  7.58E-08,  avg # of iterations =  9.4

     negative rho (up, down):  7.909E-01 0.000E+00

     total cpu time spent up to now is      963.5 secs

     total energy              =   -9077.18623389 Ry
     estimated scf accuracy    <       0.00128744 Ry

     iteration # 11     ecut=    60.00 Ry     beta= 0.30
     Davidson diagonalization with overlap
     ethr =  7.58E-08,  avg # of iterations =  2.0

     negative rho (up, down):  7.906E-01 0.000E+00

     total cpu time spent up to now is     1037.8 secs

     total energy              =   -9077.18596304 Ry
     estimated scf accuracy    <       0.00109352 Ry

     iteration # 12     ecut=    60.00 Ry     beta= 0.30
     Davidson diagonalization with overlap
     ethr =  7.58E-08,  avg # of iterations =  5.4

     negative rho (up, down):  7.904E-01 0.000E+00

     total cpu time spent up to now is     1126.0 secs

     total energy              =   -9077.18616755 Ry
     estimated scf accuracy    <       0.00005290 Ry

     iteration # 13     ecut=    60.00 Ry     beta= 0.30
     Davidson diagonalization with overlap
     ethr =  6.30E-09,  avg # of iterations =  4.9

     negative rho (up, down):  7.904E-01 0.000E+00

     total cpu time spent up to now is     1221.3 secs

     total energy              =   -9077.18616276 Ry
     estimated scf accuracy    <       0.00008293 Ry

     iteration # 14     ecut=    60.00 Ry     beta= 0.30
     Davidson diagonalization with overlap
     ethr =  6.30E-09,  avg # of iterations =  3.1

     negative rho (up, down):  7.903E-01 0.000E+00

     total cpu time spent up to now is     1293.1 secs

     total energy              =   -9077.18616702 Ry
     estimated scf accuracy    <       0.00001050 Ry

     iteration # 15     ecut=    60.00 Ry     beta= 0.30
     Davidson diagonalization with overlap
     ethr =  1.25E-09,  avg # of iterations =  8.3

     negative rho (up, down):  7.902E-01 0.000E+00

     total cpu time spent up to now is     1398.6 secs

     total energy              =   -9077.18617177 Ry
     estimated scf accuracy    <       0.00000393 Ry

     iteration # 16     ecut=    60.00 Ry     beta= 0.30
     Davidson diagonalization with overlap
     ethr =  4.68E-10,  avg # of iterations =  2.3

     negative rho (up, down):  7.902E-01 0.000E+00

     total cpu time spent up to now is     1466.6 secs

     total energy              =   -9077.18617155 Ry
     estimated scf accuracy    <       0.00000156 Ry

     iteration # 17     ecut=    60.00 Ry     beta= 0.30
     Davidson diagonalization with overlap
     ethr =  1.86E-10,  avg # of iterations =  5.9

     negative rho (up, down):  7.902E-01 0.000E+00

     total cpu time spent up to now is     1549.6 secs

     total energy              =   -9077.18617187 Ry
     estimated scf accuracy    <       0.00000006 Ry

     iteration # 18     ecut=    60.00 Ry     beta= 0.30
     Davidson diagonalization with overlap
     ethr =  7.45E-12,  avg # of iterations =  7.9

     negative rho (up, down):  7.902E-01 0.000E+00

     total cpu time spent up to now is     1675.3 secs

     total energy              =   -9077.18617193 Ry
     estimated scf accuracy    <       0.00000003 Ry

     iteration # 19     ecut=    60.00 Ry     beta= 0.30
     Davidson diagonalization with overlap
     ethr =  3.99E-12,  avg # of iterations =  4.6

     negative rho (up, down):  7.902E-01 0.000E+00

     total cpu time spent up to now is     1741.6 secs

     total energy              =   -9077.18617194 Ry
     estimated scf accuracy    <          8.8E-09 Ry

     iteration # 20     ecut=    60.00 Ry     beta= 0.30
     Davidson diagonalization with overlap
     ethr =  1.05E-12,  avg # of iterations =  7.9

     negative rho (up, down):  7.902E-01 0.000E+00

     total cpu time spent up to now is     1838.4 secs

     total energy              =   -9077.18617195 Ry
     estimated scf accuracy    <       0.00000001 Ry

     iteration # 21     ecut=    60.00 Ry     beta= 0.30
     Davidson diagonalization with overlap
     ethr =  1.05E-12,  avg # of iterations =  6.2

     negative rho (up, down):  7.902E-01 0.000E+00

     total cpu time spent up to now is     1911.1 secs

     total energy              =   -9077.18617195 Ry
     estimated scf accuracy    <          4.2E-09 Ry

     iteration # 22     ecut=    60.00 Ry     beta= 0.30
     Davidson diagonalization with overlap
     ethr =  4.99E-13,  avg # of iterations =  5.9

     negative rho (up, down):  7.902E-01 0.000E+00

     total cpu time spent up to now is     1996.6 secs

     total energy              =   -9077.18617195 Ry
     estimated scf accuracy    <          3.3E-09 Ry

     iteration # 23     ecut=    60.00 Ry     beta= 0.30
     Davidson diagonalization with overlap
     ethr =  3.96E-13,  avg # of iterations =  2.1

     negative rho (up, down):  7.902E-01 0.000E+00

     total cpu time spent up to now is     2055.8 secs

     total energy              =   -9077.18617195 Ry
     estimated scf accuracy    <          1.3E-09 Ry

     iteration # 24     ecut=    60.00 Ry     beta= 0.30
     Davidson diagonalization with overlap
     ethr =  1.57E-13,  avg # of iterations =  7.1

     negative rho (up, down):  7.902E-01 0.000E+00

     total cpu time spent up to now is     2139.8 secs

     End of self-consistent calculation

          k = 0.0000 0.0000 0.0000 (115723 PWs)   bands (ev):

   -28.2917 -28.2882 -28.2775 -28.2756 -28.2755 -28.2754 -28.2754 -28.2753
   -28.2751 -28.2733 -28.2626 -28.2591 -14.9331 -14.9286 -14.9281 -14.9262
   -14.9244 -14.9240 -14.9227 -14.9226 -14.9222 -14.9210 -14.9208 -14.9202
   -14.9190 -14.9185 -14.9183 -14.9171 -14.9167 -14.9165 -14.9163 -14.9150
   -14.9149 -14.9133 -14.9113 -14.9107 -14.9106 -14.9102 -14.9082 -14.9078
   -14.9064 -14.9061 -14.9046 -14.9030 -14.9029 -14.9011 -14.8991 -14.8986
   -14.8704 -14.8701 -14.8681 -14.8676 -14.8663 -14.8659 -14.8645 -14.8629
   -14.8626 -14.8609 -14.8589 -14.8584 -14.8252 -14.8248 -14.8230 -14.8227
   -14.8210 -14.8209 -14.8193 -14.8176 -14.8175 -14.8159 -14.8139 -14.8132
   -10.3523 -10.3483 -10.3387 -10.3372 -10.3367 -10.3366 -10.3351 -10.3339
   -10.3326 -10.3281 -10.3225 -10.3190 -10.3164 -10.3134 -10.3092 -10.3055
   -10.3038 -10.3020 -10.2998 -10.2988 -10.2950 -10.2886 -10.2867 -10.2815
   -10.2783 -10.2742 -10.2705 -10.2671 -10.2663 -10.2639 -10.2636 -10.2610
   -10.2596 -10.2564 -10.2529 -10.2443  -6.8640  -6.5588  -6.5533  -6.4249
    -6.4169  -6.4128  -6.3030  -6.2992  -6.2990  -6.2250  -6.2198  -6.2143
    -5.9929  -5.9894  -5.9862  -5.8569  -5.8495  -5.8449  -5.8047  -5.7958
    -5.7920  -5.7421  -5.7307  -5.6374  -5.6194  -5.6173  -5.6138  -5.6126
    -5.6078  -5.5949  -5.5633  -5.5608  -5.5544  -5.5489  -5.5446  -5.5378
    -5.5259  -5.5063  -5.4332  -5.4320  -5.4264  -5.4158  -5.3748  -5.3708
    -5.3538  -5.3452  -5.3244  -5.2471  -0.6148  -0.6119  -0.6080  -0.3917
    -0.3889  -0.3866  -0.3512  -0.3179  -0.3154  -0.3134  -0.3047  -0.2975
     1.3797   1.3850   1.3892   1.5893   1.5944   1.6565   1.7138   1.7159
     1.7197   1.8018   1.8060   1.8109   2.0181   2.0390   2.0433   2.0779
     2.0853   2.0916   2.2427   2.2471   2.2529   2.3061   2.3118   2.3913
     2.4045   2.4172   2.4580   2.4614   2.4648   2.5423   2.5568   2.6569
     2.6629   2.6693   2.7786   2.7842   2.7885   2.8698   2.8735   2.9209
     2.9237   2.9289   2.9486   2.9535   2.9596   3.0249   3.0275   3.0295
     3.0453   3.0462   3.0468   3.1643   3.2114   3.2139   3.2167   3.2275
     3.2278   3.2560   3.2577   3.2602   3.3720   3.3773   3.3801   3.3928
     3.3937   3.4220   3.4246   3.4278   3.4360   3.4384   3.4394   3.4666
     3.4763   3.4813   3.4927   3.4940   3.4951   3.4974   3.5144   3.5299
     3.5837   3.5853   3.5875   3.6225   3.6274   3.6322   3.6884   3.6894
     3.6904   3.6930   3.6970   3.7064   3.7885   3.8012   3.8237   3.8266
     3.8289   3.9623   4.0165   4.0204   4.0253   4.0339   4.0362   4.0389
     4.1195   4.1228   4.1282   4.1297   4.1698   4.1732   4.1764   4.2012
     4.2093   4.2104   4.2106   4.2409   4.2447   4.2513   4.2803   4.2836
     4.4201   4.4248   4.4300   4.5148   4.5187   4.5191   4.5337   4.5421
     4.6200   4.6216   4.6228   4.8570   5.1241   5.1535   5.1549   5.1566
     5.1723   5.1739   5.1748   5.1767   5.1819   5.2210   5.2240   5.2273
     5.2275   5.2297   5.2319   5.2518   5.2521   5.2527   5.2651   5.2661
     5.2686   5.2782   5.2798   5.2799   5.3064   5.3114   5.3118   5.3126
     5.3166   5.3249   5.3351   5.3389   5.3408   5.3740   5.3759   5.3778
     5.4387   5.4396   5.4688   5.4705   5.4716   5.4740   5.4769   5.4790
     5.4795   5.4989   5.5001   5.5997   5.6015   5.6020   5.6176   5.6185
     5.6196   5.6273   5.6471   5.6474   5.6478   5.6563   5.6610   5.6640
     5.7248   5.7255   5.7450   5.7824   5.7827   5.7837   5.8190   5.8217
     5.8238   5.8984   5.9038   5.9083   5.9254   5.9281   5.9305   5.9941
     5.9985   6.0263   6.0268   6.0275   6.1460   6.1504   6.1513   6.1554
     6.2593   6.2596   6.2624   6.2635   6.2656   6.2669   6.2870   6.2939
     6.3330   6.3348   6.3369   6.3613   6.3639   6.3666   6.3895   6.3899
     6.3910   6.5522   6.5675   6.5718   6.5755   6.6353   6.6382   6.6408
     6.7447   6.7476   6.7508   6.7635   6.7659   6.7785   6.7821   6.7862
     6.8095   6.9648   7.1788   7.1831

          k = 0.0000 0.0000 0.2714 (115879 PWs)   bands (ev):

   -28.2917 -28.2882 -28.2775 -28.2756 -28.2755 -28.2754 -28.2754 -28.2753
   -28.2751 -28.2733 -28.2626 -28.2591 -14.9331 -14.9286 -14.9281 -14.9262
   -14.9244 -14.9240 -14.9227 -14.9226 -14.9222 -14.9210 -14.9208 -14.9202
   -14.9190 -14.9185 -14.9183 -14.9171 -14.9167 -14.9165 -14.9163 -14.9150
   -14.9149 -14.9133 -14.9113 -14.9107 -14.9106 -14.9102 -14.9082 -14.9078
   -14.9064 -14.9061 -14.9046 -14.9030 -14.9029 -14.9011 -14.8991 -14.8986
   -14.8704 -14.8701 -14.8681 -14.8676 -14.8663 -14.8659 -14.8645 -14.8629
   -14.8626 -14.8609 -14.8589 -14.8584 -14.8252 -14.8248 -14.8230 -14.8227
   -14.8210 -14.8209 -14.8193 -14.8176 -14.8175 -14.8159 -14.8139 -14.8132
   -10.3525 -10.3485 -10.3392 -10.3379 -10.3371 -10.3368 -10.3349 -10.3336
   -10.3313 -10.3280 -10.3227 -10.3187 -10.3168 -10.3145 -10.3077 -10.3069
   -10.3037 -10.3014 -10.2998 -10.2968 -10.2936 -10.2900 -10.2875 -10.2817
   -10.2783 -10.2746 -10.2699 -10.2672 -10.2660 -10.2642 -10.2638 -10.2608
   -10.2594 -10.2571 -10.2528 -10.2444  -6.8250  -6.7139  -6.4191  -6.4089
    -6.4080  -6.4036  -6.3090  -6.3037  -6.3021  -6.2364  -6.2334  -6.2262
    -5.9946  -5.9913  -5.9882  -5.8577  -5.8383  -5.8346  -5.8299  -5.7832
    -5.7731  -5.7667  -5.6724  -5.6560  -5.6545  -5.6456  -5.6145  -5.6126
    -5.6103  -5.6068  -5.5617  -5.5546  -5.5531  -5.5506  -5.5452  -5.5444
    -5.5374  -5.4553  -5.4390  -5.4338  -5.4321  -5.4195  -5.3751  -5.3496
    -5.3420  -5.3373  -5.3184  -5.2757  -0.6074  -0.6040  -0.5998  -0.4169
    -0.4123  -0.4085  -0.3486  -0.3327  -0.3021  -0.3007  -0.3000  -0.2740
     1.4035   1.4092   1.4138   1.5700   1.6134   1.6162   1.6179   1.6224
     1.6587   1.9308   1.9353   1.9389   2.0039   2.0418   2.0489   2.0536
     2.0592   2.0704   2.2703   2.2749   2.2817   2.3042   2.3819   2.3888
     2.3902   2.3927   2.4108   2.4167   2.4283   2.4573   2.6174   2.6229
     2.6284   2.6674   2.7185   2.7880   2.7934   2.7993   2.8046   2.8682
     2.8722   2.8766   2.9739   2.9758   2.9777   3.0434   3.0454   3.0486
     3.1041   3.1066   3.1090   3.1753   3.1992   3.2016   3.2047   3.2061
     3.2694   3.2744   3.2768   3.2850   3.3738   3.3803   3.3839   3.3848
     3.4177   3.4195   3.4210   3.4374   3.4406   3.4418   3.4477   3.4499
     3.4548   3.4769   3.4987   3.5149   3.5191   3.5220   3.5397   3.5435
     3.5491   3.5509   3.5541   3.6361   3.6428   3.6451   3.6506   3.6526
     3.6792   3.6811   3.6895   3.7722   3.8305   3.8740   3.8759   3.8791
     3.9079   3.9221   3.9927   3.9954   3.9986   4.0520   4.0556   4.0594
     4.0754   4.1145   4.1175   4.1206   4.1440   4.1485   4.1517   4.1650
     4.1697   4.1725   4.1769   4.2116   4.2505   4.2515   4.2541   4.2687
     4.4171   4.4222   4.4275   4.4837   4.5578   4.5597   4.5612   4.6049
     4.6067   4.6085   4.6773   4.8073   5.1349   5.1466   5.1531   5.1539
     5.1548   5.1654   5.1854   5.1870   5.1885   5.2143   5.2158   5.2179
     5.2185   5.2459   5.2481   5.2496   5.2575   5.2594   5.2599   5.2621
     5.2753   5.2773   5.2780   5.2792   5.3273   5.3291   5.3306   5.3319
     5.3336   5.3358   5.3418   5.3429   5.3440   5.3666   5.3732   5.3748
     5.3764   5.3897   5.4027   5.4199   5.4213   5.4223   5.5253   5.5321
     5.5328   5.5341   5.5815   5.5863   5.5884   5.5893   5.5916   5.6183
     5.6206   5.6223   5.6493   5.6527   5.6545   5.6618   5.6808   5.6825
     5.6841   5.7544   5.7555   5.7564   5.7896   5.7997   5.8145   5.8180
     5.8213   5.8708   5.8791   5.8838   5.8889   5.9874   5.9892   5.9904
     6.0418   6.0428   6.0438   6.0960   6.0982   6.1006   6.1749   6.1895
     6.1922   6.1952   6.2358   6.2653   6.2687   6.2725   6.3241   6.3263
     6.3285   6.3566   6.3628   6.3704   6.3718   6.3727   6.3955   6.4288
     6.4300   6.4318   6.4807   6.6371   6.6390   6.6416   6.6428   6.6463
     6.6476   6.6709   6.7043   6.7093   6.7150   6.7504   6.7534   6.7569
     6.9415   7.0053   7.0949   7.1705

          k = 0.0000 0.3849 0.0000 (115797 PWs)   bands (ev):

   -28.2917 -28.2882 -28.2775 -28.2756 -28.2755 -28.2754 -28.2754 -28.2753
   -28.2751 -28.2733 -28.2626 -28.2591 -14.9331 -14.9286 -14.9281 -14.9262
   -14.9244 -14.9240 -14.9227 -14.9226 -14.9222 -14.9210 -14.9207 -14.9202
   -14.9190 -14.9185 -14.9183 -14.9171 -14.9167 -14.9166 -14.9163 -14.9150
   -14.9149 -14.9133 -14.9113 -14.9107 -14.9106 -14.9102 -14.9082 -14.9078
   -14.9064 -14.9061 -14.9046 -14.9030 -14.9029 -14.9011 -14.8991 -14.8986
   -14.8704 -14.8701 -14.8681 -14.8676 -14.8663 -14.8659 -14.8645 -14.8629
   -14.8626 -14.8609 -14.8589 -14.8584 -14.8252 -14.8248 -14.8230 -14.8227
   -14.8210 -14.8209 -14.8193 -14.8176 -14.8175 -14.8159 -14.8139 -14.8132
   -10.3511 -10.3482 -10.3378 -10.3367 -10.3361 -10.3353 -10.3347 -10.3341
   -10.3319 -10.3292 -10.3220 -10.3190 -10.3157 -10.3132 -10.3072 -10.3048
   -10.3033 -10.3018 -10.2997 -10.2988 -10.2968 -10.2897 -10.2877 -10.2821
   -10.2784 -10.2751 -10.2695 -10.2672 -10.2661 -10.2656 -10.2634 -10.2623
   -10.2593 -10.2577 -10.2537 -10.2450  -6.7891  -6.5928  -6.5019  -6.4975
    -6.4383  -6.4353  -6.3667  -6.3489  -6.2868  -6.2860  -6.2527  -6.2482
    -5.9197  -5.9127  -5.8238  -5.8182  -5.8141  -5.7862  -5.7700  -5.7664
    -5.7365  -5.7267  -5.7155  -5.6906  -5.6846  -5.6499  -5.6391  -5.6355
    -5.6245  -5.5914  -5.5863  -5.5797  -5.5702  -5.5321  -5.5230  -5.5184
    -5.5136  -5.5013  -5.4650  -5.4532  -5.4396  -5.4287  -5.4197  -5.4109
    -5.3477  -5.3324  -5.3135  -5.2678  -0.5741  -0.5713  -0.5592  -0.4340
    -0.4062  -0.4036  -0.3794  -0.3382  -0.3351  -0.3343  -0.3141  -0.3053
     1.4144   1.4877   1.4933   1.4984   1.6430   1.6522   1.6925   1.7218
     1.7268   1.8304   1.8722   1.8754   1.9481   1.9534   1.9596   2.0246
     2.1146   2.2081   2.2247   2.2293   2.3329   2.3610   2.3869   2.3899
     2.3973   2.4058   2.4468   2.5379   2.5477   2.6112   2.6134   2.6185
     2.6561   2.7394   2.8130   2.8170   2.8227   2.8373   2.8437   2.8475
     2.8530   2.8842   2.9048   2.9090   2.9157   2.9585   2.9650   3.0047
     3.0521   3.0547   3.0593   3.1268   3.1514   3.1771   3.2008   3.2104
     3.2120   3.2384   3.2563   3.2597   3.2690   3.3229   3.3267   3.3318
     3.3420   3.3723   3.3854   3.3943   3.4341   3.4386   3.4425   3.4487
     3.4920   3.4980   3.5008   3.5091   3.5116   3.5168   3.5279   3.5396
     3.5580   3.6023   3.6072   3.6126   3.6366   3.6498   3.6793   3.6824
     3.6934   3.7032   3.7084   3.7121   3.7770   3.7826   3.8480   3.8615
     3.9011   3.9683   3.9734   3.9776   3.9863   4.0329   4.0403   4.0414
     4.0936   4.1096   4.1187   4.1209   4.1237   4.1573   4.1622   4.1782
     4.2493   4.2669   4.2752   4.2846   4.3006   4.3206   4.3237   4.3696
     4.3774   4.4176   4.4221   4.4860   4.5091   4.5251   4.5281   4.5335
     4.5876   4.5909   4.6317   4.7509   5.1409   5.1432   5.1471   5.1560
     5.1600   5.1609   5.1698   5.1736   5.2129   5.2180   5.2195   5.2225
     5.2291   5.2382   5.2479   5.2492   5.2510   5.2613   5.2646   5.2714
     5.2728   5.2892   5.3045   5.3063   5.3115   5.3183   5.3272   5.3290
     5.3374   5.3508   5.3528   5.3546   5.3592   5.3675   5.4122   5.4142
     5.4348   5.4506   5.4594   5.4624   5.4858   5.4933   5.4981   5.5007
     5.5035   5.5142   5.5305   5.5438   5.5557   5.5571   5.5617   5.6028
     5.6044   5.6279   5.6295   5.6339   5.6685   5.6786   5.6948   5.6962
     5.6979   5.7175   5.7294   5.7569   5.7730   5.7759   5.8078   5.8202
     5.8218   5.8607   5.8765   5.8787   5.9487   5.9506   5.9646   5.9665
     5.9887   6.0061   6.0093   6.0220   6.1375   6.1403   6.1460   6.1603
     6.2245   6.2266   6.2293   6.2497   6.2721   6.2873   6.2879   6.3022
     6.3615   6.3622   6.3787   6.3893   6.3924   6.4421   6.4849   6.4908
     6.5244   6.5371   6.5384   6.5766   6.6045   6.6530   6.6847   6.6905
     6.6944   6.7297   6.7378   6.7408   6.7612   6.7766   6.7952   6.8113
     6.8177   6.9019   6.9096   7.0792

          k = 0.0000 0.3849 0.2714 (115773 PWs)   bands (ev):

   -28.2917 -28.2882 -28.2775 -28.2756 -28.2755 -28.2754 -28.2754 -28.2753
   -28.2751 -28.2733 -28.2626 -28.2591 -14.9331 -14.9286 -14.9281 -14.9262
   -14.9244 -14.9240 -14.9227 -14.9226 -14.9222 -14.9210 -14.9207 -14.9202
   -14.9190 -14.9185 -14.9183 -14.9171 -14.9167 -14.9166 -14.9163 -14.9150
   -14.9149 -14.9133 -14.9113 -14.9107 -14.9106 -14.9102 -14.9082 -14.9078
   -14.9064 -14.9061 -14.9046 -14.9030 -14.9029 -14.9011 -14.8991 -14.8986
   -14.8704 -14.8701 -14.8681 -14.8676 -14.8663 -14.8659 -14.8645 -14.8629
   -14.8626 -14.8609 -14.8589 -14.8584 -14.8252 -14.8248 -14.8230 -14.8227
   -14.8210 -14.8209 -14.8193 -14.8176 -14.8175 -14.8159 -14.8139 -14.8132
   -10.3512 -10.3484 -10.3383 -10.3371 -10.3366 -10.3358 -10.3345 -10.3336
   -10.3309 -10.3291 -10.3223 -10.3187 -10.3159 -10.3137 -10.3070 -10.3060
   -10.3024 -10.3015 -10.2996 -10.2986 -10.2940 -10.2897 -10.2885 -10.2831
   -10.2785 -10.2755 -10.2697 -10.2668 -10.2660 -10.2650 -10.2632 -10.2625
   -10.2592 -10.2586 -10.2537 -10.2452  -6.7526  -6.6467  -6.5639  -6.4723
    -6.4218  -6.4187  -6.3654  -6.3338  -6.3286  -6.2589  -6.2285  -6.2251
    -5.9126  -5.9060  -5.8294  -5.8188  -5.8102  -5.8063  -5.7965  -5.7637
    -5.7578  -5.7303  -5.7123  -5.7053  -5.6748  -5.6365  -5.6289  -5.6272
    -5.6181  -5.6075  -5.6013  -5.5940  -5.5699  -5.5331  -5.5253  -5.5219
    -5.5188  -5.4933  -5.4707  -5.4344  -5.4315  -5.4252  -5.4143  -5.3616
    -5.3471  -5.3351  -5.3197  -5.2968  -0.5626  -0.5596  -0.5559  -0.4368
    -0.4334  -0.4220  -0.3966  -0.3758  -0.3181  -0.3167  -0.3004  -0.2799
     1.4285   1.4831   1.4868   1.4919   1.6281   1.6443   1.7734   1.7768
     1.7830   1.7946   1.7964   1.7977   1.9129   1.9858   1.9948   2.0751
     2.1521   2.2012   2.2134   2.2450   2.2490   2.3509   2.3902   2.3941
     2.4001   2.4509   2.5107   2.5196   2.5433   2.5905   2.5942   2.6086
     2.6452   2.7121   2.7625   2.7672   2.7713   2.7880   2.8094   2.8138
     2.8377   2.8768   2.9119   2.9170   2.9203   2.9791   3.0215   3.0261
     3.0719   3.1023   3.1070   3.1366   3.1686   3.1907   3.1931   3.1960
     3.2061   3.2316   3.2584   3.2648   3.2806   3.3162   3.3196   3.3228
     3.3251   3.3794   3.3883   3.4123   3.4424   3.4458   3.4617   3.4689
     3.4712   3.4738   3.4753   3.4825   3.5309   3.5359   3.5423   3.5934
     3.6076   3.6122   3.6141   3.6299   3.6392   3.6520   3.6586   3.6627
     3.6651   3.7110   3.7118   3.7241   3.8339   3.8372   3.8818   3.8906
     3.9099   3.9464   3.9492   3.9706   3.9865   4.0250   4.0476   4.0501
     4.0523   4.0648   4.1036   4.1091   4.1185   4.1308   4.1339   4.1473
     4.1947   4.2569   4.2658   4.2715   4.2879   4.2915   4.2949   4.3835
     4.3977   4.4382   4.4420   4.4681   4.5250   4.5274   4.5317   4.5930
     4.6083   4.6107   4.6270   4.7245   5.1468   5.1494   5.1534   5.1576
     5.1732   5.1773   5.1778   5.1830   5.1903   5.1974   5.2003   5.2059
     5.2078   5.2329   5.2339   5.2369   5.2544   5.2645   5.2656   5.2690
     5.2773   5.2965   5.3063   5.3138   5.3145   5.3291   5.3371   5.3393
     5.3575   5.3591   5.3612   5.3641   5.3803   5.3939   5.4050   5.4063
     5.4151   5.4310   5.4346   5.4443   5.4458   5.4929   5.5012   5.5028
     5.5109   5.5165   5.5523   5.5597   5.5735   5.5759   5.6035   5.6101
     5.6110   5.6210   5.6234   5.6256   5.6439   5.6702   5.6821   5.7128
     5.7145   5.7196   5.7315   5.7702   5.7728   5.7753   5.8036   5.8045
     5.8085   5.8583   5.8739   5.8771   5.8786   5.9133   5.9594   5.9606
     6.0327   6.0341   6.0367   6.0580   6.0791   6.0817   6.1726   6.2029
     6.2104   6.2133   6.2636   6.2661   6.2721   6.2787   6.2876   6.3488
     6.3499   6.3677   6.3741   6.4152   6.4228   6.4240   6.4290   6.4711
     6.4974   6.5027   6.5457   6.5600   6.5940   6.5962   6.6664   6.6672
     6.6782   6.7188   6.7363   6.7388   6.7510   6.8124   6.8170   6.8471
     6.8653   6.9270   6.9384   7.0510

          k = 0.3333 0.5774 0.0000 (115752 PWs)   bands (ev):

   -28.2917 -28.2882 -28.2775 -28.2756 -28.2755 -28.2754 -28.2754 -28.2753
   -28.2751 -28.2733 -28.2626 -28.2591 -14.9331 -14.9285 -14.9281 -14.9262
   -14.9244 -14.9240 -14.9227 -14.9226 -14.9222 -14.9210 -14.9207 -14.9202
   -14.9190 -14.9185 -14.9183 -14.9171 -14.9167 -14.9166 -14.9163 -14.9150
   -14.9149 -14.9133 -14.9113 -14.9107 -14.9106 -14.9102 -14.9082 -14.9078
   -14.9064 -14.9061 -14.9046 -14.9030 -14.9029 -14.9011 -14.8991 -14.8986
   -14.8704 -14.8701 -14.8681 -14.8676 -14.8663 -14.8659 -14.8645 -14.8629
   -14.8626 -14.8609 -14.8589 -14.8584 -14.8252 -14.8248 -14.8230 -14.8227
   -14.8210 -14.8209 -14.8193 -14.8176 -14.8175 -14.8159 -14.8139 -14.8132
   -10.3511 -10.3479 -10.3378 -10.3364 -10.3358 -10.3347 -10.3343 -10.3332
   -10.3322 -10.3303 -10.3210 -10.3196 -10.3155 -10.3132 -10.3060 -10.3045
   -10.3032 -10.3016 -10.3005 -10.2992 -10.2951 -10.2913 -10.2867 -10.2833
   -10.2787 -10.2755 -10.2686 -10.2670 -10.2661 -10.2649 -10.2640 -10.2620
   -10.2618 -10.2587 -10.2526 -10.2465  -6.6548  -6.6504  -6.6491  -6.4119
    -6.4010  -6.3993  -6.3978  -6.3961  -6.3913  -6.2977  -6.2893  -6.1940
    -5.8671  -5.8518  -5.8490  -5.7734  -5.7490  -5.7467  -5.7394  -5.7318
    -5.7254  -5.7132  -5.7051  -5.7000  -5.6942  -5.6922  -5.6863  -5.6835
    -5.6664  -5.6423  -5.5471  -5.5412  -5.5387  -5.5324  -5.5272  -5.5250
    -5.5099  -5.4822  -5.4720  -5.4704  -5.4684  -5.4659  -5.4484  -5.4004
    -5.3844  -5.3039  -5.3012  -5.2879  -0.5444  -0.5164  -0.5144  -0.5127
    -0.3985  -0.3956  -0.3917  -0.3898  -0.3874  -0.3132  -0.3102  -0.3059
     1.4791   1.4841   1.4884   1.6693   1.6743   1.6779   1.6803   1.6875
     1.6927   1.7291   1.7408   1.8005   2.0687   2.0808   2.0824   2.0835
     2.0935   2.1409   2.1452   2.1485   2.2554   2.3941   2.3971   2.3994
     2.4913   2.4941   2.4964   2.5580   2.5639   2.5693   2.5927   2.6026
     2.7698   2.7739   2.7775   2.8316   2.8358   2.8401   2.8436   2.8456
     2.8493   2.8513   2.8545   2.8596   2.8710   3.0056   3.0101   3.0139
     3.0195   3.0260   3.0321   3.0627   3.1284   3.1343   3.1408   3.1960
     3.1977   3.1988   3.2585   3.2599   3.2607   3.2675   3.2749   3.3600
     3.3647   3.3713   3.3728   3.3787   3.4239   3.4261   3.4278   3.4829
     3.4870   3.4953   3.5029   3.5085   3.5253   3.5303   3.5367   3.5469
     3.5510   3.5762   3.5801   3.5877   3.6473   3.6511   3.6567   3.7179
     3.7200   3.7237   3.7279   3.7315   3.7576   3.7981   3.8026   3.8059
     3.9498   3.9596   3.9676   3.9858   3.9891   4.0269   4.0304   4.0344
     4.0813   4.0847   4.0884   4.1410   4.1494   4.1519   4.1538   4.2794
     4.2879   4.2940   4.3144   4.3176   4.3204   4.3212   4.3231   4.3281
     4.3807   4.3867   4.3938   4.4958   4.5110   4.5151   4.5195   4.5209
     4.5294   4.6506   4.6550   4.6609   5.1367   5.1427   5.1437   5.1450
     5.1729   5.1734   5.1863   5.1879   5.1895   5.1956   5.1969   5.1992
     5.2448   5.2472   5.2496   5.2641   5.2657   5.2677   5.2956   5.2978
     5.3007   5.3012   5.3025   5.3045   5.3140   5.3174   5.3184   5.3210
     5.3389   5.3408   5.3436   5.4002   5.4028   5.4042   5.4088   5.4101
     5.4527   5.4551   5.4576   5.4596   5.4814   5.4831   5.4856   5.4895
     5.4898   5.5336   5.5357   5.5377   5.5629   5.5642   5.5654   5.5695
     5.5720   5.5743   5.6413   5.6702   5.6743   5.6942   5.6953   5.6962
     5.7060   5.7078   5.7093   5.7788   5.7804   5.7814   5.7966   5.7997
     5.8042   5.8237   5.8251   5.8451   5.9294   5.9312   5.9331   6.0419
     6.0459   6.0473   6.0494   6.0529   6.1375   6.1389   6.1402   6.1584
     6.2177   6.2194   6.2210   6.2578   6.2604   6.2629   6.2822   6.2865
     6.3733   6.4073   6.4101   6.4123   6.4166   6.4183   6.4248   6.4510
     6.4532   6.4546   6.6135   6.6155   6.6172   6.6730   6.6765   6.6800
     6.7245   6.7402   6.7433   6.8041   6.8058   6.8077   6.8092   6.8111
     6.8153   6.9378   6.9402   6.9419

          k = 0.3333 0.5774 0.2714 (115827 PWs)   bands (ev):

   -28.2917 -28.2882 -28.2775 -28.2756 -28.2755 -28.2754 -28.2754 -28.2753
   -28.2751 -28.2733 -28.2626 -28.2591 -14.9331 -14.9285 -14.9281 -14.9262
   -14.9244 -14.9240 -14.9227 -14.9226 -14.9222 -14.9210 -14.9207 -14.9202
   -14.9190 -14.9185 -14.9183 -14.9171 -14.9167 -14.9166 -14.9163 -14.9150
   -14.9149 -14.9133 -14.9113 -14.9107 -14.9106 -14.9102 -14.9082 -14.9078
   -14.9064 -14.9061 -14.9046 -14.9030 -14.9029 -14.9011 -14.8991 -14.8986
   -14.8704 -14.8701 -14.8681 -14.8676 -14.8663 -14.8659 -14.8645 -14.8629
   -14.8626 -14.8609 -14.8589 -14.8584 -14.8252 -14.8248 -14.8230 -14.8227
   -14.8210 -14.8209 -14.8193 -14.8176 -14.8175 -14.8159 -14.8139 -14.8133
   -10.3512 -10.3480 -10.3383 -10.3371 -10.3365 -10.3342 -10.3336 -10.3331
   -10.3318 -10.3300 -10.3211 -10.3195 -10.3156 -10.3133 -10.3074 -10.3054
   -10.3026 -10.3008 -10.2985 -10.2978 -10.2944 -10.2921 -10.2871 -10.2841
   -10.2786 -10.2758 -10.2684 -10.2673 -10.2660 -10.2645 -10.2635 -10.2625
   -10.2616 -10.2594 -10.2528 -10.2466  -6.6239  -6.6183  -6.6167  -6.5275
    -6.5254  -6.5223  -6.3108  -6.2924  -6.2891  -6.2879  -6.2598  -6.2146
    -5.8751  -5.8602  -5.8442  -5.7983  -5.7796  -5.7759  -5.7462  -5.7414
    -5.7373  -5.7165  -5.6952  -5.6870  -5.6865  -5.6771  -5.6722  -5.6710
    -5.6544  -5.6452  -5.5603  -5.5564  -5.5534  -5.5301  -5.5254  -5.5200
    -5.5055  -5.5033  -5.5019  -5.4920  -5.4601  -5.4014  -5.3976  -5.3900
    -5.3544  -5.3255  -5.3223  -5.3047  -0.5201  -0.5085  -0.5053  -0.5033
    -0.4620  -0.4177  -0.4167  -0.4157  -0.3547  -0.2953  -0.2934  -0.2897
     1.4762   1.4822   1.4879   1.6317   1.6375   1.6431   1.6890   1.7695
     1.7750   1.7800   1.7815   1.7964   1.9782   1.9811   1.9829   2.0552
     2.1700   2.1894   2.1935   2.2006   2.2470   2.3901   2.3964   2.4013
     2.4850   2.4885   2.4926   2.5556   2.5834   2.5864   2.5911   2.5945
     2.6835   2.7329   2.7361   2.7423   2.8173   2.8229   2.8261   2.8280
     2.8986   2.9032   2.9079   2.9244   2.9346   2.9504   2.9545   2.9604
     3.0581   3.0618   3.0670   3.0821   3.0880   3.0911   3.1242   3.1826
     3.2408   3.2452   3.2471   3.2698   3.2720   3.2734   3.3179   3.3239
     3.3288   3.3317   3.3744   3.4066   3.4217   3.4601   3.4649   3.4701
     3.4914   3.4965   3.5004   3.5051   3.5317   3.5375   3.5412   3.5435
     3.5621   3.6134   3.6158   3.6221   3.6505   3.6551   3.6598   3.6921
     3.6985   3.7064   3.7211   3.7456   3.8205   3.8377   3.8411   3.8438
     3.9337   3.9394   3.9420   3.9497   4.0256   4.0305   4.0354   4.0403
     4.0628   4.0680   4.0708   4.1079   4.1123   4.1157   4.1179   4.1681
     4.2697   4.2737   4.2751   4.2921   4.3147   4.3595   4.3601   4.3655
     4.4106   4.4171   4.4245   4.4881   4.4938   4.4993   4.5075   4.5140
     4.5651   4.6627   4.6678   4.6737   5.1474   5.1548   5.1569   5.1576
     5.1596   5.1802   5.1834   5.1843   5.1966   5.1980   5.2006   5.2108
     5.2237   5.2254   5.2269   5.2500   5.2517   5.2533   5.2578   5.2691
     5.2988   5.3023   5.3039   5.3094   5.3273   5.3301   5.3311   5.3665
     5.3685   5.3697   5.3744   5.3931   5.3959   5.4078   5.4091   5.4118
     5.4323   5.4340   5.4345   5.4393   5.4822   5.4845   5.4878   5.4919
     5.5365   5.5399   5.5418   5.5438   5.5644   5.5661   5.5690   5.6050
     5.6062   5.6077   5.6376   5.6399   5.6707   5.6725   5.6754   5.7030
     5.7035   5.7054   5.7170   5.7564   5.7597   5.7634   5.8021   5.8075
     5.8201   5.8221   5.8241   5.8285   5.8887   5.8913   5.8930   6.0557
     6.0587   6.0606   6.0630   6.0766   6.1187   6.1198   6.1237   6.1360
     6.1964   6.2366   6.2384   6.2402   6.2833   6.3008   6.3016   6.3048
     6.3079   6.3824   6.3857   6.3887   6.4490   6.4654   6.4688   6.4695
     6.4914   6.4936   6.5576   6.5601   6.5626   6.6461   6.6828   6.6858
     6.6878   6.7600   6.7750   6.7782   6.7837   6.7937   6.8515   6.8553
     6.8592   6.9334   6.9372   6.9396

          k =-0.3333 0.1925 0.0000 (115797 PWs)   bands (ev):

   -28.2917 -28.2882 -28.2775 -28.2756 -28.2755 -28.2754 -28.2754 -28.2753
   -28.2751 -28.2733 -28.2626 -28.2591 -14.9331 -14.9285 -14.9281 -14.9262
   -14.9244 -14.9240 -14.9227 -14.9226 -14.9222 -14.9210 -14.9208 -14.9202
   -14.9190 -14.9185 -14.9183 -14.9171 -14.9167 -14.9165 -14.9163 -14.9150
   -14.9149 -14.9133 -14.9113 -14.9107 -14.9106 -14.9102 -14.9082 -14.9078
   -14.9064 -14.9061 -14.9046 -14.9030 -14.9029 -14.9011 -14.8991 -14.8986
   -14.8704 -14.8701 -14.8681 -14.8676 -14.8663 -14.8659 -14.8645 -14.8629
   -14.8626 -14.8609 -14.8589 -14.8584 -14.8252 -14.8248 -14.8230 -14.8227
   -14.8210 -14.8209 -14.8193 -14.8176 -14.8175 -14.8159 -14.8139 -14.8132
   -10.3522 -10.3474 -10.3383 -10.3369 -10.3367 -10.3354 -10.3344 -10.3329
   -10.3323 -10.3294 -10.3212 -10.3190 -10.3160 -10.3134 -10.3072 -10.3050
   -10.3037 -10.3018 -10.2998 -10.2995 -10.2936 -10.2906 -10.2870 -10.2825
   -10.2792 -10.2741 -10.2695 -10.2680 -10.2659 -10.2653 -10.2629 -10.2613
   -10.2606 -10.2580 -10.2525 -10.2466  -6.7887  -6.5902  -6.5033  -6.4964
    -6.4439  -6.4384  -6.3676  -6.3490  -6.2891  -6.2835  -6.2500  -6.2454
    -5.9102  -5.9051  -5.8306  -5.8202  -5.8162  -5.7759  -5.7687  -5.7637
    -5.7432  -5.7268  -5.7171  -5.6944  -5.6891  -5.6581  -5.6378  -5.6352
    -5.6273  -5.6034  -5.5829  -5.5814  -5.5657  -5.5274  -5.5221  -5.5178
    -5.5076  -5.5056  -5.4607  -5.4518  -5.4359  -5.4292  -5.4159  -5.4126
    -5.3536  -5.3476  -5.3031  -5.2635  -0.5716  -0.5681  -0.5647  -0.4372
    -0.4051  -0.4015  -0.3757  -0.3408  -0.3400  -0.3370  -0.3114  -0.3013
     1.4219   1.4799   1.4873   1.5039   1.6355   1.6511   1.6837   1.7207
     1.7260   1.8253   1.8779   1.8814   1.9523   1.9567   1.9636   2.0310
     2.1164   2.2049   2.2302   2.2353   2.3425   2.3622   2.3799   2.3854
     2.3948   2.4126   2.4534   2.5277   2.5377   2.6104   2.6143   2.6183
     2.6594   2.7293   2.8089   2.8127   2.8200   2.8356   2.8432   2.8454
     2.8554   2.8851   2.9061   2.9105   2.9145   2.9586   2.9673   3.0048
     3.0470   3.0547   3.0608   3.1215   3.1444   3.1741   3.2073   3.2106
     3.2144   3.2296   3.2608   3.2640   3.2711   3.3223   3.3305   3.3335
     3.3368   3.3726   3.3963   3.4028   3.4316   3.4400   3.4438   3.4513
     3.4911   3.4975   3.5015   3.5059   3.5114   3.5177   3.5229   3.5535
     3.5692   3.6018   3.6083   3.6124   3.6349   3.6450   3.6774   3.6808
     3.6966   3.6995   3.7050   3.7089   3.7772   3.7826   3.8496   3.8585
     3.8902   3.9690   3.9766   3.9779   3.9858   4.0272   4.0373   4.0387
     4.0908   4.1106   4.1212   4.1235   4.1294   4.1644   4.1711   4.1784
     4.2464   4.2588   4.2676   4.2808   4.3055   4.3233   4.3272   4.3659
     4.3827   4.4126   4.4165   4.4808   4.5202   4.5247   4.5280   4.5398
     4.5919   4.5972   4.6226   4.7473   5.1428   5.1450   5.1467   5.1521
     5.1589   5.1608   5.1695   5.1765   5.2158   5.2190   5.2199   5.2214
     5.2265   5.2364   5.2481   5.2496   5.2503   5.2612   5.2700   5.2717
     5.2732   5.2895   5.3023   5.3040   5.3154   5.3203   5.3250   5.3273
     5.3376   5.3482   5.3513   5.3533   5.3577   5.3644   5.4139   5.4158
     5.4325   5.4513   5.4608   5.4634   5.4855   5.4927   5.4994   5.5018
     5.5035   5.5117   5.5249   5.5438   5.5562   5.5571   5.5630   5.6024
     5.6044   5.6295   5.6332   5.6345   5.6679   5.6774   5.6948   5.6967
     5.6981   5.7177   5.7300   5.7561   5.7756   5.7780   5.8095   5.8177
     5.8188   5.8672   5.8737   5.8760   5.9502   5.9535   5.9642   5.9657
     5.9924   6.0048   6.0085   6.0204   6.1367   6.1398   6.1453   6.1615
     6.2254   6.2305   6.2332   6.2534   6.2691   6.2910   6.2920   6.2975
     6.3604   6.3621   6.3761   6.3891   6.3920   6.4398   6.4819   6.4882
     6.5242   6.5384   6.5399   6.5748   6.6048   6.6491   6.6825   6.6916
     6.6955   6.7274   6.7376   6.7388   6.7628   6.7810   6.7907   6.8094
     6.8141   6.9058   6.9111   7.0832

          k = 0.3333 0.1925 0.0000 (115797 PWs)   bands (ev):

   -28.2917 -28.2882 -28.2775 -28.2756 -28.2755 -28.2754 -28.2754 -28.2753
   -28.2751 -28.2733 -28.2626 -28.2591 -14.9331 -14.9285 -14.9282 -14.9262
   -14.9244 -14.9240 -14.9227 -14.9226 -14.9222 -14.9210 -14.9208 -14.9202
   -14.9190 -14.9185 -14.9183 -14.9171 -14.9167 -14.9166 -14.9163 -14.9150
   -14.9149 -14.9133 -14.9113 -14.9107 -14.9106 -14.9102 -14.9082 -14.9078
   -14.9064 -14.9061 -14.9046 -14.9030 -14.9029 -14.9011 -14.8991 -14.8986
   -14.8704 -14.8701 -14.8681 -14.8676 -14.8663 -14.8659 -14.8645 -14.8629
   -14.8626 -14.8609 -14.8589 -14.8584 -14.8252 -14.8248 -14.8230 -14.8227
   -14.8210 -14.8209 -14.8193 -14.8176 -14.8175 -14.8159 -14.8139 -14.8132
   -10.3512 -10.3485 -10.3379 -10.3365 -10.3359 -10.3353 -10.3346 -10.3332
   -10.3328 -10.3298 -10.3216 -10.3192 -10.3160 -10.3133 -10.3070 -10.3047
   -10.3034 -10.3019 -10.2999 -10.2986 -10.2957 -10.2913 -10.2857 -10.2820
   -10.2792 -10.2757 -10.2693 -10.2664 -10.2650 -10.2644 -10.2639 -10.2624
   -10.2610 -10.2595 -10.2517 -10.2458  -6.7888  -6.5909  -6.5029  -6.4973
    -6.4427  -6.4371  -6.3657  -6.3506  -6.2861  -6.2845  -6.2506  -6.2469
    -5.9154  -5.9076  -5.8307  -5.8192  -5.8139  -5.7847  -5.7703  -5.7667
    -5.7326  -5.7239  -5.7203  -5.6954  -5.6842  -5.6478  -5.6416  -5.6373
    -5.6252  -5.5983  -5.5859  -5.5823  -5.5678  -5.5331  -5.5190  -5.5179
    -5.5130  -5.4962  -5.4628  -5.4494  -5.4371  -5.4331  -5.4209  -5.4136
    -5.3504  -5.3351  -5.3098  -5.2665  -0.5732  -0.5691  -0.5622  -0.4359
    -0.4059  -0.4018  -0.3773  -0.3393  -0.3378  -0.3370  -0.3121  -0.3027
     1.4184   1.4808   1.4924   1.5015   1.6387   1.6527   1.6876   1.7179
     1.7305   1.8279   1.8761   1.8779   1.9508   1.9558   1.9599   2.0276
     2.1151   2.2060   2.2279   2.2323   2.3385   2.3632   2.3792   2.3897
     2.3950   2.4093   2.4508   2.5300   2.5444   2.6109   2.6125   2.6195
     2.6572   2.7349   2.8102   2.8125   2.8213   2.8373   2.8420   2.8486
     2.8541   2.8849   2.9069   2.9089   2.9166   2.9615   2.9637   3.0047
     3.0468   3.0568   3.0604   3.1242   3.1483   3.1761   3.2035   3.2088
     3.2149   3.2341   3.2604   3.2613   3.2694   3.3238   3.3283   3.3323
     3.3399   3.3724   3.3945   3.3957   3.4316   3.4389   3.4445   3.4489
     3.4888   3.4979   3.4993   3.5108   3.5123   3.5159   3.5296   3.5440
     3.5632   3.6050   3.6055   3.6119   3.6352   3.6474   3.6770   3.6819
     3.6948   3.7000   3.7071   3.7123   3.7764   3.7832   3.8481   3.8600
     3.8964   3.9717   3.9749   3.9774   3.9835   4.0295   4.0378   4.0416
     4.0923   4.1105   4.1208   4.1227   4.1266   4.1623   4.1641   4.1781
     4.2476   4.2646   4.2694   4.2831   4.3032   4.3186   4.3274   4.3689
     4.3789   4.4134   4.4215   4.4831   4.5172   4.5248   4.5289   4.5337
     4.5890   4.5948   4.6275   4.7492   5.1430   5.1436   5.1466   5.1547
     5.1593   5.1605   5.1695   5.1745   5.2145   5.2187   5.2196   5.2221
     5.2280   5.2373   5.2486   5.2490   5.2504   5.2612   5.2673   5.2719
     5.2723   5.2898   5.3040   5.3045   5.3138   5.3185   5.3254   5.3282
     5.3369   5.3500   5.3522   5.3538   5.3581   5.3668   5.4121   5.4158
     5.4340   5.4510   5.4608   5.4619   5.4851   5.4935   5.5001   5.5005
     5.5029   5.5134   5.5278   5.5438   5.5569   5.5574   5.5616   5.6027
     5.6039   5.6303   5.6316   5.6326   5.6680   5.6783   5.6926   5.6962
     5.7000   5.7178   5.7297   5.7563   5.7739   5.7774   5.8087   5.8186
     5.8206   5.8637   5.8760   5.8764   5.9500   5.9516   5.9644   5.9660
     5.9902   6.0053   6.0082   6.0222   6.1376   6.1406   6.1451   6.1606
     6.2254   6.2294   6.2308   6.2513   6.2710   6.2894   6.2897   6.2992
     6.3607   6.3624   6.3771   6.3897   6.3917   6.4412   6.4849   6.4881
     6.5236   6.5383   6.5387   6.5760   6.6045   6.6508   6.6840   6.6895
     6.6962   6.7289   6.7369   6.7406   6.7626   6.7779   6.7917   6.8107
     6.8175   6.9046   6.9094   7.0810

          k = 0.0000-0.3849 0.2714 (115773 PWs)   bands (ev):

   -28.2917 -28.2882 -28.2775 -28.2756 -28.2755 -28.2754 -28.2754 -28.2753
   -28.2751 -28.2733 -28.2626 -28.2591 -14.9331 -14.9286 -14.9281 -14.9262
   -14.9244 -14.9240 -14.9227 -14.9226 -14.9222 -14.9210 -14.9207 -14.9202
   -14.9190 -14.9185 -14.9183 -14.9171 -14.9167 -14.9166 -14.9163 -14.9150
   -14.9149 -14.9133 -14.9113 -14.9107 -14.9106 -14.9102 -14.9082 -14.9078
   -14.9064 -14.9061 -14.9046 -14.9030 -14.9029 -14.9011 -14.8991 -14.8986
   -14.8704 -14.8701 -14.8681 -14.8676 -14.8663 -14.8659 -14.8645 -14.8629
   -14.8626 -14.8609 -14.8589 -14.8584 -14.8252 -14.8248 -14.8230 -14.8227
   -14.8210 -14.8209 -14.8193 -14.8176 -14.8175 -14.8159 -14.8139 -14.8132
   -10.3512 -10.3484 -10.3384 -10.3371 -10.3365 -10.3355 -10.3345 -10.3337
   -10.3310 -10.3291 -10.3224 -10.3188 -10.3157 -10.3139 -10.3068 -10.3053
   -10.3038 -10.3008 -10.2994 -10.2976 -10.2947 -10.2914 -10.2883 -10.2824
   -10.2777 -10.2757 -10.2690 -10.2676 -10.2662 -10.2654 -10.2627 -10.2623
   -10.2597 -10.2585 -10.2536 -10.2452  -6.7524  -6.6476  -6.5653  -6.4672
    -6.4186  -6.4149  -6.3643  -6.3457  -6.3405  -6.2670  -6.2152  -6.2111
    -5.9219  -5.9149  -5.8331  -5.8200  -5.8184  -5.8111  -5.7724  -5.7631
    -5.7561  -5.7295  -5.6875  -5.6815  -5.6760  -5.6647  -5.6434  -5.6406
    -5.6333  -5.6036  -5.5899  -5.5799  -5.5742  -5.5339  -5.5283  -5.5235
    -5.5181  -5.4887  -5.4642  -5.4407  -5.4397  -5.4270  -5.3927  -5.3715
    -5.3436  -5.3389  -5.3256  -5.2914  -0.5657  -0.5628  -0.5478  -0.4324
    -0.4297  -0.4262  -0.4145  -0.3617  -0.3210  -0.3202  -0.2912  -0.2846
     1.4014   1.4953   1.5005   1.5119   1.6142   1.7087   1.7124   1.7274
     1.7399   1.7730   1.8400   1.8452   1.9695   1.9845   2.0128   2.0228
     2.1271   2.2002   2.2080   2.2122   2.2820   2.3262   2.3895   2.4260
     2.4336   2.5169   2.5276   2.5328   2.5559   2.5585   2.5608   2.5690
     2.5953   2.6772   2.7607   2.7677   2.8239   2.8256   2.8275   2.8332
     2.8516   2.8573   2.8927   2.8979   2.9058   3.0083   3.0157   3.0200
     3.0785   3.0831   3.1142   3.1200   3.1357   3.1767   3.1819   3.1882
     3.2174   3.2464   3.2658   3.2796   3.2824   3.2972   3.3292   3.3346
     3.3677   3.3730   3.3764   3.3805   3.4450   3.4478   3.4504   3.4777
     3.4796   3.4842   3.5058   3.5089   3.5323   3.5334   3.5395   3.5583
     3.5846   3.5899   3.6105   3.6340   3.6414   3.6482   3.6807   3.6842
     3.6887   3.6971   3.7036   3.7126   3.8353   3.8391   3.8784   3.8820
     3.9409   3.9427   3.9450   3.9535   3.9786   4.0324   4.0513   4.0577
     4.0613   4.0627   4.0949   4.0994   4.1177   4.1216   4.1286   4.1336
     4.2280   4.2452   4.2673   4.2736   4.2906   4.2961   4.3115   4.3628
     4.3930   4.4357   4.4378   4.4785   4.5156   4.5456   4.5494   4.5828
     4.5936   4.5957   4.6354   4.7331   5.1447   5.1466   5.1545   5.1646
     5.1670   5.1686   5.1701   5.1742   5.1998   5.2049   5.2112   5.2163
     5.2196   5.2271   5.2407   5.2423   5.2591   5.2648   5.2657   5.2665
     5.2694   5.2723   5.3092   5.3111   5.3184   5.3322   5.3471   5.3476
     5.3600   5.3626   5.3633   5.3688   5.3711   5.3803   5.3886   5.3891
     5.4105   5.4342   5.4476   5.4494   5.4525   5.4692   5.4962   5.5000
     5.5178   5.5268   5.5558   5.5572   5.5670   5.5694   5.6013   5.6022
     5.6092   5.6208   5.6309   5.6486   5.6503   5.6620   5.6752   5.7067
     5.7102   5.7376   5.7590   5.7606   5.7713   5.7850   5.8060   5.8075
     5.8129   5.8398   5.8691   5.8698   5.8747   5.8905   5.9684   5.9703
     6.0167   6.0253   6.0273   6.1008   6.1042   6.1124   6.1592   6.1883
     6.2002   6.2016   6.2056   6.2601   6.2617   6.2899   6.3168   6.3439
     6.3557   6.3657   6.3689   6.4128   6.4205   6.4226   6.4525   6.4810
     6.4848   6.5073   6.5577   6.5693   6.6058   6.6091   6.6477   6.6671
     6.6707   6.7347   6.7389   6.7396   6.7487   6.8032   6.8082   6.8525
     6.8644   6.9199   6.9469   7.0360

          k =-0.3333 0.1925 0.2714 (115773 PWs)   bands (ev):

   -28.2917 -28.2882 -28.2775 -28.2756 -28.2755 -28.2754 -28.2754 -28.2753
   -28.2751 -28.2733 -28.2626 -28.2591 -14.9331 -14.9285 -14.9281 -14.9262
   -14.9244 -14.9240 -14.9227 -14.9226 -14.9222 -14.9210 -14.9208 -14.9202
   -14.9190 -14.9185 -14.9183 -14.9171 -14.9167 -14.9165 -14.9163 -14.9150
   -14.9149 -14.9133 -14.9113 -14.9107 -14.9106 -14.9102 -14.9082 -14.9078
   -14.9064 -14.9061 -14.9046 -14.9030 -14.9029 -14.9011 -14.8991 -14.8986
   -14.8704 -14.8701 -14.8681 -14.8676 -14.8663 -14.8659 -14.8645 -14.8629
   -14.8626 -14.8609 -14.8589 -14.8584 -14.8252 -14.8248 -14.8230 -14.8227
   -14.8210 -14.8209 -14.8193 -14.8176 -14.8175 -14.8159 -14.8139 -14.8132
   -10.3523 -10.3476 -10.3388 -10.3376 -10.3371 -10.3360 -10.3340 -10.3322
   -10.3312 -10.3293 -10.3214 -10.3191 -10.3161 -10.3139 -10.3077 -10.3048
   -10.3039 -10.3021 -10.2990 -10.2959 -10.2945 -10.2906 -10.2876 -10.2833
   -10.2793 -10.2744 -10.2690 -10.2681 -10.2662 -10.2651 -10.2623 -10.2615
   -10.2607 -10.2584 -10.2526 -10.2468  -6.7521  -6.6472  -6.5602  -6.4722
    -6.4261  -6.4200  -6.3648  -6.3425  -6.3374  -6.2655  -6.2130  -6.2090
    -5.9135  -5.9081  -5.8353  -5.8229  -5.8190  -5.8143  -5.7695  -5.7621
    -5.7491  -5.7397  -5.6908  -5.6828  -5.6799  -5.6601  -5.6428  -5.6413
    -5.6382  -5.6150  -5.5883  -5.5812  -5.5715  -5.5317  -5.5286  -5.5236
    -5.5128  -5.4827  -5.4654  -5.4391  -5.4360  -5.4274  -5.4030  -5.3703
    -5.3480  -5.3441  -5.3180  -5.2865  -0.5623  -0.5586  -0.5553  -0.4354
    -0.4321  -0.4273  -0.4077  -0.3601  -0.3233  -0.3232  -0.2898  -0.2822
     1.4076   1.4865   1.4934   1.5184   1.6103   1.7063   1.7138   1.7210
     1.7340   1.7728   1.8460   1.8511   1.9619   1.9863   2.0216   2.0303
     2.1318   2.1971   2.2072   2.2108   2.2882   2.3406   2.4017   2.4204
     2.4287   2.5139   2.5263   2.5305   2.5509   2.5564   2.5588   2.5617
     2.6052   2.6795   2.7602   2.7677   2.8162   2.8231   2.8252   2.8284
     2.8475   2.8510   2.8917   2.8983   2.9079   3.0058   3.0154   3.0226
     3.0711   3.0772   3.1167   3.1223   3.1317   3.1799   3.1836   3.1892
     3.2094   3.2455   3.2654   3.2848   3.2901   3.2963   3.3275   3.3319
     3.3717   3.3797   3.3822   3.3889   3.4435   3.4485   3.4523   3.4730
     3.4780   3.4825   3.5060   3.5263   3.5316   3.5367   3.5436   3.5604
     3.5850   3.5890   3.6121   3.6284   3.6366   3.6462   3.6753   3.6831
     3.6908   3.6997   3.7037   3.7095   3.8344   3.8384   3.8761   3.8809
     3.9346   3.9453   3.9476   3.9524   3.9678   4.0315   4.0513   4.0580
     4.0597   4.0609   4.1014   4.1030   4.1236   4.1282   4.1334   4.1373
     4.2191   4.2349   4.2631   4.2704   4.2893   4.2925   4.3168   4.3719
     4.3919   4.4322   4.4346   4.4829   4.5274   4.5406   4.5443   4.5878
     4.5973   4.6039   4.6282   4.7274   5.1469   5.1493   5.1513   5.1627
     5.1672   5.1687   5.1709   5.1725   5.1990   5.2045   5.2133   5.2187
     5.2208   5.2304   5.2397   5.2414   5.2591   5.2624   5.2636   5.2648
     5.2661   5.2754   5.3083   5.3114   5.3189   5.3353   5.3459   5.3467
     5.3599   5.3625   5.3635   5.3671   5.3694   5.3817   5.3893   5.3899
     5.4101   5.4319   5.4479   5.4519   5.4542   5.4690   5.4947   5.4983
     5.5157   5.5224   5.5558   5.5572   5.5690   5.5707   5.6027   5.6031
     5.6065   5.6197   5.6318   5.6503   5.6520   5.6594   5.6756   5.7086
     5.7114   5.7409   5.7601   5.7616   5.7697   5.7838   5.8038   5.8052
     5.8173   5.8398   5.8657   5.8663   5.8758   5.8998   5.9682   5.9701
     6.0196   6.0238   6.0278   6.0990   6.1024   6.1114   6.1601   6.1860
     6.2013   6.2054   6.2067   6.2643   6.2659   6.2848   6.3198   6.3400
     6.3539   6.3710   6.3732   6.4134   6.4173   6.4196   6.4522   6.4791
     6.4830   6.5071   6.5577   6.5644   6.6055   6.6089   6.6467   6.6641
     6.6677   6.7364   6.7404   6.7411   6.7494   6.8020   6.8063   6.8499
     6.8692   6.9175   6.9452   7.0426

          k = 0.3333 0.1925 0.2714 (115773 PWs)   bands (ev):

   -28.2917 -28.2882 -28.2775 -28.2756 -28.2755 -28.2754 -28.2754 -28.2753
   -28.2751 -28.2733 -28.2626 -28.2591 -14.9331 -14.9285 -14.9282 -14.9262
   -14.9244 -14.9240 -14.9227 -14.9226 -14.9222 -14.9210 -14.9208 -14.9202
   -14.9190 -14.9185 -14.9183 -14.9171 -14.9167 -14.9166 -14.9163 -14.9150
   -14.9149 -14.9133 -14.9113 -14.9107 -14.9106 -14.9102 -14.9082 -14.9078
   -14.9064 -14.9061 -14.9046 -14.9030 -14.9029 -14.9011 -14.8991 -14.8986
   -14.8704 -14.8701 -14.8681 -14.8676 -14.8663 -14.8659 -14.8645 -14.8629
   -14.8626 -14.8609 -14.8589 -14.8584 -14.8252 -14.8248 -14.8230 -14.8227
   -14.8210 -14.8209 -14.8193 -14.8176 -14.8175 -14.8159 -14.8139 -14.8132
   -10.3513 -10.3486 -10.3385 -10.3370 -10.3366 -10.3350 -10.3346 -10.3327
   -10.3315 -10.3300 -10.3213 -10.3195 -10.3162 -10.3134 -10.3081 -10.3065
   -10.3014 -10.3004 -10.2988 -10.2977 -10.2952 -10.2922 -10.2865 -10.2828
   -10.2789 -10.2758 -10.2688 -10.2658 -10.2653 -10.2645 -10.2640 -10.2619
   -10.2613 -10.2602 -10.2519 -10.2459  -6.7522  -6.6473  -6.5622  -6.4704
    -6.4252  -6.4177  -6.3642  -6.3412  -6.3390  -6.2668  -6.2129  -6.2098
    -5.9182  -5.9098  -5.8395  -5.8203  -5.8184  -5.8115  -5.7701  -5.7644
    -5.7537  -5.7342  -5.6914  -5.6819  -5.6743  -5.6637  -5.6492  -5.6409
    -5.6282  -5.6071  -5.5877  -5.5837  -5.5726  -5.5361  -5.5269  -5.5204
    -5.5145  -5.4843  -5.4646  -5.4403  -5.4386  -5.4363  -5.3941  -5.3692
    -5.3461  -5.3350  -5.3250  -5.2909  -0.5649  -0.5599  -0.5516  -0.4338
    -0.4311  -0.4264  -0.4111  -0.3609  -0.3230  -0.3216  -0.2901  -0.2831
     1.4046   1.4873   1.4996   1.5158   1.6123   1.7054   1.7154   1.7229
     1.7379   1.7732   1.8411   1.8501   1.9661   1.9856   2.0214   2.0226
     2.1286   2.1982   2.2083   2.2105   2.2850   2.3343   2.3962   2.4209
     2.4323   2.5170   2.5259   2.5297   2.5518   2.5577   2.5593   2.5664
     2.6006   2.6783   2.7623   2.7663   2.8182   2.8230   2.8280   2.8317
     2.8499   2.8536   2.8944   2.8982   2.9066   3.0069   3.0168   3.0209
     3.0753   3.0783   3.1166   3.1207   3.1337   3.1798   3.1816   3.1883
     3.2131   3.2462   3.2666   3.2836   3.2860   3.2964   3.3286   3.3337
     3.3745   3.3765   3.3785   3.3804   3.4414   3.4489   3.4518   3.4722
     3.4797   3.4858   3.5067   3.5195   3.5317   3.5355   3.5392   3.5585
     3.5865   3.5872   3.6103   3.6315   3.6405   3.6462   3.6787   3.6846
     3.6889   3.6951   3.7046   3.7134   3.8332   3.8393   3.8778   3.8802
     3.9383   3.9456   3.9466   3.9519   3.9725   4.0323   4.0530   4.0563
     4.0589   4.0633   4.0998   4.1021   4.1203   4.1254   4.1300   4.1342
     4.2225   4.2406   4.2670   4.2714   4.2889   4.2940   4.3146   4.3672
     4.3917   4.4318   4.4389   4.4811   4.5213   4.5421   4.5482   4.5843
     4.5953   4.5999   4.6323   4.7304   5.1463   5.1477   5.1537   5.1630
     5.1669   5.1682   5.1711   5.1728   5.1997   5.2045   5.2123   5.2173
     5.2201   5.2292   5.2399   5.2423   5.2593   5.2630   5.2647   5.2658
     5.2678   5.2735   5.3088   5.3111   5.3190   5.3341   5.3457   5.3468
     5.3597   5.3622   5.3637   5.3680   5.3705   5.3810   5.3888   5.3899
     5.4103   5.4331   5.4477   5.4504   5.4539   5.4691   5.4949   5.4995
     5.5171   5.5241   5.5561   5.5570   5.5686   5.5699   5.6018   5.6026
     5.6079   5.6207   5.6310   5.6499   5.6508   5.6613   5.6749   5.7061
     5.7122   5.7392   5.7600   5.7606   5.7706   5.7846   5.8026   5.8080
     5.8154   5.8398   5.8672   5.8680   5.8757   5.8948   5.9672   5.9711
     6.0184   6.0254   6.0265   6.1011   6.1020   6.1123   6.1595   6.1870
     6.1994   6.2035   6.2081   6.2620   6.2641   6.2873   6.3183   6.3421
     6.3548   6.3676   6.3715   6.4109   6.4189   6.4232   6.4522   6.4817
     6.4821   6.5074   6.5575   6.5670   6.6042   6.6104   6.6476   6.6640
     6.6707   6.7339   6.7398   6.7416   6.7497   6.8006   6.8090   6.8516
     6.8666   6.9188   6.9460   7.0390

          k =-0.3333-0.1925 0.2714 (115773 PWs)   bands (ev):

   -28.2917 -28.2882 -28.2775 -28.2756 -28.2755 -28.2754 -28.2754 -28.2753
   -28.2751 -28.2733 -28.2626 -28.2591 -14.9331 -14.9285 -14.9282 -14.9262
   -14.9244 -14.9240 -14.9227 -14.9226 -14.9222 -14.9210 -14.9208 -14.9202
   -14.9190 -14.9185 -14.9183 -14.9171 -14.9167 -14.9166 -14.9163 -14.9150
   -14.9149 -14.9133 -14.9113 -14.9107 -14.9106 -14.9102 -14.9082 -14.9078
   -14.9064 -14.9061 -14.9046 -14.9030 -14.9029 -14.9011 -14.8991 -14.8986
   -14.8704 -14.8701 -14.8681 -14.8676 -14.8663 -14.8659 -14.8645 -14.8629
   -14.8626 -14.8609 -14.8589 -14.8584 -14.8252 -14.8248 -14.8230 -14.8227
   -14.8210 -14.8209 -14.8193 -14.8176 -14.8175 -14.8159 -14.8139 -14.8132
   -10.3514 -10.3486 -10.3387 -10.3369 -10.3365 -10.3351 -10.3345 -10.3328
   -10.3317 -10.3298 -10.3218 -10.3189 -10.3160 -10.3139 -10.3076 -10.3056
   -10.3028 -10.3003 -10.2993 -10.2969 -10.2954 -10.2924 -10.2862 -10.2824
   -10.2790 -10.2759 -10.2680 -10.2668 -10.2659 -10.2645 -10.2637 -10.2622
   -10.2607 -10.2601 -10.2518 -10.2460  -6.7519  -6.6476  -6.5613  -6.4733
    -6.4287  -6.4206  -6.3647  -6.3314  -6.3263  -6.2599  -6.2260  -6.2241
    -5.9086  -5.9019  -5.8399  -5.8161  -5.8110  -5.8033  -5.7918  -5.7640
    -5.7597  -5.7342  -5.7182  -5.6998  -5.6711  -5.6358  -5.6334  -5.6285
    -5.6241  -5.6095  -5.6000  -5.5954  -5.5696  -5.5327  -5.5220  -5.5202
    -5.5165  -5.4930  -5.4680  -5.4349  -5.4318  -5.4275  -5.4121  -5.3647
    -5.3500  -5.3348  -5.3189  -5.2936  -0.5621  -0.5597  -0.5554  -0.4398
    -0.4325  -0.4251  -0.3938  -0.3734  -0.3194  -0.3186  -0.2990  -0.2788
     1.4331   1.4779   1.4865   1.4928   1.6247   1.6420   1.7635   1.7768
     1.7843   1.7923   1.7996   1.8014   1.9141   1.9954   1.9970   2.0770
     2.1541   2.1997   2.2105   2.2460   2.2505   2.3595   2.3880   2.3976
     2.3988   2.4480   2.5064   2.5164   2.5474   2.5857   2.5926   2.6099
     2.6431   2.7112   2.7611   2.7654   2.7706   2.7887   2.8084   2.8091
     2.8397   2.8749   2.9153   2.9162   2.9200   2.9815   3.0212   3.0266
     3.0673   3.1048   3.1088   3.1323   3.1707   3.1876   3.1936   3.1972
     3.2003   3.2321   3.2645   3.2655   3.2773   3.3171   3.3214   3.3221
     3.3255   3.3884   3.3910   3.4092   3.4422   3.4466   3.4603   3.4698
     3.4715   3.4751   3.4763   3.4857   3.5322   3.5366   3.5389   3.5911
     3.6099   3.6114   3.6147   3.6331   3.6421   3.6481   3.6585   3.6628
     3.6677   3.7073   3.7112   3.7218   3.8353   3.8365   3.8788   3.8867
     3.9065   3.9489   3.9519   3.9750   3.9815   4.0204   4.0462   4.0486
     4.0518   4.0663   4.1099   4.1120   4.1197   4.1325   4.1352   4.1480
     4.1904   4.2544   4.2631   4.2710   4.2872   4.2924   4.2955   4.3867
     4.3981   4.4343   4.4424   4.4685   4.5222   4.5278   4.5361   4.5962
     4.6093   4.6126   4.6241   4.7220   5.1501   5.1507   5.1532   5.1571
     5.1702   5.1752   5.1770   5.1832   5.1906   5.1981   5.2011   5.2076
     5.2088   5.2338   5.2348   5.2360   5.2547   5.2615   5.2652   5.2689
     5.2791   5.2981   5.3071   5.3126   5.3131   5.3282   5.3349   5.3392
     5.3572   5.3580   5.3611   5.3643   5.3804   5.3929   5.4068   5.4076
     5.4130   5.4318   5.4332   5.4450   5.4460   5.4927   5.5016   5.5027
     5.5096   5.5164   5.5535   5.5599   5.5740   5.5755   5.6024   5.6108
     5.6116   5.6189   5.6254   5.6259   5.6434   5.6701   5.6821   5.7125
     5.7168   5.7175   5.7342   5.7705   5.7726   5.7753   5.8007   5.8042
     5.8111   5.8582   5.8751   5.8758   5.8792   5.9147   5.9586   5.9603
     6.0311   6.0348   6.0385   6.0596   6.0771   6.0816   6.1730   6.2063
     6.2119   6.2149   6.2634   6.2667   6.2718   6.2777   6.2856   6.3490
     6.3494   6.3659   6.3722   6.4143   6.4245   6.4259   6.4279   6.4712
     6.4977   6.4997   6.5455   6.5594   6.5959   6.5965   6.6653   6.6683
     6.6770   6.7193   6.7358   6.7381   6.7484   6.8118   6.8158   6.8455
     6.8693   6.9286   6.9377   7.0526

          k = 0.3333-0.1925 0.2714 (115773 PWs)   bands (ev):

   -28.2917 -28.2882 -28.2775 -28.2756 -28.2755 -28.2754 -28.2754 -28.2753
   -28.2751 -28.2733 -28.2626 -28.2591 -14.9331 -14.9285 -14.9281 -14.9262
   -14.9244 -14.9240 -14.9227 -14.9226 -14.9222 -14.9210 -14.9208 -14.9202
   -14.9190 -14.9185 -14.9183 -14.9171 -14.9167 -14.9165 -14.9163 -14.9150
   -14.9149 -14.9133 -14.9113 -14.9107 -14.9106 -14.9102 -14.9082 -14.9078
   -14.9064 -14.9061 -14.9046 -14.9030 -14.9029 -14.9011 -14.8991 -14.8986
   -14.8704 -14.8701 -14.8681 -14.8676 -14.8663 -14.8659 -14.8645 -14.8629
   -14.8626 -14.8609 -14.8589 -14.8584 -14.8252 -14.8248 -14.8230 -14.8227
   -14.8210 -14.8209 -14.8193 -14.8176 -14.8175 -14.8159 -14.8139 -14.8132
   -10.3523 -10.3476 -10.3387 -10.3376 -10.3373 -10.3360 -10.3334 -10.3328
   -10.3312 -10.3293 -10.3212 -10.3192 -10.3164 -10.3137 -10.3076 -10.3061
   -10.3025 -10.3001 -10.3001 -10.2969 -10.2938 -10.2915 -10.2879 -10.2830
   -10.2789 -10.2743 -10.2691 -10.2681 -10.2660 -10.2648 -10.2630 -10.2613
   -10.2603 -10.2590 -10.2527 -10.2467  -6.7515  -6.6481  -6.5603  -6.4738
    -6.4291  -6.4232  -6.3644  -6.3309  -6.3259  -6.2604  -6.2267  -6.2229
    -5.9055  -5.8998  -5.8330  -5.8235  -5.8086  -5.8055  -5.7878  -5.7634
    -5.7554  -5.7389  -5.7142  -5.7083  -5.6702  -5.6487  -5.6304  -5.6281
    -5.6237  -5.6108  -5.5995  -5.5951  -5.5688  -5.5303  -5.5238  -5.5197
    -5.5136  -5.4987  -5.4626  -5.4320  -5.4286  -5.4256  -5.4144  -5.3667
    -5.3518  -5.3474  -5.3134  -5.2873  -0.5626  -0.5586  -0.5549  -0.4391
    -0.4348  -0.4280  -0.3916  -0.3712  -0.3205  -0.3193  -0.2984  -0.2782
     1.4370   1.4783   1.4850   1.4903   1.6222   1.6384   1.7621   1.7721
     1.7812   1.7872   1.8047   1.8061   1.9152   1.9976   2.0059   2.0793
     2.1582   2.1978   2.2078   2.2470   2.2509   2.3680   2.3856   2.3929
     2.4054   2.4453   2.5034   2.5133   2.5511   2.5886   2.5911   2.6069
     2.6411   2.7092   2.7589   2.7664   2.7694   2.7905   2.8038   2.8095
     2.8394   2.8719   2.9139   2.9168   2.9203   2.9837   3.0209   3.0270
     3.0630   3.1054   3.1107   3.1275   3.1727   3.1903   3.1921   3.1943
     3.1978   3.2327   3.2618   3.2686   3.2756   3.3156   3.3211   3.3232
     3.3274   3.3909   3.3978   3.4093   3.4439   3.4486   3.4622   3.4695
     3.4717   3.4728   3.4776   3.4885   3.5304   3.5370   3.5394   3.5888
     3.6102   3.6128   3.6159   3.6333   3.6437   3.6502   3.6563   3.6607
     3.6765   3.7047   3.7119   3.7139   3.8347   3.8383   3.8773   3.8845
     3.9004   3.9507   3.9545   3.9756   3.9808   4.0157   4.0455   4.0482
     4.0490   4.0671   4.1122   4.1147   4.1225   4.1334   4.1384   4.1497
     4.1869   4.2515   4.2625   4.2682   4.2872   4.2911   4.2985   4.3901
     4.3989   4.4348   4.4389   4.4682   4.5214   4.5243   4.5416   4.6002
     4.6114   4.6148   4.6201   4.7190   5.1506   5.1526   5.1538   5.1559
     5.1705   5.1737   5.1747   5.1835   5.1908   5.1978   5.2017   5.2088
     5.2105   5.2330   5.2353   5.2366   5.2551   5.2614   5.2648   5.2664
     5.2809   5.2989   5.3082   5.3119   5.3126   5.3280   5.3347   5.3363
     5.3570   5.3579   5.3614   5.3629   5.3804   5.3916   5.4077   5.4088
     5.4124   5.4312   5.4335   5.4447   5.4465   5.4921   5.5019   5.5029
     5.5080   5.5159   5.5539   5.5606   5.5734   5.5759   5.6017   5.6108
     5.6125   5.6174   5.6258   5.6273   5.6425   5.6705   5.6820   5.7140
     5.7153   5.7173   5.7369   5.7698   5.7733   5.7761   5.8009   5.8018
     5.8128   5.8585   5.8731   5.8746   5.8828   5.9166   5.9581   5.9594
     6.0332   6.0340   6.0369   6.0618   6.0768   6.0798   6.1736   6.2084
     6.2146   6.2158   6.2652   6.2689   6.2698   6.2762   6.2841   6.3486
     6.3496   6.3634   6.3699   6.4152   6.4228   6.4262   6.4298   6.4718
     6.4946   6.4998   6.5461   6.5589   6.5957   6.5980   6.6659   6.6679
     6.6767   6.7210   6.7349   6.7371   6.7446   6.8110   6.8151   6.8435
     6.8731   6.9305   6.9364   7.0546

          k =-0.3333-0.5774 0.2714 (115827 PWs)   bands (ev):

   -28.2917 -28.2882 -28.2775 -28.2756 -28.2755 -28.2754 -28.2754 -28.2753
   -28.2751 -28.2733 -28.2626 -28.2591 -14.9331 -14.9285 -14.9281 -14.9262
   -14.9244 -14.9240 -14.9227 -14.9226 -14.9222 -14.9210 -14.9207 -14.9202
   -14.9190 -14.9185 -14.9183 -14.9171 -14.9167 -14.9166 -14.9163 -14.9150
   -14.9149 -14.9133 -14.9113 -14.9107 -14.9106 -14.9102 -14.9082 -14.9078
   -14.9064 -14.9061 -14.9046 -14.9030 -14.9029 -14.9011 -14.8991 -14.8986
   -14.8704 -14.8701 -14.8681 -14.8676 -14.8663 -14.8659 -14.8645 -14.8629
   -14.8626 -14.8609 -14.8589 -14.8584 -14.8252 -14.8248 -14.8230 -14.8227
   -14.8210 -14.8209 -14.8193 -14.8176 -14.8175 -14.8159 -14.8139 -14.8133
   -10.3512 -10.3480 -10.3381 -10.3373 -10.3365 -10.3344 -10.3335 -10.3326
   -10.3321 -10.3300 -10.3213 -10.3192 -10.3156 -10.3135 -10.3074 -10.3057
   -10.3025 -10.3001 -10.2984 -10.2974 -10.2951 -10.2928 -10.2869 -10.2839
   -10.2791 -10.2753 -10.2685 -10.2675 -10.2654 -10.2647 -10.2637 -10.2625
   -10.2616 -10.2595 -10.2526 -10.2466  -6.6239  -6.6180  -6.6171  -6.5281
    -6.5237  -6.5235  -6.3114  -6.2917  -6.2897  -6.2876  -6.2576  -6.2166
    -5.8754  -5.8582  -5.8448  -5.8004  -5.7797  -5.7761  -5.7448  -5.7426
    -5.7356  -5.7145  -5.6982  -5.6882  -5.6853  -5.6763  -5.6720  -5.6712
    -5.6611  -5.6366  -5.5604  -5.5557  -5.5530  -5.5311  -5.5241  -5.5208
    -5.5084  -5.5034  -5.5012  -5.4985  -5.4541  -5.4010  -5.3971  -5.3895
    -5.3555  -5.3254  -5.3222  -5.3051  -0.5213  -0.5080  -0.5056  -0.5030
    -0.4600  -0.4183  -0.4167  -0.4162  -0.3555  -0.2954  -0.2927  -0.2898
     1.4758   1.4825   1.4876   1.6327   1.6393   1.6438   1.6899   1.7695
     1.7712   1.7774   1.7815   1.7969   1.9799   1.9816   1.9844   2.0545
     2.1697   2.1866   2.1931   2.1973   2.2485   2.3931   2.3978   2.4036
     2.4859   2.4899   2.4919   2.5565   2.5815   2.5880   2.5914   2.5970
     2.6744   2.7311   2.7381   2.7396   2.8195   2.8225   2.8271   2.8287
     2.8965   2.9018   2.9052   2.9219   2.9389   2.9525   2.9572   2.9619
     3.0534   3.0594   3.0628   3.0862   3.0889   3.0949   3.1302   3.1794
     3.2424   3.2446   3.2478   3.2686   3.2710   3.2730   3.3206   3.3240
     3.3281   3.3342   3.3731   3.4077   3.4195   3.4594   3.4664   3.4684
     3.4905   3.4960   3.4992   3.5052   3.5319   3.5362   3.5390   3.5449
     3.5617   3.6129   3.6169   3.6202   3.6518   3.6557   3.6607   3.6922
     3.6984   3.7061   3.7207   3.7458   3.8226   3.8399   3.8431   3.8449
     3.9312   3.9377   3.9409   3.9481   4.0238   4.0297   4.0327   4.0416
     4.0653   4.0684   4.0741   4.1082   4.1125   4.1143   4.1175   4.1685
     4.2706   4.2727   4.2757   4.2902   4.3157   4.3589   4.3635   4.3645
     4.4095   4.4173   4.4237   4.4886   4.4933   4.4994   4.5067   4.5149
     4.5652   4.6627   4.6675   4.6738   5.1477   5.1547   5.1565   5.1576
     5.1595   5.1806   5.1825   5.1849   5.1962   5.1979   5.2003   5.2111
     5.2237   5.2251   5.2270   5.2508   5.2521   5.2534   5.2578   5.2692
     5.2998   5.3013   5.3041   5.3091   5.3279   5.3288   5.3318   5.3674
     5.3681   5.3699   5.3748   5.3932   5.3961   5.4075   5.4096   5.4111
     5.4322   5.4329   5.4347   5.4388   5.4819   5.4850   5.4869   5.4921
     5.5373   5.5390   5.5422   5.5441   5.5645   5.5672   5.5690   5.6044
     5.6059   5.6071   5.6377   5.6401   5.6703   5.6731   5.6753   5.7026
     5.7044   5.7052   5.7185   5.7557   5.7599   5.7628   5.8001   5.8082
     5.8202   5.8222   5.8248   5.8292   5.8891   5.8904   5.8934   6.0554
     6.0590   6.0611   6.0625   6.0782   6.1174   6.1214   6.1224   6.1345
     6.1952   6.2365   6.2382   6.2400   6.2848   6.3000   6.3030   6.3043
     6.3058   6.3826   6.3859   6.3890   6.4507   6.4669   6.4679   6.4710
     6.4917   6.4936   6.5570   6.5598   6.5621   6.6455   6.6832   6.6855
     6.6886   6.7605   6.7740   6.7785   6.7830   6.7936   6.8515   6.8549
     6.8594   6.9337   6.9367   6.9398

     highest occupied level (ev):     7.1831

!    total energy              =   -9077.18617195 Ry
     estimated scf accuracy    <          5.2E-10 Ry

     The total energy is the sum of the following terms:
     one-electron contribution =   -2776.61405860 Ry
     hartree contribution      =    2020.06120488 Ry
     xc contribution           =   -2269.38729047 Ry
     ewald contribution        =   -3895.44964313 Ry
     one-center paw contrib.   =   -2155.79638463 Ry

     convergence has been achieved in  24 iterations

     negative rho (up, down):  7.902E-01 0.000E+00

     Forces acting on atoms (cartesian axes, Ry/au):

     atom    1 type  1   force =    -0.00015588    0.00026070    0.00036606
     atom    2 type  1   force =    -0.00015731    0.00029282    0.00014195
     atom    3 type  1   force =    -0.00018254    0.00025065    0.00014807
     atom    4 type  1   force =    -0.00013176    0.00025141    0.00014224
     atom    5 type  1   force =    -0.00129588   -0.00031176    0.00013140
     atom    6 type  1   force =     0.00124221   -0.00010408    0.00034787
     atom    7 type  1   force =    -0.00023972   -0.00043027   -0.00021811
     atom    8 type  1   force =    -0.00021379   -0.00009357   -0.00008046
     atom    9 type  1   force =     0.00042741   -0.00013910   -0.00008226
     atom   10 type  1   force =    -0.00029562   -0.00097174    0.00013777
     atom   11 type  1   force =     0.00118122    0.00115567    0.00034596
     atom   12 type  1   force =     0.00012068    0.00000995   -0.00023429
     atom   13 type  2   force =     0.00007193   -0.00078025    0.00110126
     atom   14 type  2   force =     0.00017393   -0.00040266    0.00018196
     atom   15 type  2   force =     0.00020625   -0.00038322    0.00016282
     atom   16 type  2   force =     0.00030808   -0.00025236    0.00013003
     atom   17 type  2   force =     0.00123100    0.00044542   -0.00015295
     atom   18 type  2   force =     0.00015582    0.00036782    0.00003297
     atom   19 type  2   force =     0.00039166    0.00036522    0.00016232
     atom   20 type  2   force =     0.00029453    0.00044559    0.00011692
     atom   21 type  2   force =    -0.00035235    0.00002212    0.00027007
     atom   22 type  2   force =    -0.00041917    0.00001002    0.00023158
     atom   23 type  2   force =    -0.00043427    0.00000063    0.00023101
     atom   24 type  2   force =    -0.00049691   -0.00002413    0.00024631
     atom   25 type  2   force =    -0.00033159   -0.00000113   -0.00026015
     atom   26 type  2   force =     0.00012383    0.00077724   -0.00053062
     atom   27 type  2   force =    -0.00049053   -0.00007761   -0.00031443
     atom   28 type  2   force =    -0.00034033    0.00008740   -0.00019299
     atom   29 type  2   force =     0.00013148    0.00035128   -0.00013315
     atom   30 type  2   force =     0.00024757    0.00045333   -0.00010813
     atom   31 type  2   force =     0.00020374    0.00040721   -0.00014621
     atom   32 type  2   force =     0.00018733    0.00039849   -0.00014728
     atom   33 type  2   force =     0.00039962   -0.00034412   -0.00024152
     atom   34 type  2   force =    -0.00016996   -0.00027694    0.00075564
     atom   35 type  2   force =     0.00020705   -0.00038185   -0.00018947
     atom   36 type  2   force =     0.00023789   -0.00036334   -0.00020735
     atom   37 type  3   force =    -0.00464643   -0.00033584   -0.02891723
     atom   38 type  3   force =     0.00047671   -0.00052284    0.00002177
     atom   39 type  3   force =     0.00006048   -0.00059799    0.00000917
     atom   40 type  3   force =     0.00032665   -0.00027562    0.00002351
     atom   41 type  3   force =     0.00043437    0.00038713    0.00041043
     atom   42 type  3   force =     0.00024755    0.00031169    0.00042111
     atom   43 type  3   force =     0.00022377    0.00081586   -0.00009239
     atom   44 type  3   force =     0.00029916    0.00052265    0.00005851
     atom   45 type  3   force =    -0.00048874   -0.00000384    0.00005743
     atom   46 type  3   force =    -0.00053243    0.00019120    0.00041778
     atom   47 type  3   force =    -0.00068317    0.00005868    0.00040452
     atom   48 type  3   force =    -0.00027422   -0.00020604   -0.00009496
     atom   49 type  4   force =     0.00676666   -0.00763574    0.01277514
     atom   50 type  4   force =     0.00013524   -0.00023367    0.00018733
     atom   51 type  4   force =     0.00044738   -0.00015296    0.00004640
     atom   52 type  4   force =     0.00041187   -0.00016616    0.00010688
     atom   53 type  4   force =    -0.00012073    0.00032102   -0.00015923
     atom   54 type  4   force =    -0.00012256    0.00032133   -0.00012372
     atom   55 type  4   force =    -0.00011972    0.00025864   -0.00002185
     atom   56 type  4   force =    -0.00010727    0.00036328   -0.00005402
     atom   57 type  4   force =    -0.00008196   -0.00022107   -0.00021913
     atom   58 type  4   force =    -0.00025214   -0.00023745    0.00027935
     atom   59 type  4   force =    -0.00023199   -0.00030129    0.00001863
     atom   60 type  4   force =    -0.00047952   -0.00072828   -0.00028009
     atom   61 type  4   force =    -0.00026419    0.00023680   -0.00008561
     atom   62 type  4   force =    -0.00031121    0.00024441   -0.00018902
     atom   63 type  4   force =    -0.00031268    0.00024390   -0.00015673
     atom   64 type  4   force =    -0.00036279    0.00027739   -0.00005377
     atom   65 type  4   force =    -0.00016107    0.00015191   -0.00030689
     atom   66 type  4   force =     0.00047899    0.00024722   -0.00026040
     atom   67 type  4   force =     0.00037033    0.00009773    0.00024969
     atom   68 type  4   force =     0.00032751    0.00014941   -0.00000847
     atom   69 type  4   force =    -0.00012052   -0.00027287    0.00007871
     atom   70 type  4   force =    -0.00257284    0.00676890    0.01063507
     atom   71 type  4   force =    -0.00031389   -0.00047771    0.00015336
     atom   72 type  4   force =    -0.00009492   -0.00024287    0.00001644
     atom   73 type  4   force =    -0.00005306    0.00015683   -0.00054519
     atom   74 type  4   force =    -0.00001363    0.00015228   -0.00030385
     atom   75 type  4   force =     0.00000049    0.00019855   -0.00026332
     atom   76 type  4   force =     0.00001478    0.00013857   -0.00031656
     atom   77 type  4   force =    -0.00030280    0.00006124   -0.00006522
     atom   78 type  4   force =     0.00017830    0.00007455    0.00153372
     atom   79 type  4   force =    -0.00023706   -0.00006962   -0.00027568
     atom   80 type  4   force =    -0.00025959   -0.00007025   -0.00005928
     atom   81 type  4   force =     0.00017510   -0.00025347   -0.00047219
     atom   82 type  4   force =     0.00008086   -0.00010576   -0.00026213
     atom   83 type  4   force =     0.00009348   -0.00000480   -0.00030389
     atom   84 type  4   force =     0.00015870   -0.00003462   -0.00039375
     atom   85 type  4   force =     0.00005116    0.00000584    0.00043690
     atom   86 type  4   force =     0.00016911   -0.00010180    0.00042409
     atom   87 type  4   force =     0.00026129   -0.00007240    0.00202331
     atom   88 type  4   force =     0.00005886    0.00002937    0.00022318
     atom   89 type  4   force =     0.00008204   -0.00015710    0.00010276
     atom   90 type  4   force =    -0.00009502   -0.00003624    0.00002936
     atom   91 type  4   force =    -0.00001861   -0.00018955    0.00023074
     atom   92 type  4   force =     0.00007497   -0.00022876    0.00018907
     atom   93 type  4   force =    -0.00015808    0.00007284    0.00017800
     atom   94 type  4   force =    -0.00017647   -0.00000820   -0.00002544
     atom   95 type  4   force =    -0.00016076    0.00004138    0.00019142
     atom   96 type  4   force =    -0.00011135    0.00002939    0.00023142

     Total force =     0.036431     Total SCF correction =     0.000092
     Message from routine punch:
     Nothing written, as per user request (disk_io='none')

     init_run     :     36.55s CPU     40.89s WALL (       1 calls)
     electrons    :   1976.49s CPU   2098.52s WALL (       1 calls)
     forces       :     15.76s CPU     16.20s WALL (       1 calls)

     Called by init_run:
     wfcinit      :     33.19s CPU     37.10s WALL (       1 calls)
     potinit      :      1.06s CPU      1.14s WALL (       1 calls)
     hinit0       :      1.03s CPU      1.11s WALL (       1 calls)

     Called by electrons:
     c_bands      :   1752.29s CPU   1850.01s WALL (      24 calls)
     sum_band     :    199.03s CPU    217.60s WALL (      24 calls)
     v_of_rho     :      3.87s CPU      4.34s WALL (      25 calls)
     newd         :     15.66s CPU     20.93s WALL (      25 calls)
     PAW_pot      :      5.55s CPU      5.62s WALL (      25 calls)
     mix_rho      :      0.65s CPU      0.70s WALL (      24 calls)

     Called by c_bands:
     init_us_2    :     28.97s CPU     29.49s WALL (     350 calls)
     cegterg      :   1691.06s CPU   1787.82s WALL (     168 calls)

     Called by *egterg:
     cdiaghg      :     90.93s CPU     94.42s WALL (    1101 calls)
     h_psi        :    914.40s CPU    987.06s WALL (    1108 calls)
     s_psi        :    222.84s CPU    226.89s WALL (    1108 calls)
     g_psi        :      3.30s CPU      3.37s WALL (     933 calls)

     Called by h_psi:
     h_psi:calbec :    220.87s CPU    226.66s WALL (    1108 calls)
     vloc_psi     :    465.88s CPU    524.23s WALL (    1108 calls)
     add_vuspsi   :    223.22s CPU    227.23s WALL (    1108 calls)

     General routines
     calbec       :    302.56s CPU    310.22s WALL (    1304 calls)
     fft          :      3.78s CPU      4.25s WALL (     334 calls)
     ffts         :      0.75s CPU      0.79s WALL (      49 calls)
     fftw         :    405.91s CPU    456.63s WALL (  484036 calls)
     interpolate  :      0.90s CPU      0.98s WALL (      25 calls)

     Parallel routines

     PWSCF        :  33m49.08s CPU  35m56.26s WALL


   This run was terminated on:   3:44: 0  21Aug2026            

=------------------------------------------------------------------------------=
   JOB DONE.
=------------------------------------------------------------------------------=
