
     Program PWSCF v.7.3.1 starts on 20Aug2026 at 22:39:21 

     This program is part of the open-source Quantum ESPRESSO suite
     for quantum simulation of materials; please cite
         "P. Giannozzi et al., J. Phys.:Condens. Matter 21 395502 (2009);
         "P. Giannozzi et al., J. Phys.:Condens. Matter 29 465901 (2017);
         "P. Giannozzi et al., J. Chem. Phys. 152 154105 (2020);
          URL http://www.quantum-espresso.org", 
     in publications or presentations arising from this work. More details at
     http://www.quantum-espresso.org/quote

     Parallel version (MPI & OpenMP), running on      32 processor cores
     Number of MPI processes:                32
     Threads/MPI process:                     1

     MPI processes distributed on     1 nodes
     289797 MiB available memory on the printing compute node when the environment starts

     Reading input from scf.in

     Current dimensions of program PWSCF are:
     Max number of different atomic species (ntypx) = 10
     Max number of k-points (npk) =  40000
     Max angular momentum in pseudopotentials (lmaxx) =  4
     file Cu.paw.z_11.ld1.psl.v1.0.0-low.upf: wavefunction(s)  4S 3D renormalized

     K-points division:     npool     =       2
     R & G space division:  proc/nbgrp/npool/nimage =      16
     Subspace diagonalization in iterative solution of the eigenvalue problem:
     one sub-group per band group will be used
     scalapack distributed-memory algorithm (size of sub-group:  4*  4 procs)


     Parallelization info
     --------------------
     sticks:   dense  smooth     PW     G-vecs:    dense   smooth      PW
     Min        1790     894    231               300830   106340   14089
     Max        1791     895    232               300835   106347   14094
     Sum       28651   14317   3697              4813303  1701527  225451

     Using Slab Decomposition



     bravais-lattice index     =            0
     lattice parameter (alat)  =      24.0273  a.u.
     unit-cell volume          =   14752.0463 (a.u.)^3
     number of atoms/cell      =           96
     number of atomic types    =            4
     number of electrons       =       840.00
     number of Kohn-Sham states=          420
     kinetic-energy cutoff     =      90.0000  Ry
     charge density cutoff     =     720.0000  Ry
     scf convergence threshold =      1.0E-09
     mixing beta               =       0.3000
     number of iterations used =            8  plain     mixing
     Exchange-correlation=  SLA  PW   PBX  PBC
                           (   1   4   3   4   0   0   0)

     celldm(1)=  24.027274  celldm(2)=   0.000000  celldm(3)=   0.000000
     celldm(4)=   0.000000  celldm(5)=   0.000000  celldm(6)=   0.000000

     crystal axes: (cart. coord. in units of alat)
               a(1) = (   1.000000   0.000000   0.000000 )  
               a(2) = (  -0.500000   0.866025   0.000000 )  
               a(3) = (   0.000000   0.000000   1.228028 )  

     reciprocal axes: (cart. coord. in units 2 pi/alat)
               b(1) = (  1.000000  0.577351 -0.000000 )  
               b(2) = (  0.000000  1.154701  0.000000 )  
               b(3) = (  0.000000 -0.000000  0.814314 )  


     PseudoPot. # 1 for Sr read from file:
     /home/yuhansun/pseudos/SSSP-1.3.0-PBE-precision/Sr_pbe_v1.uspp.F.UPF
     MD5 check sum: 6b418c05fbe9db5448babca5e47b7a5b
     Pseudo is Ultrasoft + core correction, Zval = 10.0
     Generated by new atomic code, or converted to UPF format
     Using radial grid of  883 points,  6 beta functions with: 
                l(1) =   0
                l(2) =   0
                l(3) =   1
                l(4) =   1
                l(5) =   2
                l(6) =   2
     Q(r) pseudized with  6 coefficients,  rinner =    1.400   1.400   1.400
                                                       1.400   1.400

     PseudoPot. # 2 for Cu read from file:
     /home/yuhansun/pseudos/SSSP-1.3.0-PBE-precision/Cu.paw.z_11.ld1.psl.v1.0.0-low.upf
     MD5 check sum: 619f40885d92a09a85a8b37550532d0c
     Pseudo is Projector augmented-wave + core cor, Zval = 11.0
     Generated using &quot;atomic&quot; code by A. Dal Corso  v.6.3MaX
     Shape of augmentation charge: PSQ
     Using radial grid of 1199 points,  6 beta functions with: 
                l(1) =   0
                l(2) =   0
                l(3) =   1
                l(4) =   1
                l(5) =   2
                l(6) =   2
     Q(r) pseudized with 0 coefficients 


     PseudoPot. # 3 for Sn read from file:
     /home/yuhansun/pseudos/SSSP-1.3.0-PBE-precision/Sn_pbe_v1.uspp.F.UPF
     MD5 check sum: 4cf58ce39ec5d5d420df3dd08604eb00
     Pseudo is Ultrasoft + core correction, Zval = 14.0
     Generated by new atomic code, or converted to UPF format
     Using radial grid of  891 points,  6 beta functions with: 
                l(1) =   0
                l(2) =   0
                l(3) =   1
                l(4) =   1
                l(5) =   2
                l(6) =   2
     Q(r) pseudized with  6 coefficients,  rinner =    1.200   1.200   1.200
                                                       1.200   1.200

     PseudoPot. # 4 for S  read from file:
     /home/yuhansun/pseudos/SSSP-1.3.0-PBE-precision/s_pbe_v1.4.uspp.F.UPF
     MD5 check sum: 88d86576ff6df21479756cfb9bdac1df
     Pseudo is Ultrasoft + core correction, Zval =  6.0
     Generated by new atomic code, or converted to UPF format
     Using radial grid of  907 points,  6 beta functions with: 
                l(1) =   0
                l(2) =   0
                l(3) =   1
                l(4) =   1
                l(5) =   2
                l(6) =   2
     Q(r) pseudized with  8 coefficients,  rinner =    1.300   1.300   1.300
                                                       1.300   1.300

     atomic species   valence    mass     pseudopotential
     Sr               10.00    87.62000     Sr( 1.00)
     Cu               11.00    63.54600     Cu( 1.00)
     Sn               14.00   118.71000     Sn( 1.00)
     S                 6.00    32.06500     S ( 1.00)

     No symmetry found



   Cartesian axes

     site n.     atom                  positions (alat units)
         1        Sr     tau(   1) = (  -0.1380781   0.2434834   0.2046717  )
         2        Sr     tau(   2) = (   0.3594247   0.2434834   0.2046717  )
         3        Sr     tau(   3) = (  -0.3905753   0.6764960   0.2046717  )
         4        Sr     tau(   4) = (   0.1094247   0.6764960   0.2046717  )
         5        Sr     tau(   5) = (   0.1094247   0.1895292   0.6140139  )
         6        Sr     tau(   6) = (   0.6094247   0.1895292   0.6140139  )
         7        Sr     tau(   7) = (  -0.1405753   0.6225418   0.6140139  )
         8        Sr     tau(   8) = (   0.3594247   0.6225418   0.6140139  )
         9        Sr     tau(   9) = (   0.2811505   0.0000000   1.0233574  )
        10        Sr     tau(  10) = (   0.7811505   0.0000000   1.0233574  )
        11        Sr     tau(  11) = (   0.0311505   0.4330126   1.0233574  )
        12        Sr     tau(  12) = (   0.5311505   0.4330126   1.0233574  )
        13        Cu     tau(  13) = (  -0.1226788   0.2753211   0.5061747  )
        14        Cu     tau(  14) = (   0.3773212   0.2753211   0.5061747  )
        15        Cu     tau(  15) = (  -0.3726788   0.7083337   0.5061747  )
        16        Cu     tau(  16) = (   0.1273212   0.7083337   0.5061747  )
        17        Cu     tau(  17) = (   0.0729045   0.1891087   0.9155169  )
        18        Cu     tau(  18) = (   0.5729045   0.1891087   0.9155169  )
        19        Cu     tau(  19) = (  -0.1770956   0.6221213   0.9155169  )
        20        Cu     tau(  20) = (   0.3229044   0.6221213   0.9155169  )
        21        Cu     tau(  21) = (   0.0497750   0.4015949   0.0968325  )
        22        Cu     tau(  22) = (   0.5497750   0.4015949   0.0968325  )
        23        Cu     tau(  23) = (  -0.2002251   0.8346075   0.0968325  )
        24        Cu     tau(  24) = (   0.2997749   0.8346075   0.0968325  )
        25        Cu     tau(  25) = (   0.2997745   0.0314177   0.7218532  )
        26        Cu     tau(  26) = (   0.7997745   0.0314177   0.7218532  )
        27        Cu     tau(  27) = (   0.0497745   0.4644302   0.7218532  )
        28        Cu     tau(  28) = (   0.5497745   0.4644302   0.7218532  )
        29        Cu     tau(  29) = (   0.1273207   0.1576915   0.3125110  )
        30        Cu     tau(  30) = (   0.6273207   0.1576915   0.3125110  )
        31        Cu     tau(  31) = (  -0.1226793   0.5907041   0.3125110  )
        32        Cu     tau(  32) = (   0.3773207   0.5907041   0.3125110  )
        33        Cu     tau(  33) = (   0.3229040   0.2439039   1.1311954  )
        34        Cu     tau(  34) = (   0.8229040   0.2439039   1.1311954  )
        35        Cu     tau(  35) = (   0.0729039   0.6769164   1.1311954  )
        36        Cu     tau(  36) = (   0.5729039   0.6769164   1.1311954  )
        37        Sn     tau(  37) = (  -0.1762580   0.3052877   0.8186857  )
        38        Sn     tau(  38) = (   0.3237420   0.3052877   0.8186857  )
        39        Sn     tau(  39) = (  -0.4262581   0.7383003   0.8186857  )
        40        Sn     tau(  40) = (   0.0737419   0.7383003   0.8186857  )
        41        Sn     tau(  41) = (   0.0737420   0.1277249   0.0000000  )
        42        Sn     tau(  42) = (   0.5737420   0.1277249   0.0000000  )
        43        Sn     tau(  43) = (  -0.1762581   0.5607374   0.0000000  )
        44        Sn     tau(  44) = (   0.3237419   0.5607374   0.0000000  )
        45        Sn     tau(  45) = (   0.3525160   0.0000000   0.4093422  )
        46        Sn     tau(  46) = (   0.8525160   0.0000000   0.4093422  )
        47        Sn     tau(  47) = (   0.1025160   0.4330126   0.4093422  )
        48        Sn     tau(  48) = (   0.6025160   0.4330126   0.4093422  )
        49        S      tau(  49) = (  -0.0988203   0.2103164   0.9671149  )
        50        S      tau(  50) = (   0.4011797   0.2103164   0.9671149  )
        51        S      tau(  51) = (  -0.3488203   0.6433290   0.9671149  )
        52        S      tau(  52) = (   0.1511797   0.6433290   0.9671149  )
        53        S      tau(  53) = (   0.1172707   0.2422736   0.1484293  )
        54        S      tau(  54) = (   0.6172707   0.2422736   0.1484293  )
        55        S      tau(  55) = (  -0.1327293   0.6752862   0.1484293  )
        56        S      tau(  56) = (   0.3672707   0.6752862   0.1484293  )
        57        S      tau(  57) = (  -0.0184505   0.4134352   0.5577727  )
        58        S      tau(  58) = (   0.4815495   0.4134352   0.5577727  )
        59        S      tau(  59) = (  -0.2684506   0.8464478   0.5577727  )
        60        S      tau(  60) = (   0.2315494   0.8464478   0.5577727  )
        61        S      tau(  61) = (   0.2315495   0.0195774   0.2609129  )
        62        S      tau(  62) = (   0.7315495   0.0195774   0.2609129  )
        63        S      tau(  63) = (  -0.0184505   0.4525899   0.2609129  )
        64        S      tau(  64) = (   0.4815495   0.4525899   0.2609129  )
        65        S      tau(  65) = (   0.1511797   0.2226962   1.0795986  )
        66        S      tau(  66) = (   0.6511797   0.2226962   1.0795986  )
        67        S      tau(  67) = (  -0.0988203   0.6557088   1.0795986  )
        68        S      tau(  68) = (   0.4011797   0.6557088   1.0795986  )
        69        S      tau(  69) = (   0.3672707   0.1907390   0.6702552  )
        70        S      tau(  70) = (   0.8672707   0.1907390   0.6702552  )
        71        S      tau(  71) = (   0.1172707   0.6237516   0.6702552  )
        72        S      tau(  72) = (   0.6172707   0.6237516   0.6702552  )
        73        S      tau(  73) = (  -0.0296498   0.1532012   0.4035914  )
        74        S      tau(  74) = (   0.4703502   0.1532012   0.4035914  )
        75        S      tau(  75) = (  -0.2796498   0.5862137   0.4035914  )
        76        S      tau(  76) = (   0.2203502   0.5862137   0.4035914  )
        77        S      tau(  77) = (   0.1321490   0.3307341   0.8129336  )
        78        S      tau(  78) = (   0.6321490   0.3307341   0.8129336  )
        79        S      tau(  79) = (  -0.1178511   0.7637467   0.8129336  )
        80        S      tau(  80) = (   0.3821489   0.7637467   0.8129336  )
        81        S      tau(  81) = (  -0.1024985   0.3820894   1.2222770  )
        82        S      tau(  82) = (   0.3975015   0.3820894   1.2222770  )
        83        S      tau(  83) = (  -0.3524986   0.8151020   1.2222770  )
        84        S      tau(  84) = (   0.1475014   0.8151020   1.2222770  )
        85        S      tau(  85) = (   0.1475010   0.0509231   0.8244365  )
        86        S      tau(  86) = (   0.6475010   0.0509231   0.8244365  )
        87        S      tau(  87) = (  -0.1024990   0.4839357   0.8244365  )
        88        S      tau(  88) = (   0.3975010   0.4839357   0.8244365  )
        89        S      tau(  89) = (   0.2203497   0.2798114   0.4150943  )
        90        S      tau(  90) = (   0.7203497   0.2798114   0.4150943  )
        91        S      tau(  91) = (  -0.0296503   0.7128240   0.4150943  )
        92        S      tau(  92) = (   0.4703497   0.7128240   0.4150943  )
        93        S      tau(  93) = (   0.3821485   0.1022784   0.0057509  )
        94        S      tau(  94) = (   0.8821485   0.1022784   0.0057509  )
        95        S      tau(  95) = (   0.1321485   0.5352910   0.0057509  )
        96        S      tau(  96) = (   0.6321485   0.5352910   0.0057509  )

     number of k points=    14
                       cart. coord. in units 2pi/alat
        k(    1) = (   0.0000000   0.0000000   0.0000000), wk =   0.0740741
        k(    2) = (   0.0000000   0.0000000   0.2714379), wk =   0.1481481
        k(    3) = (   0.0000000   0.3849003   0.0000000), wk =   0.1481481
        k(    4) = (   0.0000000   0.3849003   0.2714379), wk =   0.1481481
        k(    5) = (   0.3333333   0.5773505   0.0000000), wk =   0.1481481
        k(    6) = (   0.3333333   0.5773505   0.2714379), wk =   0.1481481
        k(    7) = (  -0.3333333   0.1924501   0.0000000), wk =   0.1481481
        k(    8) = (   0.3333333   0.1924502   0.0000000), wk =   0.1481481
        k(    9) = (   0.0000000  -0.3849003   0.2714379), wk =   0.1481481
        k(   10) = (  -0.3333333   0.1924501   0.2714379), wk =   0.1481481
        k(   11) = (   0.3333333   0.1924502   0.2714379), wk =   0.1481481
        k(   12) = (  -0.3333333  -0.1924502   0.2714379), wk =   0.1481481
        k(   13) = (   0.3333333  -0.1924501   0.2714379), wk =   0.1481481
        k(   14) = (  -0.3333333  -0.5773505   0.2714379), wk =   0.1481481

     Dense  grid:  4813303 G-vectors     FFT dimensions: ( 216, 216, 256)

     Smooth grid:  1701527 G-vectors     FFT dimensions: ( 150, 150, 180)

     Estimated max dynamical RAM per process >       1.95 GB

     Estimated total dynamical RAM >      61.30 GB

     Initial potential from superposition of free atoms

     starting charge     827.5884, renormalised to     840.0000

     negative rho (up, down):  7.787E-01 0.000E+00
     Starting wfcs are  672 randomized atomic wfcs
     Checking if some PAW data can be deallocated... 

     total cpu time spent up to now is       89.6 secs

     Self-consistent Calculation

     iteration #  1     ecut=    90.00 Ry     beta= 0.30
     Davidson diagonalization with overlap
     ethr =  1.00E-02,  avg # of iterations =  2.0

     negative rho (up, down):  7.760E-01 0.000E+00

     total cpu time spent up to now is      259.3 secs

     total energy              =   -9070.40438846 Ry
     estimated scf accuracy    <      21.69198742 Ry

     iteration #  2     ecut=    90.00 Ry     beta= 0.30
     Davidson diagonalization with overlap
     ethr =  2.58E-03,  avg # of iterations =  4.8

     negative rho (up, down):  7.767E-01 0.000E+00

     total cpu time spent up to now is      467.3 secs

     total energy              =   -9076.62619413 Ry
     estimated scf accuracy    <       7.89442729 Ry

     iteration #  3     ecut=    90.00 Ry     beta= 0.30
     Davidson diagonalization with overlap
     ethr =  9.40E-04,  avg # of iterations =  2.0

     negative rho (up, down):  7.821E-01 0.000E+00

     total cpu time spent up to now is      638.9 secs

     total energy              =   -9076.52061263 Ry
     estimated scf accuracy    <       1.56568516 Ry

     iteration #  4     ecut=    90.00 Ry     beta= 0.30
     Davidson diagonalization with overlap
     ethr =  1.86E-04,  avg # of iterations =  6.0

     negative rho (up, down):  7.848E-01 0.000E+00

     total cpu time spent up to now is      887.3 secs

     total energy              =   -9076.72389479 Ry
     estimated scf accuracy    <       1.99231327 Ry

     iteration #  5     ecut=    90.00 Ry     beta= 0.30
     Davidson diagonalization with overlap
     ethr =  1.86E-04,  avg # of iterations =  4.9

     negative rho (up, down):  7.905E-01 0.000E+00

     total cpu time spent up to now is     1087.8 secs

     total energy              =   -9077.14774029 Ry
     estimated scf accuracy    <       0.15618100 Ry

     iteration #  6     ecut=    90.00 Ry     beta= 0.30
     Davidson diagonalization with overlap
     ethr =  1.86E-05,  avg # of iterations =  6.4

     negative rho (up, down):  7.923E-01 0.000E+00

     total cpu time spent up to now is     1296.0 secs

     total energy              =   -9077.20077332 Ry
     estimated scf accuracy    <       0.01272505 Ry

     iteration #  7     ecut=    90.00 Ry     beta= 0.30
     Davidson diagonalization with overlap
     ethr =  1.51E-06,  avg # of iterations =  5.3

     negative rho (up, down):  7.928E-01 0.000E+00

     total cpu time spent up to now is     1533.7 secs

     total energy              =   -9077.20581932 Ry
     estimated scf accuracy    <       0.00571520 Ry

     iteration #  8     ecut=    90.00 Ry     beta= 0.30
     Davidson diagonalization with overlap
     ethr =  6.80E-07,  avg # of iterations =  7.0

     negative rho (up, down):  7.933E-01 0.000E+00

     total cpu time spent up to now is     1792.5 secs

     total energy              =   -9077.19729146 Ry
     estimated scf accuracy    <       0.04327795 Ry

     iteration #  9     ecut=    90.00 Ry     beta= 0.30
     Davidson diagonalization with overlap
     ethr =  6.80E-07,  avg # of iterations =  6.6

     negative rho (up, down):  7.932E-01 0.000E+00

     total cpu time spent up to now is     2077.5 secs

     total energy              =   -9077.20513441 Ry
     estimated scf accuracy    <       0.00244082 Ry

     iteration # 10     ecut=    90.00 Ry     beta= 0.30
     Davidson diagonalization with overlap
     ethr =  2.91E-07,  avg # of iterations =  2.0

     negative rho (up, down):  7.929E-01 0.000E+00

     total cpu time spent up to now is     2243.3 secs

     total energy              =   -9077.20502656 Ry
     estimated scf accuracy    <       0.00078113 Ry

     iteration # 11     ecut=    90.00 Ry     beta= 0.30
     Davidson diagonalization with overlap
     ethr =  9.30E-08,  avg # of iterations =  5.6

     negative rho (up, down):  7.927E-01 0.000E+00

     total cpu time spent up to now is     2475.6 secs

     total energy              =   -9077.20529310 Ry
     estimated scf accuracy    <       0.00021485 Ry

     iteration # 12     ecut=    90.00 Ry     beta= 0.30
     Davidson diagonalization with overlap
     ethr =  2.56E-08,  avg # of iterations =  5.5

     negative rho (up, down):  7.925E-01 0.000E+00

     total cpu time spent up to now is     2677.0 secs

     total energy              =   -9077.20532248 Ry
     estimated scf accuracy    <       0.00011412 Ry

     iteration # 13     ecut=    90.00 Ry     beta= 0.30
     Davidson diagonalization with overlap
     ethr =  1.36E-08,  avg # of iterations =  3.4

     negative rho (up, down):  7.925E-01 0.000E+00

     total cpu time spent up to now is     2864.9 secs

     total energy              =   -9077.20533786 Ry
     estimated scf accuracy    <       0.00003082 Ry

     iteration # 14     ecut=    90.00 Ry     beta= 0.30
     Davidson diagonalization with overlap
     ethr =  3.67E-09,  avg # of iterations =  6.1

     negative rho (up, down):  7.924E-01 0.000E+00

     total cpu time spent up to now is     3054.4 secs

     total energy              =   -9077.20534417 Ry
     estimated scf accuracy    <       0.00000441 Ry

     iteration # 15     ecut=    90.00 Ry     beta= 0.30
     Davidson diagonalization with overlap
     ethr =  5.25E-10,  avg # of iterations =  5.3

     negative rho (up, down):  7.923E-01 0.000E+00

     total cpu time spent up to now is     3312.6 secs

     total energy              =   -9077.20534769 Ry
     estimated scf accuracy    <       0.00000046 Ry

     iteration # 16     ecut=    90.00 Ry     beta= 0.30
     Davidson diagonalization with overlap
     ethr =  5.43E-11,  avg # of iterations =  5.9

     negative rho (up, down):  7.923E-01 0.000E+00

     total cpu time spent up to now is     3556.3 secs

     total energy              =   -9077.20534867 Ry
     estimated scf accuracy    <       0.00000010 Ry

     iteration # 17     ecut=    90.00 Ry     beta= 0.30
     Davidson diagonalization with overlap
     ethr =  1.15E-11,  avg # of iterations =  6.5

     negative rho (up, down):  7.923E-01 0.000E+00

     total cpu time spent up to now is     3776.6 secs

     total energy              =   -9077.20534909 Ry
     estimated scf accuracy    <       0.00000003 Ry

     iteration # 18     ecut=    90.00 Ry     beta= 0.30
     Davidson diagonalization with overlap
     ethr =  4.13E-12,  avg # of iterations =  4.9

     negative rho (up, down):  7.923E-01 0.000E+00

     total cpu time spent up to now is     3999.5 secs

     total energy              =   -9077.20534931 Ry
     estimated scf accuracy    <          4.6E-09 Ry

     iteration # 19     ecut=    90.00 Ry     beta= 0.30
     Davidson diagonalization with overlap
     ethr =  5.47E-13,  avg # of iterations =  6.6

     negative rho (up, down):  7.923E-01 0.000E+00

     total cpu time spent up to now is     4300.8 secs

     total energy              =   -9077.20534941 Ry
     estimated scf accuracy    <       0.00000001 Ry

     iteration # 20     ecut=    90.00 Ry     beta= 0.30
     Davidson diagonalization with overlap
     ethr =  5.47E-13,  avg # of iterations =  5.4

     negative rho (up, down):  7.923E-01 0.000E+00

     total cpu time spent up to now is     4519.0 secs

     total energy              =   -9077.20534946 Ry
     estimated scf accuracy    <          1.1E-09 Ry

     iteration # 21     ecut=    90.00 Ry     beta= 0.30
     Davidson diagonalization with overlap
     ethr =  1.26E-13,  avg # of iterations =  6.4

     negative rho (up, down):  7.923E-01 0.000E+00

     total cpu time spent up to now is     4765.3 secs

     total energy              =   -9077.20534948 Ry
     estimated scf accuracy    <          1.2E-09 Ry

     iteration # 22     ecut=    90.00 Ry     beta= 0.30
     Davidson diagonalization with overlap
     ethr =  1.26E-13,  avg # of iterations =  2.0

     negative rho (up, down):  7.923E-01 0.000E+00

     total cpu time spent up to now is     4937.4 secs

     End of self-consistent calculation

          k = 0.0000 0.0000 0.0000 (212639 PWs)   bands (ev):

   -28.2770 -28.2761 -28.2760 -28.2758 -28.2757 -28.2757 -28.2756 -28.2755
   -28.2754 -28.2751 -28.2732 -28.2722 -14.9265 -14.9246 -14.9223 -14.9221
   -14.9220 -14.9219 -14.9219 -14.9218 -14.9216 -14.9215 -14.9208 -14.9189
   -14.9189 -14.9169 -14.9165 -14.9162 -14.9161 -14.9161 -14.9160 -14.9159
   -14.9158 -14.9157 -14.9130 -14.9109 -14.9084 -14.9067 -14.9043 -14.9041
   -14.9040 -14.9040 -14.9040 -14.9038 -14.9037 -14.9037 -14.9010 -14.8990
   -14.8684 -14.8665 -14.8641 -14.8638 -14.8638 -14.8638 -14.8637 -14.8636
   -14.8635 -14.8635 -14.8608 -14.8587 -14.8233 -14.8214 -14.8190 -14.8187
   -14.8186 -14.8186 -14.8185 -14.8184 -14.8184 -14.8183 -14.8155 -14.8134
   -10.3388 -10.3383 -10.3380 -10.3368 -10.3366 -10.3361 -10.3358 -10.3350
   -10.3345 -10.3308 -10.3301 -10.3240 -10.3094 -10.3089 -10.3085 -10.3044
   -10.3040 -10.3016 -10.3012 -10.3006 -10.2928 -10.2922 -10.2916 -10.2820
   -10.2707 -10.2704 -10.2701 -10.2653 -10.2650 -10.2643 -10.2629 -10.2623
   -10.2617 -10.2583 -10.2578 -10.2541  -6.8631  -6.5550  -6.5548  -6.4184
    -6.4168  -6.4153  -6.3006  -6.2992  -6.2981  -6.2186  -6.2180  -6.2175
    -5.9900  -5.9899  -5.9893  -5.8501  -5.8493  -5.8489  -5.7967  -5.7960
    -5.7957  -5.7370  -5.7369  -5.6198  -5.6188  -5.6172  -5.6141  -5.6135
    -5.6125  -5.6008  -5.5589  -5.5587  -5.5585  -5.5454  -5.5450  -5.5440
    -5.5170  -5.5168  -5.4328  -5.4289  -5.4286  -5.4280  -5.3729  -5.3725
    -5.3471  -5.3451  -5.3434  -5.2509  -0.6123  -0.6116  -0.6107  -0.3896
    -0.3889  -0.3881  -0.3509  -0.3170  -0.3155  -0.3143  -0.3011  -0.3010
     1.3848   1.3850   1.3853   1.5921   1.5923   1.6561   1.7167   1.7169
     1.7172   1.8051   1.8060   1.8070   2.0197   2.0406   2.0411   2.0845
     2.0847   2.0859   2.2472   2.2476   2.2486   2.3084   2.3106   2.4040
     2.4044   2.4048   2.4606   2.4610   2.4612   2.5493   2.5495   2.6623
     2.6628   2.6637   2.7837   2.7840   2.7844   2.8712   2.8718   2.9245
     2.9251   2.9253   2.9531   2.9536   2.9540   3.0268   3.0274   3.0277
     3.0454   3.0458   3.0465   3.1644   3.2139   3.2145   3.2149   3.2271
     3.2275   3.2565   3.2575   3.2581   3.3767   3.3776   3.3780   3.3927
     3.3929   3.4261   3.4269   3.4278   3.4356   3.4359   3.4362   3.4751
     3.4758   3.4761   3.4926   3.4948   3.4949   3.4956   3.5169   3.5172
     3.5841   3.5849   3.5854   3.6262   3.6270   3.6273   3.6890   3.6894
     3.6905   3.6909   3.6913   3.7057   3.7949   3.7952   3.8249   3.8256
     3.8258   3.9625   4.0197   4.0205   4.0213   4.0349   4.0356   4.0369
     4.1232   4.1245   4.1252   4.1265   4.1722   4.1730   4.1750   4.2008
     4.2084   4.2094   4.2099   4.2429   4.2440   4.2456   4.2809   4.2810
     4.4232   4.4245   4.4259   4.5169   4.5183   4.5189   4.5354   4.5362
     4.6188   4.6207   4.6220   4.8563   5.1238   5.1543   5.1546   5.1550
     5.1730   5.1734   5.1736   5.1774   5.1777   5.2213   5.2261   5.2267
     5.2270   5.2284   5.2292   5.2507   5.2511   5.2518   5.2652   5.2658
     5.2669   5.2774   5.2778   5.2785   5.3088   5.3105   5.3108   5.3119
     5.3129   5.3239   5.3364   5.3368   5.3371   5.3739   5.3747   5.3758
     5.4379   5.4381   5.4706   5.4706   5.4708   5.4736   5.4764   5.4766
     5.4768   5.4980   5.4984   5.6002   5.6006   5.6009   5.6178   5.6179
     5.6181   5.6257   5.6461   5.6466   5.6469   5.6587   5.6589   5.6591
     5.7245   5.7246   5.7435   5.7815   5.7822   5.7830   5.8202   5.8203
     5.8210   5.9029   5.9030   5.9033   5.9260   5.9271   5.9278   5.9954
     5.9956   6.0260   6.0260   6.0262   6.1487   6.1500   6.1508   6.1511
     6.2616   6.2619   6.2622   6.2624   6.2627   6.2627   6.2893   6.2899
     6.3342   6.3344   6.3348   6.3628   6.3630   6.3631   6.3879   6.3890
     6.3899   6.5517   6.5703   6.5709   6.5714   6.6371   6.6372   6.6380
     6.7465   6.7470   6.7476   6.7646   6.7649   6.7807   6.7810   6.7814
     6.8078   6.9640   7.1799   7.1802

          k = 0.0000 0.0000 0.2714 (212663 PWs)   bands (ev):

   -28.2770 -28.2761 -28.2760 -28.2758 -28.2757 -28.2757 -28.2756 -28.2755
   -28.2754 -28.2751 -28.2732 -28.2722 -14.9265 -14.9246 -14.9223 -14.9221
   -14.9220 -14.9219 -14.9219 -14.9218 -14.9216 -14.9215 -14.9208 -14.9189
   -14.9189 -14.9169 -14.9165 -14.9162 -14.9161 -14.9161 -14.9160 -14.9160
   -14.9158 -14.9157 -14.9130 -14.9109 -14.9084 -14.9067 -14.9043 -14.9041
   -14.9040 -14.9040 -14.9040 -14.9038 -14.9037 -14.9037 -14.9010 -14.8990
   -14.8684 -14.8665 -14.8641 -14.8638 -14.8638 -14.8638 -14.8637 -14.8636
   -14.8635 -14.8635 -14.8608 -14.8587 -14.8233 -14.8214 -14.8190 -14.8187
   -14.8186 -14.8186 -14.8185 -14.8184 -14.8184 -14.8183 -14.8155 -14.8134
   -10.3398 -10.3393 -10.3389 -10.3374 -10.3370 -10.3366 -10.3342 -10.3339
   -10.3331 -10.3319 -10.3277 -10.3250 -10.3121 -10.3078 -10.3075 -10.3071
   -10.3022 -10.3018 -10.3012 -10.2941 -10.2936 -10.2931 -10.2924 -10.2845
   -10.2701 -10.2699 -10.2696 -10.2660 -10.2656 -10.2649 -10.2624 -10.2619
   -10.2613 -10.2580 -10.2574 -10.2556  -6.8239  -6.7133  -6.4103  -6.4089
    -6.4078  -6.4068  -6.3051  -6.3038  -6.3028  -6.2307  -6.2303  -6.2298
    -5.9921  -5.9915  -5.9910  -5.8537  -5.8355  -5.8341  -5.8339  -5.7744
    -5.7730  -5.7725  -5.6580  -5.6559  -5.6544  -5.6518  -5.6134  -5.6123
    -5.6121  -5.6111  -5.5568  -5.5524  -5.5519  -5.5509  -5.5454  -5.5447
    -5.5438  -5.4543  -5.4358  -5.4345  -5.4339  -5.4329  -5.3752  -5.3463
    -5.3392  -5.3373  -5.3351  -5.2813  -0.6042  -0.6037  -0.6031  -0.4137
    -0.4123  -0.4111  -0.3483  -0.3326  -0.3025  -0.3009  -0.2993  -0.2741
     1.4089   1.4093   1.4097   1.5703   1.6142   1.6185   1.6189   1.6197
     1.6576   1.9348   1.9352   1.9364   2.0040   2.0464   2.0526   2.0529
     2.0541   2.0683   2.2757   2.2760   2.2770   2.3051   2.3884   2.3892
     2.3903   2.3912   2.4159   2.4165   2.4171   2.4557   2.6223   2.6227
     2.6233   2.6676   2.7181   2.7910   2.7978   2.7982   2.7987   2.8722
     2.8722   2.8726   2.9752   2.9756   2.9760   3.0453   3.0457   3.0465
     3.1060   3.1065   3.1073   3.1754   3.1986   3.2035   3.2045   3.2053
     3.2735   3.2740   3.2747   3.2837   3.3745   3.3828   3.3840   3.3849
     3.4186   3.4199   3.4205   3.4394   3.4400   3.4404   3.4484   3.4490
     3.4500   3.4766   3.4984   3.5182   3.5185   3.5189   3.5376   3.5437
     3.5494   3.5501   3.5509   3.6384   3.6442   3.6449   3.6454   3.6505
     3.6796   3.6806   3.6814   3.7729   3.8297   3.8755   3.8761   3.8763
     3.9078   3.9210   3.9942   3.9949   3.9959   4.0552   4.0555   4.0562
     4.0747   4.1167   4.1172   4.1179   4.1473   4.1481   4.1500   4.1649
     4.1702   4.1721   4.1734   4.2110   4.2497   4.2512   4.2518   4.2673
     4.4206   4.4218   4.4229   4.4830   4.5578   4.5598   4.5611   4.6035
     4.6057   4.6070   4.6764   4.8065   5.1350   5.1464   5.1530   5.1533
     5.1539   5.1634   5.1859   5.1862   5.1869   5.2150   5.2156   5.2165
     5.2169   5.2472   5.2474   5.2476   5.2572   5.2585   5.2588   5.2601
     5.2754   5.2764   5.2766   5.2771   5.3285   5.3287   5.3291   5.3316
     5.3330   5.3343   5.3407   5.3414   5.3422   5.3648   5.3731   5.3738
     5.3745   5.3888   5.4017   5.4190   5.4198   5.4206   5.5252   5.5315
     5.5321   5.5323   5.5813   5.5871   5.5879   5.5882   5.5888   5.6193
     5.6195   5.6197   5.6509   5.6513   5.6518   5.6600   5.6811   5.6815
     5.6817   5.7541   5.7545   5.7550   5.7899   5.7979   5.8167   5.8170
     5.8174   5.8700   5.8829   5.8831   5.8833   5.9874   5.9882   5.9889
     6.0420   6.0421   6.0425   6.0968   6.0976   6.0977   6.1743   6.1912
     6.1916   6.1918   6.2358   6.2680   6.2685   6.2689   6.3251   6.3256
     6.3258   6.3585   6.3596   6.3706   6.3708   6.3711   6.3944   6.4286
     6.4294   6.4297   6.4800   6.6400   6.6407   6.6415   6.6424   6.6430
     6.6436   6.6699   6.7079   6.7087   6.7095   6.7516   6.7524   6.7534
     6.9407   7.0048   7.0939   7.1696

          k = 0.0000 0.3849 0.0000 (212783 PWs)   bands (ev):

   -28.2770 -28.2761 -28.2760 -28.2758 -28.2757 -28.2757 -28.2756 -28.2755
   -28.2754 -28.2751 -28.2732 -28.2722 -14.9265 -14.9246 -14.9223 -14.9221
   -14.9220 -14.9219 -14.9219 -14.9217 -14.9216 -14.9215 -14.9208 -14.9189
   -14.9189 -14.9169 -14.9165 -14.9162 -14.9161 -14.9161 -14.9160 -14.9159
   -14.9158 -14.9157 -14.9130 -14.9109 -14.9084 -14.9067 -14.9043 -14.9041
   -14.9040 -14.9040 -14.9040 -14.9038 -14.9037 -14.9037 -14.9010 -14.8990
   -14.8684 -14.8665 -14.8641 -14.8638 -14.8638 -14.8638 -14.8637 -14.8636
   -14.8635 -14.8635 -14.8608 -14.8587 -14.8233 -14.8214 -14.8190 -14.8187
   -14.8186 -14.8186 -14.8185 -14.8184 -14.8184 -14.8183 -14.8155 -14.8134
   -10.3382 -10.3380 -10.3370 -10.3364 -10.3358 -10.3353 -10.3345 -10.3342
   -10.3326 -10.3316 -10.3314 -10.3263 -10.3075 -10.3071 -10.3062 -10.3041
   -10.3033 -10.3020 -10.3015 -10.3008 -10.2947 -10.2944 -10.2903 -10.2850
   -10.2696 -10.2693 -10.2690 -10.2667 -10.2665 -10.2634 -10.2630 -10.2626
   -10.2623 -10.2599 -10.2595 -10.2559  -6.7879  -6.5898  -6.4995  -6.4979
    -6.4385  -6.4376  -6.3657  -6.3488  -6.2849  -6.2846  -6.2482  -6.2480
    -5.9111  -5.9109  -5.8209  -5.8185  -5.8173  -5.7774  -5.7683  -5.7669
    -5.7318  -5.7241  -5.7228  -5.6907  -5.6893  -5.6476  -5.6383  -5.6377
    -5.6290  -5.5953  -5.5841  -5.5839  -5.5683  -5.5278  -5.5196  -5.5181
    -5.5160  -5.5044  -5.4625  -5.4515  -5.4364  -5.4363  -5.4220  -5.4150
    -5.3487  -5.3475  -5.3130  -5.2702  -0.5711  -0.5711  -0.5620  -0.4354
    -0.4040  -0.4039  -0.3772  -0.3387  -0.3377  -0.3364  -0.3126  -0.3033
     1.4188   1.4874   1.4878   1.5011   1.6399   1.6517   1.6884   1.7238
     1.7244   1.8282   1.8767   1.8774   1.9541   1.9558   1.9565   2.0274
     2.1154   2.2067   2.2297   2.2301   2.3388   2.3635   2.3861   2.3868
     2.3936   2.4085   2.4494   2.5378   2.5380   2.6127   2.6132   2.6169
     2.6573   2.7347   2.8129   2.8132   2.8218   2.8409   2.8414   2.8446
     2.8537   2.8844   2.9080   2.9085   2.9148   2.9620   2.9623   3.0040
     3.0499   3.0564   3.0569   3.1240   3.1480   3.1754   3.2040   3.2118
     3.2119   3.2340   3.2606   3.2610   3.2686   3.3233   3.3302   3.3309
     3.3387   3.3719   3.3948   3.3951   3.4333   3.4404   3.4410   3.4493
     3.4974   3.4978   3.5002   3.5102   3.5109   3.5136   3.5224   3.5427
     3.5612   3.6049   3.6053   3.6108   3.6345   3.6461   3.6792   3.6798
     3.6938   3.7028   3.7031   3.7082   3.7787   3.7793   3.8490   3.8593
     3.8957   3.9732   3.9740   3.9785   3.9803   4.0297   4.0383   4.0394
     4.0922   4.1112   4.1206   4.1211   4.1256   4.1622   4.1626   4.1773
     4.2476   4.2654   4.2677   4.2821   4.3026   4.3225   4.3231   4.3682
     4.3783   4.4158   4.4178   4.4831   4.5172   4.5271   4.5282   4.5287
     4.5905   4.5909   4.6269   4.7485   5.1428   5.1433   5.1461   5.1537
     5.1594   5.1597   5.1686   5.1736   5.2139   5.2184   5.2187   5.2209
     5.2272   5.2366   5.2478   5.2483   5.2494   5.2600   5.2668   5.2710
     5.2712   5.2884   5.3035   5.3038   5.3131   5.3179   5.3261   5.3267
     5.3359   5.3487   5.3517   5.3521   5.3566   5.3648   5.4128   5.4134
     5.4328   5.4503   5.4603   5.4607   5.4847   5.4925   5.4993   5.4997
     5.5018   5.5120   5.5268   5.5430   5.5558   5.5560   5.5604   5.6026
     5.6027   5.6291   5.6309   5.6314   5.6672   5.6772   5.6944   5.6954
     5.6961   5.7169   5.7289   5.7555   5.7747   5.7748   5.8080   5.8184
     5.8192   5.8631   5.8751   5.8756   5.9498   5.9508   5.9641   5.9647
     5.9896   6.0059   6.0069   6.0199   6.1380   6.1389   6.1443   6.1599
     6.2246   6.2290   6.2297   6.2505   6.2700   6.2888   6.2890   6.2987
     6.3611   6.3614   6.3765   6.3893   6.3899   6.4406   6.4857   6.4861
     6.5236   6.5374   6.5377   6.5751   6.6041   6.6504   6.6832   6.6921
     6.6926   6.7292   6.7368   6.7375   6.7621   6.7774   6.7923   6.8115
     6.8120   6.9038   6.9085   7.0803

          k = 0.0000 0.3849 0.2714 (212645 PWs)   bands (ev):

   -28.2770 -28.2761 -28.2760 -28.2758 -28.2757 -28.2757 -28.2756 -28.2755
   -28.2754 -28.2751 -28.2732 -28.2722 -14.9265 -14.9246 -14.9223 -14.9221
   -14.9220 -14.9219 -14.9219 -14.9217 -14.9216 -14.9215 -14.9208 -14.9189
   -14.9189 -14.9169 -14.9165 -14.9162 -14.9161 -14.9161 -14.9160 -14.9159
   -14.9158 -14.9157 -14.9130 -14.9109 -14.9084 -14.9067 -14.9043 -14.9041
   -14.9040 -14.9040 -14.9040 -14.9038 -14.9037 -14.9037 -14.9010 -14.8990
   -14.8684 -14.8665 -14.8641 -14.8638 -14.8638 -14.8638 -14.8637 -14.8636
   -14.8635 -14.8635 -14.8608 -14.8587 -14.8233 -14.8214 -14.8190 -14.8187
   -14.8186 -14.8186 -14.8185 -14.8184 -14.8184 -14.8183 -14.8155 -14.8134
   -10.3390 -10.3387 -10.3380 -10.3370 -10.3365 -10.3343 -10.3340 -10.3332
   -10.3326 -10.3315 -10.3295 -10.3270 -10.3105 -10.3068 -10.3064 -10.3058
   -10.3016 -10.3005 -10.3002 -10.2965 -10.2962 -10.2938 -10.2907 -10.2874
   -10.2697 -10.2695 -10.2683 -10.2668 -10.2666 -10.2637 -10.2627 -10.2622
   -10.2621 -10.2601 -10.2589 -10.2575  -6.7508  -6.6467  -6.5606  -6.4720
    -6.4227  -6.4218  -6.3640  -6.3287  -6.3283  -6.2589  -6.2245  -6.2240
    -5.9050  -5.9047  -5.8232  -5.8216  -5.8080  -5.8075  -5.7921  -5.7606
    -5.7593  -5.7321  -5.7105  -5.7099  -5.6717  -5.6354  -5.6297  -5.6275
    -5.6262  -5.6081  -5.5998  -5.5992  -5.5693  -5.5283  -5.5226  -5.5216
    -5.5206  -5.4965  -5.4678  -5.4329  -5.4287  -5.4285  -5.4222  -5.3637
    -5.3481  -5.3469  -5.3218  -5.2995  -0.5598  -0.5588  -0.5583  -0.4360
    -0.4358  -0.4249  -0.3938  -0.3734  -0.3189  -0.3185  -0.2992  -0.2790
     1.4335   1.4848   1.4858   1.4880   1.6255   1.6416   1.7722   1.7730
     1.7826   1.7908   1.8001   1.8004   1.9144   1.9959   1.9961   2.0771
     2.1550   2.1999   2.2104   2.2477   2.2483   2.3598   2.3930   2.3935
     2.3982   2.4484   2.5119   2.5122   2.5469   2.5903   2.5910   2.6078
     2.6427   2.7111   2.7613   2.7683   2.7685   2.7888   2.8090   2.8095
     2.8386   2.8742   2.9155   2.9159   2.9182   2.9812   3.0237   3.0240
     3.0674   3.1064   3.1068   3.1322   3.1704   3.1924   3.1930   3.1939
     3.2002   3.2318   3.2641   3.2647   3.2767   3.3177   3.3215   3.3219
     3.3235   3.3890   3.3893   3.4106   3.4450   3.4454   3.4682   3.4689
     3.4719   3.4735   3.4755   3.4770   3.5333   3.5359   3.5365   3.5908
     3.6103   3.6121   3.6128   3.6328   3.6421   3.6477   3.6589   3.6591
     3.6674   3.7101   3.7109   3.7123   3.8353   3.8355   3.8793   3.8883
     3.9040   3.9497   3.9502   3.9744   3.9817   4.0196   4.0465   4.0490
     4.0497   4.0654   4.1105   4.1110   4.1195   4.1323   4.1330   4.1472
     4.1904   4.2550   4.2662   4.2672   4.2881   4.2895   4.2943   4.3869
     4.3976   4.4369   4.4389   4.4673   4.5240   4.5247   4.5354   4.5957
     4.6100   4.6110   4.6222   4.7212   5.1497   5.1500   5.1538   5.1559
     5.1708   5.1751   5.1755   5.1826   5.1895   5.1969   5.2003   5.2069
     5.2070   5.2329   5.2339   5.2350   5.2538   5.2623   5.2650   5.2656
     5.2783   5.2971   5.3065   5.3120   5.3125   5.3277   5.3357   5.3361
     5.3571   5.3575   5.3595   5.3627   5.3793   5.3918   5.4061   5.4063
     5.4122   5.4310   5.4323   5.4439   5.4444   5.4917   5.5013   5.5015
     5.5085   5.5151   5.5528   5.5588   5.5737   5.5739   5.6016   5.6099
     5.6106   5.6183   5.6242   5.6245   5.6422   5.6692   5.6812   5.7136
     5.7140   5.7164   5.7332   5.7713   5.7724   5.7731   5.8015   5.8022
     5.8092   5.8577   5.8747   5.8751   5.8779   5.9138   5.9584   5.9586
     6.0334   6.0343   6.0347   6.0588   6.0781   6.0788   6.1723   6.2056
     6.2123   6.2128   6.2655   6.2661   6.2692   6.2766   6.2851   6.3482
     6.3486   6.3652   6.3716   6.4148   6.4239   6.4241   6.4269   6.4704
     6.4979   6.4985   6.5453   6.5586   6.5949   6.5954   6.6664   6.6668
     6.6764   6.7192   6.7354   6.7363   6.7471   6.8126   6.8132   6.8441
     6.8685   6.9277   6.9366   7.0518

          k = 0.3333 0.5774 0.0000 (212760 PWs)   bands (ev):

   -28.2770 -28.2761 -28.2760 -28.2758 -28.2757 -28.2757 -28.2756 -28.2755
   -28.2754 -28.2751 -28.2732 -28.2722 -14.9265 -14.9246 -14.9223 -14.9220
   -14.9219 -14.9219 -14.9219 -14.9218 -14.9216 -14.9216 -14.9208 -14.9189
   -14.9189 -14.9169 -14.9165 -14.9162 -14.9161 -14.9161 -14.9160 -14.9159
   -14.9158 -14.9158 -14.9130 -14.9109 -14.9084 -14.9067 -14.9043 -14.9041
   -14.9040 -14.9040 -14.9039 -14.9038 -14.9037 -14.9037 -14.9010 -14.8990
   -14.8684 -14.8665 -14.8641 -14.8638 -14.8638 -14.8638 -14.8637 -14.8636
   -14.8635 -14.8635 -14.8608 -14.8587 -14.8233 -14.8214 -14.8190 -14.8187
   -14.8186 -14.8186 -14.8185 -14.8184 -14.8184 -14.8183 -14.8155 -14.8134
   -10.3388 -10.3363 -10.3358 -10.3355 -10.3353 -10.3351 -10.3350 -10.3344
   -10.3332 -10.3305 -10.3301 -10.3292 -10.3073 -10.3052 -10.3049 -10.3043
   -10.3026 -10.3021 -10.3014 -10.3000 -10.2995 -10.2903 -10.2898 -10.2891
   -10.2697 -10.2676 -10.2673 -10.2667 -10.2660 -10.2657 -10.2645 -10.2642
   -10.2629 -10.2592 -10.2586 -10.2580  -6.6524  -6.6503  -6.6481  -6.4010
    -6.4001  -6.3988  -6.3986  -6.3969  -6.3963  -6.2924  -6.2923  -6.1928
    -5.8652  -5.8512  -5.8504  -5.7499  -5.7488  -5.7474  -5.7335  -5.7319
    -5.7304  -5.7081  -5.7078  -5.6951  -5.6936  -5.6932  -5.6861  -5.6845
    -5.6829  -5.6449  -5.5419  -5.5409  -5.5404  -5.5296  -5.5291  -5.5282
    -5.5119  -5.4728  -5.4720  -5.4708  -5.4675  -5.4663  -5.4642  -5.3968
    -5.3966  -5.3046  -5.3015  -5.2984  -0.5443  -0.5160  -0.5142  -0.5128
    -0.3965  -0.3962  -0.3914  -0.3901  -0.3888  -0.3101  -0.3097  -0.3093
     1.4829   1.4844   1.4858   1.6732   1.6754   1.6774   1.6855   1.6864
     1.6876   1.7341   1.7345   1.7996   2.0802   2.0816   2.0821   2.0827
     2.0843   2.1439   2.1445   2.1451   2.2552   2.3957   2.3971   2.3985
     2.4932   2.4944   2.4957   2.5629   2.5637   2.5642   2.5972   2.5975
     2.7734   2.7742   2.7753   2.8367   2.8369   2.8430   2.8442   2.8452
     2.8495   2.8523   2.8526   2.8537   2.8681   3.0092   3.0101   3.0111
     3.0250   3.0255   3.0259   3.0619   3.1333   3.1341   3.1349   3.1968
     3.1971   3.1976   3.2590   3.2593   3.2600   3.2707   3.2711   3.3612
     3.3692   3.3711   3.3724   3.3737   3.4243   3.4253   3.4262   3.4868
     3.4870   3.5004   3.5025   3.5042   3.5286   3.5298   3.5309   3.5474
     3.5474   3.5789   3.5799   3.5805   3.6495   3.6507   3.6512   3.7197
     3.7204   3.7214   3.7279   3.7284   3.7561   3.8001   3.8014   3.8027
     3.9580   3.9592   3.9604   3.9865   3.9869   4.0290   4.0303   4.0308
     4.0828   4.0845   4.0861   4.1403   4.1500   4.1510   4.1517   4.2841
     4.2848   4.2936   4.3175   4.3192   4.3198   4.3204   4.3211   4.3225
     4.3844   4.3864   4.3881   4.4959   4.5142   4.5148   4.5181   4.5205
     4.5238   4.6540   4.6545   4.6556   5.1367   5.1427   5.1433   5.1439
     5.1724   5.1726   5.1864   5.1874   5.1882   5.1950   5.1960   5.1971
     5.2456   5.2465   5.2469   5.2645   5.2652   5.2656   5.2972   5.2977
     5.2984   5.3001   5.3019   5.3021   5.3130   5.3176   5.3182   5.3188
     5.3384   5.3396   5.3408   5.4017   5.4024   5.4028   5.4073   5.4075
     5.4542   5.4547   5.4553   5.4572   5.4822   5.4829   5.4836   5.4877
     5.4880   5.5344   5.5348   5.5354   5.5634   5.5638   5.5642   5.5700
     5.5704   5.5706   5.6403   5.6714   5.6717   5.6939   5.6943   5.6949
     5.7062   5.7066   5.7070   5.7792   5.7798   5.7802   5.7973   5.7989
     5.8005   5.8234   5.8238   5.8435   5.9295   5.9303   5.9313   6.0450
     6.0458   6.0468   6.0479   6.0488   6.1374   6.1383   6.1387   6.1577
     6.2177   6.2186   6.2195   6.2591   6.2598   6.2602   6.2834   6.2838
     6.3741   6.4089   6.4101   6.4107   6.4161   6.4166   6.4224   6.4508
     6.4518   6.4526   6.6139   6.6149   6.6159   6.6751   6.6759   6.6768
     6.7248   6.7402   6.7406   6.8041   6.8060   6.8074   6.8088   6.8102
     6.8116   6.9378   6.9389   6.9397

          k = 0.3333 0.5774 0.2714 (212745 PWs)   bands (ev):

   -28.2770 -28.2761 -28.2760 -28.2758 -28.2757 -28.2757 -28.2756 -28.2755
   -28.2754 -28.2751 -28.2732 -28.2722 -14.9265 -14.9246 -14.9223 -14.9220
   -14.9219 -14.9219 -14.9219 -14.9218 -14.9216 -14.9216 -14.9208 -14.9189
   -14.9189 -14.9169 -14.9165 -14.9162 -14.9161 -14.9160 -14.9160 -14.9159
   -14.9158 -14.9158 -14.9130 -14.9109 -14.9084 -14.9067 -14.9043 -14.9041
   -14.9040 -14.9040 -14.9039 -14.9038 -14.9037 -14.9037 -14.9010 -14.8990
   -14.8684 -14.8665 -14.8641 -14.8638 -14.8638 -14.8638 -14.8637 -14.8636
   -14.8635 -14.8635 -14.8608 -14.8587 -14.8233 -14.8214 -14.8190 -14.8187
   -14.8186 -14.8186 -14.8185 -14.8184 -14.8184 -14.8183 -14.8155 -14.8134
   -10.3389 -10.3382 -10.3372 -10.3369 -10.3360 -10.3336 -10.3334 -10.3329
   -10.3325 -10.3306 -10.3299 -10.3293 -10.3081 -10.3079 -10.3071 -10.3048
   -10.3012 -10.3007 -10.2977 -10.2973 -10.2967 -10.2919 -10.2914 -10.2910
   -10.2697 -10.2688 -10.2669 -10.2666 -10.2662 -10.2642 -10.2639 -10.2634
   -10.2628 -10.2599 -10.2593 -10.2589  -6.6203  -6.6181  -6.6159  -6.5266
    -6.5247  -6.5226  -6.3082  -6.2907  -6.2892  -6.2873  -6.2577  -6.2144
    -5.8747  -5.8575  -5.8453  -5.7821  -5.7794  -5.7769  -5.7430  -5.7419
    -5.7407  -5.7153  -5.6888  -5.6877  -5.6868  -5.6737  -5.6720  -5.6713
    -5.6698  -5.6434  -5.5573  -5.5563  -5.5550  -5.5255  -5.5248  -5.5234
    -5.5051  -5.5039  -5.5030  -5.5010  -5.4587  -5.4003  -5.3977  -5.3956
    -5.3578  -5.3255  -5.3222  -5.3192  -0.5204  -0.5070  -0.5053  -0.5040
    -0.4611  -0.4177  -0.4169  -0.4159  -0.3551  -0.2936  -0.2927  -0.2915
     1.4808   1.4826   1.4841   1.6377   1.6388   1.6392   1.6902   1.7743
     1.7754   1.7771   1.7783   1.7939   1.9811   1.9815   1.9822   2.0552
     2.1709   2.1928   2.1930   2.1935   2.2470   2.3957   2.3974   2.3991
     2.4884   2.4889   2.4899   2.5571   2.5873   2.5881   2.5885   2.5922
     2.6786   2.7361   2.7369   2.7379   2.8225   2.8233   2.8236   2.8275
     2.9017   2.9025   2.9030   2.9240   2.9362   2.9549   2.9555   2.9560
     3.0597   3.0600   3.0605   3.0879   3.0883   3.0892   3.1266   3.1804
     3.2439   3.2446   3.2457   3.2703   3.2708   3.2713   3.3212   3.3270
     3.3276   3.3281   3.3736   3.4071   3.4204   3.4634   3.4654   3.4672
     3.4923   3.4981   3.4992   3.5003   3.5361   3.5370   3.5375   3.5400
     3.5607   3.6156   3.6158   3.6167   3.6539   3.6549   3.6555   3.6970
     3.6979   3.6984   3.7196   3.7437   3.8212   3.8397   3.8410   3.8424
     3.9373   3.9400   3.9412   3.9417   4.0291   4.0293   4.0306   4.0399
     4.0667   4.0678   4.0690   4.1087   4.1130   4.1140   4.1147   4.1677
     4.2721   4.2732   4.2740   4.2889   4.3148   4.3604   4.3615   4.3626
     4.4148   4.4170   4.4188   4.4904   4.4930   4.4956   4.5075   4.5115
     4.5641   4.6667   4.6672   4.6681   5.1480   5.1558   5.1562   5.1569
     5.1573   5.1815   5.1819   5.1824   5.1967   5.1974   5.1981   5.2101
     5.2234   5.2244   5.2251   5.2505   5.2514   5.2523   5.2558   5.2678
     5.3004   5.3009   5.3019   5.3084   5.3275   5.3284   5.3296   5.3669
     5.3676   5.3679   5.3739   5.3930   5.3944   5.4079   5.4084   5.4091
     5.4321   5.4325   5.4327   5.4377   5.4832   5.4841   5.4849   5.4902
     5.5381   5.5387   5.5392   5.5429   5.5653   5.5658   5.5664   5.6049
     5.6054   5.6055   5.6377   5.6381   5.6714   5.6720   5.6726   5.7026
     5.7030   5.7037   5.7167   5.7579   5.7587   5.7597   5.8006   5.8071
     5.8202   5.8232   5.8235   5.8240   5.8893   5.8900   5.8908   6.0560
     6.0593   6.0601   6.0608   6.0767   6.1192   6.1198   6.1204   6.1342
     6.1948   6.2369   6.2376   6.2383   6.2836   6.3015   6.3017   6.3022
     6.3057   6.3844   6.3851   6.3856   6.4495   6.4665   6.4676   6.4687
     6.4913   6.4919   6.5581   6.5590   6.5606   6.6454   6.6840   6.6848
     6.6859   6.7601   6.7766   6.7780   6.7790   6.7922   6.8529   6.8546
     6.8561   6.9348   6.9357   6.9364

          k =-0.3333 0.1925 0.0000 (212783 PWs)   bands (ev):

   -28.2770 -28.2761 -28.2760 -28.2758 -28.2757 -28.2757 -28.2756 -28.2755
   -28.2754 -28.2751 -28.2732 -28.2722 -14.9265 -14.9246 -14.9223 -14.9221
   -14.9219 -14.9219 -14.9219 -14.9218 -14.9216 -14.9215 -14.9208 -14.9189
   -14.9189 -14.9169 -14.9165 -14.9162 -14.9161 -14.9160 -14.9160 -14.9160
   -14.9158 -14.9157 -14.9130 -14.9109 -14.9084 -14.9067 -14.9043 -14.9041
   -14.9040 -14.9040 -14.9039 -14.9039 -14.9037 -14.9037 -14.9010 -14.8990
   -14.8684 -14.8665 -14.8641 -14.8638 -14.8638 -14.8638 -14.8637 -14.8636
   -14.8635 -14.8635 -14.8608 -14.8587 -14.8233 -14.8214 -14.8190 -14.8187
   -14.8186 -14.8186 -14.8185 -14.8184 -14.8184 -14.8183 -14.8155 -14.8134
   -10.3384 -10.3378 -10.3368 -10.3364 -10.3359 -10.3356 -10.3345 -10.3338
   -10.3326 -10.3321 -10.3309 -10.3263 -10.3077 -10.3068 -10.3063 -10.3043
   -10.3031 -10.3020 -10.3016 -10.3008 -10.2949 -10.2939 -10.2904 -10.2850
   -10.2697 -10.2693 -10.2691 -10.2668 -10.2662 -10.2637 -10.2632 -10.2624
   -10.2615 -10.2604 -10.2594 -10.2560  -6.7879  -6.5899  -6.4994  -6.4980
    -6.4393  -6.4367  -6.3655  -6.3488  -6.2856  -6.2838  -6.2488  -6.2475
    -5.9116  -5.9104  -5.8201  -5.8192  -5.8179  -5.7773  -5.7685  -5.7669
    -5.7319  -5.7240  -5.7222  -5.6910  -5.6890  -5.6476  -5.6387  -5.6370
    -5.6291  -5.5955  -5.5842  -5.5837  -5.5682  -5.5282  -5.5199  -5.5181
    -5.5157  -5.5045  -5.4624  -5.4513  -5.4370  -5.4358  -5.4220  -5.4150
    -5.3501  -5.3461  -5.3131  -5.2702  -0.5719  -0.5701  -0.5622  -0.4355
    -0.4044  -0.4035  -0.3772  -0.3403  -0.3375  -0.3352  -0.3125  -0.3031
     1.4188   1.4869   1.4882   1.5012   1.6397   1.6518   1.6881   1.7239
     1.7244   1.8279   1.8769   1.8773   1.9544   1.9558   1.9564   2.0274
     2.1156   2.2066   2.2299   2.2301   2.3387   2.3636   2.3853   2.3872
     2.3934   2.4086   2.4498   2.5372   2.5382   2.6126   2.6134   2.6171
     2.6575   2.7345   2.8128   2.8134   2.8214   2.8410   2.8415   2.8438
     2.8538   2.8848   2.9082   2.9086   2.9148   2.9618   2.9629   3.0041
     3.0501   3.0560   3.0575   3.1238   3.1479   3.1754   3.2041   3.2113
     3.2122   3.2339   3.2599   3.2615   3.2690   3.3233   3.3297   3.3312
     3.3381   3.3718   3.3946   3.3956   3.4334   3.4397   3.4418   3.4495
     3.4967   3.4981   3.5001   3.5098   3.5111   3.5135   3.5226   3.5426
     3.5615   3.6042   3.6057   3.6107   3.6344   3.6460   3.6790   3.6799
     3.6939   3.7022   3.7036   3.7083   3.7785   3.7791   3.8487   3.8591
     3.8958   3.9735   3.9751   3.9780   3.9803   4.0298   4.0372   4.0395
     4.0924   4.1114   4.1198   4.1214   4.1254   4.1621   4.1633   4.1773
     4.2482   4.2664   4.2675   4.2821   4.3026   4.3225   4.3231   4.3680
     4.3779   4.4164   4.4169   4.4829   4.5173   4.5264   4.5285   4.5296
     4.5905   4.5917   4.6260   4.7481   5.1425   5.1437   5.1458   5.1535
     5.1591   5.1601   5.1686   5.1739   5.2138   5.2183   5.2189   5.2208
     5.2270   5.2365   5.2476   5.2486   5.2491   5.2604   5.2667   5.2708
     5.2716   5.2884   5.3029   5.3040   5.3130   5.3179   5.3255   5.3275
     5.3361   5.3489   5.3513   5.3523   5.3565   5.3646   5.4123   5.4142
     5.4328   5.4501   5.4598   5.4610   5.4849   5.4926   5.4991   5.5002
     5.5018   5.5120   5.5268   5.5431   5.5559   5.5563   5.5604   5.6026
     5.6027   5.6293   5.6307   5.6317   5.6671   5.6774   5.6944   5.6953
     5.6961   5.7168   5.7290   5.7556   5.7742   5.7751   5.8079   5.8183
     5.8187   5.8630   5.8748   5.8756   5.9497   5.9510   5.9640   5.9651
     5.9896   6.0053   6.0076   6.0198   6.1380   6.1391   6.1440   6.1599
     6.2250   6.2282   6.2300   6.2509   6.2702   6.2887   6.2890   6.2985
     6.3609   6.3616   6.3768   6.3886   6.3906   6.4403   6.4854   6.4860
     6.5234   6.5368   6.5383   6.5753   6.6042   6.6505   6.6830   6.6919
     6.6925   6.7292   6.7362   6.7383   6.7621   6.7772   6.7923   6.8112
     6.8127   6.9037   6.9085   7.0802

          k = 0.3333 0.1925 0.0000 (212783 PWs)   bands (ev):

   -28.2770 -28.2761 -28.2760 -28.2758 -28.2757 -28.2757 -28.2756 -28.2755
   -28.2754 -28.2751 -28.2732 -28.2722 -14.9265 -14.9246 -14.9223 -14.9220
   -14.9220 -14.9219 -14.9219 -14.9218 -14.9216 -14.9216 -14.9208 -14.9189
   -14.9189 -14.9169 -14.9165 -14.9162 -14.9161 -14.9161 -14.9160 -14.9159
   -14.9158 -14.9158 -14.9130 -14.9109 -14.9084 -14.9067 -14.9043 -14.9041
   -14.9040 -14.9040 -14.9040 -14.9038 -14.9037 -14.9037 -14.9010 -14.8990
   -14.8684 -14.8665 -14.8641 -14.8638 -14.8638 -14.8638 -14.8637 -14.8636
   -14.8635 -14.8635 -14.8608 -14.8587 -14.8233 -14.8214 -14.8190 -14.8187
   -14.8186 -14.8186 -14.8185 -14.8184 -14.8184 -14.8183 -14.8155 -14.8134
   -10.3384 -10.3378 -10.3369 -10.3364 -10.3361 -10.3354 -10.3345 -10.3337
   -10.3326 -10.3321 -10.3310 -10.3263 -10.3075 -10.3072 -10.3061 -10.3043
   -10.3029 -10.3021 -10.3015 -10.3011 -10.2947 -10.2938 -10.2906 -10.2850
   -10.2698 -10.2694 -10.2689 -10.2668 -10.2662 -10.2639 -10.2629 -10.2624
   -10.2613 -10.2605 -10.2596 -10.2560  -6.7879  -6.5898  -6.4993  -6.4979
    -6.4385  -6.4377  -6.3655  -6.3488  -6.2853  -6.2845  -6.2486  -6.2477
    -5.9113  -5.9104  -5.8199  -5.8185  -5.8176  -5.7777  -5.7677  -5.7674
    -5.7319  -5.7242  -5.7226  -5.6902  -5.6899  -5.6475  -5.6383  -5.6379
    -5.6294  -5.5952  -5.5849  -5.5837  -5.5680  -5.5276  -5.5192  -5.5186
    -5.5160  -5.5043  -5.4625  -5.4513  -5.4371  -5.4356  -5.4221  -5.4148
    -5.3482  -5.3477  -5.3134  -5.2701  -0.5717  -0.5706  -0.5620  -0.4354
    -0.4045  -0.4034  -0.3773  -0.3382  -0.3378  -0.3370  -0.3126  -0.3031
     1.4186   1.4876   1.4879   1.5009   1.6399   1.6517   1.6884   1.7239
     1.7243   1.8282   1.8765   1.8772   1.9544   1.9559   1.9568   2.0277
     2.1154   2.2068   2.2295   2.2301   2.3388   2.3635   2.3863   2.3864
     2.3935   2.4086   2.4496   2.5375   2.5380   2.6127   2.6131   2.6168
     2.6572   2.7348   2.8129   2.8132   2.8220   2.8412   2.8416   2.8442
     2.8536   2.8844   2.9080   2.9085   2.9145   2.9620   2.9626   3.0039
     3.0500   3.0562   3.0569   3.1239   3.1480   3.1754   3.2039   3.2115
     3.2122   3.2339   3.2606   3.2610   3.2686   3.3234   3.3305   3.3307
     3.3386   3.3718   3.3944   3.3954   3.4333   3.4407   3.4409   3.4492
     3.4976   3.4977   3.4998   3.5105   3.5108   3.5132   3.5222   3.5429
     3.5612   3.6051   3.6055   3.6107   3.6345   3.6460   3.6793   3.6797
     3.6938   3.7028   3.7031   3.7082   3.7786   3.7791   3.8490   3.8596
     3.8958   3.9734   3.9744   3.9781   3.9802   4.0299   4.0385   4.0387
     4.0924   4.1110   4.1203   4.1212   4.1257   4.1616   4.1632   4.1773
     4.2475   4.2668   4.2671   4.2821   4.3026   4.3223   4.3234   4.3679
     4.3782   4.4166   4.4167   4.4831   4.5159   4.5275   4.5276   4.5306
     4.5899   4.5922   4.6264   4.7483   5.1430   5.1431   5.1459   5.1537
     5.1594   5.1596   5.1685   5.1737   5.2137   5.2185   5.2188   5.2210
     5.2270   5.2365   5.2478   5.2482   5.2495   5.2601   5.2665   5.2709
     5.2715   5.2883   5.3034   5.3037   5.3131   5.3180   5.3265   5.3266
     5.3359   5.3489   5.3518   5.3520   5.3565   5.3647   5.4129   5.4133
     5.4329   5.4503   5.4603   5.4608   5.4847   5.4925   5.4994   5.4997
     5.5018   5.5119   5.5268   5.5429   5.5559   5.5561   5.5604   5.6024
     5.6028   5.6298   5.6306   5.6310   5.6673   5.6776   5.6946   5.6955
     5.6960   5.7168   5.7286   5.7555   5.7745   5.7749   5.8080   5.8185
     5.8187   5.8631   5.8752   5.8754   5.9500   5.9506   5.9643   5.9648
     5.9897   6.0063   6.0065   6.0199   6.1384   6.1386   6.1440   6.1600
     6.2248   6.2289   6.2294   6.2506   6.2701   6.2884   6.2893   6.2987
     6.3610   6.3615   6.3767   6.3894   6.3896   6.4405   6.4855   6.4861
     6.5235   6.5374   6.5376   6.5750   6.6043   6.6505   6.6831   6.6920
     6.6927   6.7294   6.7371   6.7373   6.7619   6.7773   6.7925   6.8117
     6.8120   6.9033   6.9089   7.0801

          k = 0.0000-0.3849 0.2714 (212645 PWs)   bands (ev):

   -28.2770 -28.2761 -28.2760 -28.2758 -28.2757 -28.2757 -28.2756 -28.2755
   -28.2754 -28.2751 -28.2732 -28.2722 -14.9265 -14.9246 -14.9223 -14.9221
   -14.9220 -14.9219 -14.9219 -14.9217 -14.9216 -14.9215 -14.9208 -14.9189
   -14.9189 -14.9169 -14.9165 -14.9162 -14.9161 -14.9161 -14.9160 -14.9159
   -14.9158 -14.9157 -14.9130 -14.9109 -14.9084 -14.9067 -14.9043 -14.9041
   -14.9040 -14.9040 -14.9040 -14.9038 -14.9037 -14.9037 -14.9010 -14.8990
   -14.8684 -14.8665 -14.8641 -14.8638 -14.8638 -14.8638 -14.8637 -14.8636
   -14.8635 -14.8635 -14.8608 -14.8587 -14.8233 -14.8214 -14.8190 -14.8187
   -14.8186 -14.8186 -14.8185 -14.8184 -14.8184 -14.8183 -14.8155 -14.8134
   -10.3391 -10.3388 -10.3378 -10.3368 -10.3364 -10.3347 -10.3341 -10.3332
   -10.3326 -10.3311 -10.3295 -10.3272 -10.3101 -10.3081 -10.3052 -10.3049
   -10.3030 -10.3026 -10.2977 -10.2957 -10.2953 -10.2945 -10.2927 -10.2868
   -10.2692 -10.2689 -10.2686 -10.2674 -10.2672 -10.2629 -10.2624 -10.2621
   -10.2618 -10.2606 -10.2597 -10.2571  -6.7510  -6.6465  -6.5614  -6.4686
    -6.4195  -6.4185  -6.3636  -6.3403  -6.3402  -6.2656  -6.2107  -6.2102
    -5.9136  -5.9135  -5.8251  -5.8220  -5.8179  -5.8168  -5.7652  -5.7643
    -5.7532  -5.7335  -5.6835  -5.6823  -5.6809  -5.6634  -5.6428  -5.6412
    -5.6368  -5.6077  -5.5856  -5.5853  -5.5729  -5.5305  -5.5275  -5.5264
    -5.5164  -5.4863  -5.4653  -5.4397  -5.4371  -5.4370  -5.3991  -5.3705
    -5.3445  -5.3434  -5.3313  -5.2958  -0.5623  -0.5621  -0.5516  -0.4333
    -0.4290  -0.4285  -0.4110  -0.3608  -0.3222  -0.3218  -0.2903  -0.2834
     1.4051   1.4941   1.4947   1.5154   1.6123   1.7115   1.7121   1.7227
     1.7371   1.7729   1.8453   1.8458   1.9666   1.9857   2.0215   2.0220
     2.1290   2.1990   2.2089   2.2096   2.2850   2.3337   2.3964   2.4268
     2.4275   2.5181   2.5291   2.5295   2.5569   2.5581   2.5589   2.5598
     2.5994   2.6780   2.7640   2.7645   2.8237   2.8245   2.8255   2.8294
     2.8501   2.8527   2.8952   2.8956   2.9056   3.0077   3.0180   3.0184
     3.0763   3.0781   3.1181   3.1186   3.1336   3.1806   3.1809   3.1881
     3.2134   3.2457   3.2658   3.2850   3.2852   3.2950   3.3304   3.3311
     3.3751   3.3766   3.3786   3.3788   3.4468   3.4471   3.4498   3.4764
     3.4796   3.4802   3.5058   3.5189   3.5342   3.5343   3.5362   3.5579
     3.5861   3.5867   3.6106   3.6310   3.6399   3.6441   3.6828   3.6834
     3.6863   3.6956   3.7039   3.7044   3.8360   3.8366   3.8780   3.8800
     3.9413   3.9449   3.9454   3.9487   3.9717   4.0319   4.0535   4.0561
     4.0600   4.0609   4.1001   4.1005   4.1217   4.1223   4.1297   4.1329
     4.2232   4.2399   4.2677   4.2700   4.2901   4.2914   4.3134   4.3667
     4.3919   4.4336   4.4354   4.4803   4.5210   4.5438   4.5450   4.5854
     4.5955   4.5964   4.6313   4.7295   5.1466   5.1471   5.1526   5.1636
     5.1676   5.1677   5.1685   5.1720   5.1988   5.2039   5.2115   5.2174
     5.2180   5.2282   5.2400   5.2404   5.2592   5.2627   5.2639   5.2645
     5.2657   5.2725   5.3092   5.3096   5.3178   5.3330   5.3457   5.3462
     5.3593   5.3621   5.3623   5.3673   5.3688   5.3798   5.3880   5.3883
     5.4091   5.4323   5.4466   5.4508   5.4510   5.4682   5.4961   5.4966
     5.5160   5.5233   5.5553   5.5564   5.5678   5.5682   5.6014   5.6015
     5.6068   5.6196   5.6303   5.6492   5.6498   5.6600   5.6739   5.7080
     5.7083   5.7384   5.7596   5.7599   5.7698   5.7836   5.8044   5.8050
     5.8139   5.8390   5.8668   5.8672   5.8745   5.8940   5.9682   5.9685
     6.0184   6.0244   6.0253   6.1005   6.1012   6.1112   6.1589   6.1868
     6.2016   6.2028   6.2040   6.2622   6.2625   6.2867   6.3175   6.3416
     6.3540   6.3686   6.3689   6.4122   6.4190   6.4194   6.4516   6.4812
     6.4816   6.5065   6.5575   6.5658   6.6066   6.6068   6.6469   6.6665
     6.6669   6.7368   6.7373   6.7394   6.7479   6.8036   6.8042   6.8504
     6.8658   6.9176   6.9454   7.0383

          k =-0.3333 0.1925 0.2714 (212645 PWs)   bands (ev):

   -28.2770 -28.2761 -28.2760 -28.2758 -28.2757 -28.2757 -28.2756 -28.2755
   -28.2754 -28.2751 -28.2732 -28.2722 -14.9265 -14.9246 -14.9223 -14.9221
   -14.9219 -14.9219 -14.9219 -14.9218 -14.9216 -14.9215 -14.9208 -14.9189
   -14.9189 -14.9169 -14.9165 -14.9162 -14.9161 -14.9160 -14.9160 -14.9160
   -14.9158 -14.9157 -14.9130 -14.9109 -14.9084 -14.9067 -14.9043 -14.9041
   -14.9040 -14.9040 -14.9039 -14.9039 -14.9037 -14.9037 -14.9010 -14.8990
   -14.8684 -14.8665 -14.8641 -14.8638 -14.8638 -14.8638 -14.8637 -14.8636
   -14.8635 -14.8635 -14.8608 -14.8587 -14.8233 -14.8214 -14.8190 -14.8187
   -14.8186 -14.8186 -14.8185 -14.8184 -14.8184 -14.8183 -14.8155 -14.8134
   -10.3393 -10.3387 -10.3376 -10.3371 -10.3364 -10.3349 -10.3339 -10.3332
   -10.3325 -10.3313 -10.3292 -10.3272 -10.3102 -10.3080 -10.3055 -10.3047
   -10.3032 -10.3025 -10.2976 -10.2960 -10.2951 -10.2943 -10.2927 -10.2868
   -10.2693 -10.2690 -10.2687 -10.2676 -10.2668 -10.2630 -10.2626 -10.2621
   -10.2611 -10.2609 -10.2597 -10.2572  -6.7510  -6.6466  -6.5613  -6.4686
    -6.4206  -6.4175  -6.3635  -6.3410  -6.3393  -6.2655  -6.2109  -6.2102
    -5.9141  -5.9130  -5.8254  -5.8213  -5.8182  -5.8177  -5.7653  -5.7641
    -5.7529  -5.7335  -5.6838  -5.6821  -5.6806  -5.6631  -5.6429  -5.6410
    -5.6373  -5.6074  -5.5855  -5.5852  -5.5729  -5.5304  -5.5277  -5.5262
    -5.5165  -5.4862  -5.4655  -5.4396  -5.4375  -5.4367  -5.3994  -5.3703
    -5.3460  -5.3417  -5.3313  -5.2960  -0.5628  -0.5615  -0.5518  -0.4335
    -0.4299  -0.4275  -0.4110  -0.3606  -0.3241  -0.3201  -0.2903  -0.2832
     1.4050   1.4934   1.4952   1.5154   1.6123   1.7117   1.7121   1.7226
     1.7369   1.7728   1.8450   1.8464   1.9662   1.9856   2.0214   2.0222
     2.1294   2.1989   2.2086   2.2099   2.2854   2.3339   2.3964   2.4265
     2.4276   2.5181   2.5290   2.5299   2.5567   2.5576   2.5587   2.5600
     2.5995   2.6783   2.7640   2.7646   2.8237   2.8242   2.8255   2.8290
     2.8500   2.8528   2.8954   2.8959   2.9056   3.0080   3.0177   3.0190
     3.0764   3.0779   3.1176   3.1189   3.1335   3.1801   3.1811   3.1880
     3.2132   3.2458   3.2663   3.2845   3.2857   3.2949   3.3301   3.3312
     3.3750   3.3766   3.3782   3.3794   3.4459   3.4480   3.4498   3.4767
     3.4798   3.4801   3.5058   3.5189   3.5337   3.5345   3.5363   3.5577
     3.5857   3.5872   3.6106   3.6310   3.6397   3.6441   3.6824   3.6841
     3.6864   3.6958   3.7035   3.7045   3.8359   3.8363   3.8773   3.8803
     3.9413   3.9448   3.9461   3.9484   3.9716   4.0318   4.0534   4.0562
     4.0593   4.0612   4.0998   4.1012   4.1218   4.1229   4.1297   4.1332
     4.2234   4.2399   4.2679   4.2693   4.2907   4.2911   4.3131   4.3672
     4.3912   4.4334   4.4359   4.4804   4.5210   4.5431   4.5459   4.5853
     4.5949   4.5975   4.6306   4.7292   5.1466   5.1474   5.1523   5.1634
     5.1673   5.1679   5.1688   5.1719   5.1987   5.2037   5.2116   5.2170
     5.2185   5.2283   5.2400   5.2408   5.2595   5.2631   5.2637   5.2647
     5.2651   5.2725   5.3090   5.3098   5.3177   5.3331   5.3453   5.3465
     5.3590   5.3620   5.3623   5.3674   5.3686   5.3797   5.3874   5.3889
     5.4093   5.4323   5.4467   5.4505   5.4512   5.4683   5.4961   5.4969
     5.5161   5.5232   5.5552   5.5567   5.5676   5.5686   5.6011   5.6017
     5.6068   5.6194   5.6304   5.6492   5.6498   5.6599   5.6740   5.7079
     5.7086   5.7387   5.7589   5.7597   5.7699   5.7837   5.8044   5.8048
     5.8138   5.8389   5.8663   5.8671   5.8744   5.8941   5.9681   5.9691
     6.0185   6.0241   6.0256   6.1004   6.1014   6.1112   6.1588   6.1865
     6.2016   6.2029   6.2038   6.2621   6.2623   6.2866   6.3179   6.3417
     6.3541   6.3684   6.3695   6.4126   6.4185   6.4199   6.4515   6.4809
     6.4814   6.5066   6.5573   6.5660   6.6063   6.6069   6.6468   6.6660
     6.6671   6.7367   6.7377   6.7392   6.7478   6.8032   6.8049   6.8505
     6.8657   6.9177   6.9451   7.0382

          k = 0.3333 0.1925 0.2714 (212645 PWs)   bands (ev):

   -28.2770 -28.2761 -28.2760 -28.2758 -28.2757 -28.2757 -28.2756 -28.2755
   -28.2754 -28.2751 -28.2732 -28.2722 -14.9265 -14.9246 -14.9223 -14.9220
   -14.9220 -14.9219 -14.9219 -14.9218 -14.9216 -14.9216 -14.9208 -14.9189
   -14.9189 -14.9169 -14.9165 -14.9162 -14.9161 -14.9161 -14.9160 -14.9159
   -14.9158 -14.9158 -14.9130 -14.9109 -14.9084 -14.9067 -14.9043 -14.9041
   -14.9040 -14.9040 -14.9040 -14.9038 -14.9037 -14.9037 -14.9010 -14.8990
   -14.8684 -14.8665 -14.8641 -14.8638 -14.8638 -14.8638 -14.8637 -14.8636
   -14.8635 -14.8635 -14.8608 -14.8587 -14.8233 -14.8214 -14.8190 -14.8187
   -14.8186 -14.8186 -14.8185 -14.8184 -14.8184 -14.8183 -14.8155 -14.8134
   -10.3392 -10.3387 -10.3377 -10.3372 -10.3364 -10.3347 -10.3341 -10.3333
   -10.3323 -10.3313 -10.3292 -10.3273 -10.3102 -10.3078 -10.3054 -10.3052
   -10.3031 -10.3024 -10.2977 -10.2956 -10.2951 -10.2941 -10.2930 -10.2869
   -10.2693 -10.2692 -10.2686 -10.2674 -10.2668 -10.2631 -10.2624 -10.2620
   -10.2612 -10.2606 -10.2600 -10.2573  -6.7510  -6.6465  -6.5613  -6.4685
    -6.4193  -6.4188  -6.3636  -6.3411  -6.3396  -6.2654  -6.2109  -6.2101
    -5.9139  -5.9130  -5.8250  -5.8215  -5.8177  -5.8170  -5.7651  -5.7641
    -5.7536  -5.7335  -5.6831  -5.6825  -5.6813  -5.6634  -5.6421  -5.6414
    -5.6377  -5.6075  -5.5860  -5.5852  -5.5726  -5.5302  -5.5281  -5.5267
    -5.5162  -5.4860  -5.4654  -5.4398  -5.4370  -5.4366  -5.3992  -5.3704
    -5.3441  -5.3438  -5.3315  -5.2957  -0.5628  -0.5617  -0.5516  -0.4332
    -0.4292  -0.4286  -0.4110  -0.3608  -0.3223  -0.3218  -0.2902  -0.2833
     1.4049   1.4944   1.4946   1.5152   1.6123   1.7117   1.7123   1.7224
     1.7369   1.7730   1.8453   1.8459   1.9665   1.9858   2.0213   2.0222
     2.1292   2.1991   2.2089   2.2093   2.2853   2.3339   2.3965   2.4268
     2.4272   2.5182   2.5292   2.5296   2.5574   2.5582   2.5587   2.5591
     2.5993   2.6781   2.7639   2.7646   2.8240   2.8244   2.8250   2.8293
     2.8501   2.8527   2.8952   2.8958   2.9058   3.0077   3.0180   3.0186
     3.0764   3.0781   3.1179   3.1184   3.1335   3.1805   3.1809   3.1881
     3.2133   3.2456   3.2657   3.2849   3.2854   3.2949   3.3305   3.3310
     3.3748   3.3769   3.3786   3.3794   3.4470   3.4472   3.4495   3.4767
     3.4798   3.4799   3.5056   3.5189   3.5341   3.5343   3.5363   3.5579
     3.5864   3.5866   3.6103   3.6310   3.6398   3.6441   3.6831   3.6834
     3.6864   3.6954   3.7039   3.7046   3.8359   3.8364   3.8783   3.8802
     3.9415   3.9448   3.9457   3.9481   3.9716   4.0324   4.0529   4.0563
     4.0600   4.0609   4.0996   4.1006   4.1213   4.1227   4.1295   4.1330
     4.2234   4.2400   4.2684   4.2691   4.2906   4.2916   4.3134   4.3663
     4.3922   4.4340   4.4346   4.4801   4.5210   4.5442   4.5448   4.5851
     4.5951   4.5976   4.6309   4.7295   5.1467   5.1470   5.1524   5.1634
     5.1673   5.1677   5.1691   5.1719   5.1985   5.2040   5.2116   5.2176
     5.2179   5.2281   5.2403   5.2404   5.2596   5.2637   5.2639   5.2641
     5.2650   5.2724   5.3094   5.3096   5.3176   5.3330   5.3458   5.3462
     5.3591   5.3621   5.3623   5.3671   5.3689   5.3796   5.3879   5.3882
     5.4092   5.4323   5.4468   5.4507   5.4510   5.4683   5.4963   5.4966
     5.5162   5.5234   5.5553   5.5564   5.5678   5.5682   5.6014   5.6017
     5.6066   5.6196   5.6305   5.6492   5.6496   5.6600   5.6739   5.7080
     5.7084   5.7384   5.7595   5.7598   5.7699   5.7836   5.8046   5.8048
     5.8137   5.8388   5.8667   5.8669   5.8743   5.8942   5.9685   5.9687
     6.0184   6.0248   6.0250   6.1008   6.1010   6.1112   6.1588   6.1867
     6.2025   6.2028   6.2029   6.2620   6.2622   6.2867   6.3174   6.3417
     6.3543   6.3686   6.3690   6.4126   6.4191   6.4193   6.4516   6.4810
     6.4814   6.5064   6.5573   6.5660   6.6065   6.6069   6.6469   6.6665
     6.6668   6.7370   6.7374   6.7392   6.7479   6.8039   6.8043   6.8505
     6.8656   6.9177   6.9452   7.0381

          k =-0.3333-0.1925 0.2714 (212645 PWs)   bands (ev):

   -28.2770 -28.2761 -28.2760 -28.2758 -28.2757 -28.2757 -28.2756 -28.2755
   -28.2754 -28.2751 -28.2732 -28.2722 -14.9265 -14.9246 -14.9223 -14.9220
   -14.9220 -14.9219 -14.9219 -14.9218 -14.9216 -14.9216 -14.9208 -14.9189
   -14.9189 -14.9169 -14.9165 -14.9162 -14.9161 -14.9160 -14.9160 -14.9159
   -14.9158 -14.9158 -14.9130 -14.9109 -14.9084 -14.9067 -14.9043 -14.9041
   -14.9040 -14.9040 -14.9040 -14.9038 -14.9037 -14.9037 -14.9010 -14.8990
   -14.8684 -14.8665 -14.8641 -14.8638 -14.8638 -14.8638 -14.8637 -14.8636
   -14.8635 -14.8635 -14.8608 -14.8587 -14.8233 -14.8214 -14.8190 -14.8187
   -14.8186 -14.8186 -14.8185 -14.8184 -14.8184 -14.8183 -14.8155 -14.8134
   -10.3391 -10.3385 -10.3378 -10.3374 -10.3367 -10.3344 -10.3336 -10.3332
   -10.3322 -10.3320 -10.3294 -10.3271 -10.3104 -10.3069 -10.3065 -10.3058
   -10.3013 -10.3010 -10.3000 -10.2965 -10.2957 -10.2938 -10.2911 -10.2874
   -10.2699 -10.2695 -10.2680 -10.2669 -10.2663 -10.2641 -10.2627 -10.2622
   -10.2611 -10.2605 -10.2592 -10.2576  -6.7508  -6.6467  -6.5605  -6.4719
    -6.4226  -6.4220  -6.3639  -6.3293  -6.3279  -6.2588  -6.2246  -6.2240
    -5.9051  -5.9043  -5.8235  -5.8213  -5.8079  -5.8068  -5.7923  -5.7603
    -5.7598  -5.7321  -5.7105  -5.7101  -5.6719  -5.6353  -5.6291  -5.6276
    -5.6270  -5.6080  -5.6005  -5.5991  -5.5689  -5.5283  -5.5230  -5.5221
    -5.5198  -5.4965  -5.4677  -5.4326  -5.4291  -5.4277  -5.4224  -5.3636
    -5.3478  -5.3472  -5.3223  -5.2992  -0.5598  -0.5591  -0.5581  -0.4361
    -0.4355  -0.4251  -0.3938  -0.3734  -0.3191  -0.3185  -0.2991  -0.2789
     1.4333   1.4857   1.4859   1.4872   1.6255   1.6415   1.7729   1.7730
     1.7820   1.7902   1.7997   1.8009   1.9144   1.9958   1.9966   2.0774
     2.1552   2.1999   2.2105   2.2474   2.2482   2.3599   2.3930   2.3934
     2.3984   2.4485   2.5118   2.5121   2.5468   2.5905   2.5906   2.6076
     2.6427   2.7109   2.7613   2.7683   2.7688   2.7889   2.8088   2.8095
     2.8384   2.8743   2.9154   2.9161   2.9186   2.9812   3.0237   3.0241
     3.0676   3.1060   3.1068   3.1321   3.1706   3.1927   3.1928   3.1939
     3.1999   3.2317   3.2642   3.2647   3.2764   3.3178   3.3210   3.3218
     3.3240   3.3889   3.3897   3.4104   3.4452   3.4454   3.4688   3.4691
     3.4705   3.4720   3.4757   3.4787   3.5330   3.5362   3.5363   3.5910
     3.6103   3.6123   3.6126   3.6328   3.6417   3.6477   3.6590   3.6594
     3.6671   3.7106   3.7108   3.7120   3.8352   3.8357   3.8798   3.8882
     3.9041   3.9493   3.9500   3.9742   3.9818   4.0197   4.0477   4.0488
     4.0493   4.0656   4.1095   4.1111   4.1192   4.1324   4.1334   4.1470
     4.1904   4.2553   4.2667   4.2671   4.2887   4.2893   4.2941   4.3864
     4.3977   4.4376   4.4379   4.4674   4.5237   4.5247   4.5355   4.5960
     4.6098   4.6120   4.6219   4.7208   5.1497   5.1500   5.1533   5.1563
     5.1710   5.1751   5.1753   5.1825   5.1894   5.1969   5.2003   5.2067
     5.2072   5.2333   5.2339   5.2347   5.2538   5.2632   5.2648   5.2650
     5.2782   5.2969   5.3069   5.3122   5.3124   5.3278   5.3357   5.3359
     5.3572   5.3576   5.3593   5.3627   5.3792   5.3919   5.4060   5.4064
     5.4123   5.4309   5.4325   5.4441   5.4443   5.4918   5.5011   5.5017
     5.5085   5.5150   5.5529   5.5589   5.5737   5.5738   5.6019   5.6103
     5.6105   5.6180   5.6242   5.6246   5.6421   5.6693   5.6814   5.7137
     5.7140   5.7163   5.7332   5.7716   5.7721   5.7728   5.8017   5.8020
     5.8092   5.8575   5.8746   5.8748   5.8779   5.9139   5.9585   5.9588
     6.0337   6.0342   6.0345   6.0587   6.0783   6.0786   6.1724   6.2056
     6.2123   6.2127   6.2658   6.2661   6.2692   6.2765   6.2849   6.3482
     6.3487   6.3650   6.3715   6.4147   6.4240   6.4243   6.4267   6.4706
     6.4977   6.4981   6.5451   6.5589   6.5950   6.5953   6.6662   6.6670
     6.6764   6.7191   6.7358   6.7361   6.7469   6.8128   6.8133   6.8441
     6.8683   6.9279   6.9364   7.0517

          k = 0.3333-0.1925 0.2714 (212645 PWs)   bands (ev):

   -28.2770 -28.2761 -28.2760 -28.2758 -28.2757 -28.2757 -28.2756 -28.2755
   -28.2754 -28.2751 -28.2732 -28.2722 -14.9265 -14.9246 -14.9223 -14.9221
   -14.9219 -14.9219 -14.9219 -14.9218 -14.9216 -14.9215 -14.9208 -14.9189
   -14.9189 -14.9169 -14.9165 -14.9162 -14.9161 -14.9160 -14.9160 -14.9160
   -14.9158 -14.9157 -14.9130 -14.9109 -14.9084 -14.9067 -14.9043 -14.9041
   -14.9040 -14.9040 -14.9039 -14.9039 -14.9037 -14.9037 -14.9010 -14.8990
   -14.8684 -14.8665 -14.8641 -14.8638 -14.8638 -14.8638 -14.8637 -14.8636
   -14.8635 -14.8635 -14.8608 -14.8587 -14.8233 -14.8214 -14.8190 -14.8187
   -14.8186 -14.8186 -14.8185 -14.8184 -14.8184 -14.8183 -14.8155 -14.8134
   -10.3392 -10.3386 -10.3377 -10.3374 -10.3366 -10.3346 -10.3339 -10.3331
   -10.3323 -10.3316 -10.3295 -10.3270 -10.3105 -10.3070 -10.3065 -10.3056
   -10.3014 -10.3008 -10.3002 -10.2967 -10.2958 -10.2937 -10.2909 -10.2874
   -10.2698 -10.2694 -10.2682 -10.2669 -10.2663 -10.2640 -10.2629 -10.2622
   -10.2612 -10.2604 -10.2591 -10.2575  -6.7508  -6.6467  -6.5606  -6.4721
    -6.4236  -6.4209  -6.3639  -6.3285  -6.3283  -6.2588  -6.2246  -6.2240
    -5.9052  -5.9045  -5.8238  -5.8211  -5.8091  -5.8072  -5.7918  -5.7608
    -5.7589  -5.7317  -5.7114  -5.7090  -5.6716  -5.6351  -5.6291  -5.6280
    -5.6265  -5.6083  -5.5996  -5.5989  -5.5693  -5.5285  -5.5228  -5.5215
    -5.5205  -5.4965  -5.4677  -5.4327  -5.4291  -5.4282  -5.4221  -5.3640
    -5.3497  -5.3453  -5.3220  -5.2994  -0.5597  -0.5592  -0.5580  -0.4371
    -0.4347  -0.4251  -0.3937  -0.3733  -0.3207  -0.3168  -0.2992  -0.2789
     1.4335   1.4843   1.4861   1.4883   1.6253   1.6415   1.7724   1.7732
     1.7821   1.7904   1.7999   1.8010   1.9143   1.9959   1.9964   2.0770
     2.1552   2.1998   2.2104   2.2473   2.2487   2.3601   2.3927   2.3936
     2.3983   2.4485   2.5116   2.5124   2.5471   2.5903   2.5908   2.6078
     2.6426   2.7108   2.7613   2.7677   2.7691   2.7888   2.8088   2.8093
     2.8387   2.8745   2.9156   2.9162   2.9184   2.9812   3.0235   3.0245
     3.0677   3.1058   3.1073   3.1320   3.1704   3.1923   3.1932   3.1941
     3.1999   3.2320   3.2640   3.2644   3.2766   3.3178   3.3212   3.3220
     3.3236   3.3889   3.3895   3.4106   3.4448   3.4458   3.4678   3.4690
     3.4718   3.4735   3.4755   3.4774   3.5332   3.5354   3.5369   3.5908
     3.6104   3.6119   3.6129   3.6329   3.6419   3.6474   3.6583   3.6594
     3.6675   3.7094   3.7113   3.7125   3.8353   3.8357   3.8789   3.8884
     3.9041   3.9490   3.9507   3.9743   3.9818   4.0195   4.0469   4.0483
     4.0502   4.0651   4.1103   4.1108   4.1196   4.1320   4.1341   4.1476
     4.1909   4.2549   4.2663   4.2674   4.2878   4.2896   4.2939   4.3871
     4.3968   4.4368   4.4391   4.4673   4.5245   4.5247   4.5355   4.5960
     4.6094   4.6121   4.6215   4.7207   5.1497   5.1506   5.1534   5.1559
     5.1708   5.1747   5.1755   5.1825   5.1895   5.1968   5.2004   5.2070
     5.2072   5.2333   5.2339   5.2349   5.2537   5.2626   5.2647   5.2655
     5.2782   5.2971   5.3065   5.3116   5.3130   5.3279   5.3351   5.3363
     5.3571   5.3576   5.3593   5.3626   5.3792   5.3917   5.4059   5.4065
     5.4122   5.4309   5.4324   5.4435   5.4452   5.4918   5.5012   5.5017
     5.5085   5.5149   5.5528   5.5592   5.5736   5.5741   5.6017   5.6100
     5.6108   5.6182   5.6241   5.6246   5.6422   5.6693   5.6813   5.7135
     5.7139   5.7165   5.7334   5.7714   5.7720   5.7728   5.8015   5.8018
     5.8093   5.8576   5.8744   5.8750   5.8777   5.9140   5.9584   5.9589
     6.0334   6.0343   6.0348   6.0588   6.0781   6.0786   6.1724   6.2060
     6.2123   6.2129   6.2654   6.2662   6.2693   6.2767   6.2849   6.3481
     6.3490   6.3649   6.3714   6.4145   6.4237   6.4246   6.4267   6.4706
     6.4977   6.4978   6.5454   6.5590   6.5948   6.5958   6.6656   6.6673
     6.6764   6.7190   6.7346   6.7374   6.7467   6.8123   6.8138   6.8441
     6.8686   6.9279   6.9364   7.0517

          k =-0.3333-0.5774 0.2714 (212745 PWs)   bands (ev):

   -28.2770 -28.2761 -28.2760 -28.2758 -28.2757 -28.2757 -28.2756 -28.2755
   -28.2754 -28.2751 -28.2732 -28.2722 -14.9265 -14.9246 -14.9223 -14.9220
   -14.9219 -14.9219 -14.9219 -14.9218 -14.9216 -14.9216 -14.9208 -14.9189
   -14.9189 -14.9169 -14.9165 -14.9162 -14.9161 -14.9161 -14.9160 -14.9159
   -14.9158 -14.9158 -14.9130 -14.9109 -14.9084 -14.9067 -14.9043 -14.9041
   -14.9040 -14.9040 -14.9039 -14.9038 -14.9037 -14.9037 -14.9010 -14.8990
   -14.8684 -14.8665 -14.8641 -14.8638 -14.8638 -14.8638 -14.8637 -14.8636
   -14.8635 -14.8635 -14.8608 -14.8587 -14.8233 -14.8214 -14.8190 -14.8187
   -14.8186 -14.8186 -14.8185 -14.8184 -14.8184 -14.8183 -14.8155 -14.8134
   -10.3390 -10.3380 -10.3372 -10.3369 -10.3361 -10.3338 -10.3334 -10.3331
   -10.3318 -10.3308 -10.3302 -10.3291 -10.3081 -10.3079 -10.3072 -10.3047
   -10.3012 -10.3009 -10.2977 -10.2974 -10.2965 -10.2921 -10.2916 -10.2907
   -10.2697 -10.2688 -10.2671 -10.2666 -10.2658 -10.2645 -10.2640 -10.2635
   -10.2623 -10.2600 -10.2594 -10.2588  -6.6202  -6.6181  -6.6160  -6.5266
    -6.5247  -6.5226  -6.3083  -6.2907  -6.2892  -6.2873  -6.2576  -6.2144
    -5.8749  -5.8580  -5.8445  -5.7822  -5.7794  -5.7767  -5.7428  -5.7421
    -5.7408  -5.7153  -5.6892  -5.6878  -5.6864  -5.6734  -5.6722  -5.6711
    -5.6703  -5.6432  -5.5575  -5.5562  -5.5548  -5.5260  -5.5245  -5.5230
    -5.5054  -5.5036  -5.5026  -5.5015  -5.4587  -5.3999  -5.3976  -5.3958
    -5.3579  -5.3253  -5.3225  -5.3193  -0.5205  -0.5069  -0.5053  -0.5040
    -0.4610  -0.4178  -0.4169  -0.4158  -0.3552  -0.2936  -0.2927  -0.2916
     1.4807   1.4825   1.4842   1.6377   1.6386   1.6394   1.6902   1.7742
     1.7754   1.7770   1.7788   1.7938   1.9808   1.9816   1.9822   2.0553
     2.1703   2.1922   2.1930   2.1942   2.2474   2.3960   2.3975   2.3984
     2.4884   2.4891   2.4896   2.5569   2.5869   2.5880   2.5890   2.5922
     2.6788   2.7363   2.7372   2.7379   2.8225   2.8230   2.8235   2.8276
     2.9022   2.9025   2.9032   2.9240   2.9362   2.9549   2.9553   2.9560
     3.0596   3.0602   3.0609   3.0877   3.0882   3.0886   3.1264   3.1808
     3.2440   3.2448   3.2449   3.2704   3.2707   3.2716   3.3211   3.3270
     3.3276   3.3281   3.3738   3.4067   3.4203   3.4635   3.4653   3.4671
     3.4925   3.4980   3.4993   3.5005   3.5359   3.5369   3.5380   3.5401
     3.5607   3.6154   3.6160   3.6173   3.6540   3.6546   3.6552   3.6970
     3.6978   3.6987   3.7196   3.7437   3.8213   3.8400   3.8411   3.8423
     3.9373   3.9398   3.9409   3.9420   4.0283   4.0297   4.0309   4.0400
     4.0666   4.0675   4.0686   4.1080   4.1133   4.1140   4.1150   4.1679
     4.2726   4.2732   4.2742   4.2902   4.3138   4.3605   4.3613   4.3624
     4.4144   4.4166   4.4187   4.4908   4.4933   4.4957   4.5072   4.5117
     4.5644   4.6667   4.6671   4.6678   5.1479   5.1560   5.1564   5.1567
     5.1572   5.1812   5.1821   5.1827   5.1970   5.1973   5.1977   5.2100
     5.2234   5.2242   5.2251   5.2507   5.2513   5.2523   5.2559   5.2678
     5.3004   5.3011   5.3017   5.3085   5.3274   5.3287   5.3294   5.3668
     5.3674   5.3682   5.3738   5.3929   5.3944   5.4079   5.4085   5.4091
     5.4320   5.4324   5.4329   5.4378   5.4831   5.4840   5.4847   5.4904
     5.5382   5.5387   5.5390   5.5427   5.5653   5.5659   5.5664   5.6048
     5.6051   5.6057   5.6374   5.6383   5.6713   5.6719   5.6725   5.7026
     5.7032   5.7037   5.7167   5.7578   5.7589   5.7598   5.8010   5.8071
     5.8201   5.8230   5.8235   5.8242   5.8894   5.8899   5.8906   6.0560
     6.0595   6.0603   6.0605   6.0763   6.1189   6.1198   6.1207   6.1344
     6.1950   6.2370   6.2375   6.2383   6.2834   6.3011   6.3018   6.3025
     6.3058   6.3845   6.3848   6.3859   6.4497   6.4664   6.4675   6.4687
     6.4913   6.4919   6.5578   6.5593   6.5604   6.6451   6.6839   6.6850
     6.6861   6.7600   6.7769   6.7778   6.7791   6.7925   6.8529   6.8545
     6.8559   6.9347   6.9358   6.9364

     highest occupied level (ev):     7.1802

!    total energy              =   -9077.20534950 Ry
     estimated scf accuracy    <          4.5E-10 Ry

     The total energy is the sum of the following terms:
     one-electron contribution =   -2776.70414309 Ry
     hartree contribution      =    2020.09159880 Ry
     xc contribution           =   -2269.38299540 Ry
     ewald contribution        =   -3895.41978677 Ry
     one-center paw contrib.   =   -2155.79002304 Ry

     convergence has been achieved in  22 iterations

     negative rho (up, down):  7.923E-01 0.000E+00

     Forces acting on atoms (cartesian axes, Ry/au):

     atom    1 type  1   force =    -0.00296852    0.00007642    0.00008414
     atom    2 type  1   force =     0.00026035    0.00025642    0.00000780
     atom    3 type  1   force =    -0.00015955    0.00019193    0.00000556
     atom    4 type  1   force =    -0.00006230    0.00044193    0.00000379
     atom    5 type  1   force =    -0.00011723   -0.00026327    0.00007313
     atom    6 type  1   force =    -0.00011606   -0.00021472   -0.00010878
     atom    7 type  1   force =    -0.00018261   -0.00026097   -0.00000554
     atom    8 type  1   force =    -0.00013442   -0.00027729    0.00001113
     atom    9 type  1   force =     0.00033773    0.00000415    0.00001217
     atom   10 type  1   force =     0.00026679   -0.00000537   -0.00002705
     atom   11 type  1   force =     0.00030562    0.00001828   -0.00002528
     atom   12 type  1   force =     0.00031371   -0.00002576    0.00001479
     atom   13 type  2   force =     0.00007664   -0.00028769    0.00022568
     atom   14 type  2   force =     0.00023785   -0.00042298    0.00017794
     atom   15 type  2   force =     0.00019957   -0.00039383    0.00018556
     atom   16 type  2   force =     0.00021777   -0.00038080    0.00019241
     atom   17 type  2   force =     0.00021822    0.00036683    0.00017519
     atom   18 type  2   force =     0.00024742    0.00037125    0.00020621
     atom   19 type  2   force =     0.00023482    0.00037206    0.00019149
     atom   20 type  2   force =     0.00023345    0.00036777    0.00018841
     atom   21 type  2   force =    -0.00023343    0.00035248   -0.00006139
     atom   22 type  2   force =    -0.00041415   -0.00013837    0.00020928
     atom   23 type  2   force =    -0.00041851    0.00002102    0.00018074
     atom   24 type  2   force =    -0.00047235    0.00004537    0.00025255
     atom   25 type  2   force =    -0.00043356   -0.00001383   -0.00019210
     atom   26 type  2   force =    -0.00044182   -0.00002484   -0.00019387
     atom   27 type  2   force =    -0.00043464   -0.00001479   -0.00018475
     atom   28 type  2   force =    -0.00043344   -0.00002129   -0.00019615
     atom   29 type  2   force =     0.00028815    0.00032057   -0.00008278
     atom   30 type  2   force =     0.00058593    0.00057905   -0.00048065
     atom   31 type  2   force =     0.00012709    0.00045160   -0.00018741
     atom   32 type  2   force =     0.00021554    0.00037346   -0.00019432
     atom   33 type  2   force =     0.00025919   -0.00035823   -0.00018552
     atom   34 type  2   force =     0.00021398   -0.00036868   -0.00017060
     atom   35 type  2   force =     0.00021928   -0.00034117   -0.00020772
     atom   36 type  2   force =     0.00024373   -0.00038637   -0.00017377
     atom   37 type  3   force =     0.00024408   -0.00047136   -0.00000537
     atom   38 type  3   force =     0.00030549   -0.00047965   -0.00000572
     atom   39 type  3   force =     0.00026751   -0.00049074   -0.00001770
     atom   40 type  3   force =     0.00028141   -0.00045241    0.00000667
     atom   41 type  3   force =     0.00031653    0.00000678   -0.00071634
     atom   42 type  3   force =     0.00040507    0.00087573    0.00056679
     atom   43 type  3   force =     0.00018295    0.00052221    0.00004307
     atom   44 type  3   force =     0.00036773    0.00042480    0.00003107
     atom   45 type  3   force =    -0.00047993    0.00012214    0.00009467
     atom   46 type  3   force =    -0.00101075   -0.00023639   -0.00027907
     atom   47 type  3   force =    -0.00034443    0.00006800    0.00027053
     atom   48 type  3   force =    -0.00029622   -0.00029766   -0.00004473
     atom   49 type  4   force =     0.00036934   -0.00008938    0.00002343
     atom   50 type  4   force =     0.00034504   -0.00009948    0.00001059
     atom   51 type  4   force =     0.00035187   -0.00008284    0.00002587
     atom   52 type  4   force =     0.00035898   -0.00011424    0.00001085
     atom   53 type  4   force =    -0.00014902    0.00046452    0.00020552
     atom   54 type  4   force =     0.00052280    0.00013669   -0.00004899
     atom   55 type  4   force =    -0.00005548    0.00033878    0.00004478
     atom   56 type  4   force =    -0.00011524    0.00033423   -0.00002277
     atom   57 type  4   force =    -0.00023239   -0.00027428   -0.00004148
     atom   58 type  4   force =    -0.00033455   -0.00021181    0.00003808
     atom   59 type  4   force =    -0.00029995   -0.00026656    0.00001619
     atom   60 type  4   force =    -0.00019946   -0.00025463    0.00005545
     atom   61 type  4   force =    -0.00031903    0.00024103   -0.00008562
     atom   62 type  4   force =    -0.00009492    0.00020416    0.00010243
     atom   63 type  4   force =    -0.00009017    0.00051760    0.00000762
     atom   64 type  4   force =    -0.00027761    0.00030909    0.00000280
     atom   65 type  4   force =     0.00035818    0.00012401    0.00007901
     atom   66 type  4   force =     0.00035669    0.00006638   -0.00010512
     atom   67 type  4   force =     0.00036224    0.00007242   -0.00001383
     atom   68 type  4   force =     0.00032925    0.00009912   -0.00001539
     atom   69 type  4   force =    -0.00012684   -0.00033789   -0.00001039
     atom   70 type  4   force =    -0.00004054   -0.00039060   -0.00001305
     atom   71 type  4   force =    -0.00009448   -0.00035045   -0.00002560
     atom   72 type  4   force =    -0.00009585   -0.00035105    0.00000177
     atom   73 type  4   force =     0.00050342    0.00007280    0.00018021
     atom   74 type  4   force =    -0.00002257    0.00011626   -0.00024932
     atom   75 type  4   force =     0.00000953    0.00020410   -0.00022951
     atom   76 type  4   force =    -0.00003610    0.00012236   -0.00027595
     atom   77 type  4   force =    -0.00015550   -0.00007353   -0.00023656
     atom   78 type  4   force =    -0.00013162   -0.00005818   -0.00024832
     atom   79 type  4   force =    -0.00014813   -0.00006841   -0.00024421
     atom   80 type  4   force =    -0.00014026   -0.00006363   -0.00023932
     atom   81 type  4   force =     0.00027460   -0.00008012   -0.00039339
     atom   82 type  4   force =     0.00005836   -0.00002452   -0.00025886
     atom   83 type  4   force =     0.00011020   -0.00007223   -0.00020843
     atom   84 type  4   force =     0.00016415   -0.00010657   -0.00028208
     atom   85 type  4   force =     0.00013374    0.00010066    0.00024495
     atom   86 type  4   force =     0.00012794    0.00007371    0.00025481
     atom   87 type  4   force =     0.00013812    0.00009216    0.00024036
     atom   88 type  4   force =     0.00012639    0.00008848    0.00024903
     atom   89 type  4   force =     0.00002900   -0.00014818    0.00021689
     atom   90 type  4   force =     0.00003569   -0.00014311    0.00012866
     atom   91 type  4   force =     0.00002310   -0.00021269    0.00021949
     atom   92 type  4   force =     0.00004484   -0.00011486    0.00027635
     atom   93 type  4   force =    -0.00026151    0.00000078    0.00014412
     atom   94 type  4   force =     0.00005239    0.00007430    0.00031832
     atom   95 type  4   force =    -0.00014704    0.00004763    0.00025088
     atom   96 type  4   force =    -0.00013722    0.00008613    0.00023556

     Total force =     0.005252     Total SCF correction =     0.000032
     Message from routine punch:
     Nothing written, as per user request (disk_io='none')

     init_run     :     85.31s CPU     89.23s WALL (       1 calls)
     electrons    :   4650.07s CPU   4847.79s WALL (       1 calls)
     forces       :     40.01s CPU     40.70s WALL (       1 calls)

     Called by init_run:
     wfcinit      :     78.96s CPU     82.52s WALL (       1 calls)
     potinit      :      1.20s CPU      1.27s WALL (       1 calls)
     hinit0       :      1.43s CPU      1.47s WALL (       1 calls)

     Called by electrons:
     c_bands      :   4063.70s CPU   4223.05s WALL (      22 calls)
     sum_band     :    519.82s CPU    551.67s WALL (      22 calls)
     v_of_rho     :      9.78s CPU     10.77s WALL (      23 calls)
     newd         :     50.35s CPU     55.82s WALL (      23 calls)
     PAW_pot      :      5.81s CPU      5.84s WALL (      23 calls)
     mix_rho      :      1.85s CPU      2.00s WALL (      22 calls)

     Called by c_bands:
     init_us_2    :     51.09s CPU     51.48s WALL (     322 calls)
     cegterg      :   3941.12s CPU   4099.65s WALL (     154 calls)

     Called by *egterg:
     cdiaghg      :     92.64s CPU     95.22s WALL (     963 calls)
     h_psi        :   2224.12s CPU   2364.43s WALL (     970 calls)
     s_psi        :    455.62s CPU    458.56s WALL (     970 calls)
     g_psi        :      7.39s CPU      7.44s WALL (     809 calls)

     Called by h_psi:
     h_psi:calbec :    468.82s CPU    473.61s WALL (     970 calls)
     vloc_psi     :   1291.24s CPU   1420.72s WALL (     970 calls)
     add_vuspsi   :    455.47s CPU    458.43s WALL (     970 calls)

     General routines
     calbec       :    644.96s CPU    651.58s WALL (    1152 calls)
     fft          :     21.18s CPU     22.42s WALL (     308 calls)
     ffts         :      0.84s CPU      0.88s WALL (      45 calls)
     fftw         :   1147.07s CPU   1297.02s WALL (  447400 calls)
     interpolate  :      1.25s CPU      1.35s WALL (      23 calls)

     Parallel routines

     PWSCF        :      1h19m CPU      1h22m WALL


   This run was terminated on:   0: 2:20  21Aug2026            

=------------------------------------------------------------------------------=
   JOB DONE.
=------------------------------------------------------------------------------=
