
     Program PWSCF v.7.3.1 starts on 21Aug2026 at  1:47:10 

     This program is part of the open-source Quantum ESPRESSO suite
     for quantum simulation of materials; please cite
         "P. Giannozzi et al., J. Phys.:Condens. Matter 21 395502 (2009);
         "P. Giannozzi et al., J. Phys.:Condens. Matter 29 465901 (2017);
         "P. Giannozzi et al., J. Chem. Phys. 152 154105 (2020);
          URL http://www.quantum-espresso.org", 
     in publications or presentations arising from this work. More details at
     http://www.quantum-espresso.org/quote

     Parallel version (MPI & OpenMP), running on      32 processor cores
     Number of MPI processes:                32
     Threads/MPI process:                     1

     MPI processes distributed on     1 nodes
     317226 MiB available memory on the printing compute node when the environment starts

     Reading input from scf.in

     Current dimensions of program PWSCF are:
     Max number of different atomic species (ntypx) = 10
     Max number of k-points (npk) =  40000
     Max angular momentum in pseudopotentials (lmaxx) =  4
     file Cu.paw.z_11.ld1.psl.v1.0.0-low.upf: wavefunction(s)  4S 3D renormalized

     K-points division:     npool     =       2
     R & G space division:  proc/nbgrp/npool/nimage =      16
     Subspace diagonalization in iterative solution of the eigenvalue problem:
     one sub-group per band group will be used
     scalapack distributed-memory algorithm (size of sub-group:  4*  4 procs)


     Parallelization info
     --------------------
     sticks:   dense  smooth     PW     G-vecs:    dense   smooth      PW
     Min        1193     597    157               163743    57882    7779
     Max        1194     599    158               163747    57885    7784
     Sum       19099    9565   2515              2619931   926125  124485

     Using Slab Decomposition



     bravais-lattice index     =            0
     lattice parameter (alat)  =      24.0273  a.u.
     unit-cell volume          =   14752.0463 (a.u.)^3
     number of atoms/cell      =           96
     number of atomic types    =            4
     number of electrons       =       840.00
     number of Kohn-Sham states=          420
     kinetic-energy cutoff     =      60.0000  Ry
     charge density cutoff     =     480.0000  Ry
     scf convergence threshold =      1.0E-09
     mixing beta               =       0.3000
     number of iterations used =            8  plain     mixing
     Exchange-correlation=  SLA  PW   PBX  PBC
                           (   1   4   3   4   0   0   0)

     celldm(1)=  24.027274  celldm(2)=   0.000000  celldm(3)=   0.000000
     celldm(4)=   0.000000  celldm(5)=   0.000000  celldm(6)=   0.000000

     crystal axes: (cart. coord. in units of alat)
               a(1) = (   1.000000   0.000000   0.000000 )  
               a(2) = (  -0.500000   0.866025   0.000000 )  
               a(3) = (   0.000000   0.000000   1.228028 )  

     reciprocal axes: (cart. coord. in units 2 pi/alat)
               b(1) = (  1.000000  0.577351 -0.000000 )  
               b(2) = (  0.000000  1.154701  0.000000 )  
               b(3) = (  0.000000 -0.000000  0.814314 )  


     PseudoPot. # 1 for Sr read from file:
     /home/yuhansun/pseudos/SSSP-1.3.0-PBE-precision/Sr_pbe_v1.uspp.F.UPF
     MD5 check sum: 6b418c05fbe9db5448babca5e47b7a5b
     Pseudo is Ultrasoft + core correction, Zval = 10.0
     Generated by new atomic code, or converted to UPF format
     Using radial grid of  883 points,  6 beta functions with: 
                l(1) =   0
                l(2) =   0
                l(3) =   1
                l(4) =   1
                l(5) =   2
                l(6) =   2
     Q(r) pseudized with  6 coefficients,  rinner =    1.400   1.400   1.400
                                                       1.400   1.400

     PseudoPot. # 2 for Cu read from file:
     /home/yuhansun/pseudos/SSSP-1.3.0-PBE-precision/Cu.paw.z_11.ld1.psl.v1.0.0-low.upf
     MD5 check sum: 619f40885d92a09a85a8b37550532d0c
     Pseudo is Projector augmented-wave + core cor, Zval = 11.0
     Generated using &quot;atomic&quot; code by A. Dal Corso  v.6.3MaX
     Shape of augmentation charge: PSQ
     Using radial grid of 1199 points,  6 beta functions with: 
                l(1) =   0
                l(2) =   0
                l(3) =   1
                l(4) =   1
                l(5) =   2
                l(6) =   2
     Q(r) pseudized with 0 coefficients 


     PseudoPot. # 3 for Sn read from file:
     /home/yuhansun/pseudos/SSSP-1.3.0-PBE-precision/Sn_pbe_v1.uspp.F.UPF
     MD5 check sum: 4cf58ce39ec5d5d420df3dd08604eb00
     Pseudo is Ultrasoft + core correction, Zval = 14.0
     Generated by new atomic code, or converted to UPF format
     Using radial grid of  891 points,  6 beta functions with: 
                l(1) =   0
                l(2) =   0
                l(3) =   1
                l(4) =   1
                l(5) =   2
                l(6) =   2
     Q(r) pseudized with  6 coefficients,  rinner =    1.200   1.200   1.200
                                                       1.200   1.200

     PseudoPot. # 4 for S  read from file:
     /home/yuhansun/pseudos/SSSP-1.3.0-PBE-precision/s_pbe_v1.4.uspp.F.UPF
     MD5 check sum: 88d86576ff6df21479756cfb9bdac1df
     Pseudo is Ultrasoft + core correction, Zval =  6.0
     Generated by new atomic code, or converted to UPF format
     Using radial grid of  907 points,  6 beta functions with: 
                l(1) =   0
                l(2) =   0
                l(3) =   1
                l(4) =   1
                l(5) =   2
                l(6) =   2
     Q(r) pseudized with  8 coefficients,  rinner =    1.300   1.300   1.300
                                                       1.300   1.300

     atomic species   valence    mass     pseudopotential
     Sr               10.00    87.62000     Sr( 1.00)
     Cu               11.00    63.54600     Cu( 1.00)
     Sn               14.00   118.71000     Sn( 1.00)
     S                 6.00    32.06500     S ( 1.00)

     No symmetry found



   Cartesian axes

     site n.     atom                  positions (alat units)
         1        Sr     tau(   1) = (  -0.1405753   0.2434834   0.2046717  )
         2        Sr     tau(   2) = (   0.3594247   0.2434834   0.2046717  )
         3        Sr     tau(   3) = (  -0.3905753   0.6764960   0.2046717  )
         4        Sr     tau(   4) = (   0.1094247   0.6764960   0.2046717  )
         5        Sr     tau(   5) = (   0.1094247   0.1895292   0.6140139  )
         6        Sr     tau(   6) = (   0.6094247   0.1895292   0.6140139  )
         7        Sr     tau(   7) = (  -0.1405753   0.6225418   0.6140139  )
         8        Sr     tau(   8) = (   0.3594247   0.6225418   0.6140139  )
         9        Sr     tau(   9) = (   0.2811505   0.0000000   1.0233574  )
        10        Sr     tau(  10) = (   0.7811505   0.0000000   1.0233574  )
        11        Sr     tau(  11) = (   0.0311505   0.4330126   1.0233574  )
        12        Sr     tau(  12) = (   0.5311505   0.4330126   1.0233574  )
        13        Cu     tau(  13) = (  -0.1226788   0.2753211   0.5061747  )
        14        Cu     tau(  14) = (   0.3773212   0.2753211   0.5061747  )
        15        Cu     tau(  15) = (  -0.3726788   0.7083337   0.5061747  )
        16        Cu     tau(  16) = (   0.1273212   0.7083337   0.5061747  )
        17        Cu     tau(  17) = (   0.0729045   0.1891087   0.9155169  )
        18        Cu     tau(  18) = (   0.5729045   0.1891087   0.9155169  )
        19        Cu     tau(  19) = (  -0.1770956   0.6221213   0.9155169  )
        20        Cu     tau(  20) = (   0.3229044   0.6221213   0.9155169  )
        21        Cu     tau(  21) = (   0.0497750   0.4015949   0.0968325  )
        22        Cu     tau(  22) = (   0.5497750   0.4015949   0.0968325  )
        23        Cu     tau(  23) = (  -0.2002251   0.8346075   0.0968325  )
        24        Cu     tau(  24) = (   0.2997749   0.8346075   0.0968325  )
        25        Cu     tau(  25) = (   0.2997745   0.0314177   0.7218532  )
        26        Cu     tau(  26) = (   0.7997745   0.0314177   0.7218532  )
        27        Cu     tau(  27) = (   0.0497745   0.4644302   0.7218532  )
        28        Cu     tau(  28) = (   0.5497745   0.4644302   0.7218532  )
        29        Cu     tau(  29) = (   0.1273207   0.1576915   0.3125110  )
        30        Cu     tau(  30) = (   0.6273207   0.1576915   0.3125110  )
        31        Cu     tau(  31) = (  -0.1226793   0.5907041   0.3125110  )
        32        Cu     tau(  32) = (   0.3773207   0.5907041   0.3125110  )
        33        Cu     tau(  33) = (   0.3229040   0.2439039   1.1311954  )
        34        Cu     tau(  34) = (   0.8229040   0.2439039   1.1311954  )
        35        Cu     tau(  35) = (   0.0729039   0.6769164   1.1311954  )
        36        Cu     tau(  36) = (   0.5729039   0.6769164   1.1311954  )
        37        Sn     tau(  37) = (  -0.1762580   0.3052877   0.8186857  )
        38        Sn     tau(  38) = (   0.3237420   0.3052877   0.8186857  )
        39        Sn     tau(  39) = (  -0.4262581   0.7383003   0.8186857  )
        40        Sn     tau(  40) = (   0.0737419   0.7383003   0.8186857  )
        41        Sn     tau(  41) = (   0.0737420   0.1277249   0.0000000  )
        42        Sn     tau(  42) = (   0.5737420   0.1277249   0.0000000  )
        43        Sn     tau(  43) = (  -0.1762581   0.5607374   0.0000000  )
        44        Sn     tau(  44) = (   0.3237419   0.5607374   0.0000000  )
        45        Sn     tau(  45) = (   0.3525160   0.0000000   0.4093422  )
        46        Sn     tau(  46) = (   0.8525160   0.0000000   0.4093422  )
        47        Sn     tau(  47) = (   0.1025160   0.4330126   0.4093422  )
        48        Sn     tau(  48) = (   0.6025160   0.4330126   0.4093422  )
        49        S      tau(  49) = (  -0.0988203   0.2103164   0.9671149  )
        50        S      tau(  50) = (   0.4011797   0.2103164   0.9671149  )
        51        S      tau(  51) = (  -0.3488203   0.6433290   0.9671149  )
        52        S      tau(  52) = (   0.1511797   0.6433290   0.9671149  )
        53        S      tau(  53) = (   0.1172707   0.2422736   0.1484293  )
        54        S      tau(  54) = (   0.6172707   0.2422736   0.1484293  )
        55        S      tau(  55) = (  -0.1327293   0.6752862   0.1484293  )
        56        S      tau(  56) = (   0.3672707   0.6752862   0.1484293  )
        57        S      tau(  57) = (  -0.0184505   0.4134352   0.5577727  )
        58        S      tau(  58) = (   0.4815495   0.4134352   0.5577727  )
        59        S      tau(  59) = (  -0.2684506   0.8464478   0.5577727  )
        60        S      tau(  60) = (   0.2315494   0.8464478   0.5577727  )
        61        S      tau(  61) = (   0.2315495   0.0195774   0.2609129  )
        62        S      tau(  62) = (   0.7315495   0.0195774   0.2609129  )
        63        S      tau(  63) = (  -0.0184505   0.4525899   0.2609129  )
        64        S      tau(  64) = (   0.4815495   0.4525899   0.2609129  )
        65        S      tau(  65) = (   0.1511797   0.2226962   1.0795986  )
        66        S      tau(  66) = (   0.6511797   0.2226962   1.0795986  )
        67        S      tau(  67) = (  -0.0988203   0.6557088   1.0795986  )
        68        S      tau(  68) = (   0.4011797   0.6557088   1.0795986  )
        69        S      tau(  69) = (   0.3672707   0.1907390   0.6702552  )
        70        S      tau(  70) = (   0.8672707   0.1907390   0.6702552  )
        71        S      tau(  71) = (   0.1172707   0.6237516   0.6702552  )
        72        S      tau(  72) = (   0.6172707   0.6237516   0.6702552  )
        73        S      tau(  73) = (  -0.0296498   0.1532012   0.4010942  )
        74        S      tau(  74) = (   0.4703502   0.1532012   0.4035914  )
        75        S      tau(  75) = (  -0.2796498   0.5862137   0.4035914  )
        76        S      tau(  76) = (   0.2203502   0.5862137   0.4035914  )
        77        S      tau(  77) = (   0.1321490   0.3307341   0.8129336  )
        78        S      tau(  78) = (   0.6321490   0.3307341   0.8129336  )
        79        S      tau(  79) = (  -0.1178511   0.7637467   0.8129336  )
        80        S      tau(  80) = (   0.3821489   0.7637467   0.8129336  )
        81        S      tau(  81) = (  -0.1024985   0.3820894   1.2222770  )
        82        S      tau(  82) = (   0.3975015   0.3820894   1.2222770  )
        83        S      tau(  83) = (  -0.3524986   0.8151020   1.2222770  )
        84        S      tau(  84) = (   0.1475014   0.8151020   1.2222770  )
        85        S      tau(  85) = (   0.1475010   0.0509231   0.8244365  )
        86        S      tau(  86) = (   0.6475010   0.0509231   0.8244365  )
        87        S      tau(  87) = (  -0.1024990   0.4839357   0.8244365  )
        88        S      tau(  88) = (   0.3975010   0.4839357   0.8244365  )
        89        S      tau(  89) = (   0.2203497   0.2798114   0.4150943  )
        90        S      tau(  90) = (   0.7203497   0.2798114   0.4150943  )
        91        S      tau(  91) = (  -0.0296503   0.7128240   0.4150943  )
        92        S      tau(  92) = (   0.4703497   0.7128240   0.4150943  )
        93        S      tau(  93) = (   0.3821485   0.1022784   0.0057509  )
        94        S      tau(  94) = (   0.8821485   0.1022784   0.0057509  )
        95        S      tau(  95) = (   0.1321485   0.5352910   0.0057509  )
        96        S      tau(  96) = (   0.6321485   0.5352910   0.0057509  )

     number of k points=    14
                       cart. coord. in units 2pi/alat
        k(    1) = (   0.0000000   0.0000000   0.0000000), wk =   0.0740741
        k(    2) = (   0.0000000   0.0000000   0.2714379), wk =   0.1481481
        k(    3) = (   0.0000000   0.3849003   0.0000000), wk =   0.1481481
        k(    4) = (   0.0000000   0.3849003   0.2714379), wk =   0.1481481
        k(    5) = (   0.3333333   0.5773505   0.0000000), wk =   0.1481481
        k(    6) = (   0.3333333   0.5773505   0.2714379), wk =   0.1481481
        k(    7) = (  -0.3333333   0.1924501   0.0000000), wk =   0.1481481
        k(    8) = (   0.3333333   0.1924502   0.0000000), wk =   0.1481481
        k(    9) = (   0.0000000  -0.3849003   0.2714379), wk =   0.1481481
        k(   10) = (  -0.3333333   0.1924501   0.2714379), wk =   0.1481481
        k(   11) = (   0.3333333   0.1924502   0.2714379), wk =   0.1481481
        k(   12) = (  -0.3333333  -0.1924502   0.2714379), wk =   0.1481481
        k(   13) = (   0.3333333  -0.1924501   0.2714379), wk =   0.1481481
        k(   14) = (  -0.3333333  -0.5773505   0.2714379), wk =   0.1481481

     Dense  grid:  2619931 G-vectors     FFT dimensions: ( 180, 180, 216)

     Smooth grid:   926125 G-vectors     FFT dimensions: ( 120, 120, 150)

     Estimated max dynamical RAM per process >       1.07 GB

     Estimated total dynamical RAM >      33.54 GB

     Initial potential from superposition of free atoms

     starting charge     827.5884, renormalised to     840.0000

     negative rho (up, down):  7.777E-01 0.000E+00
     Starting wfcs are  672 randomized atomic wfcs
     Checking if some PAW data can be deallocated... 

     total cpu time spent up to now is       43.9 secs

     Self-consistent Calculation

     iteration #  1     ecut=    60.00 Ry     beta= 0.30
     Davidson diagonalization with overlap
     ethr =  1.00E-02,  avg # of iterations =  2.0

     negative rho (up, down):  7.747E-01 0.000E+00

     total cpu time spent up to now is      124.9 secs

     total energy              =   -9070.28869654 Ry
     estimated scf accuracy    <      21.98617650 Ry

     iteration #  2     ecut=    60.00 Ry     beta= 0.30
     Davidson diagonalization with overlap
     ethr =  2.62E-03,  avg # of iterations =  4.9

     negative rho (up, down):  7.752E-01 0.000E+00

     total cpu time spent up to now is      225.7 secs

     total energy              =   -9076.61861755 Ry
     estimated scf accuracy    <       8.18641540 Ry

     iteration #  3     ecut=    60.00 Ry     beta= 0.30
     Davidson diagonalization with overlap
     ethr =  9.75E-04,  avg # of iterations =  2.0

     negative rho (up, down):  7.804E-01 0.000E+00

     total cpu time spent up to now is      307.8 secs

     total energy              =   -9076.48944844 Ry
     estimated scf accuracy    <       1.62381135 Ry

     iteration #  4     ecut=    60.00 Ry     beta= 0.30
     Davidson diagonalization with overlap
     ethr =  1.93E-04,  avg # of iterations =  6.1

     negative rho (up, down):  7.829E-01 0.000E+00

     total cpu time spent up to now is      425.8 secs

     total energy              =   -9076.69834412 Ry
     estimated scf accuracy    <       2.07787481 Ry

     iteration #  5     ecut=    60.00 Ry     beta= 0.30
     Davidson diagonalization with overlap
     ethr =  1.93E-04,  avg # of iterations =  5.1

     negative rho (up, down):  7.883E-01 0.000E+00

     total cpu time spent up to now is      521.6 secs

     total energy              =   -9077.13581868 Ry
     estimated scf accuracy    <       0.14672091 Ry

     iteration #  6     ecut=    60.00 Ry     beta= 0.30
     Davidson diagonalization with overlap
     ethr =  1.75E-05,  avg # of iterations =  6.9

     negative rho (up, down):  7.902E-01 0.000E+00

     total cpu time spent up to now is      622.6 secs

     total energy              =   -9077.18444514 Ry
     estimated scf accuracy    <       0.01333297 Ry

     iteration #  7     ecut=    60.00 Ry     beta= 0.30
     Davidson diagonalization with overlap
     ethr =  1.59E-06,  avg # of iterations =  5.0

     negative rho (up, down):  7.907E-01 0.000E+00

     total cpu time spent up to now is      735.2 secs

     total energy              =   -9077.18882667 Ry
     estimated scf accuracy    <       0.00582373 Ry

     iteration #  8     ecut=    60.00 Ry     beta= 0.30
     Davidson diagonalization with overlap
     ethr =  6.93E-07,  avg # of iterations =  6.3

     negative rho (up, down):  7.912E-01 0.000E+00

     total cpu time spent up to now is      868.2 secs

     total energy              =   -9077.17876426 Ry
     estimated scf accuracy    <       0.05122530 Ry

     iteration #  9     ecut=    60.00 Ry     beta= 0.30
     Davidson diagonalization with overlap
     ethr =  6.93E-07,  avg # of iterations =  7.6

     negative rho (up, down):  7.911E-01 0.000E+00

     total cpu time spent up to now is     1008.7 secs

     total energy              =   -9077.18772080 Ry
     estimated scf accuracy    <       0.00178328 Ry

     iteration # 10     ecut=    60.00 Ry     beta= 0.30
     Davidson diagonalization with overlap
     ethr =  2.12E-07,  avg # of iterations =  2.2

     negative rho (up, down):  7.907E-01 0.000E+00

     total cpu time spent up to now is     1089.6 secs

     total energy              =   -9077.18753873 Ry
     estimated scf accuracy    <       0.00064346 Ry

     iteration # 11     ecut=    60.00 Ry     beta= 0.30
     Davidson diagonalization with overlap
     ethr =  7.66E-08,  avg # of iterations =  5.2

     negative rho (up, down):  7.905E-01 0.000E+00

     total cpu time spent up to now is     1196.8 secs

     total energy              =   -9077.18773739 Ry
     estimated scf accuracy    <       0.00018863 Ry

     iteration # 12     ecut=    60.00 Ry     beta= 0.30
     Davidson diagonalization with overlap
     ethr =  2.25E-08,  avg # of iterations =  3.6

     negative rho (up, down):  7.904E-01 0.000E+00

     total cpu time spent up to now is     1292.3 secs

     total energy              =   -9077.18775196 Ry
     estimated scf accuracy    <       0.00006112 Ry

     iteration # 13     ecut=    60.00 Ry     beta= 0.30
     Davidson diagonalization with overlap
     ethr =  7.28E-09,  avg # of iterations =  5.5

     negative rho (up, down):  7.903E-01 0.000E+00

     total cpu time spent up to now is     1395.1 secs

     total energy              =   -9077.18776581 Ry
     estimated scf accuracy    <       0.00001324 Ry

     iteration # 14     ecut=    60.00 Ry     beta= 0.30
     Davidson diagonalization with overlap
     ethr =  1.58E-09,  avg # of iterations =  4.2

     negative rho (up, down):  7.903E-01 0.000E+00

     total cpu time spent up to now is     1490.7 secs

     total energy              =   -9077.18776795 Ry
     estimated scf accuracy    <       0.00000286 Ry

     iteration # 15     ecut=    60.00 Ry     beta= 0.30
     Davidson diagonalization with overlap
     ethr =  3.40E-10,  avg # of iterations =  5.1

     negative rho (up, down):  7.902E-01 0.000E+00

     total cpu time spent up to now is     1603.3 secs

     total energy              =   -9077.18776831 Ry
     estimated scf accuracy    <       0.00000203 Ry

     iteration # 16     ecut=    60.00 Ry     beta= 0.30
     Davidson diagonalization with overlap
     ethr =  2.42E-10,  avg # of iterations =  5.9

     negative rho (up, down):  7.902E-01 0.000E+00

     total cpu time spent up to now is     1706.5 secs

     total energy              =   -9077.18776895 Ry
     estimated scf accuracy    <       0.00000047 Ry

     iteration # 17     ecut=    60.00 Ry     beta= 0.30
     Davidson diagonalization with overlap
     ethr =  5.56E-11,  avg # of iterations =  2.0

     negative rho (up, down):  7.902E-01 0.000E+00

     total cpu time spent up to now is     1788.3 secs

     total energy              =   -9077.18776894 Ry
     estimated scf accuracy    <       0.00000031 Ry

     iteration # 18     ecut=    60.00 Ry     beta= 0.30
     Davidson diagonalization with overlap
     ethr =  3.70E-11,  avg # of iterations =  5.6

     negative rho (up, down):  7.902E-01 0.000E+00

     total cpu time spent up to now is     1883.1 secs

     total energy              =   -9077.18776899 Ry
     estimated scf accuracy    <       0.00000003 Ry

     iteration # 19     ecut=    60.00 Ry     beta= 0.30
     Davidson diagonalization with overlap
     ethr =  3.85E-12,  avg # of iterations =  7.6

     negative rho (up, down):  7.902E-01 0.000E+00

     total cpu time spent up to now is     2006.9 secs

     total energy              =   -9077.18776902 Ry
     estimated scf accuracy    <       0.00000001 Ry

     iteration # 20     ecut=    60.00 Ry     beta= 0.30
     Davidson diagonalization with overlap
     ethr =  1.56E-12,  avg # of iterations =  2.0

     negative rho (up, down):  7.902E-01 0.000E+00

     total cpu time spent up to now is     2086.0 secs

     total energy              =   -9077.18776902 Ry
     estimated scf accuracy    <          8.7E-09 Ry

     iteration # 21     ecut=    60.00 Ry     beta= 0.30
     Davidson diagonalization with overlap
     ethr =  1.04E-12,  avg # of iterations =  5.5

     negative rho (up, down):  7.902E-01 0.000E+00

     total cpu time spent up to now is     2187.3 secs

     total energy              =   -9077.18776902 Ry
     estimated scf accuracy    <          1.8E-09 Ry

     iteration # 22     ecut=    60.00 Ry     beta= 0.30
     Davidson diagonalization with overlap
     ethr =  2.20E-13,  avg # of iterations =  5.4

     negative rho (up, down):  7.902E-01 0.000E+00

     total cpu time spent up to now is     2285.9 secs

     End of self-consistent calculation

          k = 0.0000 0.0000 0.0000 (115723 PWs)   bands (ev):

   -28.2877 -28.2767 -28.2765 -28.2761 -28.2757 -28.2757 -28.2756 -28.2754
   -28.2752 -28.2746 -28.2732 -28.2551 -14.9256 -14.9238 -14.9237 -14.9234
   -14.9234 -14.9231 -14.9229 -14.9222 -14.9219 -14.9216 -14.9212 -14.9199
   -14.9197 -14.9179 -14.9178 -14.9176 -14.9175 -14.9173 -14.9170 -14.9162
   -14.9161 -14.9157 -14.9153 -14.9136 -14.9077 -14.9058 -14.9057 -14.9055
   -14.9053 -14.9052 -14.9050 -14.9041 -14.9040 -14.9036 -14.9033 -14.9019
   -14.8675 -14.8656 -14.8655 -14.8654 -14.8651 -14.8650 -14.8649 -14.8639
   -14.8638 -14.8635 -14.8632 -14.8624 -14.8225 -14.8204 -14.8203 -14.8202
   -14.8200 -14.8198 -14.8196 -14.8187 -14.8187 -14.8183 -14.8179 -14.8159
   -10.3470 -10.3389 -10.3380 -10.3375 -10.3368 -10.3361 -10.3359 -10.3346
   -10.3324 -10.3313 -10.3268 -10.3167 -10.3125 -10.3095 -10.3077 -10.3058
   -10.3033 -10.3019 -10.3016 -10.2986 -10.2937 -10.2920 -10.2868 -10.2785
   -10.2763 -10.2706 -10.2685 -10.2675 -10.2651 -10.2641 -10.2633 -10.2617
   -10.2598 -10.2587 -10.2561 -10.2452  -6.8629  -6.5556  -6.5538  -6.4171
    -6.4169  -6.4155  -6.2996  -6.2994  -6.2982  -6.2191  -6.2177  -6.2167
    -5.9907  -5.9891  -5.9885  -5.8504  -5.8494  -5.8479  -5.7967  -5.7960
    -5.7954  -5.7380  -5.7358  -5.6194  -5.6185  -5.6180  -5.6136  -5.6131
    -5.6126  -5.6005  -5.5600  -5.5578  -5.5574  -5.5458  -5.5450  -5.5439
    -5.5178  -5.5158  -5.4323  -5.4300  -5.4282  -5.4273  -5.3732  -5.3718
    -5.3466  -5.3456  -5.3436  -5.2509  -0.6127  -0.6118  -0.6108  -0.3896
    -0.3886  -0.3883  -0.3508  -0.3161  -0.3157  -0.3144  -0.3021  -0.3001
     1.3842   1.3852   1.3855   1.5911   1.5926   1.6557   1.7161   1.7169
     1.7174   1.8046   1.8060   1.8076   2.0202   2.0410   2.0417   2.0840
     2.0853   2.0882   2.2467   2.2476   2.2484   2.3087   2.3111   2.4026
     2.4043   2.4065   2.4604   2.4607   2.4615   2.5484   2.5508   2.6623
     2.6629   2.6642   2.7837   2.7844   2.7859   2.8710   2.8726   2.9243
     2.9258   2.9261   2.9533   2.9536   2.9557   3.0270   3.0276   3.0279
     3.0433   3.0461   3.0469   3.1646   3.2126   3.2145   3.2149   3.2271
     3.2282   3.2562   3.2574   3.2579   3.3762   3.3775   3.3782   3.3925
     3.3938   3.4268   3.4276   3.4280   3.4355   3.4361   3.4371   3.4753
     3.4760   3.4767   3.4931   3.4938   3.4949   3.4954   3.5169   3.5177
     3.5844   3.5848   3.5859   3.6265   3.6275   3.6296   3.6892   3.6899
     3.6908   3.6913   3.6937   3.7064   3.7945   3.7965   3.8248   3.8259
     3.8269   3.9627   4.0192   4.0207   4.0217   4.0357   4.0364   4.0371
     4.1245   4.1255   4.1256   4.1262   4.1722   4.1735   4.1743   4.2012
     4.2089   4.2092   4.2110   4.2443   4.2450   4.2455   4.2813   4.2814
     4.4231   4.4247   4.4263   4.5178   4.5182   4.5200   4.5347   4.5368
     4.6205   4.6216   4.6222   4.8566   5.1243   5.1546   5.1553   5.1557
     5.1736   5.1743   5.1752   5.1777   5.1788   5.2219   5.2264   5.2273
     5.2275   5.2290   5.2296   5.2515   5.2520   5.2527   5.2662   5.2669
     5.2672   5.2780   5.2784   5.2799   5.3106   5.3112   5.3115   5.3125
     5.3128   5.3243   5.3369   5.3379   5.3381   5.3741   5.3756   5.3758
     5.4386   5.4388   5.4704   5.4714   5.4718   5.4743   5.4769   5.4773
     5.4777   5.4983   5.4989   5.6005   5.6008   5.6017   5.6179   5.6186
     5.6193   5.6264   5.6460   5.6470   5.6484   5.6589   5.6598   5.6601
     5.7252   5.7256   5.7445   5.7820   5.7825   5.7840   5.8207   5.8210
     5.8214   5.9027   5.9036   5.9045   5.9270   5.9277   5.9285   5.9948
     5.9961   6.0262   6.0266   6.0276   6.1493   6.1502   6.1512   6.1516
     6.2609   6.2615   6.2625   6.2630   6.2632   6.2633   6.2896   6.2911
     6.3333   6.3348   6.3357   6.3627   6.3632   6.3651   6.3884   6.3891
     6.3903   6.5523   6.5707   6.5715   6.5719   6.6369   6.6377   6.6389
     6.7460   6.7475   6.7488   6.7648   6.7658   6.7809   6.7812   6.7818
     6.8074   6.9641   7.1799   7.1804

          k = 0.0000 0.0000 0.2714 (115879 PWs)   bands (ev):

   -28.2877 -28.2767 -28.2765 -28.2761 -28.2757 -28.2757 -28.2756 -28.2754
   -28.2752 -28.2746 -28.2732 -28.2551 -14.9256 -14.9238 -14.9237 -14.9234
   -14.9234 -14.9231 -14.9229 -14.9222 -14.9219 -14.9216 -14.9212 -14.9199
   -14.9197 -14.9179 -14.9178 -14.9176 -14.9175 -14.9173 -14.9170 -14.9162
   -14.9161 -14.9157 -14.9153 -14.9136 -14.9077 -14.9058 -14.9057 -14.9055
   -14.9053 -14.9052 -14.9050 -14.9041 -14.9040 -14.9036 -14.9033 -14.9019
   -14.8675 -14.8656 -14.8655 -14.8654 -14.8651 -14.8650 -14.8649 -14.8639
   -14.8638 -14.8635 -14.8632 -14.8624 -14.8225 -14.8204 -14.8203 -14.8202
   -14.8200 -14.8198 -14.8196 -14.8187 -14.8187 -14.8183 -14.8179 -14.8159
   -10.3472 -10.3398 -10.3388 -10.3383 -10.3372 -10.3361 -10.3345 -10.3335
   -10.3332 -10.3295 -10.3272 -10.3170 -10.3131 -10.3104 -10.3077 -10.3057
   -10.3031 -10.3021 -10.2999 -10.2952 -10.2934 -10.2932 -10.2883 -10.2799
   -10.2757 -10.2700 -10.2682 -10.2674 -10.2657 -10.2646 -10.2629 -10.2614
   -10.2596 -10.2585 -10.2571 -10.2454  -6.8236  -6.7131  -6.4092  -6.4089
    -6.4081  -6.4064  -6.3042  -6.3039  -6.3028  -6.2315  -6.2299  -6.2291
    -5.9923  -5.9909  -5.9906  -5.8537  -5.8355  -5.8347  -5.8331  -5.7736
    -5.7731  -5.7727  -5.6564  -5.6560  -5.6556  -5.6517  -5.6131  -5.6121
    -5.6115  -5.6112  -5.5563  -5.5529  -5.5515  -5.5510  -5.5452  -5.5447
    -5.5440  -5.4541  -5.4358  -5.4340  -5.4337  -5.4332  -5.3750  -5.3455
    -5.3386  -5.3377  -5.3358  -5.2813  -0.6049  -0.6039  -0.6028  -0.4133
    -0.4124  -0.4116  -0.3482  -0.3325  -0.3013  -0.3010  -0.2996  -0.2741
     1.4087   1.4093   1.4098   1.5700   1.6143   1.6180   1.6188   1.6194
     1.6573   1.9344   1.9355   1.9372   2.0042   2.0469   2.0522   2.0533
     2.0557   2.0691   2.2752   2.2759   2.2770   2.3052   2.3888   2.3896
     2.3902   2.3910   2.4151   2.4164   2.4180   2.4562   2.6218   2.6226
     2.6236   2.6683   2.7185   2.7913   2.7980   2.7985   2.8011   2.8719
     2.8730   2.8737   2.9750   2.9761   2.9764   3.0447   3.0457   3.0472
     3.1047   3.1067   3.1076   3.1757   3.1985   3.2038   3.2047   3.2051
     3.2726   3.2742   3.2745   3.2839   3.3744   3.3827   3.3841   3.3846
     3.4197   3.4199   3.4207   3.4396   3.4402   3.4412   3.4487   3.4494
     3.4499   3.4769   3.4987   3.5178   3.5185   3.5191   3.5381   3.5440
     3.5494   3.5503   3.5511   3.6390   3.6446   3.6452   3.6474   3.6512
     3.6801   3.6806   3.6844   3.7731   3.8297   3.8752   3.8761   3.8776
     3.9084   3.9212   3.9939   3.9953   3.9960   4.0556   4.0562   4.0571
     4.0751   4.1174   4.1179   4.1187   4.1471   4.1486   4.1497   4.1654
     4.1716   4.1723   4.1739   4.2111   4.2505   4.2511   4.2521   4.2674
     4.4203   4.4219   4.4238   4.4832   4.5593   4.5602   4.5610   4.6053
     4.6064   4.6071   4.6766   4.8068   5.1356   5.1472   5.1537   5.1542
     5.1546   5.1641   5.1865   5.1871   5.1875   5.2156   5.2163   5.2173
     5.2178   5.2476   5.2481   5.2484   5.2583   5.2592   5.2596   5.2608
     5.2760   5.2767   5.2778   5.2779   5.3292   5.3294   5.3301   5.3322
     5.3336   5.3349   5.3413   5.3423   5.3433   5.3654   5.3734   5.3746
     5.3750   5.3894   5.4025   5.4195   5.4201   5.4209   5.5255   5.5318
     5.5329   5.5330   5.5819   5.5871   5.5882   5.5888   5.5896   5.6199
     5.6201   5.6205   5.6513   5.6522   5.6529   5.6608   5.6813   5.6820
     5.6829   5.7542   5.7547   5.7563   5.7908   5.7989   5.8172   5.8175
     5.8185   5.8700   5.8830   5.8835   5.8847   5.9881   5.9888   5.9899
     6.0421   6.0428   6.0436   6.0970   6.0981   6.0984   6.1744   6.1913
     6.1919   6.1932   6.2361   6.2677   6.2686   6.2699   6.3247   6.3258
     6.3264   6.3589   6.3605   6.3702   6.3709   6.3719   6.3947   6.4286
     6.4294   6.4305   6.4804   6.6408   6.6414   6.6418   6.6424   6.6434
     6.6443   6.6702   6.7080   6.7091   6.7096   6.7522   6.7530   6.7539
     6.9405   7.0053   7.0939   7.1699

          k = 0.0000 0.3849 0.0000 (115797 PWs)   bands (ev):

   -28.2877 -28.2767 -28.2765 -28.2761 -28.2757 -28.2757 -28.2756 -28.2754
   -28.2752 -28.2746 -28.2732 -28.2551 -14.9256 -14.9238 -14.9236 -14.9234
   -14.9233 -14.9231 -14.9230 -14.9221 -14.9218 -14.9216 -14.9212 -14.9199
   -14.9197 -14.9179 -14.9178 -14.9176 -14.9174 -14.9173 -14.9171 -14.9162
   -14.9160 -14.9157 -14.9154 -14.9136 -14.9077 -14.9058 -14.9057 -14.9056
   -14.9053 -14.9052 -14.9050 -14.9041 -14.9040 -14.9037 -14.9033 -14.9019
   -14.8675 -14.8656 -14.8655 -14.8654 -14.8651 -14.8650 -14.8649 -14.8639
   -14.8638 -14.8635 -14.8632 -14.8624 -14.8225 -14.8204 -14.8203 -14.8202
   -14.8200 -14.8198 -14.8196 -14.8187 -14.8187 -14.8183 -14.8179 -14.8159
   -10.3466 -10.3383 -10.3374 -10.3366 -10.3359 -10.3350 -10.3345 -10.3336
   -10.3331 -10.3319 -10.3281 -10.3172 -10.3112 -10.3073 -10.3062 -10.3050
   -10.3028 -10.3024 -10.3018 -10.2984 -10.2953 -10.2930 -10.2879 -10.2801
   -10.2759 -10.2694 -10.2687 -10.2674 -10.2653 -10.2643 -10.2629 -10.2627
   -10.2615 -10.2602 -10.2575 -10.2460  -6.7876  -6.5897  -6.4997  -6.4971
    -6.4380  -6.4371  -6.3657  -6.3482  -6.2853  -6.2840  -6.2488  -6.2471
    -5.9116  -5.9102  -5.8197  -5.8189  -5.8172  -5.7775  -5.7678  -5.7670
    -5.7321  -5.7240  -5.7225  -5.6905  -5.6888  -5.6474  -5.6386  -5.6371
    -5.6292  -5.5949  -5.5849  -5.5836  -5.5682  -5.5276  -5.5192  -5.5184
    -5.5163  -5.5040  -5.4625  -5.4508  -5.4372  -5.4357  -5.4214  -5.4148
    -5.3487  -5.3470  -5.3133  -5.2703  -0.5717  -0.5705  -0.5625  -0.4355
    -0.4045  -0.4035  -0.3771  -0.3380  -0.3377  -0.3363  -0.3127  -0.3034
     1.4185   1.4871   1.4880   1.5010   1.6404   1.6517   1.6883   1.7234
     1.7242   1.8286   1.8768   1.8780   1.9547   1.9557   1.9566   2.0275
     2.1154   2.2072   2.2292   2.2305   2.3390   2.3638   2.3852   2.3876
     2.3932   2.4092   2.4494   2.5370   2.5388   2.6131   2.6140   2.6180
     2.6576   2.7349   2.8124   2.8148   2.8220   2.8408   2.8417   2.8450
     2.8537   2.8847   2.9079   2.9089   2.9149   2.9621   2.9627   3.0046
     3.0508   3.0564   3.0571   3.1241   3.1484   3.1755   3.2043   3.2105
     3.2122   3.2326   3.2606   3.2616   3.2688   3.3238   3.3300   3.3315
     3.3389   3.3717   3.3951   3.3953   3.4333   3.4408   3.4419   3.4493
     3.4978   3.4983   3.5000   3.5100   3.5110   3.5138   3.5226   3.5428
     3.5615   3.6052   3.6057   3.6115   3.6347   3.6479   3.6791   3.6800
     3.6944   3.7023   3.7050   3.7089   3.7788   3.7799   3.8491   3.8597
     3.8965   3.9741   3.9750   3.9781   3.9802   4.0300   4.0381   4.0404
     4.0926   4.1114   4.1210   4.1213   4.1256   4.1629   4.1633   4.1775
     4.2481   4.2661   4.2692   4.2827   4.3028   4.3226   4.3239   4.3683
     4.3783   4.4156   4.4187   4.4834   4.5178   4.5271   4.5284   4.5297
     4.5908   4.5921   4.6271   4.7486   5.1437   5.1439   5.1466   5.1539
     5.1599   5.1612   5.1692   5.1745   5.2149   5.2188   5.2194   5.2219
     5.2278   5.2371   5.2483   5.2491   5.2498   5.2607   5.2676   5.2714
     5.2723   5.2891   5.3039   5.3048   5.3135   5.3185   5.3266   5.3278
     5.3366   5.3496   5.3524   5.3534   5.3566   5.3651   5.4134   5.4142
     5.4334   5.4508   5.4608   5.4613   5.4855   5.4932   5.4999   5.5002
     5.5026   5.5127   5.5275   5.5438   5.5561   5.5567   5.5609   5.6029
     5.6037   5.6304   5.6310   5.6317   5.6673   5.6781   5.6948   5.6962
     5.6970   5.7179   5.7297   5.7560   5.7748   5.7758   5.8089   5.8188
     5.8192   5.8638   5.8746   5.8765   5.9507   5.9514   5.9645   5.9662
     5.9904   6.0065   6.0073   6.0199   6.1385   6.1394   6.1449   6.1603
     6.2255   6.2292   6.2299   6.2511   6.2701   6.2887   6.2898   6.2993
     6.3609   6.3622   6.3768   6.3890   6.3906   6.4414   6.4853   6.4872
     6.5240   6.5375   6.5386   6.5755   6.6047   6.6511   6.6832   6.6919
     6.6933   6.7300   6.7369   6.7384   6.7622   6.7777   6.7924   6.8117
     6.8125   6.9040   6.9087   7.0803

          k = 0.0000 0.3849 0.2714 (115773 PWs)   bands (ev):

   -28.2877 -28.2767 -28.2765 -28.2761 -28.2757 -28.2757 -28.2756 -28.2754
   -28.2752 -28.2746 -28.2732 -28.2551 -14.9256 -14.9238 -14.9236 -14.9234
   -14.9233 -14.9231 -14.9230 -14.9221 -14.9218 -14.9216 -14.9212 -14.9199
   -14.9197 -14.9179 -14.9178 -14.9176 -14.9174 -14.9173 -14.9171 -14.9162
   -14.9160 -14.9157 -14.9154 -14.9136 -14.9077 -14.9058 -14.9057 -14.9056
   -14.9053 -14.9052 -14.9050 -14.9041 -14.9040 -14.9037 -14.9033 -14.9019
   -14.8675 -14.8656 -14.8655 -14.8654 -14.8651 -14.8650 -14.8649 -14.8639
   -14.8638 -14.8635 -14.8632 -14.8624 -14.8225 -14.8204 -14.8203 -14.8202
   -14.8200 -14.8198 -14.8196 -14.8187 -14.8187 -14.8183 -14.8179 -14.8159
   -10.3468 -10.3390 -10.3383 -10.3375 -10.3357 -10.3349 -10.3342 -10.3332
   -10.3325 -10.3306 -10.3286 -10.3172 -10.3120 -10.3090 -10.3065 -10.3049
   -10.3022 -10.3015 -10.2989 -10.2970 -10.2954 -10.2935 -10.2892 -10.2810
   -10.2757 -10.2690 -10.2683 -10.2675 -10.2654 -10.2647 -10.2628 -10.2622
   -10.2614 -10.2601 -10.2585 -10.2461  -6.7506  -6.6463  -6.5604  -6.4718
    -6.4223  -6.4211  -6.3638  -6.3287  -6.3282  -6.2585  -6.2244  -6.2238
    -5.9054  -5.9041  -5.8229  -5.8214  -5.8086  -5.8068  -5.7920  -5.7600
    -5.7590  -5.7321  -5.7110  -5.7090  -5.6717  -5.6352  -5.6287  -5.6276
    -5.6267  -5.6077  -5.5999  -5.5997  -5.5692  -5.5276  -5.5225  -5.5220
    -5.5206  -5.4962  -5.4678  -5.4327  -5.4295  -5.4277  -5.4220  -5.3630
    -5.3483  -5.3464  -5.3222  -5.2997  -0.5601  -0.5592  -0.5580  -0.4367
    -0.4351  -0.4251  -0.3939  -0.3734  -0.3190  -0.3179  -0.2991  -0.2791
     1.4334   1.4849   1.4860   1.4870   1.6253   1.6421   1.7726   1.7737
     1.7816   1.7918   1.7997   1.8006   1.9143   1.9958   1.9962   2.0771
     2.1551   2.1996   2.2110   2.2472   2.2491   2.3600   2.3923   2.3943
     2.3984   2.4488   2.5115   2.5130   2.5469   2.5906   2.5915   2.6081
     2.6440   2.7118   2.7613   2.7676   2.7696   2.7892   2.8088   2.8101
     2.8388   2.8748   2.9156   2.9164   2.9184   2.9813   3.0229   3.0245
     3.0682   3.1061   3.1067   3.1324   3.1707   3.1911   3.1934   3.1940
     3.2007   3.2320   3.2645   3.2652   3.2762   3.3179   3.3214   3.3225
     3.3237   3.3890   3.3900   3.4105   3.4455   3.4461   3.4690   3.4694
     3.4715   3.4733   3.4755   3.4769   3.5333   3.5358   3.5365   3.5921
     3.6106   3.6120   3.6134   3.6330   3.6417   3.6498   3.6591   3.6600
     3.6674   3.7101   3.7113   3.7135   3.8354   3.8366   3.8799   3.8884
     3.9043   3.9496   3.9506   3.9746   3.9816   4.0206   4.0478   4.0488
     4.0508   4.0655   4.1107   4.1111   4.1194   4.1335   4.1339   4.1476
     4.1907   4.2552   4.2670   4.2684   4.2879   4.2907   4.2945   4.3872
     4.3975   4.4372   4.4393   4.4675   4.5242   4.5260   4.5355   4.5960
     4.6106   4.6118   4.6223   4.7213   5.1507   5.1510   5.1545   5.1561
     5.1712   5.1753   5.1765   5.1833   5.1903   5.1978   5.2012   5.2074
     5.2080   5.2341   5.2348   5.2353   5.2543   5.2631   5.2653   5.2660
     5.2786   5.2978   5.3074   5.3127   5.3134   5.3287   5.3359   5.3371
     5.3579   5.3588   5.3598   5.3636   5.3800   5.3918   5.4069   5.4073
     5.4130   5.4318   5.4331   5.4445   5.4450   5.4926   5.5016   5.5021
     5.5091   5.5154   5.5534   5.5597   5.5739   5.5749   5.6024   5.6105
     5.6113   5.6189   5.6243   5.6254   5.6425   5.6700   5.6817   5.7140
     5.7146   5.7175   5.7338   5.7726   5.7730   5.7734   5.8020   5.8025
     5.8099   5.8581   5.8741   5.8760   5.8785   5.9147   5.9589   5.9600
     6.0339   6.0348   6.0356   6.0593   6.0786   6.0793   6.1724   6.2063
     6.2123   6.2137   6.2659   6.2668   6.2692   6.2769   6.2850   6.3476
     6.3494   6.3657   6.3723   6.4154   6.4242   6.4250   6.4270   6.4710
     6.4969   6.4992   6.5457   6.5596   6.5952   6.5960   6.6665   6.6675
     6.6770   6.7196   6.7359   6.7367   6.7470   6.8129   6.8139   6.8440
     6.8689   6.9282   6.9368   7.0518

          k = 0.3333 0.5774 0.0000 (115752 PWs)   bands (ev):

   -28.2877 -28.2767 -28.2765 -28.2761 -28.2757 -28.2757 -28.2756 -28.2754
   -28.2752 -28.2746 -28.2732 -28.2551 -14.9256 -14.9237 -14.9236 -14.9235
   -14.9233 -14.9231 -14.9230 -14.9221 -14.9219 -14.9216 -14.9212 -14.9199
   -14.9197 -14.9179 -14.9178 -14.9177 -14.9174 -14.9173 -14.9171 -14.9162
   -14.9161 -14.9157 -14.9154 -14.9136 -14.9077 -14.9058 -14.9057 -14.9056
   -14.9053 -14.9052 -14.9050 -14.9041 -14.9040 -14.9036 -14.9033 -14.9019
   -14.8675 -14.8656 -14.8655 -14.8654 -14.8651 -14.8650 -14.8649 -14.8639
   -14.8638 -14.8635 -14.8632 -14.8624 -14.8225 -14.8204 -14.8203 -14.8202
   -14.8200 -14.8198 -14.8196 -14.8187 -14.8187 -14.8183 -14.8179 -14.8159
   -10.3462 -10.3382 -10.3361 -10.3359 -10.3356 -10.3352 -10.3348 -10.3341
   -10.3326 -10.3306 -10.3299 -10.3170 -10.3108 -10.3064 -10.3050 -10.3046
   -10.3031 -10.3017 -10.3015 -10.3003 -10.2959 -10.2906 -10.2901 -10.2812
   -10.2755 -10.2690 -10.2676 -10.2668 -10.2662 -10.2651 -10.2644 -10.2636
   -10.2616 -10.2591 -10.2586 -10.2466  -6.6504  -6.6503  -6.6492  -6.3997
    -6.3992  -6.3988  -6.3985  -6.3982  -6.3957  -6.2929  -6.2913  -6.1927
    -5.8649  -5.8508  -5.8501  -5.7489  -5.7484  -5.7478  -5.7329  -5.7319
    -5.7307  -5.7086  -5.7071  -5.6945  -5.6939  -5.6937  -5.6851  -5.6848
    -5.6837  -5.6446  -5.5415  -5.5411  -5.5396  -5.5300  -5.5287  -5.5279
    -5.5120  -5.4720  -5.4717  -5.4709  -5.4668  -5.4664  -5.4650  -5.3977
    -5.3956  -5.3019  -5.3017  -5.3008  -0.5445  -0.5149  -0.5145  -0.5140
    -0.3967  -0.3953  -0.3911  -0.3903  -0.3893  -0.3108  -0.3095  -0.3084
     1.4831   1.4844   1.4852   1.6746   1.6754   1.6767   1.6859   1.6861
     1.6876   1.7332   1.7347   1.8004   2.0799   2.0815   2.0825   2.0830
     2.0838   2.1439   2.1444   2.1456   2.2549   2.3970   2.3976   2.3983
     2.4942   2.4946   2.4949   2.5634   2.5639   2.5642   2.5971   2.5986
     2.7740   2.7743   2.7753   2.8368   2.8377   2.8432   2.8443   2.8449
     2.8491   2.8527   2.8528   2.8560   2.8685   3.0089   3.0105   3.0115
     3.0252   3.0255   3.0266   3.0616   3.1336   3.1342   3.1353   3.1962
     3.1973   3.1978   3.2585   3.2598   3.2604   3.2693   3.2717   3.3617
     3.3701   3.3712   3.3724   3.3727   3.4247   3.4255   3.4258   3.4867
     3.4877   3.5022   3.5025   3.5034   3.5292   3.5299   3.5305   3.5472
     3.5484   3.5793   3.5801   3.5819   3.6504   3.6506   3.6526   3.7203
     3.7210   3.7225   3.7278   3.7290   3.7571   3.8012   3.8018   3.8023
     3.9579   3.9594   3.9609   3.9866   3.9878   4.0297   4.0304   4.0310
     4.0844   4.0847   4.0856   4.1408   4.1508   4.1512   4.1519   4.2847
     4.2857   4.2934   4.3180   4.3193   4.3197   4.3210   4.3212   4.3234
     4.3859   4.3865   4.3875   4.4968   4.5143   4.5165   4.5199   4.5209
     4.5220   4.6538   4.6549   4.6567   5.1377   5.1435   5.1441   5.1444
     5.1729   5.1735   5.1876   5.1878   5.1889   5.1961   5.1966   5.1975
     5.2469   5.2470   5.2480   5.2650   5.2656   5.2662   5.2979   5.2983
     5.2989   5.3009   5.3026   5.3028   5.3137   5.3183   5.3191   5.3193
     5.3400   5.3403   5.3408   5.4019   5.4029   5.4033   5.4079   5.4086
     5.4551   5.4554   5.4557   5.4579   5.4830   5.4836   5.4838   5.4878
     5.4885   5.5344   5.5356   5.5364   5.5640   5.5647   5.5649   5.5703
     5.5709   5.5716   5.6410   5.6719   5.6727   5.6942   5.6951   5.6956
     5.7067   5.7071   5.7076   5.7793   5.7803   5.7809   5.7986   5.7993
     5.8001   5.8238   5.8246   5.8438   5.9304   5.9309   5.9319   6.0458
     6.0468   6.0475   6.0481   6.0497   6.1383   6.1387   6.1396   6.1582
     6.2186   6.2190   6.2196   6.2589   6.2601   6.2606   6.2837   6.2848
     6.3748   6.4099   6.4105   6.4111   6.4155   6.4170   6.4230   6.4516
     6.4521   6.4530   6.6146   6.6153   6.6160   6.6754   6.6765   6.6768
     6.7246   6.7403   6.7413   6.8057   6.8063   6.8067   6.8099   6.8103
     6.8113   6.9383   6.9391   6.9394

          k = 0.3333 0.5774 0.2714 (115827 PWs)   bands (ev):

   -28.2877 -28.2767 -28.2765 -28.2761 -28.2757 -28.2757 -28.2756 -28.2754
   -28.2752 -28.2746 -28.2732 -28.2551 -14.9256 -14.9237 -14.9236 -14.9235
   -14.9233 -14.9231 -14.9230 -14.9221 -14.9219 -14.9216 -14.9212 -14.9199
   -14.9197 -14.9179 -14.9178 -14.9177 -14.9174 -14.9173 -14.9171 -14.9162
   -14.9161 -14.9157 -14.9154 -14.9136 -14.9077 -14.9058 -14.9057 -14.9056
   -14.9053 -14.9052 -14.9050 -14.9041 -14.9040 -14.9036 -14.9033 -14.9019
   -14.8675 -14.8656 -14.8655 -14.8654 -14.8651 -14.8650 -14.8649 -14.8639
   -14.8638 -14.8635 -14.8632 -14.8624 -14.8225 -14.8204 -14.8203 -14.8202
   -14.8200 -14.8198 -14.8196 -14.8187 -14.8187 -14.8183 -14.8179 -14.8159
   -10.3464 -10.3386 -10.3375 -10.3369 -10.3366 -10.3340 -10.3334 -10.3332
   -10.3323 -10.3304 -10.3300 -10.3171 -10.3109 -10.3079 -10.3068 -10.3058
   -10.3022 -10.2997 -10.2985 -10.2975 -10.2956 -10.2920 -10.2919 -10.2817
   -10.2756 -10.2690 -10.2680 -10.2667 -10.2663 -10.2644 -10.2636 -10.2632
   -10.2617 -10.2598 -10.2596 -10.2468  -6.6183  -6.6181  -6.6171  -6.5249
    -6.5247  -6.5236  -6.3079  -6.2893  -6.2891  -6.2879  -6.2576  -6.2142
    -5.8746  -5.8576  -5.8444  -5.7800  -5.7794  -5.7784  -5.7421  -5.7419
    -5.7412  -5.7154  -5.6882  -5.6877  -5.6872  -5.6728  -5.6719  -5.6716
    -5.6705  -5.6432  -5.5564  -5.5560  -5.5551  -5.5247  -5.5242  -5.5241
    -5.5049  -5.5031  -5.5028  -5.5021  -5.4587  -5.3982  -5.3978  -5.3970
    -5.3578  -5.3230  -5.3226  -5.3215  -0.5204  -0.5060  -0.5056  -0.5050
    -0.4613  -0.4174  -0.4168  -0.4164  -0.3548  -0.2934  -0.2925  -0.2916
     1.4814   1.4825   1.4833   1.6378   1.6384   1.6398   1.6895   1.7752
     1.7759   1.7766   1.7781   1.7945   1.9807   1.9816   1.9823   2.0552
     2.1705   2.1923   2.1936   2.1943   2.2469   2.3969   2.3977   2.3982
     2.4886   2.4889   2.4901   2.5576   2.5874   2.5878   2.5891   2.5923
     2.6793   2.7363   2.7370   2.7397   2.8224   2.8233   2.8237   2.8282
     2.9016   2.9028   2.9041   2.9241   2.9366   2.9542   2.9557   2.9561
     3.0597   3.0608   3.0619   3.0881   3.0888   3.0891   3.1261   3.1806
     3.2441   3.2449   3.2452   3.2702   3.2712   3.2718   3.3205   3.3261
     3.3277   3.3279   3.3739   3.4071   3.4206   3.4650   3.4655   3.4661
     3.4931   3.4990   3.4994   3.5001   3.5366   3.5371   3.5380   3.5404
     3.5608   3.6159   3.6163   3.6187   3.6545   3.6549   3.6559   3.6974
     3.6979   3.6998   3.7201   3.7445   3.8212   3.8408   3.8415   3.8421
     3.9384   3.9396   3.9410   3.9428   4.0296   4.0299   4.0310   4.0399
     4.0675   4.0677   4.0687   4.1091   4.1139   4.1145   4.1155   4.1682
     4.2724   4.2735   4.2741   4.2893   4.3152   4.3612   4.3616   4.3629
     4.4163   4.4173   4.4180   4.4927   4.4935   4.4944   4.5076   4.5123
     4.5649   4.6666   4.6673   4.6695   5.1489   5.1561   5.1571   5.1575
     5.1583   5.1823   5.1827   5.1833   5.1975   5.1979   5.1985   5.2106
     5.2246   5.2249   5.2259   5.2512   5.2521   5.2522   5.2564   5.2684
     5.3012   5.3018   5.3024   5.3094   5.3286   5.3290   5.3299   5.3675
     5.3682   5.3692   5.3745   5.3933   5.3952   5.4087   5.4093   5.4096
     5.4324   5.4327   5.4337   5.4385   5.4841   5.4847   5.4853   5.4909
     5.5387   5.5393   5.5398   5.5435   5.5652   5.5669   5.5674   5.6049
     5.6055   5.6061   5.6378   5.6391   5.6715   5.6723   5.6735   5.7033
     5.7039   5.7043   5.7173   5.7584   5.7593   5.7599   5.8013   5.8080
     5.8202   5.8231   5.8242   5.8253   5.8901   5.8904   5.8917   6.0575
     6.0601   6.0606   6.0618   6.0768   6.1196   6.1203   6.1206   6.1349
     6.1950   6.2378   6.2382   6.2386   6.2843   6.3014   6.3019   6.3030
     6.3066   6.3847   6.3853   6.3864   6.4494   6.4676   6.4681   6.4687
     6.4910   6.4926   6.5588   6.5594   6.5605   6.6460   6.6845   6.6854
     6.6859   6.7605   6.7777   6.7780   6.7788   6.7922   6.8543   6.8549
     6.8554   6.9349   6.9360   6.9365

          k =-0.3333 0.1925 0.0000 (115797 PWs)   bands (ev):

   -28.2877 -28.2767 -28.2765 -28.2761 -28.2757 -28.2757 -28.2756 -28.2754
   -28.2752 -28.2746 -28.2732 -28.2551 -14.9256 -14.9237 -14.9237 -14.9234
   -14.9233 -14.9232 -14.9229 -14.9221 -14.9219 -14.9216 -14.9212 -14.9199
   -14.9197 -14.9178 -14.9178 -14.9176 -14.9174 -14.9173 -14.9170 -14.9162
   -14.9161 -14.9157 -14.9154 -14.9136 -14.9077 -14.9058 -14.9057 -14.9056
   -14.9053 -14.9052 -14.9050 -14.9041 -14.9040 -14.9036 -14.9033 -14.9019
   -14.8675 -14.8656 -14.8655 -14.8654 -14.8651 -14.8650 -14.8649 -14.8639
   -14.8638 -14.8635 -14.8632 -14.8624 -14.8225 -14.8204 -14.8203 -14.8202
   -14.8200 -14.8198 -14.8196 -14.8187 -14.8187 -14.8183 -14.8179 -14.8159
   -10.3463 -10.3384 -10.3373 -10.3363 -10.3360 -10.3356 -10.3348 -10.3337
   -10.3324 -10.3321 -10.3282 -10.3170 -10.3113 -10.3071 -10.3064 -10.3048
   -10.3034 -10.3019 -10.3014 -10.2987 -10.2959 -10.2926 -10.2881 -10.2801
   -10.2756 -10.2695 -10.2687 -10.2670 -10.2660 -10.2646 -10.2632 -10.2628
   -10.2609 -10.2597 -10.2575 -10.2460  -6.7876  -6.5896  -6.4998  -6.4970
    -6.4379  -6.4372  -6.3657  -6.3480  -6.2854  -6.2840  -6.2487  -6.2474
    -5.9119  -5.9103  -5.8193  -5.8187  -5.8171  -5.7777  -5.7679  -5.7672
    -5.7319  -5.7244  -5.7223  -5.6899  -5.6891  -5.6471  -5.6384  -5.6376
    -5.6291  -5.5944  -5.5849  -5.5835  -5.5679  -5.5277  -5.5190  -5.5185
    -5.5165  -5.5039  -5.4626  -5.4513  -5.4375  -5.4357  -5.4217  -5.4147
    -5.3482  -5.3466  -5.3138  -5.2705  -0.5720  -0.5711  -0.5615  -0.4351
    -0.4046  -0.4038  -0.3776  -0.3376  -0.3372  -0.3363  -0.3129  -0.3037
     1.4186   1.4875   1.4883   1.5005   1.6398   1.6514   1.6890   1.7241
     1.7245   1.8285   1.8765   1.8769   1.9539   1.9550   1.9576   2.0276
     2.1157   2.2074   2.2290   2.2299   2.3386   2.3639   2.3867   2.3872
     2.3936   2.4086   2.4498   2.5376   2.5397   2.6124   2.6136   2.6168
     2.6570   2.7360   2.8135   2.8138   2.8223   2.8411   2.8424   2.8451
     2.8537   2.8843   2.9080   2.9087   2.9149   2.9619   2.9625   3.0040
     3.0505   3.0563   3.0575   3.1247   3.1485   3.1756   3.2043   3.2111
     3.2122   3.2347   3.2588   3.2609   3.2689   3.3230   3.3296   3.3306
     3.3390   3.3717   3.3937   3.3952   3.4337   3.4405   3.4414   3.4490
     3.4974   3.4983   3.5004   3.5106   3.5112   3.5130   3.5227   3.5423
     3.5616   3.6050   3.6086   3.6113   3.6354   3.6467   3.6796   3.6810
     3.6939   3.7032   3.7051   3.7087   3.7788   3.7801   3.8494   3.8593
     3.8967   3.9731   3.9744   3.9790   3.9803   4.0308   4.0388   4.0395
     4.0929   4.1117   4.1205   4.1211   4.1261   4.1622   4.1630   4.1777
     4.2487   4.2671   4.2680   4.2829   4.3019   4.3224   4.3237   4.3686
     4.3776   4.4168   4.4183   4.4840   4.5168   4.5274   4.5279   4.5297
     4.5904   4.5920   4.6280   4.7493   5.1432   5.1441   5.1470   5.1548
     5.1599   5.1608   5.1697   5.1745   5.2142   5.2188   5.2197   5.2216
     5.2280   5.2372   5.2484   5.2493   5.2498   5.2606   5.2673   5.2712
     5.2721   5.2894   5.3039   5.3047   5.3136   5.3187   5.3271   5.3275
     5.3364   5.3494   5.3525   5.3531   5.3572   5.3655   5.4131   5.4145
     5.4333   5.4511   5.4611   5.4615   5.4850   5.4930   5.4994   5.5006
     5.5025   5.5123   5.5277   5.5434   5.5563   5.5570   5.5611   5.6030
     5.6040   5.6288   5.6312   5.6319   5.6679   5.6777   5.6953   5.6959
     5.6963   5.7175   5.7296   5.7560   5.7747   5.7753   5.8089   5.8195
     5.8200   5.8629   5.8757   5.8764   5.9497   5.9512   5.9648   5.9661
     5.9899   6.0068   6.0077   6.0202   6.1389   6.1396   6.1449   6.1602
     6.2255   6.2295   6.2299   6.2510   6.2703   6.2877   6.2892   6.2995
     6.3615   6.3624   6.3772   6.3899   6.3903   6.4411   6.4860   6.4865
     6.5240   6.5374   6.5383   6.5756   6.6043   6.6508   6.6841   6.6915
     6.6926   6.7299   6.7372   6.7380   6.7622   6.7773   6.7930   6.8115
     6.8126   6.9035   6.9086   7.0803

          k = 0.3333 0.1925 0.0000 (115797 PWs)   bands (ev):

   -28.2877 -28.2767 -28.2765 -28.2761 -28.2757 -28.2757 -28.2756 -28.2754
   -28.2752 -28.2746 -28.2732 -28.2551 -14.9256 -14.9237 -14.9236 -14.9235
   -14.9233 -14.9231 -14.9230 -14.9221 -14.9219 -14.9215 -14.9212 -14.9199
   -14.9197 -14.9179 -14.9178 -14.9176 -14.9175 -14.9172 -14.9171 -14.9162
   -14.9161 -14.9157 -14.9154 -14.9136 -14.9077 -14.9058 -14.9057 -14.9056
   -14.9053 -14.9052 -14.9050 -14.9041 -14.9040 -14.9036 -14.9033 -14.9019
   -14.8675 -14.8656 -14.8655 -14.8654 -14.8651 -14.8650 -14.8649 -14.8639
   -14.8638 -14.8635 -14.8632 -14.8624 -14.8225 -14.8204 -14.8203 -14.8202
   -14.8200 -14.8198 -14.8196 -14.8187 -14.8187 -14.8183 -14.8179 -14.8159
   -10.3466 -10.3380 -10.3375 -10.3370 -10.3368 -10.3352 -10.3340 -10.3336
   -10.3330 -10.3317 -10.3280 -10.3166 -10.3113 -10.3075 -10.3062 -10.3051
   -10.3031 -10.3023 -10.3018 -10.2995 -10.2942 -10.2918 -10.2883 -10.2805
   -10.2758 -10.2696 -10.2682 -10.2674 -10.2661 -10.2650 -10.2626 -10.2616
   -10.2612 -10.2601 -10.2574 -10.2467  -6.7876  -6.5893  -6.4986  -6.4982
    -6.4385  -6.4378  -6.3645  -6.3495  -6.2847  -6.2840  -6.2481  -6.2476
    -5.9102  -5.9097  -5.8203  -5.8188  -5.8180  -5.7763  -5.7683  -5.7678
    -5.7319  -5.7238  -5.7222  -5.6908  -5.6905  -5.6480  -5.6378  -5.6374
    -5.6293  -5.5961  -5.5840  -5.5828  -5.5673  -5.5276  -5.5189  -5.5184
    -5.5160  -5.5049  -5.4616  -5.4517  -5.4363  -5.4352  -5.4223  -5.4146
    -5.3489  -5.3484  -5.3124  -5.2702  -0.5716  -0.5705  -0.5628  -0.4358
    -0.4040  -0.4029  -0.3770  -0.3388  -0.3385  -0.3374  -0.3116  -0.3023
     1.4189   1.4871   1.4877   1.5011   1.6395   1.6514   1.6877   1.7238
     1.7253   1.8277   1.8764   1.8775   1.9539   1.9564   1.9575   2.0280
     2.1158   2.2064   2.2297   2.2314   2.3399   2.3644   2.3855   2.3867
     2.3935   2.4090   2.4506   2.5362   2.5381   2.6125   2.6134   2.6166
     2.6585   2.7343   2.8129   2.8137   2.8216   2.8410   2.8421   2.8437
     2.8542   2.8854   2.9085   2.9092   2.9154   2.9627   2.9641   3.0045
     3.0496   3.0566   3.0569   3.1237   3.1478   3.1758   3.2038   3.2106
     3.2125   3.2330   3.2605   3.2614   3.2686   3.3232   3.3301   3.3312
     3.3384   3.3721   3.3956   3.3960   3.4335   3.4408   3.4414   3.4500
     3.4970   3.4978   3.4999   3.5101   3.5108   3.5146   3.5218   3.5440
     3.5627   3.6048   3.6067   3.6111   3.6348   3.6460   3.6795   3.6804
     3.6955   3.7025   3.7031   3.7098   3.7787   3.7795   3.8496   3.8599
     3.8954   3.9743   3.9757   3.9777   3.9800   4.0293   4.0385   4.0392
     4.0925   4.1117   4.1208   4.1215   4.1264   4.1631   4.1648   4.1776
     4.2478   4.2664   4.2670   4.2818   4.3038   4.3222   4.3242   4.3678
     4.3798   4.4155   4.4168   4.4831   4.5187   4.5272   4.5280   4.5308
     4.5918   4.5931   4.6261   4.7484   5.1435   5.1444   5.1466   5.1539
     5.1602   5.1607   5.1695   5.1744   5.2145   5.2191   5.2200   5.2216
     5.2276   5.2371   5.2484   5.2497   5.2499   5.2607   5.2674   5.2716
     5.2723   5.2886   5.3039   5.3043   5.3138   5.3182   5.3268   5.3275
     5.3366   5.3499   5.3518   5.3530   5.3571   5.3651   5.4129   5.4140
     5.4336   5.4508   5.4604   5.4615   5.4857   5.4932   5.4998   5.5009
     5.5022   5.5126   5.5274   5.5435   5.5562   5.5565   5.5610   5.6028
     5.6036   5.6307   5.6318   5.6322   5.6676   5.6781   5.6950   5.6964
     5.6966   5.7176   5.7293   5.7558   5.7749   5.7762   5.8089   5.8187
     5.8195   5.8639   5.8751   5.8757   5.9501   5.9510   5.9645   5.9654
     5.9908   6.0066   6.0079   6.0203   6.1388   6.1396   6.1442   6.1602
     6.2247   6.2290   6.2303   6.2519   6.2705   6.2893   6.2896   6.2988
     6.3611   6.3623   6.3773   6.3893   6.3902   6.4406   6.4859   6.4869
     6.5240   6.5377   6.5382   6.5759   6.6047   6.6506   6.6828   6.6924
     6.6932   6.7295   6.7371   6.7378   6.7625   6.7779   6.7923   6.8115
     6.8126   6.9042   6.9088   7.0804

          k = 0.0000-0.3849 0.2714 (115773 PWs)   bands (ev):

   -28.2877 -28.2767 -28.2765 -28.2761 -28.2757 -28.2757 -28.2756 -28.2754
   -28.2752 -28.2746 -28.2732 -28.2551 -14.9256 -14.9238 -14.9236 -14.9234
   -14.9233 -14.9231 -14.9230 -14.9221 -14.9218 -14.9216 -14.9212 -14.9199
   -14.9197 -14.9179 -14.9178 -14.9176 -14.9174 -14.9173 -14.9171 -14.9162
   -14.9160 -14.9157 -14.9154 -14.9136 -14.9077 -14.9058 -14.9057 -14.9056
   -14.9053 -14.9052 -14.9050 -14.9041 -14.9040 -14.9037 -14.9033 -14.9019
   -14.8675 -14.8656 -14.8655 -14.8654 -14.8651 -14.8650 -14.8649 -14.8639
   -14.8638 -14.8635 -14.8632 -14.8624 -14.8225 -14.8204 -14.8203 -14.8202
   -14.8200 -14.8198 -14.8196 -14.8187 -14.8187 -14.8183 -14.8179 -14.8159
   -10.3468 -10.3391 -10.3382 -10.3374 -10.3357 -10.3348 -10.3346 -10.3334
   -10.3323 -10.3303 -10.3287 -10.3174 -10.3113 -10.3091 -10.3073 -10.3049
   -10.3031 -10.3005 -10.2983 -10.2966 -10.2951 -10.2941 -10.2897 -10.2808
   -10.2758 -10.2690 -10.2685 -10.2674 -10.2654 -10.2643 -10.2627 -10.2620
   -10.2613 -10.2607 -10.2586 -10.2461  -6.7507  -6.6463  -6.5613  -6.4681
    -6.4191  -6.4179  -6.3633  -6.3405  -6.3398  -6.2654  -6.2108  -6.2100
    -5.9142  -5.9128  -5.8249  -5.8213  -5.8184  -5.8164  -5.7646  -5.7640
    -5.7535  -5.7333  -5.6828  -5.6819  -5.6815  -5.6634  -5.6420  -5.6409
    -5.6372  -5.6074  -5.5860  -5.5852  -5.5729  -5.5298  -5.5275  -5.5269
    -5.5163  -5.4863  -5.4648  -5.4394  -5.4379  -5.4364  -5.3986  -5.3702
    -5.3446  -5.3428  -5.3317  -5.2960  -0.5630  -0.5616  -0.5520  -0.4331
    -0.4295  -0.4282  -0.4111  -0.3609  -0.3223  -0.3211  -0.2903  -0.2833
     1.4048   1.4937   1.4947   1.5153   1.6126   1.7117   1.7123   1.7231
     1.7366   1.7733   1.8449   1.8463   1.9666   1.9854   2.0215   2.0224
     2.1293   2.1996   2.2085   2.2101   2.2850   2.3339   2.3964   2.4261
     2.4281   2.5195   2.5291   2.5295   2.5575   2.5583   2.5588   2.5603
     2.5993   2.6787   2.7637   2.7654   2.8236   2.8251   2.8258   2.8296
     2.8507   2.8532   2.8953   2.8961   2.9057   3.0081   3.0176   3.0188
     3.0770   3.0787   3.1182   3.1185   3.1337   3.1798   3.1810   3.1883
     3.2125   3.2457   3.2658   3.2852   3.2855   3.2954   3.3303   3.3321
     3.3751   3.3766   3.3786   3.3793   3.4472   3.4477   3.4495   3.4765
     3.4801   3.4805   3.5059   3.5191   3.5336   3.5346   3.5362   3.5586
     3.5866   3.5870   3.6106   3.6316   3.6409   3.6462   3.6827   3.6848
     3.6863   3.6963   3.7041   3.7049   3.8355   3.8376   3.8785   3.8800
     3.9423   3.9457   3.9459   3.9482   3.9716   4.0319   4.0546   4.0563
     4.0598   4.0622   4.1008   4.1015   4.1223   4.1229   4.1298   4.1333
     4.2236   4.2399   4.2676   4.2707   4.2914   4.2925   4.3135   4.3672
     4.3918   4.4336   4.4357   4.4805   4.5211   4.5444   4.5462   4.5856
     4.5960   4.5972   4.6317   4.7296   5.1474   5.1478   5.1531   5.1641
     5.1678   5.1689   5.1695   5.1726   5.1993   5.2049   5.2124   5.2180
     5.2191   5.2289   5.2407   5.2411   5.2603   5.2633   5.2644   5.2653
     5.2657   5.2730   5.3100   5.3104   5.3183   5.3339   5.3464   5.3471
     5.3600   5.3626   5.3634   5.3679   5.3689   5.3801   5.3884   5.3895
     5.4099   5.4333   5.4475   5.4511   5.4517   5.4687   5.4965   5.4974
     5.5170   5.5238   5.5560   5.5572   5.5683   5.5688   5.6018   5.6024
     5.6072   5.6195   5.6310   5.6492   5.6505   5.6609   5.6748   5.7084
     5.7091   5.7387   5.7596   5.7609   5.7708   5.7846   5.8050   5.8054
     5.8146   5.8401   5.8663   5.8681   5.8748   5.8946   5.9682   5.9702
     6.0189   6.0250   6.0255   6.1010   6.1015   6.1121   6.1593   6.1874
     6.2025   6.2033   6.2037   6.2617   6.2635   6.2870   6.3180   6.3425
     6.3547   6.3686   6.3696   6.4124   6.4188   6.4204   6.4520   6.4810
     6.4821   6.5070   6.5577   6.5663   6.6070   6.6075   6.6473   6.6659
     6.6680   6.7369   6.7381   6.7398   6.7481   6.8040   6.8046   6.8506
     6.8659   6.9180   6.9455   7.0384

          k =-0.3333 0.1925 0.2714 (115773 PWs)   bands (ev):

   -28.2877 -28.2767 -28.2765 -28.2761 -28.2757 -28.2757 -28.2756 -28.2754
   -28.2752 -28.2746 -28.2732 -28.2551 -14.9256 -14.9237 -14.9237 -14.9234
   -14.9233 -14.9232 -14.9229 -14.9221 -14.9219 -14.9216 -14.9212 -14.9199
   -14.9197 -14.9178 -14.9178 -14.9176 -14.9174 -14.9173 -14.9170 -14.9162
   -14.9161 -14.9157 -14.9154 -14.9136 -14.9077 -14.9058 -14.9057 -14.9056
   -14.9053 -14.9052 -14.9050 -14.9041 -14.9040 -14.9036 -14.9033 -14.9019
   -14.8675 -14.8656 -14.8655 -14.8654 -14.8651 -14.8650 -14.8649 -14.8639
   -14.8638 -14.8635 -14.8632 -14.8624 -14.8225 -14.8204 -14.8203 -14.8202
   -14.8200 -14.8198 -14.8196 -14.8187 -14.8187 -14.8183 -14.8179 -14.8159
   -10.3465 -10.3392 -10.3381 -10.3367 -10.3365 -10.3350 -10.3343 -10.3337
   -10.3318 -10.3308 -10.3287 -10.3170 -10.3120 -10.3090 -10.3058 -10.3050
   -10.3034 -10.3013 -10.2981 -10.2970 -10.2952 -10.2941 -10.2898 -10.2806
   -10.2754 -10.2692 -10.2683 -10.2678 -10.2663 -10.2643 -10.2626 -10.2622
   -10.2612 -10.2600 -10.2584 -10.2461  -6.7507  -6.6463  -6.5613  -6.4681
    -6.4189  -6.4180  -6.3633  -6.3407  -6.3398  -6.2652  -6.2110  -6.2099
    -5.9144  -5.9129  -5.8249  -5.8211  -5.8180  -5.8162  -5.7649  -5.7642
    -5.7540  -5.7331  -5.6823  -5.6820  -5.6814  -5.6639  -5.6416  -5.6410
    -5.6368  -5.6069  -5.5864  -5.5851  -5.5724  -5.5297  -5.5274  -5.5269
    -5.5167  -5.4865  -5.4650  -5.4395  -5.4382  -5.4363  -5.3984  -5.3702
    -5.3441  -5.3425  -5.3326  -5.2961  -0.5633  -0.5622  -0.5508  -0.4328
    -0.4293  -0.4285  -0.4119  -0.3608  -0.3218  -0.3210  -0.2903  -0.2837
     1.4048   1.4945   1.4951   1.5147   1.6122   1.7116   1.7124   1.7222
     1.7374   1.7732   1.8447   1.8463   1.9670   1.9858   2.0204   2.0231
     2.1294   2.1996   2.2082   2.2095   2.2855   2.3333   2.3961   2.4271
     2.4282   2.5188   2.5291   2.5298   2.5576   2.5581   2.5591   2.5597
     2.5994   2.6785   2.7638   2.7647   2.8241   2.8254   2.8257   2.8307
     2.8506   2.8529   2.8952   2.8967   2.9061   3.0080   3.0176   3.0191
     3.0768   3.0789   3.1171   3.1187   3.1338   3.1799   3.1812   3.1882
     3.2140   3.2458   3.2662   3.2838   3.2852   3.2951   3.3308   3.3316
     3.3737   3.3760   3.3775   3.3787   3.4472   3.4482   3.4498   3.4773
     3.4796   3.4809   3.5058   3.5182   3.5339   3.5347   3.5360   3.5579
     3.5866   3.5889   3.6109   3.6320   3.6405   3.6446   3.6832   3.6850
     3.6867   3.6959   3.7034   3.7078   3.8361   3.8372   3.8781   3.8801
     3.9422   3.9444   3.9459   3.9486   3.9729   4.0324   4.0545   4.0566
     4.0604   4.0614   4.1003   4.1007   4.1219   4.1223   4.1299   4.1335
     4.2242   4.2410   4.2684   4.2694   4.2910   4.2919   4.3128   4.3665
     4.3922   4.4347   4.4361   4.4804   4.5202   4.5447   4.5461   4.5849
     4.5952   4.5975   4.6323   4.7305   5.1475   5.1480   5.1537   5.1644
     5.1682   5.1687   5.1690   5.1729   5.1995   5.2048   5.2122   5.2183
     5.2186   5.2288   5.2403   5.2411   5.2599   5.2641   5.2646   5.2651
     5.2661   5.2727   5.3093   5.3104   5.3185   5.3331   5.3466   5.3468
     5.3595   5.3630   5.3634   5.3684   5.3697   5.3809   5.3885   5.3892
     5.4095   5.4331   5.4479   5.4507   5.4517   5.4683   5.4964   5.4977
     5.5168   5.5238   5.5558   5.5567   5.5683   5.5692   5.6019   5.6025
     5.6071   5.6204   5.6304   5.6500   5.6504   5.6602   5.6740   5.7082
     5.7088   5.7389   5.7595   5.7607   5.7704   5.7844   5.8054   5.8059
     5.8146   5.8393   5.8674   5.8678   5.8747   5.8941   5.9691   5.9702
     6.0188   6.0254   6.0257   6.1009   6.1019   6.1118   6.1587   6.1874
     6.2026   6.2035   6.2040   6.2623   6.2637   6.2877   6.3178   6.3423
     6.3542   6.3684   6.3689   6.4129   6.4198   6.4202   6.4524   6.4811
     6.4820   6.5068   6.5577   6.5666   6.6063   6.6072   6.6472   6.6668
     6.6674   6.7363   6.7376   6.7401   6.7481   6.8040   6.8049   6.8505
     6.8653   6.9180   6.9459   7.0382

          k = 0.3333 0.1925 0.2714 (115773 PWs)   bands (ev):

   -28.2877 -28.2767 -28.2765 -28.2761 -28.2757 -28.2757 -28.2756 -28.2754
   -28.2752 -28.2746 -28.2732 -28.2551 -14.9256 -14.9237 -14.9236 -14.9235
   -14.9233 -14.9231 -14.9230 -14.9221 -14.9219 -14.9215 -14.9212 -14.9199
   -14.9197 -14.9179 -14.9178 -14.9176 -14.9175 -14.9172 -14.9171 -14.9162
   -14.9161 -14.9157 -14.9154 -14.9136 -14.9077 -14.9058 -14.9057 -14.9056
   -14.9053 -14.9052 -14.9050 -14.9041 -14.9040 -14.9036 -14.9033 -14.9019
   -14.8675 -14.8656 -14.8655 -14.8654 -14.8651 -14.8650 -14.8649 -14.8639
   -14.8638 -14.8635 -14.8632 -14.8624 -14.8225 -14.8204 -14.8203 -14.8202
   -14.8200 -14.8198 -14.8196 -14.8187 -14.8187 -14.8183 -14.8179 -14.8159
   -10.3467 -10.3386 -10.3384 -10.3375 -10.3372 -10.3351 -10.3342 -10.3326
   -10.3324 -10.3301 -10.3287 -10.3169 -10.3117 -10.3087 -10.3069 -10.3051
   -10.3036 -10.3023 -10.2981 -10.2953 -10.2949 -10.2938 -10.2892 -10.2814
   -10.2757 -10.2692 -10.2683 -10.2676 -10.2665 -10.2643 -10.2621 -10.2617
   -10.2612 -10.2604 -10.2583 -10.2468  -6.7507  -6.6462  -6.5606  -6.4686
    -6.4197  -6.4190  -6.3634  -6.3401  -6.3393  -6.2652  -6.2107  -6.2096
    -5.9128  -5.9124  -5.8245  -5.8220  -5.8183  -5.8175  -5.7651  -5.7645
    -5.7522  -5.7340  -5.6832  -5.6824  -5.6817  -5.6625  -5.6420  -5.6411
    -5.6388  -5.6076  -5.5851  -5.5844  -5.5723  -5.5308  -5.5276  -5.5264
    -5.5159  -5.4856  -5.4657  -5.4392  -5.4367  -5.4364  -5.4002  -5.3699
    -5.3447  -5.3442  -5.3303  -5.2959  -0.5627  -0.5615  -0.5525  -0.4337
    -0.4292  -0.4286  -0.4104  -0.3605  -0.3226  -0.3221  -0.2896  -0.2829
     1.4052   1.4941   1.4942   1.5155   1.6117   1.7116   1.7125   1.7219
     1.7364   1.7725   1.8453   1.8472   1.9657   1.9860   2.0221   2.0230
     2.1298   2.1989   2.2086   2.2097   2.2858   2.3352   2.3976   2.4267
     2.4276   2.5178   2.5293   2.5299   2.5569   2.5578   2.5585   2.5588
     2.6002   2.6795   2.7634   2.7654   2.8237   2.8242   2.8253   2.8295
     2.8497   2.8525   2.8957   2.8971   2.9060   3.0087   3.0187   3.0202
     3.0758   3.0782   3.1180   3.1184   3.1340   3.1795   3.1814   3.1883
     3.2125   3.2457   3.2657   3.2854   3.2859   3.2950   3.3303   3.3309
     3.3748   3.3770   3.3792   3.3804   3.4464   3.4474   3.4503   3.4764
     3.4796   3.4802   3.5060   3.5202   3.5340   3.5344   3.5369   3.5587
     3.5860   3.5877   3.6111   3.6309   3.6395   3.6445   3.6826   3.6834
     3.6882   3.6969   3.7042   3.7063   3.8360   3.8365   3.8787   3.8804
     3.9415   3.9456   3.9468   3.9477   3.9712   4.0322   4.0534   4.0568
     4.0604   4.0606   4.1007   4.1015   4.1225   4.1241   4.1308   4.1335
     4.2229   4.2395   4.2680   4.2693   4.2905   4.2918   4.3140   4.3687
     4.3917   4.4332   4.4350   4.4810   4.5229   4.5442   4.5448   4.5864
     4.5971   4.5982   4.6308   4.7291   5.1473   5.1482   5.1525   5.1644
     5.1682   5.1687   5.1693   5.1724   5.1993   5.2044   5.2122   5.2180
     5.2199   5.2291   5.2410   5.2415   5.2601   5.2639   5.2644   5.2648
     5.2653   5.2732   5.3099   5.3102   5.3182   5.3339   5.3460   5.3469
     5.3600   5.3626   5.3629   5.3675   5.3692   5.3805   5.3884   5.3891
     5.4099   5.4329   5.4469   5.4511   5.4516   5.4693   5.4966   5.4975
     5.5167   5.5241   5.5560   5.5572   5.5680   5.5691   5.6017   5.6025
     5.6074   5.6197   5.6315   5.6501   5.6509   5.6602   5.6748   5.7084
     5.7095   5.7389   5.7597   5.7605   5.7709   5.7838   5.8046   5.8053
     5.8145   5.8391   5.8668   5.8675   5.8744   5.8959   5.9685   5.9697
     6.0195   6.0254   6.0262   6.1012   6.1024   6.1111   6.1594   6.1868
     6.2021   6.2030   6.2038   6.2619   6.2634   6.2866   6.3186   6.3418
     6.3547   6.3688   6.3697   6.4130   6.4189   6.4193   6.4520   6.4812
     6.4821   6.5071   6.5581   6.5661   6.6073   6.6077   6.6472   6.6667
     6.6671   6.7372   6.7384   6.7393   6.7483   6.8036   6.8047   6.8505
     6.8662   6.9178   6.9452   7.0386

          k =-0.3333-0.1925 0.2714 (115773 PWs)   bands (ev):

   -28.2877 -28.2767 -28.2765 -28.2761 -28.2757 -28.2757 -28.2756 -28.2754
   -28.2752 -28.2746 -28.2732 -28.2551 -14.9256 -14.9237 -14.9236 -14.9235
   -14.9233 -14.9231 -14.9230 -14.9221 -14.9219 -14.9215 -14.9212 -14.9199
   -14.9197 -14.9179 -14.9178 -14.9176 -14.9175 -14.9172 -14.9171 -14.9162
   -14.9161 -14.9157 -14.9154 -14.9136 -14.9077 -14.9058 -14.9057 -14.9056
   -14.9053 -14.9052 -14.9050 -14.9041 -14.9040 -14.9036 -14.9033 -14.9019
   -14.8675 -14.8656 -14.8655 -14.8654 -14.8651 -14.8650 -14.8649 -14.8639
   -14.8638 -14.8635 -14.8632 -14.8624 -14.8225 -14.8204 -14.8203 -14.8202
   -14.8200 -14.8198 -14.8196 -14.8187 -14.8187 -14.8183 -14.8179 -14.8159
   -10.3467 -10.3386 -10.3384 -10.3376 -10.3373 -10.3350 -10.3335 -10.3331
   -10.3324 -10.3305 -10.3284 -10.3170 -10.3116 -10.3089 -10.3069 -10.3061
   -10.3020 -10.3008 -10.2997 -10.2962 -10.2950 -10.2926 -10.2900 -10.2812
   -10.2756 -10.2694 -10.2682 -10.2669 -10.2661 -10.2649 -10.2629 -10.2615
   -10.2606 -10.2602 -10.2587 -10.2468  -6.7504  -6.6466  -6.5600  -6.4717
    -6.4229  -6.4223  -6.3636  -6.3285  -6.3274  -6.2588  -6.2245  -6.2235
    -5.9042  -5.9038  -5.8239  -5.8217  -5.8079  -5.8073  -5.7906  -5.7602
    -5.7601  -5.7318  -5.7113  -5.7105  -5.6709  -5.6358  -5.6291  -5.6275
    -5.6271  -5.6085  -5.5996  -5.5982  -5.5688  -5.5289  -5.5223  -5.5214
    -5.5197  -5.4971  -5.4668  -5.4319  -5.4283  -5.4276  -5.4230  -5.3640
    -5.3486  -5.3478  -5.3211  -5.2992  -0.5604  -0.5590  -0.5580  -0.4364
    -0.4355  -0.4258  -0.3933  -0.3729  -0.3193  -0.3188  -0.2985  -0.2786
     1.4336   1.4852   1.4856   1.4875   1.6254   1.6409   1.7722   1.7735
     1.7816   1.7892   1.8002   1.8014   1.9145   1.9968   1.9978   2.0775
     2.1561   2.1994   2.2099   2.2477   2.2485   2.3615   2.3926   2.3932
     2.3994   2.4482   2.5111   2.5126   2.5480   2.5901   2.5908   2.6089
     2.6419   2.7109   2.7610   2.7684   2.7691   2.7894   2.8090   2.8093
     2.8385   2.8745   2.9158   2.9169   2.9189   2.9826   3.0243   3.0261
     3.0670   3.1062   3.1070   3.1319   3.1706   3.1913   3.1933   3.1935
     3.1999   3.2320   3.2640   3.2650   3.2760   3.3177   3.3214   3.3221
     3.3239   3.3895   3.3902   3.4109   3.4451   3.4460   3.4685   3.4692
     3.4718   3.4732   3.4765   3.4772   3.5335   3.5355   3.5365   3.5908
     3.6111   3.6125   3.6137   3.6333   3.6433   3.6469   3.6590   3.6603
     3.6700   3.7101   3.7111   3.7129   3.8354   3.8357   3.8799   3.8884
     3.9035   3.9498   3.9516   3.9749   3.9815   4.0193   4.0476   4.0491
     4.0500   4.0662   4.1104   4.1117   4.1198   4.1329   4.1347   4.1482
     4.1902   4.2551   4.2667   4.2674   4.2881   4.2897   4.2946   4.3886
     4.3975   4.4369   4.4382   4.4675   4.5241   4.5251   4.5370   4.5970
     4.6114   4.6126   4.6217   4.7209   5.1502   5.1517   5.1543   5.1561
     5.1713   5.1755   5.1762   5.1835   5.1902   5.1976   5.2008   5.2075
     5.2084   5.2343   5.2347   5.2356   5.2542   5.2635   5.2652   5.2660
     5.2786   5.2978   5.3074   5.3129   5.3130   5.3285   5.3358   5.3365
     5.3579   5.3584   5.3596   5.3637   5.3801   5.3922   5.4064   5.4075
     5.4134   5.4317   5.4331   5.4444   5.4452   5.4924   5.5008   5.5026
     5.5090   5.5154   5.5536   5.5596   5.5739   5.5747   5.6027   5.6109
     5.6115   5.6188   5.6250   5.6256   5.6426   5.6699   5.6812   5.7139
     5.7147   5.7171   5.7339   5.7722   5.7728   5.7737   5.8018   5.8024
     5.8106   5.8576   5.8747   5.8750   5.8793   5.9144   5.9589   5.9596
     6.0339   6.0350   6.0355   6.0594   6.0788   6.0795   6.1727   6.2067
     6.2121   6.2137   6.2661   6.2669   6.2691   6.2770   6.2853   6.3481
     6.3492   6.3651   6.3715   6.4149   6.4243   6.4248   6.4274   6.4709
     6.4976   6.4988   6.5460   6.5592   6.5956   6.5960   6.6670   6.6673
     6.6769   6.7195   6.7356   6.7365   6.7464   6.8130   6.8139   6.8440
     6.8691   6.9282   6.9369   7.0519

          k = 0.3333-0.1925 0.2714 (115773 PWs)   bands (ev):

   -28.2877 -28.2767 -28.2765 -28.2761 -28.2757 -28.2757 -28.2756 -28.2754
   -28.2752 -28.2746 -28.2732 -28.2551 -14.9256 -14.9237 -14.9237 -14.9234
   -14.9233 -14.9232 -14.9229 -14.9221 -14.9219 -14.9216 -14.9212 -14.9199
   -14.9197 -14.9178 -14.9178 -14.9176 -14.9174 -14.9173 -14.9170 -14.9162
   -14.9161 -14.9157 -14.9154 -14.9136 -14.9077 -14.9058 -14.9057 -14.9056
   -14.9053 -14.9052 -14.9050 -14.9041 -14.9040 -14.9036 -14.9033 -14.9019
   -14.8675 -14.8656 -14.8655 -14.8654 -14.8651 -14.8650 -14.8649 -14.8639
   -14.8638 -14.8635 -14.8632 -14.8624 -14.8225 -14.8204 -14.8203 -14.8202
   -14.8200 -14.8198 -14.8196 -14.8187 -14.8187 -14.8183 -14.8179 -14.8159
   -10.3465 -10.3391 -10.3380 -10.3369 -10.3366 -10.3351 -10.3345 -10.3335
   -10.3318 -10.3306 -10.3287 -10.3171 -10.3120 -10.3086 -10.3061 -10.3058
   -10.3020 -10.3008 -10.3002 -10.2974 -10.2949 -10.2929 -10.2895 -10.2808
   -10.2757 -10.2698 -10.2688 -10.2667 -10.2658 -10.2641 -10.2635 -10.2624
   -10.2609 -10.2594 -10.2587 -10.2461  -6.7506  -6.6464  -6.5604  -6.4717
    -6.4222  -6.4213  -6.3637  -6.3290  -6.3281  -6.2584  -6.2247  -6.2238
    -5.9057  -5.9040  -5.8223  -5.8215  -5.8086  -5.8065  -5.7928  -5.7599
    -5.7596  -5.7318  -5.7102  -5.7093  -5.6722  -5.6347  -5.6284  -5.6276
    -5.6267  -5.6075  -5.6001  -5.5993  -5.5686  -5.5279  -5.5225  -5.5222
    -5.5210  -5.4958  -5.4681  -5.4329  -5.4297  -5.4276  -5.4220  -5.3630
    -5.3477  -5.3461  -5.3227  -5.2999  -0.5599  -0.5588  -0.5586  -0.4362
    -0.4355  -0.4244  -0.3942  -0.3739  -0.3185  -0.3178  -0.2995  -0.2791
     1.4332   1.4853   1.4861   1.4872   1.6254   1.6415   1.7728   1.7741
     1.7824   1.7906   1.7994   1.8006   1.9145   1.9943   1.9974   2.0775
     2.1552   2.2004   2.2113   2.2469   2.2482   2.3592   2.3934   2.3942
     2.3979   2.4493   2.5117   2.5137   2.5466   2.5900   2.5912   2.6077
     2.6434   2.7116   2.7620   2.7677   2.7687   2.7895   2.8091   2.8110
     2.8389   2.8743   2.9153   2.9165   2.9191   2.9814   3.0232   3.0248
     3.0683   3.1063   3.1069   3.1327   3.1705   3.1921   3.1930   3.1943
     3.2008   3.2315   3.2633   3.2645   3.2771   3.3182   3.3207   3.3218
     3.3238   3.3867   3.3896   3.4107   3.4452   3.4463   3.4690   3.4701
     3.4718   3.4728   3.4750   3.4769   3.5332   3.5359   3.5369   3.5917
     3.6107   3.6127   3.6137   3.6331   3.6421   3.6481   3.6586   3.6620
     3.6670   3.7108   3.7116   3.7154   3.8351   3.8361   3.8794   3.8889
     3.9048   3.9488   3.9503   3.9747   3.9828   4.0206   4.0478   4.0492
     4.0499   4.0663   4.1103   4.1112   4.1199   4.1327   4.1334   4.1473
     4.1915   4.2553   4.2668   4.2679   4.2887   4.2894   4.2939   4.3868
     4.3972   4.4380   4.4398   4.4678   4.5244   4.5258   4.5348   4.5960
     4.6102   4.6121   4.6232   4.7216   5.1502   5.1511   5.1545   5.1567
     5.1720   5.1757   5.1760   5.1831   5.1906   5.1977   5.2010   5.2071
     5.2083   5.2343   5.2347   5.2353   5.2544   5.2638   5.2651   5.2658
     5.2791   5.2977   5.3074   5.3122   5.3133   5.3284   5.3367   5.3374
     5.3576   5.3586   5.3599   5.3628   5.3799   5.3930   5.4065   5.4068
     5.4122   5.4309   5.4334   5.4443   5.4451   5.4926   5.5014   5.5030
     5.5091   5.5160   5.5528   5.5596   5.5740   5.5749   5.6019   5.6103
     5.6114   5.6187   5.6248   5.6253   5.6425   5.6696   5.6821   5.7141
     5.7145   5.7169   5.7335   5.7719   5.7728   5.7734   5.8025   5.8033
     5.8098   5.8577   5.8755   5.8760   5.8778   5.9144   5.9590   5.9602
     6.0339   6.0347   6.0353   6.0591   6.0788   6.0794   6.1727   6.2062
     6.2124   6.2141   6.2658   6.2667   6.2700   6.2769   6.2856   6.3487
     6.3493   6.3659   6.3718   6.4147   6.4243   6.4250   6.4269   6.4714
     6.4977   6.4988   6.5456   6.5593   6.5946   6.5956   6.6665   6.6671
     6.6765   6.7193   6.7356   6.7369   6.7481   6.8126   6.8138   6.8445
     6.8681   6.9282   6.9366   7.0518

          k =-0.3333-0.5774 0.2714 (115827 PWs)   bands (ev):

   -28.2877 -28.2767 -28.2765 -28.2761 -28.2757 -28.2757 -28.2756 -28.2754
   -28.2752 -28.2746 -28.2732 -28.2551 -14.9256 -14.9237 -14.9236 -14.9235
   -14.9233 -14.9231 -14.9230 -14.9221 -14.9219 -14.9216 -14.9212 -14.9199
   -14.9197 -14.9179 -14.9178 -14.9177 -14.9174 -14.9173 -14.9171 -14.9162
   -14.9161 -14.9157 -14.9154 -14.9136 -14.9077 -14.9058 -14.9057 -14.9056
   -14.9053 -14.9052 -14.9050 -14.9041 -14.9040 -14.9036 -14.9033 -14.9019
   -14.8675 -14.8656 -14.8655 -14.8654 -14.8651 -14.8650 -14.8649 -14.8639
   -14.8638 -14.8635 -14.8632 -14.8624 -14.8225 -14.8204 -14.8203 -14.8202
   -14.8200 -14.8198 -14.8196 -14.8187 -14.8187 -14.8183 -14.8179 -14.8159
   -10.3464 -10.3384 -10.3377 -10.3369 -10.3366 -10.3343 -10.3335 -10.3331
   -10.3318 -10.3307 -10.3300 -10.3171 -10.3111 -10.3079 -10.3072 -10.3052
   -10.3023 -10.2999 -10.2986 -10.2975 -10.2951 -10.2927 -10.2916 -10.2816
   -10.2756 -10.2689 -10.2681 -10.2667 -10.2656 -10.2649 -10.2640 -10.2630
   -10.2615 -10.2600 -10.2594 -10.2468  -6.6183  -6.6181  -6.6170  -6.5249
    -6.5247  -6.5236  -6.3079  -6.2893  -6.2892  -6.2879  -6.2573  -6.2144
    -5.8745  -5.8573  -5.8448  -5.7801  -5.7794  -5.7788  -5.7422  -5.7417
    -5.7409  -5.7153  -5.6881  -5.6877  -5.6872  -5.6727  -5.6721  -5.6714
    -5.6707  -5.6432  -5.5565  -5.5559  -5.5551  -5.5247  -5.5244  -5.5240
    -5.5049  -5.5033  -5.5027  -5.5021  -5.4586  -5.3982  -5.3976  -5.3971
    -5.3578  -5.3229  -5.3225  -5.3217  -0.5207  -0.5060  -0.5055  -0.5050
    -0.4609  -0.4176  -0.4170  -0.4162  -0.3549  -0.2935  -0.2926  -0.2914
     1.4814   1.4822   1.4834   1.6379   1.6388   1.6400   1.6896   1.7749
     1.7762   1.7766   1.7775   1.7945   1.9801   1.9817   1.9827   2.0550
     2.1706   2.1919   2.1934   2.1942   2.2472   2.3969   2.3981   2.3984
     2.4889   2.4894   2.4901   2.5578   2.5877   2.5881   2.5889   2.5926
     2.6781   2.7362   2.7369   2.7384   2.8226   2.8234   2.8246   2.8285
     2.9016   2.9027   2.9031   2.9245   2.9363   2.9547   2.9556   2.9569
     3.0594   3.0606   3.0609   3.0874   3.0889   3.0897   3.1266   3.1801
     3.2444   3.2449   3.2454   3.2699   3.2712   3.2717   3.3206   3.3268
     3.3277   3.3286   3.3741   3.4075   3.4207   3.4646   3.4655   3.4661
     3.4925   3.4988   3.4992   3.4999   3.5363   3.5370   3.5379   3.5403
     3.5608   3.6160   3.6165   3.6176   3.6542   3.6547   3.6577   3.6974
     3.6979   3.7002   3.7199   3.7445   3.8218   3.8408   3.8415   3.8423
     3.9375   3.9395   3.9407   3.9426   4.0294   4.0300   4.0305   4.0408
     4.0677   4.0684   4.0694   4.1088   4.1135   4.1146   4.1148   4.1683
     4.2723   4.2735   4.2741   4.2900   4.3145   4.3609   4.3619   4.3628
     4.4159   4.4174   4.4187   4.4927   4.4936   4.4943   4.5076   4.5121
     4.5652   4.6665   4.6674   4.6692   5.1489   5.1567   5.1572   5.1576
     5.1577   5.1823   5.1825   5.1834   5.1976   5.1982   5.1989   5.2107
     5.2244   5.2251   5.2256   5.2511   5.2521   5.2526   5.2565   5.2687
     5.3008   5.3018   5.3021   5.3088   5.3283   5.3292   5.3301   5.3676
     5.3683   5.3687   5.3749   5.3935   5.3951   5.4081   5.4089   5.4094
     5.4324   5.4330   5.4337   5.4386   5.4840   5.4846   5.4857   5.4905
     5.5389   5.5396   5.5399   5.5436   5.5661   5.5663   5.5670   5.6055
     5.6060   5.6065   5.6383   5.6388   5.6716   5.6725   5.6730   5.7029
     5.7035   5.7041   5.7171   5.7584   5.7596   5.7598   5.8013   5.8076
     5.8207   5.8232   5.8241   5.8252   5.8896   5.8907   5.8918   6.0569
     6.0601   6.0605   6.0613   6.0774   6.1197   6.1204   6.1214   6.1347
     6.1959   6.2371   6.2379   6.2384   6.2840   6.3016   6.3022   6.3027
     6.3063   6.3849   6.3858   6.3861   6.4502   6.4670   6.4680   6.4690
     6.4912   6.4922   6.5591   6.5595   6.5604   6.6453   6.6846   6.6856
     6.6859   6.7598   6.7776   6.7784   6.7788   6.7931   6.8539   6.8546
     6.8553   6.9352   6.9360   6.9367

     highest occupied level (ev):     7.1804

!    total energy              =   -9077.18776902 Ry
     estimated scf accuracy    <          4.3E-10 Ry

     The total energy is the sum of the following terms:
     one-electron contribution =   -2776.51850385 Ry
     hartree contribution      =    2020.01442508 Ry
     xc contribution           =   -2269.38700325 Ry
     ewald contribution        =   -3895.50025549 Ry
     one-center paw contrib.   =   -2155.79643152 Ry

     convergence has been achieved in  22 iterations

     negative rho (up, down):  7.902E-01 0.000E+00

     Forces acting on atoms (cartesian axes, Ry/au):

     atom    1 type  1   force =    -0.00059797    0.00044545   -0.00066766
     atom    2 type  1   force =    -0.00014925    0.00025844   -0.00005614
     atom    3 type  1   force =    -0.00016980    0.00028805   -0.00001355
     atom    4 type  1   force =    -0.00012288    0.00036630   -0.00000409
     atom    5 type  1   force =    -0.00025870   -0.00016712   -0.00033590
     atom    6 type  1   force =    -0.00018134   -0.00024046   -0.00005312
     atom    7 type  1   force =    -0.00017859   -0.00026467   -0.00000921
     atom    8 type  1   force =    -0.00012156   -0.00028958   -0.00002607
     atom    9 type  1   force =     0.00031258    0.00000138    0.00004554
     atom   10 type  1   force =     0.00030788   -0.00000576    0.00006288
     atom   11 type  1   force =     0.00030461    0.00000953    0.00005973
     atom   12 type  1   force =     0.00030416    0.00000191    0.00004375
     atom   13 type  2   force =     0.00088989   -0.00141944   -0.00058675
     atom   14 type  2   force =     0.00020658   -0.00039103    0.00016793
     atom   15 type  2   force =     0.00020328   -0.00040406    0.00017904
     atom   16 type  2   force =     0.00021609   -0.00039362    0.00018385
     atom   17 type  2   force =     0.00023681    0.00036650    0.00021677
     atom   18 type  2   force =     0.00022353    0.00036982    0.00020243
     atom   19 type  2   force =     0.00022813    0.00037060    0.00020020
     atom   20 type  2   force =     0.00022864    0.00036865    0.00020354
     atom   21 type  2   force =    -0.00041385   -0.00000603    0.00020172
     atom   22 type  2   force =    -0.00043170    0.00000244    0.00018545
     atom   23 type  2   force =    -0.00043426    0.00002895    0.00020634
     atom   24 type  2   force =    -0.00044509    0.00004737    0.00023344
     atom   25 type  2   force =    -0.00043305   -0.00001157   -0.00018128
     atom   26 type  2   force =    -0.00046250   -0.00006366   -0.00017053
     atom   27 type  2   force =    -0.00043478   -0.00003529   -0.00019313
     atom   28 type  2   force =    -0.00044478   -0.00002373   -0.00018457
     atom   29 type  2   force =     0.00170638    0.00004425   -0.00104410
     atom   30 type  2   force =     0.00021874    0.00034937   -0.00022401
     atom   31 type  2   force =     0.00020920    0.00037371   -0.00019806
     atom   32 type  2   force =     0.00020465    0.00037924   -0.00020985
     atom   33 type  2   force =     0.00023761   -0.00037034   -0.00017270
     atom   34 type  2   force =     0.00023686   -0.00037666   -0.00015330
     atom   35 type  2   force =     0.00023651   -0.00036474   -0.00016946
     atom   36 type  2   force =     0.00023533   -0.00036521   -0.00017413
     atom   37 type  3   force =     0.00026079   -0.00027559    0.00014376
     atom   38 type  3   force =     0.00030502   -0.00048997    0.00002737
     atom   39 type  3   force =     0.00027994   -0.00051023    0.00000487
     atom   40 type  3   force =     0.00027628   -0.00046978    0.00003273
     atom   41 type  3   force =     0.00024820    0.00052352    0.00011268
     atom   42 type  3   force =     0.00028013    0.00046155    0.00007420
     atom   43 type  3   force =     0.00028736    0.00042140    0.00001206
     atom   44 type  3   force =     0.00025784    0.00046577    0.00003248
     atom   45 type  3   force =    -0.00049542    0.00004265   -0.00009517
     atom   46 type  3   force =    -0.00032769    0.00038253   -0.00088610
     atom   47 type  3   force =    -0.00061272    0.00001321   -0.00009411
     atom   48 type  3   force =    -0.00049292    0.00000850    0.00001212
     atom   49 type  4   force =     0.00034784   -0.00009912   -0.00009997
     atom   50 type  4   force =     0.00035449   -0.00009276   -0.00000270
     atom   51 type  4   force =     0.00035120   -0.00008802   -0.00000089
     atom   52 type  4   force =     0.00035055   -0.00009717   -0.00001363
     atom   53 type  4   force =     0.00023886    0.00059511   -0.00054571
     atom   54 type  4   force =    -0.00019807    0.00033518   -0.00001159
     atom   55 type  4   force =    -0.00010154    0.00035131    0.00000631
     atom   56 type  4   force =    -0.00008576    0.00034230   -0.00000417
     atom   57 type  4   force =    -0.00021049   -0.00061639   -0.00012327
     atom   58 type  4   force =    -0.00026754   -0.00026220    0.00001739
     atom   59 type  4   force =    -0.00037776   -0.00019960    0.00003356
     atom   60 type  4   force =    -0.00018532   -0.00018177    0.00016359
     atom   61 type  4   force =     0.00004589    0.00018538   -0.00007198
     atom   62 type  4   force =    -0.00080034   -0.00013387   -0.00010636
     atom   63 type  4   force =    -0.00018643    0.00034736    0.00002071
     atom   64 type  4   force =    -0.00025372    0.00027146    0.00000273
     atom   65 type  4   force =     0.00035235    0.00010731   -0.00007081
     atom   66 type  4   force =     0.00035066    0.00011654   -0.00004913
     atom   67 type  4   force =     0.00035160    0.00011907   -0.00003807
     atom   68 type  4   force =     0.00035827    0.00010537   -0.00003608
     atom   69 type  4   force =    -0.00013317   -0.00035239   -0.00002180
     atom   70 type  4   force =     0.00024882   -0.00068117   -0.00084530
     atom   71 type  4   force =    -0.00007637   -0.00032549   -0.00005128
     atom   72 type  4   force =    -0.00008371   -0.00034928    0.00000385
     atom   73 type  4   force =    -0.00259160    0.00147123    0.00475932
     atom   74 type  4   force =     0.00001668    0.00016442   -0.00022054
     atom   75 type  4   force =     0.00003193    0.00016969   -0.00024129
     atom   76 type  4   force =     0.00002793    0.00012509   -0.00020891
     atom   77 type  4   force =    -0.00014605   -0.00010737   -0.00033518
     atom   78 type  4   force =    -0.00011130   -0.00008815   -0.00028723
     atom   79 type  4   force =    -0.00014304   -0.00006701   -0.00026011
     atom   80 type  4   force =    -0.00014004   -0.00005541   -0.00025810
     atom   81 type  4   force =     0.00015869   -0.00001203   -0.00033942
     atom   82 type  4   force =     0.00013373   -0.00008379   -0.00026156
     atom   83 type  4   force =     0.00013664   -0.00009508   -0.00026026
     atom   84 type  4   force =     0.00012898   -0.00008392   -0.00028897
     atom   85 type  4   force =     0.00011036    0.00012125    0.00019768
     atom   86 type  4   force =     0.00013064    0.00011126    0.00023393
     atom   87 type  4   force =     0.00013650    0.00010323    0.00023377
     atom   88 type  4   force =     0.00014110    0.00008744    0.00023465
     atom   89 type  4   force =     0.00013529   -0.00014520    0.00035004
     atom   90 type  4   force =     0.00009552   -0.00034320    0.00034668
     atom   91 type  4   force =    -0.00002353   -0.00014243    0.00028278
     atom   92 type  4   force =    -0.00000581   -0.00020701    0.00042975
     atom   93 type  4   force =    -0.00014482    0.00006495    0.00021952
     atom   94 type  4   force =    -0.00011932    0.00001849    0.00011607
     atom   95 type  4   force =    -0.00013463    0.00007495    0.00021963
     atom   96 type  4   force =    -0.00014829    0.00006888    0.00024047

     Total force =     0.007636     Total SCF correction =     0.000064
     Message from routine punch:
     Nothing written, as per user request (disk_io='none')

     init_run     :     41.34s CPU     43.47s WALL (       1 calls)
     electrons    :   2150.33s CPU   2241.98s WALL (       1 calls)
     forces       :     17.82s CPU     18.28s WALL (       1 calls)

     Called by init_run:
     wfcinit      :     37.49s CPU     39.33s WALL (       1 calls)
     potinit      :      1.16s CPU      1.20s WALL (       1 calls)
     hinit0       :      1.05s CPU      1.09s WALL (       1 calls)

     Called by electrons:
     c_bands      :   1888.10s CPU   1961.66s WALL (      22 calls)
     sum_band     :    233.83s CPU    247.82s WALL (      22 calls)
     v_of_rho     :      4.65s CPU      5.01s WALL (      23 calls)
     newd         :     17.96s CPU     21.69s WALL (      23 calls)
     PAW_pot      :      5.78s CPU      5.81s WALL (      23 calls)
     mix_rho      :      0.72s CPU      0.80s WALL (      22 calls)

     Called by c_bands:
     init_us_2    :     27.09s CPU     27.35s WALL (     322 calls)
     cegterg      :   1825.84s CPU   1898.89s WALL (     154 calls)

     Called by *egterg:
     cdiaghg      :     90.60s CPU     93.20s WALL (     929 calls)
     h_psi        :   1015.48s CPU   1075.12s WALL (     936 calls)
     s_psi        :    237.65s CPU    239.58s WALL (     936 calls)
     g_psi        :      3.74s CPU      3.77s WALL (     775 calls)

     Called by h_psi:
     h_psi:calbec :    234.47s CPU    238.19s WALL (     936 calls)
     vloc_psi     :    538.05s CPU    589.79s WALL (     936 calls)
     add_vuspsi   :    237.55s CPU    239.52s WALL (     936 calls)

     General routines
     calbec       :    324.44s CPU    329.55s WALL (    1118 calls)
     fft          :      3.84s CPU      4.27s WALL (     308 calls)
     ffts         :      0.76s CPU      0.79s WALL (      45 calls)
     fftw         :    423.43s CPU    470.98s WALL (  437448 calls)
     interpolate  :      0.99s CPU      1.04s WALL (      23 calls)

     Parallel routines

     PWSCF        :  36m49.92s CPU  38m24.45s WALL


   This run was terminated on:   2:25:34  21Aug2026            

=------------------------------------------------------------------------------=
   JOB DONE.
=------------------------------------------------------------------------------=
