
     Program PWSCF v.7.5 starts on  2Jul2026 at  3:21:31 
        Git branch: develop
        Last git commit: ea9b1b3d7915154c244e4a71786faaa0fdafa55c
        Last git commit date: Mon Mar 16 14:03:30 2026 +0000
        Last git commit subject: Merge branch 'dev_td_porting' into 'develop'

     This program is part of the open-source Quantum ESPRESSO suite
     for quantum simulation of materials; please cite
         "P. Giannozzi et al., J. Phys.:Condens. Matter 21 395502 (2009);
         "P. Giannozzi et al., J. Phys.:Condens. Matter 29 465901 (2017);
         "P. Giannozzi et al., J. Chem. Phys. 152 154105 (2020);
          URL http://www.quantum-espresso.org", 
     in publications or presentations arising from this work. More details at
     http://www.quantum-espresso.org/quote

     Parallel version (MPI), running on     8 processors

     MPI processes distributed on     1 nodes
     0 MiB available memory on the printing compute node when the environment starts

     Reading input from /Users/kaede/research/Waterloo Holger thermoelectric materials/thermo_candidates/SrZrS3/qe/02_nscf/SrZrS3.nscf.in
Warning: card &IONS ignored
Warning: card &CELL ignored

     Current dimensions of program PWSCF are:
     Max number of different atomic species (ntypx) = 10
     Max number of k-points (npk) =  40000
     Max angular momentum in pseudopotentials (lmaxx) =  4

     Atomic positions and unit cell read from directory:
     ./tmp/final/SrZrS3.save/


     Exact exchange band parallelism type set to band_pairs

     Message from routine setup:
     using ibrav=0 with symmetry is DISCOURAGED, use correct ibrav instead

     K-points division:     npool     =       4
     R & G space division:  proc/nbgrp/npool/nimage =       2
     Subspace diagonalization in iterative solution of the eigenvalue problem:
     a serial algorithm will be used


     Parallelization info
     --------------------
     sticks:   dense  smooth     PW     G-vecs:    dense   smooth      PW
     Min        1880     946    269               211632    74842   11447
     Max        1881     947    270               211637    74845   11450
     Sum        3761    1893    539               423269   149687   22897

     Using Slab Decomposition



     bravais-lattice index     =            0
     lattice parameter (alat)  =       7.2536  a.u.
     unit-cell volume          =    3134.3510 (a.u.)^3
     number of atoms/cell      =           20
     number of atomic types    =            3
     number of electrons       =       160.00
     number of Kohn-Sham states=          108
     kinetic-energy cutoff     =      50.0000  Ry
     charge density cutoff     =     400.0000  Ry
     Exchange-correlation= SLA  PW   PBE  PBE
                           (   1   4   3   4   0   0   0)

     celldm(1)=   7.253625  celldm(2)=   0.000000  celldm(3)=   0.000000
     celldm(4)=   0.000000  celldm(5)=   0.000000  celldm(6)=   0.000000

     crystal axes: (cart. coord. in units of alat)
               a(1) = (   1.000000   0.000000   0.000000 )  
               a(2) = (  -0.000000   2.251221   0.000000 )  
               a(3) = (   0.000000   0.000000   3.648079 )  

     reciprocal axes: (cart. coord. in units 2 pi/alat)
               b(1) = (  1.000000  0.000000 -0.000000 )  
               b(2) = (  0.000000  0.444203  0.000000 )  
               b(3) = (  0.000000 -0.000000  0.274117 )  


     PseudoPot. # 1 for S  read from file:
     /Users/kaede/scientific-tools/pseudopotentials/SSSP/1.3.0/PBE/precision/s_pbe_v1.4.uspp.F.UPF
     MD5 check sum: 88d86576ff6df21479756cfb9bdac1df
     Pseudo is Ultrasoft + core correction, Zval =  6.0
     Generated by new atomic code, or converted to UPF format
     Using radial grid of  907 points,  6 beta functions with: 
                l(1) =   0
                l(2) =   0
                l(3) =   1
                l(4) =   1
                l(5) =   2
                l(6) =   2
     Q(r) pseudized with  8 coefficients,  rinner =    1.300   1.300   1.300
                                                       1.300   1.300

     PseudoPot. # 2 for Sr read from file:
     /Users/kaede/scientific-tools/pseudopotentials/SSSP/1.3.0/PBE/precision/Sr_pbe_v1.uspp.F.UPF
     MD5 check sum: 6b418c05fbe9db5448babca5e47b7a5b
     Pseudo is Ultrasoft + core correction, Zval = 10.0
     Generated by new atomic code, or converted to UPF format
     Using radial grid of  883 points,  6 beta functions with: 
                l(1) =   0
                l(2) =   0
                l(3) =   1
                l(4) =   1
                l(5) =   2
                l(6) =   2
     Q(r) pseudized with  6 coefficients,  rinner =    1.400   1.400   1.400
                                                       1.400   1.400

     PseudoPot. # 3 for Zr read from file:
     /Users/kaede/scientific-tools/pseudopotentials/SSSP/1.3.0/PBE/precision/Zr_pbe_v1.uspp.F.UPF
     MD5 check sum: 5db81b1e868ab7776c4564c113de050b
     Pseudo is Ultrasoft + core correction, Zval = 12.0
     Generated by new atomic code, or converted to UPF format
     Using radial grid of  887 points,  6 beta functions with: 
                l(1) =   0
                l(2) =   0
                l(3) =   1
                l(4) =   1
                l(5) =   2
                l(6) =   2
     Q(r) pseudized with  6 coefficients,  rinner =    1.200   1.200   1.200
                                                       1.200   1.200

     atomic species   valence    mass     pseudopotential
     S                 6.00    32.06500     S ( 1.00)
     Sr               10.00    87.62000     Sr( 1.00)
     Zr               12.00    91.22400     Zr( 1.00)

      8 Sym. Ops., with inversion, found ( 6 have fractional translation)


                                    s                        frac. trans.

      isym =  1     identity                                     

 cryst.   s( 1) = (     1          0          0      )
                  (     0          1          0      )
                  (     0          0          1      )

 cart.    s( 1) = (  1.0000000  0.0000000  0.0000000 )
                  (  0.0000000  1.0000000  0.0000000 )
                  (  0.0000000  0.0000000  1.0000000 )


      isym =  2     180 deg rotation - cart. axis [0,0,1]        

 cryst.   s( 2) = (    -1          0          0      )    f =(  0.0000000 )
                  (     0         -1          0      )       (  0.5000000 )
                  (     0          0          1      )       ( -0.5000000 )

 cart.    s( 2) = ( -1.0000000  0.0000000  0.0000000 )    f =(  0.0000000 )
                  (  0.0000000 -1.0000000  0.0000000 )       (  1.1256105 )
                  (  0.0000000  0.0000000  1.0000000 )       ( -1.8240394 )


      isym =  3     180 deg rotation - cart. axis [0,1,0]        

 cryst.   s( 3) = (    -1          0          0      )    f =(  0.5000000 )
                  (     0          1          0      )       ( -0.5000000 )
                  (     0          0         -1      )       (  0.5000000 )

 cart.    s( 3) = ( -1.0000000  0.0000000  0.0000000 )    f =(  0.5000000 )
                  (  0.0000000  1.0000000  0.0000000 )       ( -1.1256105 )
                  (  0.0000000  0.0000000 -1.0000000 )       (  1.8240394 )


      isym =  4     180 deg rotation - cart. axis [1,0,0]        

 cryst.   s( 4) = (     1          0          0      )    f =( -0.5000000 )
                  (     0         -1          0      )       ( -0.0000000 )
                  (     0          0         -1      )       (  0.0000000 )

 cart.    s( 4) = (  1.0000000  0.0000000  0.0000000 )    f =( -0.5000000 )
                  (  0.0000000 -1.0000000  0.0000000 )       ( -0.0000000 )
                  (  0.0000000  0.0000000 -1.0000000 )       (  0.0000000 )


      isym =  5     inversion                                    

 cryst.   s( 5) = (    -1          0          0      )
                  (     0         -1          0      )
                  (     0          0         -1      )

 cart.    s( 5) = ( -1.0000000  0.0000000  0.0000000 )
                  (  0.0000000 -1.0000000  0.0000000 )
                  (  0.0000000  0.0000000 -1.0000000 )


      isym =  6     inv. 180 deg rotation - cart. axis [0,0,1]   

 cryst.   s( 6) = (     1          0          0      )    f =(  0.0000000 )
                  (     0          1          0      )       ( -0.5000000 )
                  (     0          0         -1      )       (  0.5000000 )

 cart.    s( 6) = (  1.0000000  0.0000000  0.0000000 )    f =(  0.0000000 )
                  (  0.0000000  1.0000000  0.0000000 )       ( -1.1256105 )
                  (  0.0000000  0.0000000 -1.0000000 )       (  1.8240394 )


      isym =  7     inv. 180 deg rotation - cart. axis [0,1,0]   

 cryst.   s( 7) = (     1          0          0      )    f =( -0.5000000 )
                  (     0         -1          0      )       (  0.5000000 )
                  (     0          0          1      )       ( -0.5000000 )

 cart.    s( 7) = (  1.0000000  0.0000000  0.0000000 )    f =( -0.5000000 )
                  (  0.0000000 -1.0000000  0.0000000 )       (  1.1256105 )
                  (  0.0000000  0.0000000  1.0000000 )       ( -1.8240394 )


      isym =  8     inv. 180 deg rotation - cart. axis [1,0,0]   

 cryst.   s( 8) = (    -1          0          0      )    f =(  0.5000000 )
                  (     0          1          0      )       (  0.0000000 )
                  (     0          0          1      )       (  0.0000000 )

 cart.    s( 8) = ( -1.0000000  0.0000000  0.0000000 )    f =(  0.5000000 )
                  (  0.0000000  1.0000000  0.0000000 )       (  0.0000000 )
                  (  0.0000000  0.0000000  1.0000000 )       (  0.0000000 )


   Cartesian axes

     site n.     atom                  positions (alat units)
         1        Sr     tau(   1) = (   0.2500000   0.1409062   2.9895531  )
         2        Sr     tau(   2) = (   0.7500000   2.1103148   0.6585256  )
         3        Sr     tau(   3) = (   0.7500000   0.9847043   1.1655138  )
         4        Sr     tau(   4) = (   0.2500000   1.2665167   2.4825650  )
         5        Zr     tau(   5) = (   0.2500000   0.7361042   0.2032345  )
         6        Zr     tau(   6) = (   0.7500000   1.5151168   3.4448443  )
         7        Zr     tau(   7) = (   0.7500000   0.3895063   2.0272739  )
         8        Zr     tau(   8) = (   0.2500000   1.8617147   1.6208049  )
         9        S      tau(   9) = (   0.2500000   0.4688933   0.7857633  )
        10        S      tau(  10) = (   0.7500000   1.7823277   2.8623155  )
        11        S      tau(  11) = (   0.7500000   0.6567172   2.6098027  )
        12        S      tau(  12) = (   0.2500000   1.5945038   1.0382761  )
        13        S      tau(  13) = (   0.2500000   0.7572545   1.7664216  )
        14        S      tau(  14) = (   0.7500000   1.4939665   1.8816572  )
        15        S      tau(  15) = (   0.7500000   0.3683560   3.5904610  )
        16        S      tau(  16) = (   0.2500000   1.8828650   0.0576178  )
        17        S      tau(  17) = (   0.2500000   1.0960385   3.2636588  )
        18        S      tau(  18) = (   0.7500000   1.1551803   0.3844200  )
        19        S      tau(  19) = (   0.7500000   0.0295720   1.4396194  )
        20        S      tau(  20) = (   0.2500000   2.2216512   2.2084593  )

   Crystallographic axes

     site n.     atom                  positions (cryst. coord.)
         1        Sr     tau(   1) = (  0.2500000  0.0625910  0.8194870  )
         2        Sr     tau(   2) = (  0.7500000  0.9374090  0.1805130  )
         3        Sr     tau(   3) = (  0.7500000  0.4374090  0.3194870  )
         4        Sr     tau(   4) = (  0.2500000  0.5625910  0.6805130  )
         5        Zr     tau(   5) = (  0.2500000  0.3269800  0.0557100  )
         6        Zr     tau(   6) = (  0.7500000  0.6730200  0.9442900  )
         7        Zr     tau(   7) = (  0.7500000  0.1730200  0.5557100  )
         8        Zr     tau(   8) = (  0.2500000  0.8269800  0.4442900  )
         9        S      tau(   9) = (  0.2500000  0.2082840  0.2153910  )
        10        S      tau(  10) = (  0.7500000  0.7917160  0.7846090  )
        11        S      tau(  11) = (  0.7500000  0.2917160  0.7153910  )
        12        S      tau(  12) = (  0.2500000  0.7082840  0.2846090  )
        13        S      tau(  13) = (  0.2500000  0.3363750  0.4842060  )
        14        S      tau(  14) = (  0.7500000  0.6636250  0.5157940  )
        15        S      tau(  15) = (  0.7500000  0.1636250  0.9842060  )
        16        S      tau(  16) = (  0.2500000  0.8363750  0.0157940  )
        17        S      tau(  17) = (  0.2500000  0.4868640  0.8946240  )
        18        S      tau(  18) = (  0.7500000  0.5131350  0.1053760  )
        19        S      tau(  19) = (  0.7500000  0.0131360  0.3946240  )
        20        S      tau(  20) = (  0.2500000  0.9868650  0.6053760  )

     number of k points=   264
                       cart. coord. in units 2pi/alat
        k(    1) = (   0.0000000   0.0000000   0.0000000), wk =   0.0016667
        k(    2) = (   0.0000000   0.0000000   0.0456861), wk =   0.0033333
        k(    3) = (   0.0000000   0.0000000   0.0913723), wk =   0.0033333
        k(    4) = (   0.0000000   0.0000000  -0.1370584), wk =   0.0016667
        k(    5) = (   0.0000000   0.0444203   0.0000000), wk =   0.0033333
        k(    6) = (   0.0000000   0.0444203   0.0456861), wk =   0.0066667
        k(    7) = (   0.0000000   0.0444203   0.0913723), wk =   0.0066667
        k(    8) = (   0.0000000   0.0444203  -0.1370584), wk =   0.0033333
        k(    9) = (   0.0000000   0.0888407   0.0000000), wk =   0.0033333
        k(   10) = (   0.0000000   0.0888407   0.0456861), wk =   0.0066667
        k(   11) = (   0.0000000   0.0888407   0.0913723), wk =   0.0066667
        k(   12) = (   0.0000000   0.0888407  -0.1370584), wk =   0.0033333
        k(   13) = (   0.0000000   0.1332610   0.0000000), wk =   0.0033333
        k(   14) = (   0.0000000   0.1332610   0.0456861), wk =   0.0066667
        k(   15) = (   0.0000000   0.1332610   0.0913723), wk =   0.0066667
        k(   16) = (   0.0000000   0.1332610  -0.1370584), wk =   0.0033333
        k(   17) = (   0.0000000   0.1776814   0.0000000), wk =   0.0033333
        k(   18) = (   0.0000000   0.1776814   0.0456861), wk =   0.0066667
        k(   19) = (   0.0000000   0.1776814   0.0913723), wk =   0.0066667
        k(   20) = (   0.0000000   0.1776814  -0.1370584), wk =   0.0033333
        k(   21) = (   0.0000000  -0.2221017   0.0000000), wk =   0.0016667
        k(   22) = (   0.0000000  -0.2221017   0.0456861), wk =   0.0033333
        k(   23) = (   0.0000000  -0.2221017   0.0913723), wk =   0.0033333
        k(   24) = (   0.0000000  -0.2221017  -0.1370584), wk =   0.0016667
        k(   25) = (   0.0500000   0.0000000   0.0000000), wk =   0.0033333
        k(   26) = (   0.0500000   0.0000000   0.0456861), wk =   0.0066667
        k(   27) = (   0.0500000   0.0000000   0.0913723), wk =   0.0066667
        k(   28) = (   0.0500000   0.0000000  -0.1370584), wk =   0.0033333
        k(   29) = (   0.0500000   0.0444203   0.0000000), wk =   0.0066667
        k(   30) = (   0.0500000   0.0444203   0.0456861), wk =   0.0133333
        k(   31) = (   0.0500000   0.0444203   0.0913723), wk =   0.0133333
        k(   32) = (   0.0500000   0.0444203  -0.1370584), wk =   0.0066667
        k(   33) = (   0.0500000   0.0888407   0.0000000), wk =   0.0066667
        k(   34) = (   0.0500000   0.0888407   0.0456861), wk =   0.0133333
        k(   35) = (   0.0500000   0.0888407   0.0913723), wk =   0.0133333
        k(   36) = (   0.0500000   0.0888407  -0.1370584), wk =   0.0066667
        k(   37) = (   0.0500000   0.1332610   0.0000000), wk =   0.0066667
        k(   38) = (   0.0500000   0.1332610   0.0456861), wk =   0.0133333
        k(   39) = (   0.0500000   0.1332610   0.0913723), wk =   0.0133333
        k(   40) = (   0.0500000   0.1332610  -0.1370584), wk =   0.0066667
        k(   41) = (   0.0500000   0.1776814   0.0000000), wk =   0.0066667
        k(   42) = (   0.0500000   0.1776814   0.0456861), wk =   0.0133333
        k(   43) = (   0.0500000   0.1776814   0.0913723), wk =   0.0133333
        k(   44) = (   0.0500000   0.1776814  -0.1370584), wk =   0.0066667
        k(   45) = (   0.0500000  -0.2221017   0.0000000), wk =   0.0033333
        k(   46) = (   0.0500000  -0.2221017   0.0456861), wk =   0.0066667
        k(   47) = (   0.0500000  -0.2221017   0.0913723), wk =   0.0066667
        k(   48) = (   0.0500000  -0.2221017  -0.1370584), wk =   0.0033333
        k(   49) = (   0.1000000   0.0000000   0.0000000), wk =   0.0033333
        k(   50) = (   0.1000000   0.0000000   0.0456861), wk =   0.0066667
        k(   51) = (   0.1000000   0.0000000   0.0913723), wk =   0.0066667
        k(   52) = (   0.1000000   0.0000000  -0.1370584), wk =   0.0033333
        k(   53) = (   0.1000000   0.0444203   0.0000000), wk =   0.0066667
        k(   54) = (   0.1000000   0.0444203   0.0456861), wk =   0.0133333
        k(   55) = (   0.1000000   0.0444203   0.0913723), wk =   0.0133333
        k(   56) = (   0.1000000   0.0444203  -0.1370584), wk =   0.0066667
        k(   57) = (   0.1000000   0.0888407   0.0000000), wk =   0.0066667
        k(   58) = (   0.1000000   0.0888407   0.0456861), wk =   0.0133333
        k(   59) = (   0.1000000   0.0888407   0.0913723), wk =   0.0133333
        k(   60) = (   0.1000000   0.0888407  -0.1370584), wk =   0.0066667
        k(   61) = (   0.1000000   0.1332610   0.0000000), wk =   0.0066667
        k(   62) = (   0.1000000   0.1332610   0.0456861), wk =   0.0133333
        k(   63) = (   0.1000000   0.1332610   0.0913723), wk =   0.0133333
        k(   64) = (   0.1000000   0.1332610  -0.1370584), wk =   0.0066667
        k(   65) = (   0.1000000   0.1776814   0.0000000), wk =   0.0066667
        k(   66) = (   0.1000000   0.1776814   0.0456861), wk =   0.0133333
        k(   67) = (   0.1000000   0.1776814   0.0913723), wk =   0.0133333
        k(   68) = (   0.1000000   0.1776814  -0.1370584), wk =   0.0066667
        k(   69) = (   0.1000000  -0.2221017   0.0000000), wk =   0.0033333
        k(   70) = (   0.1000000  -0.2221017   0.0456861), wk =   0.0066667
        k(   71) = (   0.1000000  -0.2221017   0.0913723), wk =   0.0066667
        k(   72) = (   0.1000000  -0.2221017  -0.1370584), wk =   0.0033333
        k(   73) = (   0.1500000   0.0000000   0.0000000), wk =   0.0033333
        k(   74) = (   0.1500000   0.0000000   0.0456861), wk =   0.0066667
        k(   75) = (   0.1500000   0.0000000   0.0913723), wk =   0.0066667
        k(   76) = (   0.1500000   0.0000000  -0.1370584), wk =   0.0033333
        k(   77) = (   0.1500000   0.0444203   0.0000000), wk =   0.0066667
        k(   78) = (   0.1500000   0.0444203   0.0456861), wk =   0.0133333
        k(   79) = (   0.1500000   0.0444203   0.0913723), wk =   0.0133333
        k(   80) = (   0.1500000   0.0444203  -0.1370584), wk =   0.0066667
        k(   81) = (   0.1500000   0.0888407   0.0000000), wk =   0.0066667
        k(   82) = (   0.1500000   0.0888407   0.0456861), wk =   0.0133333
        k(   83) = (   0.1500000   0.0888407   0.0913723), wk =   0.0133333
        k(   84) = (   0.1500000   0.0888407  -0.1370584), wk =   0.0066667
        k(   85) = (   0.1500000   0.1332610   0.0000000), wk =   0.0066667
        k(   86) = (   0.1500000   0.1332610   0.0456861), wk =   0.0133333
        k(   87) = (   0.1500000   0.1332610   0.0913723), wk =   0.0133333
        k(   88) = (   0.1500000   0.1332610  -0.1370584), wk =   0.0066667
        k(   89) = (   0.1500000   0.1776814   0.0000000), wk =   0.0066667
        k(   90) = (   0.1500000   0.1776814   0.0456861), wk =   0.0133333
        k(   91) = (   0.1500000   0.1776814   0.0913723), wk =   0.0133333
        k(   92) = (   0.1500000   0.1776814  -0.1370584), wk =   0.0066667
        k(   93) = (   0.1500000  -0.2221017   0.0000000), wk =   0.0033333
        k(   94) = (   0.1500000  -0.2221017   0.0456861), wk =   0.0066667
        k(   95) = (   0.1500000  -0.2221017   0.0913723), wk =   0.0066667
        k(   96) = (   0.1500000  -0.2221017  -0.1370584), wk =   0.0033333
        k(   97) = (   0.2000000   0.0000000   0.0000000), wk =   0.0033333
        k(   98) = (   0.2000000   0.0000000   0.0456861), wk =   0.0066667
        k(   99) = (   0.2000000   0.0000000   0.0913723), wk =   0.0066667
        k(  100) = (   0.2000000   0.0000000  -0.1370584), wk =   0.0033333
        k(  101) = (   0.2000000   0.0444203   0.0000000), wk =   0.0066667
        k(  102) = (   0.2000000   0.0444203   0.0456861), wk =   0.0133333
        k(  103) = (   0.2000000   0.0444203   0.0913723), wk =   0.0133333
        k(  104) = (   0.2000000   0.0444203  -0.1370584), wk =   0.0066667
        k(  105) = (   0.2000000   0.0888407   0.0000000), wk =   0.0066667
        k(  106) = (   0.2000000   0.0888407   0.0456861), wk =   0.0133333
        k(  107) = (   0.2000000   0.0888407   0.0913723), wk =   0.0133333
        k(  108) = (   0.2000000   0.0888407  -0.1370584), wk =   0.0066667
        k(  109) = (   0.2000000   0.1332610   0.0000000), wk =   0.0066667
        k(  110) = (   0.2000000   0.1332610   0.0456861), wk =   0.0133333
        k(  111) = (   0.2000000   0.1332610   0.0913723), wk =   0.0133333
        k(  112) = (   0.2000000   0.1332610  -0.1370584), wk =   0.0066667
        k(  113) = (   0.2000000   0.1776814   0.0000000), wk =   0.0066667
        k(  114) = (   0.2000000   0.1776814   0.0456861), wk =   0.0133333
        k(  115) = (   0.2000000   0.1776814   0.0913723), wk =   0.0133333
        k(  116) = (   0.2000000   0.1776814  -0.1370584), wk =   0.0066667
        k(  117) = (   0.2000000  -0.2221017   0.0000000), wk =   0.0033333
        k(  118) = (   0.2000000  -0.2221017   0.0456861), wk =   0.0066667
        k(  119) = (   0.2000000  -0.2221017   0.0913723), wk =   0.0066667
        k(  120) = (   0.2000000  -0.2221017  -0.1370584), wk =   0.0033333
        k(  121) = (   0.2500000   0.0000000   0.0000000), wk =   0.0033333
        k(  122) = (   0.2500000   0.0000000   0.0456861), wk =   0.0066667
        k(  123) = (   0.2500000   0.0000000   0.0913723), wk =   0.0066667
        k(  124) = (   0.2500000   0.0000000  -0.1370584), wk =   0.0033333
        k(  125) = (   0.2500000   0.0444203   0.0000000), wk =   0.0066667
        k(  126) = (   0.2500000   0.0444203   0.0456861), wk =   0.0133333
        k(  127) = (   0.2500000   0.0444203   0.0913723), wk =   0.0133333
        k(  128) = (   0.2500000   0.0444203  -0.1370584), wk =   0.0066667
        k(  129) = (   0.2500000   0.0888407   0.0000000), wk =   0.0066667
        k(  130) = (   0.2500000   0.0888407   0.0456861), wk =   0.0133333
        k(  131) = (   0.2500000   0.0888407   0.0913723), wk =   0.0133333
        k(  132) = (   0.2500000   0.0888407  -0.1370584), wk =   0.0066667
        k(  133) = (   0.2500000   0.1332610   0.0000000), wk =   0.0066667
        k(  134) = (   0.2500000   0.1332610   0.0456861), wk =   0.0133333
        k(  135) = (   0.2500000   0.1332610   0.0913723), wk =   0.0133333
        k(  136) = (   0.2500000   0.1332610  -0.1370584), wk =   0.0066667
        k(  137) = (   0.2500000   0.1776814   0.0000000), wk =   0.0066667
        k(  138) = (   0.2500000   0.1776814   0.0456861), wk =   0.0133333
        k(  139) = (   0.2500000   0.1776814   0.0913723), wk =   0.0133333
        k(  140) = (   0.2500000   0.1776814  -0.1370584), wk =   0.0066667
        k(  141) = (   0.2500000  -0.2221017   0.0000000), wk =   0.0033333
        k(  142) = (   0.2500000  -0.2221017   0.0456861), wk =   0.0066667
        k(  143) = (   0.2500000  -0.2221017   0.0913723), wk =   0.0066667
        k(  144) = (   0.2500000  -0.2221017  -0.1370584), wk =   0.0033333
        k(  145) = (   0.3000000   0.0000000   0.0000000), wk =   0.0033333
        k(  146) = (   0.3000000   0.0000000   0.0456861), wk =   0.0066667
        k(  147) = (   0.3000000   0.0000000   0.0913723), wk =   0.0066667
        k(  148) = (   0.3000000   0.0000000  -0.1370584), wk =   0.0033333
        k(  149) = (   0.3000000   0.0444203   0.0000000), wk =   0.0066667
        k(  150) = (   0.3000000   0.0444203   0.0456861), wk =   0.0133333
        k(  151) = (   0.3000000   0.0444203   0.0913723), wk =   0.0133333
        k(  152) = (   0.3000000   0.0444203  -0.1370584), wk =   0.0066667
        k(  153) = (   0.3000000   0.0888407   0.0000000), wk =   0.0066667
        k(  154) = (   0.3000000   0.0888407   0.0456861), wk =   0.0133333
        k(  155) = (   0.3000000   0.0888407   0.0913723), wk =   0.0133333
        k(  156) = (   0.3000000   0.0888407  -0.1370584), wk =   0.0066667
        k(  157) = (   0.3000000   0.1332610   0.0000000), wk =   0.0066667
        k(  158) = (   0.3000000   0.1332610   0.0456861), wk =   0.0133333
        k(  159) = (   0.3000000   0.1332610   0.0913723), wk =   0.0133333
        k(  160) = (   0.3000000   0.1332610  -0.1370584), wk =   0.0066667
        k(  161) = (   0.3000000   0.1776814   0.0000000), wk =   0.0066667
        k(  162) = (   0.3000000   0.1776814   0.0456861), wk =   0.0133333
        k(  163) = (   0.3000000   0.1776814   0.0913723), wk =   0.0133333
        k(  164) = (   0.3000000   0.1776814  -0.1370584), wk =   0.0066667
        k(  165) = (   0.3000000  -0.2221017   0.0000000), wk =   0.0033333
        k(  166) = (   0.3000000  -0.2221017   0.0456861), wk =   0.0066667
        k(  167) = (   0.3000000  -0.2221017   0.0913723), wk =   0.0066667
        k(  168) = (   0.3000000  -0.2221017  -0.1370584), wk =   0.0033333
        k(  169) = (   0.3500000   0.0000000   0.0000000), wk =   0.0033333
        k(  170) = (   0.3500000   0.0000000   0.0456861), wk =   0.0066667
        k(  171) = (   0.3500000   0.0000000   0.0913723), wk =   0.0066667
        k(  172) = (   0.3500000   0.0000000  -0.1370584), wk =   0.0033333
        k(  173) = (   0.3500000   0.0444203   0.0000000), wk =   0.0066667
        k(  174) = (   0.3500000   0.0444203   0.0456861), wk =   0.0133333
        k(  175) = (   0.3500000   0.0444203   0.0913723), wk =   0.0133333
        k(  176) = (   0.3500000   0.0444203  -0.1370584), wk =   0.0066667
        k(  177) = (   0.3500000   0.0888407   0.0000000), wk =   0.0066667
        k(  178) = (   0.3500000   0.0888407   0.0456861), wk =   0.0133333
        k(  179) = (   0.3500000   0.0888407   0.0913723), wk =   0.0133333
        k(  180) = (   0.3500000   0.0888407  -0.1370584), wk =   0.0066667
        k(  181) = (   0.3500000   0.1332610   0.0000000), wk =   0.0066667
        k(  182) = (   0.3500000   0.1332610   0.0456861), wk =   0.0133333
        k(  183) = (   0.3500000   0.1332610   0.0913723), wk =   0.0133333
        k(  184) = (   0.3500000   0.1332610  -0.1370584), wk =   0.0066667
        k(  185) = (   0.3500000   0.1776814   0.0000000), wk =   0.0066667
        k(  186) = (   0.3500000   0.1776814   0.0456861), wk =   0.0133333
        k(  187) = (   0.3500000   0.1776814   0.0913723), wk =   0.0133333
        k(  188) = (   0.3500000   0.1776814  -0.1370584), wk =   0.0066667
        k(  189) = (   0.3500000  -0.2221017   0.0000000), wk =   0.0033333
        k(  190) = (   0.3500000  -0.2221017   0.0456861), wk =   0.0066667
        k(  191) = (   0.3500000  -0.2221017   0.0913723), wk =   0.0066667
        k(  192) = (   0.3500000  -0.2221017  -0.1370584), wk =   0.0033333
        k(  193) = (   0.4000000   0.0000000   0.0000000), wk =   0.0033333
        k(  194) = (   0.4000000   0.0000000   0.0456861), wk =   0.0066667
        k(  195) = (   0.4000000   0.0000000   0.0913723), wk =   0.0066667
        k(  196) = (   0.4000000   0.0000000  -0.1370584), wk =   0.0033333
        k(  197) = (   0.4000000   0.0444203   0.0000000), wk =   0.0066667
        k(  198) = (   0.4000000   0.0444203   0.0456861), wk =   0.0133333
        k(  199) = (   0.4000000   0.0444203   0.0913723), wk =   0.0133333
        k(  200) = (   0.4000000   0.0444203  -0.1370584), wk =   0.0066667
        k(  201) = (   0.4000000   0.0888407   0.0000000), wk =   0.0066667
        k(  202) = (   0.4000000   0.0888407   0.0456861), wk =   0.0133333
        k(  203) = (   0.4000000   0.0888407   0.0913723), wk =   0.0133333
        k(  204) = (   0.4000000   0.0888407  -0.1370584), wk =   0.0066667
        k(  205) = (   0.4000000   0.1332610   0.0000000), wk =   0.0066667
        k(  206) = (   0.4000000   0.1332610   0.0456861), wk =   0.0133333
        k(  207) = (   0.4000000   0.1332610   0.0913723), wk =   0.0133333
        k(  208) = (   0.4000000   0.1332610  -0.1370584), wk =   0.0066667
        k(  209) = (   0.4000000   0.1776814   0.0000000), wk =   0.0066667
        k(  210) = (   0.4000000   0.1776814   0.0456861), wk =   0.0133333
        k(  211) = (   0.4000000   0.1776814   0.0913723), wk =   0.0133333
        k(  212) = (   0.4000000   0.1776814  -0.1370584), wk =   0.0066667
        k(  213) = (   0.4000000  -0.2221017   0.0000000), wk =   0.0033333
        k(  214) = (   0.4000000  -0.2221017   0.0456861), wk =   0.0066667
        k(  215) = (   0.4000000  -0.2221017   0.0913723), wk =   0.0066667
        k(  216) = (   0.4000000  -0.2221017  -0.1370584), wk =   0.0033333
        k(  217) = (   0.4500000   0.0000000   0.0000000), wk =   0.0033333
        k(  218) = (   0.4500000   0.0000000   0.0456861), wk =   0.0066667
        k(  219) = (   0.4500000   0.0000000   0.0913723), wk =   0.0066667
        k(  220) = (   0.4500000   0.0000000  -0.1370584), wk =   0.0033333
        k(  221) = (   0.4500000   0.0444203   0.0000000), wk =   0.0066667
        k(  222) = (   0.4500000   0.0444203   0.0456861), wk =   0.0133333
        k(  223) = (   0.4500000   0.0444203   0.0913723), wk =   0.0133333
        k(  224) = (   0.4500000   0.0444203  -0.1370584), wk =   0.0066667
        k(  225) = (   0.4500000   0.0888407   0.0000000), wk =   0.0066667
        k(  226) = (   0.4500000   0.0888407   0.0456861), wk =   0.0133333
        k(  227) = (   0.4500000   0.0888407   0.0913723), wk =   0.0133333
        k(  228) = (   0.4500000   0.0888407  -0.1370584), wk =   0.0066667
        k(  229) = (   0.4500000   0.1332610   0.0000000), wk =   0.0066667
        k(  230) = (   0.4500000   0.1332610   0.0456861), wk =   0.0133333
        k(  231) = (   0.4500000   0.1332610   0.0913723), wk =   0.0133333
        k(  232) = (   0.4500000   0.1332610  -0.1370584), wk =   0.0066667
        k(  233) = (   0.4500000   0.1776814   0.0000000), wk =   0.0066667
        k(  234) = (   0.4500000   0.1776814   0.0456861), wk =   0.0133333
        k(  235) = (   0.4500000   0.1776814   0.0913723), wk =   0.0133333
        k(  236) = (   0.4500000   0.1776814  -0.1370584), wk =   0.0066667
        k(  237) = (   0.4500000  -0.2221017   0.0000000), wk =   0.0033333
        k(  238) = (   0.4500000  -0.2221017   0.0456861), wk =   0.0066667
        k(  239) = (   0.4500000  -0.2221017   0.0913723), wk =   0.0066667
        k(  240) = (   0.4500000  -0.2221017  -0.1370584), wk =   0.0033333
        k(  241) = (  -0.5000000   0.0000000   0.0000000), wk =   0.0016667
        k(  242) = (  -0.5000000   0.0000000   0.0456861), wk =   0.0033333
        k(  243) = (  -0.5000000   0.0000000   0.0913723), wk =   0.0033333
        k(  244) = (  -0.5000000   0.0000000  -0.1370584), wk =   0.0016667
        k(  245) = (  -0.5000000   0.0444203   0.0000000), wk =   0.0033333
        k(  246) = (  -0.5000000   0.0444203   0.0456861), wk =   0.0066667
        k(  247) = (  -0.5000000   0.0444203   0.0913723), wk =   0.0066667
        k(  248) = (  -0.5000000   0.0444203  -0.1370584), wk =   0.0033333
        k(  249) = (  -0.5000000   0.0888407   0.0000000), wk =   0.0033333
        k(  250) = (  -0.5000000   0.0888407   0.0456861), wk =   0.0066667
        k(  251) = (  -0.5000000   0.0888407   0.0913723), wk =   0.0066667
        k(  252) = (  -0.5000000   0.0888407  -0.1370584), wk =   0.0033333
        k(  253) = (  -0.5000000   0.1332610   0.0000000), wk =   0.0033333
        k(  254) = (  -0.5000000   0.1332610   0.0456861), wk =   0.0066667
        k(  255) = (  -0.5000000   0.1332610   0.0913723), wk =   0.0066667
        k(  256) = (  -0.5000000   0.1332610  -0.1370584), wk =   0.0033333
        k(  257) = (  -0.5000000   0.1776814   0.0000000), wk =   0.0033333
        k(  258) = (  -0.5000000   0.1776814   0.0456861), wk =   0.0066667
        k(  259) = (  -0.5000000   0.1776814   0.0913723), wk =   0.0066667
        k(  260) = (  -0.5000000   0.1776814  -0.1370584), wk =   0.0033333
        k(  261) = (  -0.5000000  -0.2221017   0.0000000), wk =   0.0016667
        k(  262) = (  -0.5000000  -0.2221017   0.0456861), wk =   0.0033333
        k(  263) = (  -0.5000000  -0.2221017   0.0913723), wk =   0.0033333
        k(  264) = (  -0.5000000  -0.2221017  -0.1370584), wk =   0.0016667

                       cryst. coord.
        k(    1) = (   0.0000000   0.0000000   0.0000000), wk =   0.0016667
        k(    2) = (   0.0000000   0.0000000   0.1666667), wk =   0.0033333
        k(    3) = (   0.0000000   0.0000000   0.3333333), wk =   0.0033333
        k(    4) = (   0.0000000   0.0000000  -0.5000000), wk =   0.0016667
        k(    5) = (   0.0000000   0.1000000   0.0000000), wk =   0.0033333
        k(    6) = (   0.0000000   0.1000000   0.1666667), wk =   0.0066667
        k(    7) = (   0.0000000   0.1000000   0.3333333), wk =   0.0066667
        k(    8) = (   0.0000000   0.1000000  -0.5000000), wk =   0.0033333
        k(    9) = (   0.0000000   0.2000000   0.0000000), wk =   0.0033333
        k(   10) = (   0.0000000   0.2000000   0.1666667), wk =   0.0066667
        k(   11) = (   0.0000000   0.2000000   0.3333333), wk =   0.0066667
        k(   12) = (   0.0000000   0.2000000  -0.5000000), wk =   0.0033333
        k(   13) = (   0.0000000   0.3000000   0.0000000), wk =   0.0033333
        k(   14) = (   0.0000000   0.3000000   0.1666667), wk =   0.0066667
        k(   15) = (   0.0000000   0.3000000   0.3333333), wk =   0.0066667
        k(   16) = (   0.0000000   0.3000000  -0.5000000), wk =   0.0033333
        k(   17) = (   0.0000000   0.4000000   0.0000000), wk =   0.0033333
        k(   18) = (   0.0000000   0.4000000   0.1666667), wk =   0.0066667
        k(   19) = (   0.0000000   0.4000000   0.3333333), wk =   0.0066667
        k(   20) = (   0.0000000   0.4000000  -0.5000000), wk =   0.0033333
        k(   21) = (   0.0000000  -0.5000000   0.0000000), wk =   0.0016667
        k(   22) = (   0.0000000  -0.5000000   0.1666667), wk =   0.0033333
        k(   23) = (   0.0000000  -0.5000000   0.3333333), wk =   0.0033333
        k(   24) = (   0.0000000  -0.5000000  -0.5000000), wk =   0.0016667
        k(   25) = (   0.0500000   0.0000000   0.0000000), wk =   0.0033333
        k(   26) = (   0.0500000   0.0000000   0.1666667), wk =   0.0066667
        k(   27) = (   0.0500000   0.0000000   0.3333333), wk =   0.0066667
        k(   28) = (   0.0500000   0.0000000  -0.5000000), wk =   0.0033333
        k(   29) = (   0.0500000   0.1000000   0.0000000), wk =   0.0066667
        k(   30) = (   0.0500000   0.1000000   0.1666667), wk =   0.0133333
        k(   31) = (   0.0500000   0.1000000   0.3333333), wk =   0.0133333
        k(   32) = (   0.0500000   0.1000000  -0.5000000), wk =   0.0066667
        k(   33) = (   0.0500000   0.2000000   0.0000000), wk =   0.0066667
        k(   34) = (   0.0500000   0.2000000   0.1666667), wk =   0.0133333
        k(   35) = (   0.0500000   0.2000000   0.3333333), wk =   0.0133333
        k(   36) = (   0.0500000   0.2000000  -0.5000000), wk =   0.0066667
        k(   37) = (   0.0500000   0.3000000   0.0000000), wk =   0.0066667
        k(   38) = (   0.0500000   0.3000000   0.1666667), wk =   0.0133333
        k(   39) = (   0.0500000   0.3000000   0.3333333), wk =   0.0133333
        k(   40) = (   0.0500000   0.3000000  -0.5000000), wk =   0.0066667
        k(   41) = (   0.0500000   0.4000000   0.0000000), wk =   0.0066667
        k(   42) = (   0.0500000   0.4000000   0.1666667), wk =   0.0133333
        k(   43) = (   0.0500000   0.4000000   0.3333333), wk =   0.0133333
        k(   44) = (   0.0500000   0.4000000  -0.5000000), wk =   0.0066667
        k(   45) = (   0.0500000  -0.5000000   0.0000000), wk =   0.0033333
        k(   46) = (   0.0500000  -0.5000000   0.1666667), wk =   0.0066667
        k(   47) = (   0.0500000  -0.5000000   0.3333333), wk =   0.0066667
        k(   48) = (   0.0500000  -0.5000000  -0.5000000), wk =   0.0033333
        k(   49) = (   0.1000000   0.0000000   0.0000000), wk =   0.0033333
        k(   50) = (   0.1000000   0.0000000   0.1666667), wk =   0.0066667
        k(   51) = (   0.1000000   0.0000000   0.3333333), wk =   0.0066667
        k(   52) = (   0.1000000   0.0000000  -0.5000000), wk =   0.0033333
        k(   53) = (   0.1000000   0.1000000   0.0000000), wk =   0.0066667
        k(   54) = (   0.1000000   0.1000000   0.1666667), wk =   0.0133333
        k(   55) = (   0.1000000   0.1000000   0.3333333), wk =   0.0133333
        k(   56) = (   0.1000000   0.1000000  -0.5000000), wk =   0.0066667
        k(   57) = (   0.1000000   0.2000000   0.0000000), wk =   0.0066667
        k(   58) = (   0.1000000   0.2000000   0.1666667), wk =   0.0133333
        k(   59) = (   0.1000000   0.2000000   0.3333333), wk =   0.0133333
        k(   60) = (   0.1000000   0.2000000  -0.5000000), wk =   0.0066667
        k(   61) = (   0.1000000   0.3000000   0.0000000), wk =   0.0066667
        k(   62) = (   0.1000000   0.3000000   0.1666667), wk =   0.0133333
        k(   63) = (   0.1000000   0.3000000   0.3333333), wk =   0.0133333
        k(   64) = (   0.1000000   0.3000000  -0.5000000), wk =   0.0066667
        k(   65) = (   0.1000000   0.4000000   0.0000000), wk =   0.0066667
        k(   66) = (   0.1000000   0.4000000   0.1666667), wk =   0.0133333
        k(   67) = (   0.1000000   0.4000000   0.3333333), wk =   0.0133333
        k(   68) = (   0.1000000   0.4000000  -0.5000000), wk =   0.0066667
        k(   69) = (   0.1000000  -0.5000000   0.0000000), wk =   0.0033333
        k(   70) = (   0.1000000  -0.5000000   0.1666667), wk =   0.0066667
        k(   71) = (   0.1000000  -0.5000000   0.3333333), wk =   0.0066667
        k(   72) = (   0.1000000  -0.5000000  -0.5000000), wk =   0.0033333
        k(   73) = (   0.1500000   0.0000000   0.0000000), wk =   0.0033333
        k(   74) = (   0.1500000   0.0000000   0.1666667), wk =   0.0066667
        k(   75) = (   0.1500000   0.0000000   0.3333333), wk =   0.0066667
        k(   76) = (   0.1500000   0.0000000  -0.5000000), wk =   0.0033333
        k(   77) = (   0.1500000   0.1000000   0.0000000), wk =   0.0066667
        k(   78) = (   0.1500000   0.1000000   0.1666667), wk =   0.0133333
        k(   79) = (   0.1500000   0.1000000   0.3333333), wk =   0.0133333
        k(   80) = (   0.1500000   0.1000000  -0.5000000), wk =   0.0066667
        k(   81) = (   0.1500000   0.2000000   0.0000000), wk =   0.0066667
        k(   82) = (   0.1500000   0.2000000   0.1666667), wk =   0.0133333
        k(   83) = (   0.1500000   0.2000000   0.3333333), wk =   0.0133333
        k(   84) = (   0.1500000   0.2000000  -0.5000000), wk =   0.0066667
        k(   85) = (   0.1500000   0.3000000   0.0000000), wk =   0.0066667
        k(   86) = (   0.1500000   0.3000000   0.1666667), wk =   0.0133333
        k(   87) = (   0.1500000   0.3000000   0.3333333), wk =   0.0133333
        k(   88) = (   0.1500000   0.3000000  -0.5000000), wk =   0.0066667
        k(   89) = (   0.1500000   0.4000000   0.0000000), wk =   0.0066667
        k(   90) = (   0.1500000   0.4000000   0.1666667), wk =   0.0133333
        k(   91) = (   0.1500000   0.4000000   0.3333333), wk =   0.0133333
        k(   92) = (   0.1500000   0.4000000  -0.5000000), wk =   0.0066667
        k(   93) = (   0.1500000  -0.5000000   0.0000000), wk =   0.0033333
        k(   94) = (   0.1500000  -0.5000000   0.1666667), wk =   0.0066667
        k(   95) = (   0.1500000  -0.5000000   0.3333333), wk =   0.0066667
        k(   96) = (   0.1500000  -0.5000000  -0.5000000), wk =   0.0033333
        k(   97) = (   0.2000000   0.0000000   0.0000000), wk =   0.0033333
        k(   98) = (   0.2000000   0.0000000   0.1666667), wk =   0.0066667
        k(   99) = (   0.2000000   0.0000000   0.3333333), wk =   0.0066667
        k(  100) = (   0.2000000   0.0000000  -0.5000000), wk =   0.0033333
        k(  101) = (   0.2000000   0.1000000   0.0000000), wk =   0.0066667
        k(  102) = (   0.2000000   0.1000000   0.1666667), wk =   0.0133333
        k(  103) = (   0.2000000   0.1000000   0.3333333), wk =   0.0133333
        k(  104) = (   0.2000000   0.1000000  -0.5000000), wk =   0.0066667
        k(  105) = (   0.2000000   0.2000000   0.0000000), wk =   0.0066667
        k(  106) = (   0.2000000   0.2000000   0.1666667), wk =   0.0133333
        k(  107) = (   0.2000000   0.2000000   0.3333333), wk =   0.0133333
        k(  108) = (   0.2000000   0.2000000  -0.5000000), wk =   0.0066667
        k(  109) = (   0.2000000   0.3000000   0.0000000), wk =   0.0066667
        k(  110) = (   0.2000000   0.3000000   0.1666667), wk =   0.0133333
        k(  111) = (   0.2000000   0.3000000   0.3333333), wk =   0.0133333
        k(  112) = (   0.2000000   0.3000000  -0.5000000), wk =   0.0066667
        k(  113) = (   0.2000000   0.4000000   0.0000000), wk =   0.0066667
        k(  114) = (   0.2000000   0.4000000   0.1666667), wk =   0.0133333
        k(  115) = (   0.2000000   0.4000000   0.3333333), wk =   0.0133333
        k(  116) = (   0.2000000   0.4000000  -0.5000000), wk =   0.0066667
        k(  117) = (   0.2000000  -0.5000000   0.0000000), wk =   0.0033333
        k(  118) = (   0.2000000  -0.5000000   0.1666667), wk =   0.0066667
        k(  119) = (   0.2000000  -0.5000000   0.3333333), wk =   0.0066667
        k(  120) = (   0.2000000  -0.5000000  -0.5000000), wk =   0.0033333
        k(  121) = (   0.2500000   0.0000000   0.0000000), wk =   0.0033333
        k(  122) = (   0.2500000   0.0000000   0.1666667), wk =   0.0066667
        k(  123) = (   0.2500000   0.0000000   0.3333333), wk =   0.0066667
        k(  124) = (   0.2500000   0.0000000  -0.5000000), wk =   0.0033333
        k(  125) = (   0.2500000   0.1000000   0.0000000), wk =   0.0066667
        k(  126) = (   0.2500000   0.1000000   0.1666667), wk =   0.0133333
        k(  127) = (   0.2500000   0.1000000   0.3333333), wk =   0.0133333
        k(  128) = (   0.2500000   0.1000000  -0.5000000), wk =   0.0066667
        k(  129) = (   0.2500000   0.2000000   0.0000000), wk =   0.0066667
        k(  130) = (   0.2500000   0.2000000   0.1666667), wk =   0.0133333
        k(  131) = (   0.2500000   0.2000000   0.3333333), wk =   0.0133333
        k(  132) = (   0.2500000   0.2000000  -0.5000000), wk =   0.0066667
        k(  133) = (   0.2500000   0.3000000   0.0000000), wk =   0.0066667
        k(  134) = (   0.2500000   0.3000000   0.1666667), wk =   0.0133333
        k(  135) = (   0.2500000   0.3000000   0.3333333), wk =   0.0133333
        k(  136) = (   0.2500000   0.3000000  -0.5000000), wk =   0.0066667
        k(  137) = (   0.2500000   0.4000000   0.0000000), wk =   0.0066667
        k(  138) = (   0.2500000   0.4000000   0.1666667), wk =   0.0133333
        k(  139) = (   0.2500000   0.4000000   0.3333333), wk =   0.0133333
        k(  140) = (   0.2500000   0.4000000  -0.5000000), wk =   0.0066667
        k(  141) = (   0.2500000  -0.5000000   0.0000000), wk =   0.0033333
        k(  142) = (   0.2500000  -0.5000000   0.1666667), wk =   0.0066667
        k(  143) = (   0.2500000  -0.5000000   0.3333333), wk =   0.0066667
        k(  144) = (   0.2500000  -0.5000000  -0.5000000), wk =   0.0033333
        k(  145) = (   0.3000000   0.0000000   0.0000000), wk =   0.0033333
        k(  146) = (   0.3000000   0.0000000   0.1666667), wk =   0.0066667
        k(  147) = (   0.3000000   0.0000000   0.3333333), wk =   0.0066667
        k(  148) = (   0.3000000   0.0000000  -0.5000000), wk =   0.0033333
        k(  149) = (   0.3000000   0.1000000   0.0000000), wk =   0.0066667
        k(  150) = (   0.3000000   0.1000000   0.1666667), wk =   0.0133333
        k(  151) = (   0.3000000   0.1000000   0.3333333), wk =   0.0133333
        k(  152) = (   0.3000000   0.1000000  -0.5000000), wk =   0.0066667
        k(  153) = (   0.3000000   0.2000000   0.0000000), wk =   0.0066667
        k(  154) = (   0.3000000   0.2000000   0.1666667), wk =   0.0133333
        k(  155) = (   0.3000000   0.2000000   0.3333333), wk =   0.0133333
        k(  156) = (   0.3000000   0.2000000  -0.5000000), wk =   0.0066667
        k(  157) = (   0.3000000   0.3000000   0.0000000), wk =   0.0066667
        k(  158) = (   0.3000000   0.3000000   0.1666667), wk =   0.0133333
        k(  159) = (   0.3000000   0.3000000   0.3333333), wk =   0.0133333
        k(  160) = (   0.3000000   0.3000000  -0.5000000), wk =   0.0066667
        k(  161) = (   0.3000000   0.4000000   0.0000000), wk =   0.0066667
        k(  162) = (   0.3000000   0.4000000   0.1666667), wk =   0.0133333
        k(  163) = (   0.3000000   0.4000000   0.3333333), wk =   0.0133333
        k(  164) = (   0.3000000   0.4000000  -0.5000000), wk =   0.0066667
        k(  165) = (   0.3000000  -0.5000000   0.0000000), wk =   0.0033333
        k(  166) = (   0.3000000  -0.5000000   0.1666667), wk =   0.0066667
        k(  167) = (   0.3000000  -0.5000000   0.3333333), wk =   0.0066667
        k(  168) = (   0.3000000  -0.5000000  -0.5000000), wk =   0.0033333
        k(  169) = (   0.3500000   0.0000000   0.0000000), wk =   0.0033333
        k(  170) = (   0.3500000   0.0000000   0.1666667), wk =   0.0066667
        k(  171) = (   0.3500000   0.0000000   0.3333333), wk =   0.0066667
        k(  172) = (   0.3500000   0.0000000  -0.5000000), wk =   0.0033333
        k(  173) = (   0.3500000   0.1000000   0.0000000), wk =   0.0066667
        k(  174) = (   0.3500000   0.1000000   0.1666667), wk =   0.0133333
        k(  175) = (   0.3500000   0.1000000   0.3333333), wk =   0.0133333
        k(  176) = (   0.3500000   0.1000000  -0.5000000), wk =   0.0066667
        k(  177) = (   0.3500000   0.2000000   0.0000000), wk =   0.0066667
        k(  178) = (   0.3500000   0.2000000   0.1666667), wk =   0.0133333
        k(  179) = (   0.3500000   0.2000000   0.3333333), wk =   0.0133333
        k(  180) = (   0.3500000   0.2000000  -0.5000000), wk =   0.0066667
        k(  181) = (   0.3500000   0.3000000   0.0000000), wk =   0.0066667
        k(  182) = (   0.3500000   0.3000000   0.1666667), wk =   0.0133333
        k(  183) = (   0.3500000   0.3000000   0.3333333), wk =   0.0133333
        k(  184) = (   0.3500000   0.3000000  -0.5000000), wk =   0.0066667
        k(  185) = (   0.3500000   0.4000000   0.0000000), wk =   0.0066667
        k(  186) = (   0.3500000   0.4000000   0.1666667), wk =   0.0133333
        k(  187) = (   0.3500000   0.4000000   0.3333333), wk =   0.0133333
        k(  188) = (   0.3500000   0.4000000  -0.5000000), wk =   0.0066667
        k(  189) = (   0.3500000  -0.5000000   0.0000000), wk =   0.0033333
        k(  190) = (   0.3500000  -0.5000000   0.1666667), wk =   0.0066667
        k(  191) = (   0.3500000  -0.5000000   0.3333333), wk =   0.0066667
        k(  192) = (   0.3500000  -0.5000000  -0.5000000), wk =   0.0033333
        k(  193) = (   0.4000000   0.0000000   0.0000000), wk =   0.0033333
        k(  194) = (   0.4000000   0.0000000   0.1666667), wk =   0.0066667
        k(  195) = (   0.4000000   0.0000000   0.3333333), wk =   0.0066667
        k(  196) = (   0.4000000   0.0000000  -0.5000000), wk =   0.0033333
        k(  197) = (   0.4000000   0.1000000   0.0000000), wk =   0.0066667
        k(  198) = (   0.4000000   0.1000000   0.1666667), wk =   0.0133333
        k(  199) = (   0.4000000   0.1000000   0.3333333), wk =   0.0133333
        k(  200) = (   0.4000000   0.1000000  -0.5000000), wk =   0.0066667
        k(  201) = (   0.4000000   0.2000000   0.0000000), wk =   0.0066667
        k(  202) = (   0.4000000   0.2000000   0.1666667), wk =   0.0133333
        k(  203) = (   0.4000000   0.2000000   0.3333333), wk =   0.0133333
        k(  204) = (   0.4000000   0.2000000  -0.5000000), wk =   0.0066667
        k(  205) = (   0.4000000   0.3000000   0.0000000), wk =   0.0066667
        k(  206) = (   0.4000000   0.3000000   0.1666667), wk =   0.0133333
        k(  207) = (   0.4000000   0.3000000   0.3333333), wk =   0.0133333
        k(  208) = (   0.4000000   0.3000000  -0.5000000), wk =   0.0066667
        k(  209) = (   0.4000000   0.4000000   0.0000000), wk =   0.0066667
        k(  210) = (   0.4000000   0.4000000   0.1666667), wk =   0.0133333
        k(  211) = (   0.4000000   0.4000000   0.3333333), wk =   0.0133333
        k(  212) = (   0.4000000   0.4000000  -0.5000000), wk =   0.0066667
        k(  213) = (   0.4000000  -0.5000000   0.0000000), wk =   0.0033333
        k(  214) = (   0.4000000  -0.5000000   0.1666667), wk =   0.0066667
        k(  215) = (   0.4000000  -0.5000000   0.3333333), wk =   0.0066667
        k(  216) = (   0.4000000  -0.5000000  -0.5000000), wk =   0.0033333
        k(  217) = (   0.4500000   0.0000000   0.0000000), wk =   0.0033333
        k(  218) = (   0.4500000   0.0000000   0.1666667), wk =   0.0066667
        k(  219) = (   0.4500000   0.0000000   0.3333333), wk =   0.0066667
        k(  220) = (   0.4500000   0.0000000  -0.5000000), wk =   0.0033333
        k(  221) = (   0.4500000   0.1000000   0.0000000), wk =   0.0066667
        k(  222) = (   0.4500000   0.1000000   0.1666667), wk =   0.0133333
        k(  223) = (   0.4500000   0.1000000   0.3333333), wk =   0.0133333
        k(  224) = (   0.4500000   0.1000000  -0.5000000), wk =   0.0066667
        k(  225) = (   0.4500000   0.2000000   0.0000000), wk =   0.0066667
        k(  226) = (   0.4500000   0.2000000   0.1666667), wk =   0.0133333
        k(  227) = (   0.4500000   0.2000000   0.3333333), wk =   0.0133333
        k(  228) = (   0.4500000   0.2000000  -0.5000000), wk =   0.0066667
        k(  229) = (   0.4500000   0.3000000   0.0000000), wk =   0.0066667
        k(  230) = (   0.4500000   0.3000000   0.1666667), wk =   0.0133333
        k(  231) = (   0.4500000   0.3000000   0.3333333), wk =   0.0133333
        k(  232) = (   0.4500000   0.3000000  -0.5000000), wk =   0.0066667
        k(  233) = (   0.4500000   0.4000000   0.0000000), wk =   0.0066667
        k(  234) = (   0.4500000   0.4000000   0.1666667), wk =   0.0133333
        k(  235) = (   0.4500000   0.4000000   0.3333333), wk =   0.0133333
        k(  236) = (   0.4500000   0.4000000  -0.5000000), wk =   0.0066667
        k(  237) = (   0.4500000  -0.5000000   0.0000000), wk =   0.0033333
        k(  238) = (   0.4500000  -0.5000000   0.1666667), wk =   0.0066667
        k(  239) = (   0.4500000  -0.5000000   0.3333333), wk =   0.0066667
        k(  240) = (   0.4500000  -0.5000000  -0.5000000), wk =   0.0033333
        k(  241) = (  -0.5000000   0.0000000   0.0000000), wk =   0.0016667
        k(  242) = (  -0.5000000   0.0000000   0.1666667), wk =   0.0033333
        k(  243) = (  -0.5000000   0.0000000   0.3333333), wk =   0.0033333
        k(  244) = (  -0.5000000   0.0000000  -0.5000000), wk =   0.0016667
        k(  245) = (  -0.5000000   0.1000000   0.0000000), wk =   0.0033333
        k(  246) = (  -0.5000000   0.1000000   0.1666667), wk =   0.0066667
        k(  247) = (  -0.5000000   0.1000000   0.3333333), wk =   0.0066667
        k(  248) = (  -0.5000000   0.1000000  -0.5000000), wk =   0.0033333
        k(  249) = (  -0.5000000   0.2000000   0.0000000), wk =   0.0033333
        k(  250) = (  -0.5000000   0.2000000   0.1666667), wk =   0.0066667
        k(  251) = (  -0.5000000   0.2000000   0.3333333), wk =   0.0066667
        k(  252) = (  -0.5000000   0.2000000  -0.5000000), wk =   0.0033333
        k(  253) = (  -0.5000000   0.3000000   0.0000000), wk =   0.0033333
        k(  254) = (  -0.5000000   0.3000000   0.1666667), wk =   0.0066667
        k(  255) = (  -0.5000000   0.3000000   0.3333333), wk =   0.0066667
        k(  256) = (  -0.5000000   0.3000000  -0.5000000), wk =   0.0033333
        k(  257) = (  -0.5000000   0.4000000   0.0000000), wk =   0.0033333
        k(  258) = (  -0.5000000   0.4000000   0.1666667), wk =   0.0066667
        k(  259) = (  -0.5000000   0.4000000   0.3333333), wk =   0.0066667
        k(  260) = (  -0.5000000   0.4000000  -0.5000000), wk =   0.0033333
        k(  261) = (  -0.5000000  -0.5000000   0.0000000), wk =   0.0016667
        k(  262) = (  -0.5000000  -0.5000000   0.1666667), wk =   0.0033333
        k(  263) = (  -0.5000000  -0.5000000   0.3333333), wk =   0.0033333
        k(  264) = (  -0.5000000  -0.5000000  -0.5000000), wk =   0.0016667

     Dense  grid:   423269 G-vectors     FFT dimensions: (  48, 108, 180)

     Smooth grid:   149687 G-vectors     FFT dimensions: (  36,  80, 120)

     Dynamical RAM for                 wfc:      15.42 MB

     Dynamical RAM for     wfc (w. buffer):    1033.02 MB

     Dynamical RAM for           str. fact:       9.69 MB

     Dynamical RAM for           local pot:       0.00 MB

     Dynamical RAM for          nlocal pot:      51.39 MB

     Dynamical RAM for                qrad:       4.82 MB

     Dynamical RAM for          rho,v,vnew:      20.37 MB

     Dynamical RAM for           G-vectors:      12.68 MB

     Dynamical RAM for          h,s,v(r/c):       2.14 MB

     Dynamical RAM for          <psi|beta>:       0.59 MB

     Dynamical RAM for                 psi:      30.84 MB

     Dynamical RAM for                hpsi:      30.84 MB

     Dynamical RAM for                spsi:      30.84 MB

     Dynamical RAM for      wfcinit/wfcrot:      31.10 MB

     Dynamical RAM for           addusdens:     162.27 MB

     Estimated static dynamical RAM per process >       1.14 GB

     Estimated max dynamical RAM per process >       1.29 GB

     Estimated total dynamical RAM >      10.35 GB

     The potential is recalculated from file :
     ./tmp/final/SrZrS3.save/charge-density


     negative rho (up, down):  5.199E-01 0.000E+00
     Starting wfcs are  152 randomized atomic wfcs

     Band Structure Calculation
     Davidson diagonalization with overlap

     Computing kpt #:     1  of    66 on this pool
     total cpu time spent up to now is       22.9 secs

     Computing kpt #:     2  of    66 on this pool
     total cpu time spent up to now is       46.3 secs

     Computing kpt #:     3  of    66 on this pool
     total cpu time spent up to now is       72.7 secs

     Computing kpt #:     4  of    66 on this pool
     total cpu time spent up to now is       99.9 secs

     Computing kpt #:     5  of    66 on this pool
     total cpu time spent up to now is      124.3 secs

     Computing kpt #:     6  of    66 on this pool
     total cpu time spent up to now is      150.4 secs

     Computing kpt #:     7  of    66 on this pool
     total cpu time spent up to now is      176.3 secs

     Computing kpt #:     8  of    66 on this pool
     total cpu time spent up to now is      202.3 secs

     Computing kpt #:     9  of    66 on this pool
     total cpu time spent up to now is      228.4 secs

     Computing kpt #:    10  of    66 on this pool
     total cpu time spent up to now is      253.2 secs

     Computing kpt #:    11  of    66 on this pool
     total cpu time spent up to now is      277.6 secs

     Computing kpt #:    12  of    66 on this pool
     total cpu time spent up to now is      303.4 secs

     Computing kpt #:    13  of    66 on this pool
     total cpu time spent up to now is      331.7 secs

     Computing kpt #:    14  of    66 on this pool
     total cpu time spent up to now is      359.8 secs

     Computing kpt #:    15  of    66 on this pool
     total cpu time spent up to now is      385.9 secs

     Computing kpt #:    16  of    66 on this pool
     total cpu time spent up to now is      412.0 secs

     Computing kpt #:    17  of    66 on this pool
     c_bands:  1 eigenvalues not converged
     total cpu time spent up to now is      440.4 secs

     Computing kpt #:    18  of    66 on this pool
     total cpu time spent up to now is      467.4 secs

     Computing kpt #:    19  of    66 on this pool
     total cpu time spent up to now is      493.9 secs

     Computing kpt #:    20  of    66 on this pool
     total cpu time spent up to now is      518.4 secs

     Computing kpt #:    21  of    66 on this pool
     total cpu time spent up to now is      546.7 secs

     Computing kpt #:    22  of    66 on this pool
     total cpu time spent up to now is      574.1 secs

     Computing kpt #:    23  of    66 on this pool
     c_bands:  1 eigenvalues not converged
     total cpu time spent up to now is      601.7 secs

     Computing kpt #:    24  of    66 on this pool
     c_bands:  1 eigenvalues not converged
     total cpu time spent up to now is      629.1 secs

     Computing kpt #:    25  of    66 on this pool
     total cpu time spent up to now is      653.3 secs

     Computing kpt #:    26  of    66 on this pool
     total cpu time spent up to now is      677.7 secs

     Computing kpt #:    27  of    66 on this pool
     total cpu time spent up to now is      703.3 secs

     Computing kpt #:    28  of    66 on this pool
     total cpu time spent up to now is      731.1 secs

     Computing kpt #:    29  of    66 on this pool
     total cpu time spent up to now is      756.6 secs

     Computing kpt #:    30  of    66 on this pool
     total cpu time spent up to now is      784.9 secs

     Computing kpt #:    31  of    66 on this pool
     total cpu time spent up to now is      812.6 secs

     Computing kpt #:    32  of    66 on this pool
     total cpu time spent up to now is      840.9 secs

     Computing kpt #:    33  of    66 on this pool
     total cpu time spent up to now is      867.2 secs

     Computing kpt #:    34  of    66 on this pool
     total cpu time spent up to now is      893.2 secs

     Computing kpt #:    35  of    66 on this pool
     total cpu time spent up to now is      921.3 secs

     Computing kpt #:    36  of    66 on this pool
     total cpu time spent up to now is      949.4 secs

     Computing kpt #:    37  of    66 on this pool
     total cpu time spent up to now is      973.9 secs

     Computing kpt #:    38  of    66 on this pool
     total cpu time spent up to now is     1909.0 secs

     Computing kpt #:    39  of    66 on this pool
     total cpu time spent up to now is     2832.3 secs

     Computing kpt #:    40  of    66 on this pool
     total cpu time spent up to now is     2856.3 secs

     Computing kpt #:    41  of    66 on this pool
     total cpu time spent up to now is     3781.2 secs

     Computing kpt #:    42  of    66 on this pool
     total cpu time spent up to now is     3907.5 secs

     Computing kpt #:    43  of    66 on this pool
     total cpu time spent up to now is     3931.3 secs

     Computing kpt #:    44  of    66 on this pool
     total cpu time spent up to now is     3956.2 secs

     Computing kpt #:    45  of    66 on this pool
     total cpu time spent up to now is     3982.7 secs

     Computing kpt #:    46  of    66 on this pool
     total cpu time spent up to now is     4009.0 secs

     Computing kpt #:    47  of    66 on this pool
     total cpu time spent up to now is     4033.5 secs

     Computing kpt #:    48  of    66 on this pool
     total cpu time spent up to now is     4059.2 secs

     Computing kpt #:    49  of    66 on this pool
     total cpu time spent up to now is     4082.8 secs

     Computing kpt #:    50  of    66 on this pool
     total cpu time spent up to now is     4106.9 secs

     Computing kpt #:    51  of    66 on this pool
     total cpu time spent up to now is     4132.0 secs

     Computing kpt #:    52  of    66 on this pool
     total cpu time spent up to now is     4156.0 secs

     Computing kpt #:    53  of    66 on this pool
     total cpu time spent up to now is     4179.8 secs

     Computing kpt #:    54  of    66 on this pool
     total cpu time spent up to now is     4203.8 secs

     Computing kpt #:    55  of    66 on this pool
     total cpu time spent up to now is     4231.5 secs

     Computing kpt #:    56  of    66 on this pool
     total cpu time spent up to now is     4259.7 secs

     Computing kpt #:    57  of    66 on this pool
     total cpu time spent up to now is     4286.9 secs

     Computing kpt #:    58  of    66 on this pool
     total cpu time spent up to now is     4314.8 secs

     Computing kpt #:    59  of    66 on this pool
     total cpu time spent up to now is     4342.8 secs

     Computing kpt #:    60  of    66 on this pool
     total cpu time spent up to now is     4366.9 secs

     Computing kpt #:    61  of    66 on this pool
     total cpu time spent up to now is     4394.8 secs

     Computing kpt #:    62  of    66 on this pool
     total cpu time spent up to now is     4422.4 secs

     Computing kpt #:    63  of    66 on this pool
     total cpu time spent up to now is     4450.0 secs

     Computing kpt #:    64  of    66 on this pool
     total cpu time spent up to now is     4478.1 secs

     Computing kpt #:    65  of    66 on this pool
     c_bands:  1 eigenvalues not converged
     total cpu time spent up to now is     4505.1 secs

     Computing kpt #:    66  of    66 on this pool
     total cpu time spent up to now is     4533.2 secs

     ethr =  6.25E-12,  avg # of iterations = 75.4

     total cpu time spent up to now is     4533.2 secs

     End of band structure calculation

          k = 0.0000 0.0000 0.0000 ( 18683 PWs)   bands (ev):

   -41.4260 -41.4260 -41.4215 -41.4215 -26.6712 -26.6710 -26.6696 -26.6694
   -19.5153 -19.5153 -19.4800 -19.4800 -19.4313 -19.4313 -19.4058 -19.4057
   -19.3889 -19.3889 -19.3728 -19.3728  -8.7733  -8.7671  -8.7646  -8.7561
    -8.7441  -8.7205  -8.6650  -8.6643  -8.6057  -8.6049  -8.5993  -8.5984
    -4.8974  -4.6696  -4.1094  -4.0669  -3.8373  -3.7355  -3.7042  -3.6953
    -3.5561  -3.4640  -3.4016  -3.3397   3.6377   3.8413   3.9008   3.9350
     3.9420   4.1346   4.2578   4.5496   4.7323   4.7326   4.7643   4.8032
     4.8618   4.8982   4.9096   5.4253   5.6399   5.6594   5.6945   5.9110
     5.9111   5.9657   6.2419   6.2862   6.4978   6.5550   6.6234   6.6653
     6.7123   6.8409   6.9291   7.1078   7.4315   7.4385   7.6406   7.8437
     8.4534   8.7435   9.3030   9.3437   9.8283  10.0721  10.2202  10.2453
    10.2634  10.3965  10.4079  10.5491  10.7348  11.0345  11.4838  11.9418
    12.0030  12.1038  12.1920  12.2892  12.3087  12.3790  12.4058  12.4416
    12.6359  12.6764  12.7676  12.7937

     occupation numbers 
     1.0000   1.0000   1.0000   1.0000   1.0000   1.0000   1.0000   1.0000
     1.0000   1.0000   1.0000   1.0000   1.0000   1.0000   1.0000   1.0000
     1.0000   1.0000   1.0000   1.0000   1.0000   1.0000   1.0000   1.0000
     1.0000   1.0000   1.0000   1.0000   1.0000   1.0000   1.0000   1.0000
     1.0000   1.0000   1.0000   1.0000   1.0000   1.0000   1.0000   1.0000
     1.0000   1.0000   1.0000   1.0000   1.0000   1.0000   1.0000   1.0000
     1.0000   1.0000   1.0000   1.0000   1.0000   1.0000   1.0000   1.0000
     1.0000   1.0000   1.0000   1.0000   1.0000   1.0000   1.0000   1.0000
     1.0000   1.0000   1.0000   1.0000   1.0000   1.0000   1.0000   1.0000
     1.0000   1.0000   1.0000   1.0000   1.0000   1.0000   1.0000   1.0000
     0.0000   0.0000   0.0000   0.0000   0.0000   0.0000   0.0000   0.0000
     0.0000   0.0000   0.0000   0.0000   0.0000   0.0000   0.0000   0.0000
     0.0000   0.0000   0.0000   0.0000   0.0000   0.0000   0.0000   0.0000
     0.0000   0.0000   0.0000   0.0000

          k = 0.0000 0.0000 0.0457 ( 18711 PWs)   bands (ev):

   -41.4260 -41.4260 -41.4215 -41.4215 -26.6712 -26.6710 -26.6696 -26.6694
   -19.5153 -19.5153 -19.4800 -19.4800 -19.4313 -19.4313 -19.4058 -19.4057
   -19.3889 -19.3889 -19.3728 -19.3728  -8.7729  -8.7674  -8.7643  -8.7577
    -8.7417  -8.7218  -8.6650  -8.6644  -8.6056  -8.6049  -8.5992  -8.5985
    -4.8850  -4.6894  -4.1014  -4.0672  -3.8303  -3.7415  -3.6993  -3.6932
    -3.5585  -3.4769  -3.3940  -3.3405   3.6459   3.8210   3.9080   3.9337
     3.9478   4.1200   4.2848   4.5839   4.7339   4.7344   4.7536   4.7620
     4.8990   4.9085   4.9089   5.2809   5.5112   5.6735   5.7990   5.9146
     5.9620   6.1109   6.2096   6.3076   6.4482   6.5646   6.6237   6.6662
     6.7628   6.8093   6.8982   7.1444   7.3770   7.4156   7.6526   7.8288
     8.4692   8.7191   9.3098   9.3440   9.8411  10.0476  10.2246  10.2517
    10.2803  10.4008  10.4095  10.5435  10.7433  11.0074  11.5375  11.9348
    11.9746  12.1109  12.1875  12.2831  12.3169  12.3378  12.3780  12.5200
    12.5962  12.6849  12.7219  12.8286

     occupation numbers 
     1.0000   1.0000   1.0000   1.0000   1.0000   1.0000   1.0000   1.0000
     1.0000   1.0000   1.0000   1.0000   1.0000   1.0000   1.0000   1.0000
     1.0000   1.0000   1.0000   1.0000   1.0000   1.0000   1.0000   1.0000
     1.0000   1.0000   1.0000   1.0000   1.0000   1.0000   1.0000   1.0000
     1.0000   1.0000   1.0000   1.0000   1.0000   1.0000   1.0000   1.0000
     1.0000   1.0000   1.0000   1.0000   1.0000   1.0000   1.0000   1.0000
     1.0000   1.0000   1.0000   1.0000   1.0000   1.0000   1.0000   1.0000
     1.0000   1.0000   1.0000   1.0000   1.0000   1.0000   1.0000   1.0000
     1.0000   1.0000   1.0000   1.0000   1.0000   1.0000   1.0000   1.0000
     1.0000   1.0000   1.0000   1.0000   1.0000   1.0000   1.0000   1.0000
     0.0000   0.0000   0.0000   0.0000   0.0000   0.0000   0.0000   0.0000
     0.0000   0.0000   0.0000   0.0000   0.0000   0.0000   0.0000   0.0000
     0.0000   0.0000   0.0000   0.0000   0.0000   0.0000   0.0000   0.0000
     0.0000   0.0000   0.0000   0.0000

          k = 0.0000 0.0000 0.0914 ( 18720 PWs)   bands (ev):

   -41.4260 -41.4260 -41.4215 -41.4215 -26.6711 -26.6711 -26.6695 -26.6694
   -19.5153 -19.5153 -19.4800 -19.4800 -19.4313 -19.4313 -19.4058 -19.4057
   -19.3889 -19.3889 -19.3728 -19.3728  -8.7716  -8.7683  -8.7635  -8.7603
    -8.7366  -8.7255  -8.6649  -8.6645  -8.6055  -8.6051  -8.5991  -8.5986
    -4.8498  -4.7386  -4.0858  -4.0688  -3.8106  -3.7587  -3.6893  -3.6882
    -3.5576  -3.5077  -3.3765  -3.3457   3.6729   3.7745   3.9086   3.9256
     3.9814   4.0811   4.3694   4.6250   4.6802   4.7400   4.7559   4.8090
     4.9012   4.9069   4.9143   5.0544   5.4555   5.6077   5.9244   5.9517
     5.9895   6.1907   6.2947   6.3409   6.4272   6.5895   6.6228   6.6720
     6.7481   6.8122   6.8665   7.2141   7.2210   7.3703   7.6867   7.7888
     8.5146   8.6574   9.3243   9.3430   9.8776   9.9928  10.2361  10.2569
    10.3150  10.3806  10.4481  10.5258  10.7775  10.9356  11.6696  11.9003
    11.9500  12.1296  12.1741  12.2353  12.2797  12.3370  12.3725  12.3787
    12.6676  12.8076  12.8466  12.9136

     occupation numbers 
     1.0000   1.0000   1.0000   1.0000   1.0000   1.0000   1.0000   1.0000
     1.0000   1.0000   1.0000   1.0000   1.0000   1.0000   1.0000   1.0000
     1.0000   1.0000   1.0000   1.0000   1.0000   1.0000   1.0000   1.0000
     1.0000   1.0000   1.0000   1.0000   1.0000   1.0000   1.0000   1.0000
     1.0000   1.0000   1.0000   1.0000   1.0000   1.0000   1.0000   1.0000
     1.0000   1.0000   1.0000   1.0000   1.0000   1.0000   1.0000   1.0000
     1.0000   1.0000   1.0000   1.0000   1.0000   1.0000   1.0000   1.0000
     1.0000   1.0000   1.0000   1.0000   1.0000   1.0000   1.0000   1.0000
     1.0000   1.0000   1.0000   1.0000   1.0000   1.0000   1.0000   1.0000
     1.0000   1.0000   1.0000   1.0000   1.0000   1.0000   1.0000   1.0000
     0.0000   0.0000   0.0000   0.0000   0.0000   0.0000   0.0000   0.0000
     0.0000   0.0000   0.0000   0.0000   0.0000   0.0000   0.0000   0.0000
     0.0000   0.0000   0.0000   0.0000   0.0000   0.0000   0.0000   0.0000
     0.0000   0.0000   0.0000   0.0000

          k = 0.0000 0.0000-0.1371 ( 18728 PWs)   bands (ev):

   -41.4260 -41.4260 -41.4215 -41.4215 -26.6711 -26.6711 -26.6695 -26.6695
   -19.5153 -19.5153 -19.4800 -19.4800 -19.4313 -19.4313 -19.4057 -19.4057
   -19.3889 -19.3889 -19.3728 -19.3728  -8.7699  -8.7699  -8.7622  -8.7622
    -8.7308  -8.7308  -8.6647  -8.6647  -8.6053  -8.6053  -8.5988  -8.5988
    -4.7975  -4.7975  -4.0741  -4.0741  -3.7838  -3.7838  -3.6848  -3.6848
    -3.5401  -3.5401  -3.3583  -3.3583   3.7190   3.7190   3.9141   3.9141
     4.0305   4.0305   4.4954   4.4954   4.7478   4.7478   4.8212   4.8212
     4.8900   4.8900   4.9041   4.9041   5.5150   5.5150   5.9380   5.9380
     6.1442   6.1442   6.2823   6.2823   6.6139   6.6139   6.6626   6.6626
     6.6959   6.6959   7.0173   7.0173   7.3020   7.3020   7.7362   7.7362
     8.5821   8.5821   9.3369   9.3369   9.9314   9.9314  10.2496  10.2496
    10.3507  10.3507  10.4934  10.4934  10.8471  10.8471  11.8022  11.8022
    12.0605  12.0605  12.1531  12.1531  12.3003  12.3003  12.3584  12.3584
    12.7802  12.7802  13.0364  13.0364

     occupation numbers 
     1.0000   1.0000   1.0000   1.0000   1.0000   1.0000   1.0000   1.0000
     1.0000   1.0000   1.0000   1.0000   1.0000   1.0000   1.0000   1.0000
     1.0000   1.0000   1.0000   1.0000   1.0000   1.0000   1.0000   1.0000
     1.0000   1.0000   1.0000   1.0000   1.0000   1.0000   1.0000   1.0000
     1.0000   1.0000   1.0000   1.0000   1.0000   1.0000   1.0000   1.0000
     1.0000   1.0000   1.0000   1.0000   1.0000   1.0000   1.0000   1.0000
     1.0000   1.0000   1.0000   1.0000   1.0000   1.0000   1.0000   1.0000
     1.0000   1.0000   1.0000   1.0000   1.0000   1.0000   1.0000   1.0000
     1.0000   1.0000   1.0000   1.0000   1.0000   1.0000   1.0000   1.0000
     1.0000   1.0000   1.0000   1.0000   1.0000   1.0000   1.0000   1.0000
     0.0000   0.0000   0.0000   0.0000   0.0000   0.0000   0.0000   0.0000
     0.0000   0.0000   0.0000   0.0000   0.0000   0.0000   0.0000   0.0000
     0.0000   0.0000   0.0000   0.0000   0.0000   0.0000   0.0000   0.0000
     0.0000   0.0000   0.0000   0.0000

          k = 0.0000 0.0444 0.0000 ( 18699 PWs)   bands (ev):

   -41.4260 -41.4260 -41.4215 -41.4215 -26.6711 -26.6710 -26.6696 -26.6694
   -19.5153 -19.5153 -19.4800 -19.4800 -19.4313 -19.4312 -19.4058 -19.4057
   -19.3889 -19.3889 -19.3728 -19.3728  -8.7755  -8.7659  -8.7652  -8.7522
    -8.7446  -8.7192  -8.6676  -8.6652  -8.6055  -8.6047  -8.5995  -8.5986
    -4.8859  -4.6639  -4.1141  -4.0849  -3.8776  -3.7970  -3.6503  -3.6432
    -3.5622  -3.4448  -3.4078  -3.3432   3.6017   3.8317   3.8371   3.8884
     4.0148   4.1122   4.2559   4.5835   4.7322   4.7579   4.7649   4.8567
     4.8921   4.9063   4.9644   5.4371   5.5258   5.6455   5.6780   5.9318
     5.9822   6.0356   6.2321   6.2504   6.4812   6.5486   6.6193   6.6648
     6.7242   6.8372   6.9422   7.1010   7.4078   7.4289   7.5932   7.7793
     8.4796   8.7569   9.2911   9.3246   9.8395  10.0818  10.2214  10.2681
    10.2737  10.3777  10.4068  10.5827  10.7527  11.0517  11.4964  11.9559
    12.0099  12.0771  12.2006  12.2523  12.2973  12.3649  12.3958  12.4417
    12.6521  12.6851  12.7538  12.8490

     occupation numbers 
     1.0000   1.0000   1.0000   1.0000   1.0000   1.0000   1.0000   1.0000
     1.0000   1.0000   1.0000   1.0000   1.0000   1.0000   1.0000   1.0000
     1.0000   1.0000   1.0000   1.0000   1.0000   1.0000   1.0000   1.0000
     1.0000   1.0000   1.0000   1.0000   1.0000   1.0000   1.0000   1.0000
     1.0000   1.0000   1.0000   1.0000   1.0000   1.0000   1.0000   1.0000
     1.0000   1.0000   1.0000   1.0000   1.0000   1.0000   1.0000   1.0000
     1.0000   1.0000   1.0000   1.0000   1.0000   1.0000   1.0000   1.0000
     1.0000   1.0000   1.0000   1.0000   1.0000   1.0000   1.0000   1.0000
     1.0000   1.0000   1.0000   1.0000   1.0000   1.0000   1.0000   1.0000
     1.0000   1.0000   1.0000   1.0000   1.0000   1.0000   1.0000   1.0000
     0.0000   0.0000   0.0000   0.0000   0.0000   0.0000   0.0000   0.0000
     0.0000   0.0000   0.0000   0.0000   0.0000   0.0000   0.0000   0.0000
     0.0000   0.0000   0.0000   0.0000   0.0000   0.0000   0.0000   0.0000
     0.0000   0.0000   0.0000   0.0000

          k = 0.0000 0.0444 0.0457 ( 18694 PWs)   bands (ev):

   -41.4260 -41.4260 -41.4215 -41.4215 -26.6711 -26.6710 -26.6696 -26.6694
   -19.5153 -19.5153 -19.4800 -19.4800 -19.4313 -19.4313 -19.4058 -19.4057
   -19.3889 -19.3889 -19.3728 -19.3728  -8.7749  -8.7667  -8.7645  -8.7547
    -8.7413  -8.7205  -8.6674  -8.6654  -8.6055  -8.6048  -8.5994  -8.5986
    -4.8738  -4.6830  -4.1087  -4.0845  -3.8696  -3.7985  -3.6530  -3.6409
    -3.5613  -3.4582  -3.3997  -3.3439   3.6113   3.7739   3.8857   3.8980
     4.0033   4.0995   4.2859   4.6104   4.7343   4.7623   4.7626   4.8149
     4.8930   4.9053   5.0025   5.2668   5.5024   5.6173   5.8147   5.9351
     5.9788   6.1592   6.1851   6.2905   6.4339   6.5571   6.6187   6.6669
     6.7735   6.8083   6.9106   7.1351   7.3667   7.3926   7.6058   7.7706
     8.4948   8.7338   9.2970   9.3251   9.8524  10.0577  10.2250  10.2728
    10.2897  10.3880  10.4006  10.5748  10.7641  11.0267  11.5513  11.9360
    12.0008  12.0862  12.1934  12.2436  12.3062  12.3109  12.3921  12.5115
    12.6136  12.6801  12.7591  12.8234

     occupation numbers 
     1.0000   1.0000   1.0000   1.0000   1.0000   1.0000   1.0000   1.0000
     1.0000   1.0000   1.0000   1.0000   1.0000   1.0000   1.0000   1.0000
     1.0000   1.0000   1.0000   1.0000   1.0000   1.0000   1.0000   1.0000
     1.0000   1.0000   1.0000   1.0000   1.0000   1.0000   1.0000   1.0000
     1.0000   1.0000   1.0000   1.0000   1.0000   1.0000   1.0000   1.0000
     1.0000   1.0000   1.0000   1.0000   1.0000   1.0000   1.0000   1.0000
     1.0000   1.0000   1.0000   1.0000   1.0000   1.0000   1.0000   1.0000
     1.0000   1.0000   1.0000   1.0000   1.0000   1.0000   1.0000   1.0000
     1.0000   1.0000   1.0000   1.0000   1.0000   1.0000   1.0000   1.0000
     1.0000   1.0000   1.0000   1.0000   1.0000   1.0000   1.0000   1.0000
     0.0000   0.0000   0.0000   0.0000   0.0000   0.0000   0.0000   0.0000
     0.0000   0.0000   0.0000   0.0000   0.0000   0.0000   0.0000   0.0000
     0.0000   0.0000   0.0000   0.0000   0.0000   0.0000   0.0000   0.0000
     0.0000   0.0000   0.0000   0.0000

          k = 0.0000 0.0444 0.0914 ( 18711 PWs)   bands (ev):

   -41.4260 -41.4260 -41.4215 -41.4215 -26.6711 -26.6710 -26.6696 -26.6695
   -19.5153 -19.5153 -19.4800 -19.4800 -19.4313 -19.4313 -19.4058 -19.4057
   -19.3889 -19.3889 -19.3728 -19.3728  -8.7732  -8.7684  -8.7630  -8.7582
    -8.7356  -8.7243  -8.6670  -8.6658  -8.6053  -8.6049  -8.5992  -8.5988
    -4.8393  -4.7307  -4.0980  -4.0850  -3.8485  -3.8059  -3.6538  -3.6418
    -3.5513  -3.4899  -3.3816  -3.3493   3.6381   3.7220   3.8902   3.9383
     3.9848   4.0656   4.3790   4.6434   4.7165   4.7400   4.7564   4.8594
     4.8957   4.9028   5.0054   5.0412   5.4633   5.5991   5.9442   5.9694
     5.9751   6.1639   6.2801   6.3100   6.4554   6.5787   6.6147   6.6765
     6.7520   6.8171   6.8805   7.2072   7.2090   7.3492   7.6416   7.7401
     8.5383   8.6750   9.3097   9.3249   9.8888  10.0036  10.2352  10.2700
    10.3224  10.3827  10.4296  10.5455  10.8056  10.9610  11.6879  11.9021
    11.9825  12.1105  12.1727  12.2024  12.2600  12.3293  12.3791  12.3796
    12.6705  12.7777  12.8427  12.9351

     occupation numbers 
     1.0000   1.0000   1.0000   1.0000   1.0000   1.0000   1.0000   1.0000
     1.0000   1.0000   1.0000   1.0000   1.0000   1.0000   1.0000   1.0000
     1.0000   1.0000   1.0000   1.0000   1.0000   1.0000   1.0000   1.0000
     1.0000   1.0000   1.0000   1.0000   1.0000   1.0000   1.0000   1.0000
     1.0000   1.0000   1.0000   1.0000   1.0000   1.0000   1.0000   1.0000
     1.0000   1.0000   1.0000   1.0000   1.0000   1.0000   1.0000   1.0000
     1.0000   1.0000   1.0000   1.0000   1.0000   1.0000   1.0000   1.0000
     1.0000   1.0000   1.0000   1.0000   1.0000   1.0000   1.0000   1.0000
     1.0000   1.0000   1.0000   1.0000   1.0000   1.0000   1.0000   1.0000
     1.0000   1.0000   1.0000   1.0000   1.0000   1.0000   1.0000   1.0000
     0.0000   0.0000   0.0000   0.0000   0.0000   0.0000   0.0000   0.0000
     0.0000   0.0000   0.0000   0.0000   0.0000   0.0000   0.0000   0.0000
     0.0000   0.0000   0.0000   0.0000   0.0000   0.0000   0.0000   0.0000
     0.0000   0.0000   0.0000   0.0000

          k = 0.0000 0.0444-0.1371 ( 18728 PWs)   bands (ev):

   -41.4260 -41.4260 -41.4215 -41.4215 -26.6711 -26.6711 -26.6695 -26.6695
   -19.5153 -19.5153 -19.4800 -19.4800 -19.4313 -19.4313 -19.4057 -19.4057
   -19.3889 -19.3889 -19.3728 -19.3728  -8.7708  -8.7708  -8.7610  -8.7610
    -8.7296  -8.7296  -8.6664  -8.6664  -8.6051  -8.6051  -8.5990  -8.5990
    -4.7881  -4.7881  -4.0893  -4.0893  -3.8237  -3.8237  -3.6485  -3.6485
    -3.5253  -3.5253  -3.3626  -3.3626   3.6766   3.6766   3.9133   3.9133
     4.0207   4.0207   4.5153   4.5153   4.7481   4.7481   4.8433   4.8433
     4.8993   4.8993   4.9436   4.9436   5.5233   5.5233   5.9567   5.9567
     6.1110   6.1110   6.2725   6.2725   6.6018   6.6018   6.6674   6.6674
     6.7032   6.7032   7.0244   7.0244   7.2841   7.2841   7.6916   7.6916
     8.6029   8.6029   9.3203   9.3203   9.9425   9.9425  10.2527  10.2527
    10.3555  10.3555  10.4922  10.4922  10.8778  10.8778  11.8252  11.8252
    12.0614  12.0614  12.1425  12.1425  12.2790  12.2790  12.3571  12.3571
    12.7750  12.7750  12.9934  12.9934

     occupation numbers 
     1.0000   1.0000   1.0000   1.0000   1.0000   1.0000   1.0000   1.0000
     1.0000   1.0000   1.0000   1.0000   1.0000   1.0000   1.0000   1.0000
     1.0000   1.0000   1.0000   1.0000   1.0000   1.0000   1.0000   1.0000
     1.0000   1.0000   1.0000   1.0000   1.0000   1.0000   1.0000   1.0000
     1.0000   1.0000   1.0000   1.0000   1.0000   1.0000   1.0000   1.0000
     1.0000   1.0000   1.0000   1.0000   1.0000   1.0000   1.0000   1.0000
     1.0000   1.0000   1.0000   1.0000   1.0000   1.0000   1.0000   1.0000
     1.0000   1.0000   1.0000   1.0000   1.0000   1.0000   1.0000   1.0000
     1.0000   1.0000   1.0000   1.0000   1.0000   1.0000   1.0000   1.0000
     1.0000   1.0000   1.0000   1.0000   1.0000   1.0000   1.0000   1.0000
     0.0000   0.0000   0.0000   0.0000   0.0000   0.0000   0.0000   0.0000
     0.0000   0.0000   0.0000   0.0000   0.0000   0.0000   0.0000   0.0000
     0.0000   0.0000   0.0000   0.0000   0.0000   0.0000   0.0000   0.0000
     0.0000   0.0000   0.0000   0.0000

          k = 0.0000 0.0888 0.0000 ( 18703 PWs)   bands (ev):

   -41.4260 -41.4260 -41.4215 -41.4215 -26.6710 -26.6709 -26.6697 -26.6695
   -19.5152 -19.5152 -19.4801 -19.4801 -19.4313 -19.4312 -19.4058 -19.4057
   -19.3889 -19.3889 -19.3728 -19.3728  -8.7783  -8.7671  -8.7636  -8.7458
    -8.7431  -8.7155  -8.6737  -8.6690  -8.6051  -8.6042  -8.5999  -8.5990
    -4.8527  -4.6493  -4.1393  -4.1314  -3.9231  -3.8671  -3.5943  -3.5679
    -3.5607  -3.4253  -3.4056  -3.3526   3.5258   3.7469   3.7904   3.8014
     4.0392   4.1797   4.2449   4.6834   4.7324   4.7657   4.8419   4.8775
     4.8973   4.9674   5.1551   5.3196   5.4900   5.6549   5.6713   5.9885
     6.0282   6.1441   6.1554   6.1945   6.5299   6.5299   6.5982   6.6722
     6.7607   6.8264   6.9568   7.0848   7.3435   7.3756   7.4768   7.6030
     8.5530   8.7963   9.2551   9.2682   9.8724  10.1023  10.2244  10.3009
    10.3321  10.3459  10.4042  10.6367  10.8192  11.1038  11.5208  11.9687
    11.9713  12.0250  12.2036  12.2043  12.2850  12.3011  12.4245  12.4495
    12.6878  12.7183  12.7457  12.9566

     occupation numbers 
     1.0000   1.0000   1.0000   1.0000   1.0000   1.0000   1.0000   1.0000
     1.0000   1.0000   1.0000   1.0000   1.0000   1.0000   1.0000   1.0000
     1.0000   1.0000   1.0000   1.0000   1.0000   1.0000   1.0000   1.0000
     1.0000   1.0000   1.0000   1.0000   1.0000   1.0000   1.0000   1.0000
     1.0000   1.0000   1.0000   1.0000   1.0000   1.0000   1.0000   1.0000
     1.0000   1.0000   1.0000   1.0000   1.0000   1.0000   1.0000   1.0000
     1.0000   1.0000   1.0000   1.0000   1.0000   1.0000   1.0000   1.0000
     1.0000   1.0000   1.0000   1.0000   1.0000   1.0000   1.0000   1.0000
     1.0000   1.0000   1.0000   1.0000   1.0000   1.0000   1.0000   1.0000
     1.0000   1.0000   1.0000   1.0000   1.0000   1.0000   1.0000   1.0000
     0.0000   0.0000   0.0000   0.0000   0.0000   0.0000   0.0000   0.0000
     0.0000   0.0000   0.0000   0.0000   0.0000   0.0000   0.0000   0.0000
     0.0000   0.0000   0.0000   0.0000   0.0000   0.0000   0.0000   0.0000
     0.0000   0.0000   0.0000   0.0000

          k = 0.0000 0.0888 0.0457 ( 18697 PWs)   bands (ev):

   -41.4260 -41.4260 -41.4215 -41.4215 -26.6710 -26.6709 -26.6697 -26.6696
   -19.5152 -19.5152 -19.4801 -19.4801 -19.4313 -19.4312 -19.4058 -19.4057
   -19.3889 -19.3889 -19.3728 -19.3728  -8.7775  -8.7674  -8.7635  -8.7504
    -8.7380  -8.7168  -8.6734  -8.6693  -8.6050  -8.6043  -8.5999  -8.5991
    -4.8412  -4.6661  -4.1440  -4.1261  -3.9147  -3.8656  -3.5975  -3.5835
    -3.5423  -3.4227  -3.4129  -3.3528   3.5360   3.7042   3.7853   3.8361
     4.0398   4.1594   4.2963   4.6803   4.7345   4.7633   4.8559   4.8788
     4.8960   4.9278   5.1405   5.2795   5.4986   5.5559   5.8132   5.9911
     6.0255   6.1031   6.2095   6.2378   6.4973   6.5361   6.5957   6.6766
     6.8045   6.8047   6.9239   7.1115   7.3178   7.3302   7.4815   7.6167
     8.5667   8.7766   9.2589   9.2695   9.8850  10.0807  10.2301  10.3139
    10.3206  10.3616  10.4000  10.6195  10.8376  11.0836  11.5769  11.9356
    12.0038  12.0367  12.1630  12.1928  12.2809  12.2929  12.4157  12.4981
    12.6746  12.6919  12.7909  12.8502

     occupation numbers 
     1.0000   1.0000   1.0000   1.0000   1.0000   1.0000   1.0000   1.0000
     1.0000   1.0000   1.0000   1.0000   1.0000   1.0000   1.0000   1.0000
     1.0000   1.0000   1.0000   1.0000   1.0000   1.0000   1.0000   1.0000
     1.0000   1.0000   1.0000   1.0000   1.0000   1.0000   1.0000   1.0000
     1.0000   1.0000   1.0000   1.0000   1.0000   1.0000   1.0000   1.0000
     1.0000   1.0000   1.0000   1.0000   1.0000   1.0000   1.0000   1.0000
     1.0000   1.0000   1.0000   1.0000   1.0000   1.0000   1.0000   1.0000
     1.0000   1.0000   1.0000   1.0000   1.0000   1.0000   1.0000   1.0000
     1.0000   1.0000   1.0000   1.0000   1.0000   1.0000   1.0000   1.0000
     1.0000   1.0000   1.0000   1.0000   1.0000   1.0000   1.0000   1.0000
     0.0000   0.0000   0.0000   0.0000   0.0000   0.0000   0.0000   0.0000
     0.0000   0.0000   0.0000   0.0000   0.0000   0.0000   0.0000   0.0000
     0.0000   0.0000   0.0000   0.0000   0.0000   0.0000   0.0000   0.0000
     0.0000   0.0000   0.0000   0.0000

          k = 0.0000 0.0888 0.0914 ( 18711 PWs)   bands (ev):

   -41.4260 -41.4260 -41.4215 -41.4215 -26.6710 -26.6709 -26.6697 -26.6696
   -19.5152 -19.5152 -19.4801 -19.4801 -19.4313 -19.4312 -19.4058 -19.4058
   -19.3889 -19.3889 -19.3728 -19.3728  -8.7752  -8.7690  -8.7622  -8.7553
    -8.7317  -8.7204  -8.6724  -8.6701  -8.6049  -8.6045  -8.5997  -8.5992
    -4.8089  -4.7088  -4.1431  -4.1269  -3.8941  -3.8653  -3.6039  -3.5968
    -3.5167  -3.4505  -3.3955  -3.3590   3.5630   3.6473   3.7939   3.8453
     4.0520   4.1265   4.4145   4.6871   4.7404   4.7571   4.7761   4.8824
     4.8923   4.9300   5.0623   5.2426   5.4800   5.5624   5.9227   5.9983
     6.0182   6.0842   6.2462   6.2854   6.5293   6.5523   6.5871   6.6912
     6.7604   6.8165   6.9079   7.1708   7.1772   7.2923   7.5205   7.6124
     8.6056   8.7258   9.2666   9.2719   9.9205  10.0304  10.2418  10.2929
    10.3407  10.3875  10.4141  10.5681  10.8895  11.0310  11.7191  11.9244
    12.0066  12.0690  12.0788  12.1603  12.2629  12.3178  12.3904  12.4286
    12.6619  12.7341  12.8179  12.9760

     occupation numbers 
     1.0000   1.0000   1.0000   1.0000   1.0000   1.0000   1.0000   1.0000
     1.0000   1.0000   1.0000   1.0000   1.0000   1.0000   1.0000   1.0000
     1.0000   1.0000   1.0000   1.0000   1.0000   1.0000   1.0000   1.0000
     1.0000   1.0000   1.0000   1.0000   1.0000   1.0000   1.0000   1.0000
     1.0000   1.0000   1.0000   1.0000   1.0000   1.0000   1.0000   1.0000
     1.0000   1.0000   1.0000   1.0000   1.0000   1.0000   1.0000   1.0000
     1.0000   1.0000   1.0000   1.0000   1.0000   1.0000   1.0000   1.0000
     1.0000   1.0000   1.0000   1.0000   1.0000   1.0000   1.0000   1.0000
     1.0000   1.0000   1.0000   1.0000   1.0000   1.0000   1.0000   1.0000
     1.0000   1.0000   1.0000   1.0000   1.0000   1.0000   1.0000   1.0000
     0.0000   0.0000   0.0000   0.0000   0.0000   0.0000   0.0000   0.0000
     0.0000   0.0000   0.0000   0.0000   0.0000   0.0000   0.0000   0.0000
     0.0000   0.0000   0.0000   0.0000   0.0000   0.0000   0.0000   0.0000
     0.0000   0.0000   0.0000   0.0000

          k = 0.0000 0.0888-0.1371 ( 18740 PWs)   bands (ev):

   -41.4260 -41.4260 -41.4215 -41.4215 -26.6709 -26.6709 -26.6696 -26.6696
   -19.5152 -19.5152 -19.4801 -19.4801 -19.4313 -19.4313 -19.4058 -19.4058
   -19.3889 -19.3889 -19.3728 -19.3728  -8.7720  -8.7720  -8.7593  -8.7593
    -8.7256  -8.7256  -8.6712  -8.6712  -8.6047  -8.6047  -8.5994  -8.5994
    -4.7613  -4.7613  -4.1352  -4.1352  -3.8743  -3.8743  -3.6044  -3.6044
    -3.4852  -3.4852  -3.3743  -3.3743   3.6005   3.6005   3.8195   3.8195
     4.0860   4.0860   4.5700   4.5700   4.7487   4.7487   4.8213   4.8213
     4.8874   4.8874   5.1430   5.1430   5.5297   5.5297   6.0082   6.0082
     6.0190   6.0190   6.2722   6.2722   6.5717   6.5717   6.6781   6.6781
     6.7192   6.7192   7.0259   7.0259   7.2360   7.2360   7.5737   7.5737
     8.6627   8.6627   9.2718   9.2718   9.9723   9.9723  10.2625  10.2625
    10.3671  10.3671  10.4922  10.4922  10.9605  10.9605  11.8760  11.8760
    12.0076  12.0076  12.1144  12.1144  12.2921  12.2921  12.3542  12.3542
    12.7615  12.7615  12.8970  12.8970

     occupation numbers 
     1.0000   1.0000   1.0000   1.0000   1.0000   1.0000   1.0000   1.0000
     1.0000   1.0000   1.0000   1.0000   1.0000   1.0000   1.0000   1.0000
     1.0000   1.0000   1.0000   1.0000   1.0000   1.0000   1.0000   1.0000
     1.0000   1.0000   1.0000   1.0000   1.0000   1.0000   1.0000   1.0000
     1.0000   1.0000   1.0000   1.0000   1.0000   1.0000   1.0000   1.0000
     1.0000   1.0000   1.0000   1.0000   1.0000   1.0000   1.0000   1.0000
     1.0000   1.0000   1.0000   1.0000   1.0000   1.0000   1.0000   1.0000
     1.0000   1.0000   1.0000   1.0000   1.0000   1.0000   1.0000   1.0000
     1.0000   1.0000   1.0000   1.0000   1.0000   1.0000   1.0000   1.0000
     1.0000   1.0000   1.0000   1.0000   1.0000   1.0000   1.0000   1.0000
     0.0000   0.0000   0.0000   0.0000   0.0000   0.0000   0.0000   0.0000
     0.0000   0.0000   0.0000   0.0000   0.0000   0.0000   0.0000   0.0000
     0.0000   0.0000   0.0000   0.0000   0.0000   0.0000   0.0000   0.0000
     0.0000   0.0000   0.0000   0.0000

          k = 0.0000 0.1333 0.0000 ( 18705 PWs)   bands (ev):

   -41.4260 -41.4260 -41.4215 -41.4215 -26.6709 -26.6707 -26.6699 -26.6697
   -19.5151 -19.5151 -19.4802 -19.4802 -19.4312 -19.4312 -19.4058 -19.4058
   -19.3889 -19.3889 -19.3728 -19.3728  -8.7795  -8.7700  -8.7605  -8.7478
    -8.7317  -8.7094  -8.6828  -8.6754  -8.6044  -8.6035  -8.6006  -8.5997
    -4.8010  -4.6351  -4.2089  -4.1670  -3.9452  -3.9180  -3.5633  -3.5462
    -3.4958  -3.4494  -3.3695  -3.3631   3.4568   3.6144   3.7314   3.7601
     4.0635   4.2227   4.3056   4.7341   4.7637   4.8313   4.8637   4.8852
     4.8933   5.0824   5.2052   5.2657   5.5743   5.5928   5.7481   6.0635
     6.0663   6.0704   6.0931   6.2559   6.5013   6.5559   6.6928   6.7006
     6.8090   6.8192   6.9350   7.0706   7.2029   7.2564   7.3614   7.3768
     8.6611   8.8586   9.1784   9.1958   9.9239  10.1128  10.2317  10.3164
    10.3361  10.4019  10.4212  10.6604  10.9453  11.1943  11.5092  11.8583
    11.9698  11.9871  12.0972  12.1550  12.3168  12.3688  12.4403  12.4407
    12.5785  12.7715  12.9378  13.0714

     occupation numbers 
     1.0000   1.0000   1.0000   1.0000   1.0000   1.0000   1.0000   1.0000
     1.0000   1.0000   1.0000   1.0000   1.0000   1.0000   1.0000   1.0000
     1.0000   1.0000   1.0000   1.0000   1.0000   1.0000   1.0000   1.0000
     1.0000   1.0000   1.0000   1.0000   1.0000   1.0000   1.0000   1.0000
     1.0000   1.0000   1.0000   1.0000   1.0000   1.0000   1.0000   1.0000
     1.0000   1.0000   1.0000   1.0000   1.0000   1.0000   1.0000   1.0000
     1.0000   1.0000   1.0000   1.0000   1.0000   1.0000   1.0000   1.0000
     1.0000   1.0000   1.0000   1.0000   1.0000   1.0000   1.0000   1.0000
     1.0000   1.0000   1.0000   1.0000   1.0000   1.0000   1.0000   1.0000
     1.0000   1.0000   1.0000   1.0000   1.0000   1.0000   1.0000   1.0000
     0.0000   0.0000   0.0000   0.0000   0.0000   0.0000   0.0000   0.0000
     0.0000   0.0000   0.0000   0.0000   0.0000   0.0000   0.0000   0.0000
     0.0000   0.0000   0.0000   0.0000   0.0000   0.0000   0.0000   0.0000
     0.0000   0.0000   0.0000   0.0000

          k = 0.0000 0.1333 0.0457 ( 18712 PWs)   bands (ev):

   -41.4260 -41.4260 -41.4215 -41.4215 -26.6708 -26.6707 -26.6699 -26.6697
   -19.5151 -19.5151 -19.4802 -19.4802 -19.4312 -19.4312 -19.4058 -19.4058
   -19.3889 -19.3889 -19.3728 -19.3728  -8.7785  -8.7697  -8.7610  -8.7501
    -8.7292  -8.7107  -8.6821  -8.6758  -8.6043  -8.6036  -8.6005  -8.5998
    -4.7910  -4.6472  -4.2124  -4.1709  -3.9371  -3.9126  -3.5672  -3.5521
    -3.4884  -3.4381  -3.3853  -3.3601   3.4661   3.6024   3.7118   3.7682
     4.0774   4.2059   4.3633   4.7361   4.7618   4.7930   4.8649   4.8836
     4.9002   5.0134   5.1816   5.3695   5.5002   5.6031   5.7966   5.9874
     6.0681   6.0913   6.1596   6.2895   6.5055   6.5529   6.6525   6.6980
     6.7967   6.8452   6.9031   7.0867   7.1927   7.2457   7.3077   7.4402
     8.6730   8.8437   9.1812   9.1969   9.9353  10.0974  10.2410  10.3151
    10.3440  10.3996  10.4155  10.6366  10.9662  11.1778  11.5585  11.8649
    11.9868  11.9988  12.0693  12.1495  12.3142  12.3411  12.4269  12.4467
    12.6263  12.7826  12.8625  12.9740

     occupation numbers 
     1.0000   1.0000   1.0000   1.0000   1.0000   1.0000   1.0000   1.0000
     1.0000   1.0000   1.0000   1.0000   1.0000   1.0000   1.0000   1.0000
     1.0000   1.0000   1.0000   1.0000   1.0000   1.0000   1.0000   1.0000
     1.0000   1.0000   1.0000   1.0000   1.0000   1.0000   1.0000   1.0000
     1.0000   1.0000   1.0000   1.0000   1.0000   1.0000   1.0000   1.0000
     1.0000   1.0000   1.0000   1.0000   1.0000   1.0000   1.0000   1.0000
     1.0000   1.0000   1.0000   1.0000   1.0000   1.0000   1.0000   1.0000
     1.0000   1.0000   1.0000   1.0000   1.0000   1.0000   1.0000   1.0000
     1.0000   1.0000   1.0000   1.0000   1.0000   1.0000   1.0000   1.0000
     1.0000   1.0000   1.0000   1.0000   1.0000   1.0000   1.0000   1.0000
     0.0000   0.0000   0.0000   0.0000   0.0000   0.0000   0.0000   0.0000
     0.0000   0.0000   0.0000   0.0000   0.0000   0.0000   0.0000   0.0000
     0.0000   0.0000   0.0000   0.0000   0.0000   0.0000   0.0000   0.0000
     0.0000   0.0000   0.0000   0.0000

          k = 0.0000 0.1333 0.0914 ( 18702 PWs)   bands (ev):

   -41.4260 -41.4260 -41.4215 -41.4215 -26.6708 -26.6707 -26.6699 -26.6698
   -19.5151 -19.5151 -19.4802 -19.4802 -19.4312 -19.4312 -19.4058 -19.4058
   -19.3889 -19.3889 -19.3728 -19.3728  -8.7759  -8.7699  -8.7612  -8.7546
    -8.7242  -8.7141  -8.6804  -8.6769  -8.6042  -8.6038  -8.6004  -8.5999
    -4.7628  -4.6797  -4.2128  -4.1846  -3.9187  -3.9041  -3.5730  -3.5633
    -3.4695  -3.4146  -3.4113  -3.3681   3.4913   3.5686   3.7045   3.7547
     4.1124   4.1860   4.4877   4.7416   4.7566   4.7588   4.8236   4.8684
     4.8793   4.8992   5.2406   5.4511   5.4773   5.5321   5.8527   5.9823
     6.0730   6.0865   6.2277   6.3316   6.5167   6.5441   6.6210   6.7134
     6.7685   6.7874   6.9188   7.0936   7.1260   7.2159   7.3602   7.4614
     8.7061   8.8043   9.1879   9.1979   9.9667  10.0589  10.2584  10.3058
    10.3613  10.3920  10.4295  10.5733  11.0184  11.1370  11.6768  11.8816
    11.9842  12.0314  12.0322  12.1248  12.3110  12.3211  12.3922  12.4624
    12.6344  12.7283  12.8370  12.9657

     occupation numbers 
     1.0000   1.0000   1.0000   1.0000   1.0000   1.0000   1.0000   1.0000
     1.0000   1.0000   1.0000   1.0000   1.0000   1.0000   1.0000   1.0000
     1.0000   1.0000   1.0000   1.0000   1.0000   1.0000   1.0000   1.0000
     1.0000   1.0000   1.0000   1.0000   1.0000   1.0000   1.0000   1.0000
     1.0000   1.0000   1.0000   1.0000   1.0000   1.0000   1.0000   1.0000
     1.0000   1.0000   1.0000   1.0000   1.0000   1.0000   1.0000   1.0000
     1.0000   1.0000   1.0000   1.0000   1.0000   1.0000   1.0000   1.0000
     1.0000   1.0000   1.0000   1.0000   1.0000   1.0000   1.0000   1.0000
     1.0000   1.0000   1.0000   1.0000   1.0000   1.0000   1.0000   1.0000
     1.0000   1.0000   1.0000   1.0000   1.0000   1.0000   1.0000   1.0000
     0.0000   0.0000   0.0000   0.0000   0.0000   0.0000   0.0000   0.0000
     0.0000   0.0000   0.0000   0.0000   0.0000   0.0000   0.0000   0.0000
     0.0000   0.0000   0.0000   0.0000   0.0000   0.0000   0.0000   0.0000
     0.0000   0.0000   0.0000   0.0000

          k = 0.0000 0.1333-0.1371 ( 18694 PWs)   bands (ev):

   -41.4260 -41.4260 -41.4215 -41.4215 -26.6708 -26.6708 -26.6698 -26.6698
   -19.5151 -19.5151 -19.4802 -19.4802 -19.4312 -19.4312 -19.4058 -19.4058
   -19.3889 -19.3889 -19.3728 -19.3728  -8.7724  -8.7724  -8.7588  -8.7588
    -8.7189  -8.7189  -8.6785  -8.6785  -8.6040  -8.6040  -8.6001  -8.6001
    -4.7224  -4.7224  -4.2021  -4.2021  -3.9048  -3.9048  -3.5719  -3.5719
    -3.4429  -3.4429  -3.3873  -3.3873   3.5274   3.5274   3.7247   3.7247
     4.1544   4.1544   4.6447   4.6447   4.7492   4.7492   4.8139   4.8139
     4.8736   4.8736   5.3556   5.3556   5.5061   5.5061   5.9322   5.9322
     6.0798   6.0798   6.2993   6.2993   6.5310   6.5310   6.6845   6.6845
     6.7380   6.7380   6.9893   6.9893   7.1730   7.1730   7.4287   7.4287
     8.7536   8.7536   9.1948   9.1948  10.0113  10.0113  10.2806  10.2806
    10.3789  10.3789  10.4929  10.4929  11.0810  11.0810  11.8081  11.8081
    12.0061  12.0061  12.0796  12.0796  12.3508  12.3508  12.3533  12.3533
    12.7166  12.7166  12.8595  12.8595

     occupation numbers 
     1.0000   1.0000   1.0000   1.0000   1.0000   1.0000   1.0000   1.0000
     1.0000   1.0000   1.0000   1.0000   1.0000   1.0000   1.0000   1.0000
     1.0000   1.0000   1.0000   1.0000   1.0000   1.0000   1.0000   1.0000
     1.0000   1.0000   1.0000   1.0000   1.0000   1.0000   1.0000   1.0000
     1.0000   1.0000   1.0000   1.0000   1.0000   1.0000   1.0000   1.0000
     1.0000   1.0000   1.0000   1.0000   1.0000   1.0000   1.0000   1.0000
     1.0000   1.0000   1.0000   1.0000   1.0000   1.0000   1.0000   1.0000
     1.0000   1.0000   1.0000   1.0000   1.0000   1.0000   1.0000   1.0000
     1.0000   1.0000   1.0000   1.0000   1.0000   1.0000   1.0000   1.0000
     1.0000   1.0000   1.0000   1.0000   1.0000   1.0000   1.0000   1.0000
     0.0000   0.0000   0.0000   0.0000   0.0000   0.0000   0.0000   0.0000
     0.0000   0.0000   0.0000   0.0000   0.0000   0.0000   0.0000   0.0000
     0.0000   0.0000   0.0000   0.0000   0.0000   0.0000   0.0000   0.0000
     0.0000   0.0000   0.0000   0.0000

          k = 0.0000 0.1777 0.0000 ( 18712 PWs)   bands (ev):

   -41.4260 -41.4260 -41.4215 -41.4215 -26.6706 -26.6705 -26.6701 -26.6700
   -19.5151 -19.5151 -19.4803 -19.4803 -19.4312 -19.4312 -19.4058 -19.4058
   -19.3889 -19.3889 -19.3728 -19.3728  -8.7788  -8.7734  -8.7571  -8.7505
    -8.7192  -8.7016  -8.6939  -8.6836  -8.6035  -8.6026  -8.6015  -8.6006
    -4.7382  -4.6395  -4.2553  -4.2154  -3.9537  -3.9445  -3.5462  -3.5053
    -3.4910  -3.4571  -3.3615  -3.3492   3.4225   3.5021   3.7047   3.7236
     4.1039   4.1906   4.4500   4.7388   4.7567   4.7747   4.8584   4.8727
     5.0046   5.1707   5.2843   5.2879   5.4556   5.6423   5.7472   5.9324
     6.1423   6.1567   6.2014   6.4273   6.4715   6.5031   6.7224   6.7725
     6.7851   6.8832   6.9399   6.9701   7.0731   7.1400   7.1697   7.2663
     8.7897   8.9364   9.0640   9.1183   9.9868  10.0953  10.2455  10.2896
    10.3687  10.3995  10.5156  10.6467  11.1036  11.3309  11.4139  11.7041
    11.9826  11.9847  12.0450  12.0844  12.3607  12.3647  12.3895  12.4342
    12.5975  12.7851  13.1481  13.1647

     occupation numbers 
     1.0000   1.0000   1.0000   1.0000   1.0000   1.0000   1.0000   1.0000
     1.0000   1.0000   1.0000   1.0000   1.0000   1.0000   1.0000   1.0000
     1.0000   1.0000   1.0000   1.0000   1.0000   1.0000   1.0000   1.0000
     1.0000   1.0000   1.0000   1.0000   1.0000   1.0000   1.0000   1.0000
     1.0000   1.0000   1.0000   1.0000   1.0000   1.0000   1.0000   1.0000
     1.0000   1.0000   1.0000   1.0000   1.0000   1.0000   1.0000   1.0000
     1.0000   1.0000   1.0000   1.0000   1.0000   1.0000   1.0000   1.0000
     1.0000   1.0000   1.0000   1.0000   1.0000   1.0000   1.0000   1.0000
     1.0000   1.0000   1.0000   1.0000   1.0000   1.0000   1.0000   1.0000
     1.0000   1.0000   1.0000   1.0000   1.0000   1.0000   1.0000   1.0000
     0.0000   0.0000   0.0000   0.0000   0.0000   0.0000   0.0000   0.0000
     0.0000   0.0000   0.0000   0.0000   0.0000   0.0000   0.0000   0.0000
     0.0000   0.0000   0.0000   0.0000   0.0000   0.0000   0.0000   0.0000
     0.0000   0.0000   0.0000   0.0000

          k = 0.0000 0.1777 0.0457 ( 18703 PWs)   bands (ev):

   -41.4260 -41.4260 -41.4215 -41.4215 -26.6706 -26.6705 -26.6701 -26.6700
   -19.5151 -19.5151 -19.4803 -19.4803 -19.4312 -19.4312 -19.4058 -19.4058
   -19.3889 -19.3889 -19.3728 -19.3728  -8.7778  -8.7727  -8.7580  -8.7521
    -8.7177  -8.7031  -8.6926  -8.6841  -8.6034  -8.6027  -8.6014  -8.6007
    -4.7306  -4.6441  -4.2620  -4.2243  -3.9457  -3.9368  -3.5482  -3.5200
    -3.4748  -3.4484  -3.3689  -3.3530   3.4295   3.5003   3.6873   3.7178
     4.1207   4.1946   4.4878   4.7403   4.7560   4.7736   4.8588   4.8713
     4.9468   5.1037   5.2768   5.3905   5.4173   5.6674   5.7733   5.9271
     6.1432   6.1557   6.2145   6.4499   6.4740   6.5012   6.7268   6.7470
     6.7814   6.7856   6.8838   7.0777   7.0786   7.1178   7.1624   7.3067
     8.7995   8.9269   9.0685   9.1164   9.9949  10.0891  10.2560  10.2929
    10.3711  10.3980  10.4984  10.6208  11.1240  11.3091  11.4582  11.7045
    11.9937  12.0001  12.0666  12.0839  12.3245  12.3543  12.4015  12.4185
    12.6155  12.7853  13.0408  13.0917

     occupation numbers 
     1.0000   1.0000   1.0000   1.0000   1.0000   1.0000   1.0000   1.0000
     1.0000   1.0000   1.0000   1.0000   1.0000   1.0000   1.0000   1.0000
     1.0000   1.0000   1.0000   1.0000   1.0000   1.0000   1.0000   1.0000
     1.0000   1.0000   1.0000   1.0000   1.0000   1.0000   1.0000   1.0000
     1.0000   1.0000   1.0000   1.0000   1.0000   1.0000   1.0000   1.0000
     1.0000   1.0000   1.0000   1.0000   1.0000   1.0000   1.0000   1.0000
     1.0000   1.0000   1.0000   1.0000   1.0000   1.0000   1.0000   1.0000
     1.0000   1.0000   1.0000   1.0000   1.0000   1.0000   1.0000   1.0000
     1.0000   1.0000   1.0000   1.0000   1.0000   1.0000   1.0000   1.0000
     1.0000   1.0000   1.0000   1.0000   1.0000   1.0000   1.0000   1.0000
     0.0000   0.0000   0.0000   0.0000   0.0000   0.0000   0.0000   0.0000
     0.0000   0.0000   0.0000   0.0000   0.0000   0.0000   0.0000   0.0000
     0.0000   0.0000   0.0000   0.0000   0.0000   0.0000   0.0000   0.0000
     0.0000   0.0000   0.0000   0.0000

          k = 0.0000 0.1777 0.0914 ( 18690 PWs)   bands (ev):

   -41.4260 -41.4260 -41.4215 -41.4215 -26.6706 -26.6705 -26.6701 -26.6700
   -19.5151 -19.5151 -19.4803 -19.4803 -19.4312 -19.4312 -19.4058 -19.4058
   -19.3889 -19.3889 -19.3728 -19.3728  -8.7751  -8.7714  -8.7597  -8.7557
    -8.7142  -8.7063  -8.6900  -8.6854  -8.6033  -8.6029  -8.6012  -8.6008
    -4.7100  -4.6590  -4.2701  -4.2454  -3.9291  -3.9235  -3.5503  -3.5362
    -3.4529  -3.4311  -3.3838  -3.3654   3.4486   3.4923   3.6650   3.6937
     4.1600   4.2033   4.5782   4.7444   4.7457   4.7536   4.8602   4.8676
     4.8815   4.9899   5.2814   5.3784   5.5050   5.6783   5.8266   5.9261
     6.1459   6.1531   6.2676   6.4572   6.4803   6.4960   6.6529   6.7080
     6.7388   6.7707   6.8873   6.9866   7.0943   7.1431   7.2433   7.3406
     8.8262   8.9003   9.0807   9.1094  10.0167  10.0713  10.2790  10.3055
    10.3776  10.3933  10.4706  10.5567  11.1728  11.2731  11.5439  11.6883
    12.0189  12.0464  12.0761  12.1088  12.2959  12.3392  12.3817  12.3928
    12.6403  12.7473  12.9531  13.0026

     occupation numbers 
     1.0000   1.0000   1.0000   1.0000   1.0000   1.0000   1.0000   1.0000
     1.0000   1.0000   1.0000   1.0000   1.0000   1.0000   1.0000   1.0000
     1.0000   1.0000   1.0000   1.0000   1.0000   1.0000   1.0000   1.0000
     1.0000   1.0000   1.0000   1.0000   1.0000   1.0000   1.0000   1.0000
     1.0000   1.0000   1.0000   1.0000   1.0000   1.0000   1.0000   1.0000
     1.0000   1.0000   1.0000   1.0000   1.0000   1.0000   1.0000   1.0000
     1.0000   1.0000   1.0000   1.0000   1.0000   1.0000   1.0000   1.0000
     1.0000   1.0000   1.0000   1.0000   1.0000   1.0000   1.0000   1.0000
     1.0000   1.0000   1.0000   1.0000   1.0000   1.0000   1.0000   1.0000
     1.0000   1.0000   1.0000   1.0000   1.0000   1.0000   1.0000   1.0000
     0.0000   0.0000   0.0000   0.0000   0.0000   0.0000   0.0000   0.0000
     0.0000   0.0000   0.0000   0.0000   0.0000   0.0000   0.0000   0.0000
     0.0000   0.0000   0.0000   0.0000   0.0000   0.0000   0.0000   0.0000
     0.0000   0.0000   0.0000   0.0000

          k = 0.0000 0.1777-0.1371 ( 18682 PWs)   bands (ev):

   -41.4260 -41.4260 -41.4215 -41.4215 -26.6706 -26.6706 -26.6700 -26.6700
   -19.5151 -19.5151 -19.4803 -19.4803 -19.4312 -19.4312 -19.4058 -19.4058
   -19.3889 -19.3889 -19.3728 -19.3728  -8.7722  -8.7722  -8.7591  -8.7591
    -8.7102  -8.7102  -8.6875  -8.6875  -8.6031  -8.6031  -8.6010  -8.6010
    -4.6832  -4.6832  -4.2646  -4.2646  -3.9193  -3.9193  -3.5468  -3.5468
    -3.4322  -3.4322  -3.3825  -3.3825   3.4733   3.4733   3.6679   3.6679
     4.1952   4.1952   4.6750   4.6750   4.7494   4.7494   4.8633   4.8633
     4.8973   4.8973   5.3190   5.3190   5.6134   5.6134   5.8974   5.8974
     6.1495   6.1495   6.3633   6.3633   6.4885   6.4885   6.6590   6.6590
     6.7551   6.7551   6.9167   6.9167   7.1178   7.1178   7.3213   7.3213
     8.8632   8.8632   9.0963   9.0963  10.0449  10.0449  10.3026  10.3026
    10.3859  10.3859  10.4898  10.4898  11.2274  11.2274  11.6307  11.6307
    12.0518  12.0518  12.1012  12.1012  12.3360  12.3360  12.3477  12.3477
    12.6817  12.6817  12.9481  12.9481

     occupation numbers 
     1.0000   1.0000   1.0000   1.0000   1.0000   1.0000   1.0000   1.0000
     1.0000   1.0000   1.0000   1.0000   1.0000   1.0000   1.0000   1.0000
     1.0000   1.0000   1.0000   1.0000   1.0000   1.0000   1.0000   1.0000
     1.0000   1.0000   1.0000   1.0000   1.0000   1.0000   1.0000   1.0000
     1.0000   1.0000   1.0000   1.0000   1.0000   1.0000   1.0000   1.0000
     1.0000   1.0000   1.0000   1.0000   1.0000   1.0000   1.0000   1.0000
     1.0000   1.0000   1.0000   1.0000   1.0000   1.0000   1.0000   1.0000
     1.0000   1.0000   1.0000   1.0000   1.0000   1.0000   1.0000   1.0000
     1.0000   1.0000   1.0000   1.0000   1.0000   1.0000   1.0000   1.0000
     1.0000   1.0000   1.0000   1.0000   1.0000   1.0000   1.0000   1.0000
     0.0000   0.0000   0.0000   0.0000   0.0000   0.0000   0.0000   0.0000
     0.0000   0.0000   0.0000   0.0000   0.0000   0.0000   0.0000   0.0000
     0.0000   0.0000   0.0000   0.0000   0.0000   0.0000   0.0000   0.0000
     0.0000   0.0000   0.0000   0.0000

          k = 0.0000-0.2221 0.0000 ( 18680 PWs)   bands (ev):

   -41.4260 -41.4260 -41.4215 -41.4215 -26.6704 -26.6704 -26.6702 -26.6702
   -19.5151 -19.5151 -19.4803 -19.4803 -19.4312 -19.4312 -19.4058 -19.4058
   -19.3889 -19.3889 -19.3728 -19.3728  -8.7765  -8.7765  -8.7537  -8.7536
    -8.7063  -8.7063  -8.6927  -8.6927  -8.6025  -8.6025  -8.6016  -8.6016
    -4.6774  -4.6774  -4.2540  -4.2540  -3.9540  -3.9540  -3.5202  -3.5201
    -3.4727  -3.4727  -3.3492  -3.3491   3.4364   3.4364   3.7032   3.7032
     4.1495   4.1495   4.6086   4.6087   4.7469   4.7469   4.8627   4.8627
     5.1626   5.1626   5.2848   5.2849   5.5182   5.5182   5.8089   5.8089
     6.1817   6.1817   6.4659   6.4660   6.4811   6.4811   6.7062   6.7062
     6.7551   6.7552   6.9913   6.9914   7.1050   7.1050   7.1230   7.1230
     8.9237   8.9238   9.0328   9.0329  10.0490  10.0490  10.2653  10.2654
    10.3904  10.3904  10.5959  10.5960  11.2660  11.2660  11.5115  11.5115
    12.0204  12.0204  12.0209  12.0210  12.3377  12.3377  12.4071  12.4071
    12.7127  12.7127  13.2167  13.2167

     occupation numbers 
     1.0000   1.0000   1.0000   1.0000   1.0000   1.0000   1.0000   1.0000
     1.0000   1.0000   1.0000   1.0000   1.0000   1.0000   1.0000   1.0000
     1.0000   1.0000   1.0000   1.0000   1.0000   1.0000   1.0000   1.0000
     1.0000   1.0000   1.0000   1.0000   1.0000   1.0000   1.0000   1.0000
     1.0000   1.0000   1.0000   1.0000   1.0000   1.0000   1.0000   1.0000
     1.0000   1.0000   1.0000   1.0000   1.0000   1.0000   1.0000   1.0000
     1.0000   1.0000   1.0000   1.0000   1.0000   1.0000   1.0000   1.0000
     1.0000   1.0000   1.0000   1.0000   1.0000   1.0000   1.0000   1.0000
     1.0000   1.0000   1.0000   1.0000   1.0000   1.0000   1.0000   1.0000
     1.0000   1.0000   1.0000   1.0000   1.0000   1.0000   1.0000   1.0000
     0.0000   0.0000   0.0000   0.0000   0.0000   0.0000   0.0000   0.0000
     0.0000   0.0000   0.0000   0.0000   0.0000   0.0000   0.0000   0.0000
     0.0000   0.0000   0.0000   0.0000   0.0000   0.0000   0.0000   0.0000
     0.0000   0.0000   0.0000   0.0000

          k = 0.0000-0.2221 0.0457 ( 18698 PWs)   bands (ev):

   -41.4260 -41.4260 -41.4215 -41.4215 -26.6704 -26.6704 -26.6702 -26.6702
   -19.5151 -19.5151 -19.4803 -19.4803 -19.4312 -19.4312 -19.4058 -19.4058
   -19.3889 -19.3889 -19.3728 -19.3728  -8.7756  -8.7756  -8.7549  -8.7549
    -8.7057  -8.7056  -8.6930  -8.6930  -8.6025  -8.6025  -8.6016  -8.6016
    -4.6745  -4.6744  -4.2638  -4.2638  -3.9458  -3.9458  -3.5251  -3.5250
    -3.4641  -3.4640  -3.3542  -3.3541   3.4398   3.4398   3.6903   3.6903
     4.1623   4.1623   4.6287   4.6288   4.7475   4.7476   4.8619   4.8619
     5.0835   5.0835   5.3152   5.3153   5.5359   5.5359   5.8405   5.8405
     6.1817   6.1817   6.4662   6.4663   6.4706   6.4706   6.6787   6.6787
     6.7569   6.7570   6.9460   6.9460   7.1026   7.1026   7.1824   7.1824
     8.9307   8.9308   9.0277   9.0278  10.0513  10.0514  10.2733  10.2734
    10.3898  10.3898  10.5721  10.5722  11.2837  11.2837  11.5110  11.5110
    12.0254  12.0255  12.0501  12.0502  12.3268  12.3268  12.3923  12.3923
    12.7124  12.7125  13.1771  13.1771

     occupation numbers 
     1.0000   1.0000   1.0000   1.0000   1.0000   1.0000   1.0000   1.0000
     1.0000   1.0000   1.0000   1.0000   1.0000   1.0000   1.0000   1.0000
     1.0000   1.0000   1.0000   1.0000   1.0000   1.0000   1.0000   1.0000
     1.0000   1.0000   1.0000   1.0000   1.0000   1.0000   1.0000   1.0000
     1.0000   1.0000   1.0000   1.0000   1.0000   1.0000   1.0000   1.0000
     1.0000   1.0000   1.0000   1.0000   1.0000   1.0000   1.0000   1.0000
     1.0000   1.0000   1.0000   1.0000   1.0000   1.0000   1.0000   1.0000
     1.0000   1.0000   1.0000   1.0000   1.0000   1.0000   1.0000   1.0000
     1.0000   1.0000   1.0000   1.0000   1.0000   1.0000   1.0000   1.0000
     1.0000   1.0000   1.0000   1.0000   1.0000   1.0000   1.0000   1.0000
     0.0000   0.0000   0.0000   0.0000   0.0000   0.0000   0.0000   0.0000
     0.0000   0.0000   0.0000   0.0000   0.0000   0.0000   0.0000   0.0000
     0.0000   0.0000   0.0000   0.0000   0.0000   0.0000   0.0000   0.0000
     0.0000   0.0000   0.0000   0.0000

          k = 0.0000-0.2221 0.0914 ( 18678 PWs)   bands (ev):

   -41.4260 -41.4260 -41.4215 -41.4215 -26.6704 -26.6704 -26.6702 -26.6702
   -19.5151 -19.5151 -19.4803 -19.4803 -19.4312 -19.4312 -19.4058 -19.4058
   -19.3889 -19.3889 -19.3728 -19.3728  -8.7734  -8.7734  -8.7577  -8.7577
    -8.7043  -8.7043  -8.6938  -8.6938  -8.6025  -8.6025  -8.6016  -8.6016
    -4.6684  -4.6683  -4.2824  -4.2824  -3.9306  -3.9306  -3.5326  -3.5326
    -3.4471  -3.4471  -3.3663  -3.3663   3.4481   3.4481   3.6637   3.6637
     4.1915   4.1915   4.6631   4.6631   4.7488   4.7488   4.8603   4.8604
     5.0059   5.0059   5.2646   5.2647   5.6285   5.6285   5.8821   5.8821
     6.1816   6.1816   6.4444   6.4444   6.4668   6.4669   6.6280   6.6280
     6.7606   6.7607   6.8984   6.8984   7.0977   7.0978   7.2564   7.2564
     8.9487   8.9488   9.0132   9.0133  10.0561  10.0561  10.2960  10.2961
    10.3885  10.3885  10.5189  10.5190  11.3215  11.3215  11.5064  11.5064
    12.0355  12.0356  12.1263  12.1264  12.2936  12.2936  12.3620  12.3620
    12.7044  12.7044  13.1061  13.1061

     occupation numbers 
     1.0000   1.0000   1.0000   1.0000   1.0000   1.0000   1.0000   1.0000
     1.0000   1.0000   1.0000   1.0000   1.0000   1.0000   1.0000   1.0000
     1.0000   1.0000   1.0000   1.0000   1.0000   1.0000   1.0000   1.0000
     1.0000   1.0000   1.0000   1.0000   1.0000   1.0000   1.0000   1.0000
     1.0000   1.0000   1.0000   1.0000   1.0000   1.0000   1.0000   1.0000
     1.0000   1.0000   1.0000   1.0000   1.0000   1.0000   1.0000   1.0000
     1.0000   1.0000   1.0000   1.0000   1.0000   1.0000   1.0000   1.0000
     1.0000   1.0000   1.0000   1.0000   1.0000   1.0000   1.0000   1.0000
     1.0000   1.0000   1.0000   1.0000   1.0000   1.0000   1.0000   1.0000
     1.0000   1.0000   1.0000   1.0000   1.0000   1.0000   1.0000   1.0000
     0.0000   0.0000   0.0000   0.0000   0.0000   0.0000   0.0000   0.0000
     0.0000   0.0000   0.0000   0.0000   0.0000   0.0000   0.0000   0.0000
     0.0000   0.0000   0.0000   0.0000   0.0000   0.0000   0.0000   0.0000
     0.0000   0.0000   0.0000   0.0000

          k = 0.0000-0.2221-0.1371 ( 18668 PWs)   bands (ev):

   -41.4260 -41.4260 -41.4215 -41.4215 -26.6704 -26.6704 -26.6702 -26.6702
   -19.5151 -19.5151 -19.4803 -19.4803 -19.4312 -19.4312 -19.4058 -19.4058
   -19.3889 -19.3889 -19.3728 -19.3728  -8.7720  -8.7720  -8.7595  -8.7595
    -8.7035  -8.7035  -8.6942  -8.6942  -8.6025  -8.6025  -8.6016  -8.6016
    -4.6652  -4.6652  -4.2913  -4.2913  -3.9235  -3.9235  -3.5358  -3.5358
    -3.4374  -3.4374  -3.3742  -3.3742   3.4531   3.4531   3.6498   3.6498
     4.2082   4.2082   4.6743   4.6743   4.7494   4.7494   4.8596   4.8596
     4.9885   4.9885   5.2229   5.2229   5.6866   5.6866   5.8908   5.8908
     6.1816   6.1816   6.4289   6.4289   6.4671   6.4671   6.6052   6.6052
     6.7626   6.7626   6.8817   6.8817   7.0953   7.0953   7.2852   7.2852
     8.9629   8.9629   9.0007   9.0007  10.0585  10.0585  10.3135  10.3135
    10.3878  10.3878  10.4868  10.4868  11.3426  11.3426  11.5013  11.5013
    12.0413  12.0413  12.1896  12.1896  12.2568  12.2568  12.3464  12.3464
    12.6895  12.6895  13.0803  13.0804

     occupation numbers 
     1.0000   1.0000   1.0000   1.0000   1.0000   1.0000   1.0000   1.0000
     1.0000   1.0000   1.0000   1.0000   1.0000   1.0000   1.0000   1.0000
     1.0000   1.0000   1.0000   1.0000   1.0000   1.0000   1.0000   1.0000
     1.0000   1.0000   1.0000   1.0000   1.0000   1.0000   1.0000   1.0000
     1.0000   1.0000   1.0000   1.0000   1.0000   1.0000   1.0000   1.0000
     1.0000   1.0000   1.0000   1.0000   1.0000   1.0000   1.0000   1.0000
     1.0000   1.0000   1.0000   1.0000   1.0000   1.0000   1.0000   1.0000
     1.0000   1.0000   1.0000   1.0000   1.0000   1.0000   1.0000   1.0000
     1.0000   1.0000   1.0000   1.0000   1.0000   1.0000   1.0000   1.0000
     1.0000   1.0000   1.0000   1.0000   1.0000   1.0000   1.0000   1.0000
     0.0000   0.0000   0.0000   0.0000   0.0000   0.0000   0.0000   0.0000
     0.0000   0.0000   0.0000   0.0000   0.0000   0.0000   0.0000   0.0000
     0.0000   0.0000   0.0000   0.0000   0.0000   0.0000   0.0000   0.0000
     0.0000   0.0000   0.0000   0.0000

          k = 0.0500 0.0000 0.0000 ( 18667 PWs)   bands (ev):

   -41.4258 -41.4258 -41.4214 -41.4214 -26.6707 -26.6705 -26.6691 -26.6689
   -19.5145 -19.5145 -19.4795 -19.4794 -19.4311 -19.4311 -19.4066 -19.4066
   -19.3910 -19.3910 -19.3757 -19.3757  -8.7708  -8.7649  -8.7627  -8.7540
    -8.7425  -8.7191  -8.6638  -8.6631  -8.6153  -8.6146  -8.6078  -8.6069
    -4.8797  -4.6545  -4.0998  -4.0572  -3.8394  -3.7391  -3.7006  -3.6975
    -3.5546  -3.4575  -3.4014  -3.3413   3.6556   3.8437   3.9172   3.9558
     3.9572   4.1332   4.2636   4.4890   4.6276   4.6897   4.6990   4.8302
     4.8565   5.0332   5.0637   5.4493   5.6434   5.6489   5.6980   5.8324
     5.8381   5.9540   6.2012   6.3071   6.4894   6.5087   6.5670   6.5993
     6.6866   6.8287   6.9104   7.0126   7.3485   7.4270   7.6331   7.7978
     8.5303   8.7876   9.3833   9.4217   9.8714  10.0793  10.1441  10.2386
    10.3401  10.3540  10.4334  10.5616  10.7878  11.0619  11.5151  12.0048
    12.0104  12.0202  12.1013  12.2793  12.3061  12.3093  12.4265  12.4529
    12.6964  12.7058  12.8319  12.8427

     occupation numbers 
     1.0000   1.0000   1.0000   1.0000   1.0000   1.0000   1.0000   1.0000
     1.0000   1.0000   1.0000   1.0000   1.0000   1.0000   1.0000   1.0000
     1.0000   1.0000   1.0000   1.0000   1.0000   1.0000   1.0000   1.0000
     1.0000   1.0000   1.0000   1.0000   1.0000   1.0000   1.0000   1.0000
     1.0000   1.0000   1.0000   1.0000   1.0000   1.0000   1.0000   1.0000
     1.0000   1.0000   1.0000   1.0000   1.0000   1.0000   1.0000   1.0000
     1.0000   1.0000   1.0000   1.0000   1.0000   1.0000   1.0000   1.0000
     1.0000   1.0000   1.0000   1.0000   1.0000   1.0000   1.0000   1.0000
     1.0000   1.0000   1.0000   1.0000   1.0000   1.0000   1.0000   1.0000
     1.0000   1.0000   1.0000   1.0000   1.0000   1.0000   1.0000   1.0000
     0.0000   0.0000   0.0000   0.0000   0.0000   0.0000   0.0000   0.0000
     0.0000   0.0000   0.0000   0.0000   0.0000   0.0000   0.0000   0.0000
     0.0000   0.0000   0.0000   0.0000   0.0000   0.0000   0.0000   0.0000
     0.0000   0.0000   0.0000   0.0000

          k = 0.0500 0.0000 0.0457 ( 18699 PWs)   bands (ev):

   -41.4258 -41.4258 -41.4214 -41.4214 -26.6707 -26.6705 -26.6691 -26.6689
   -19.5145 -19.5145 -19.4795 -19.4794 -19.4311 -19.4311 -19.4066 -19.4066
   -19.3910 -19.3910 -19.3757 -19.3757  -8.7704  -8.7651  -8.7624  -8.7557
    -8.7401  -8.7204  -8.6638  -8.6632  -8.6152  -8.6147  -8.6078  -8.6070
    -4.8675  -4.6741  -4.0920  -4.0576  -3.8324  -3.7450  -3.6965  -3.6954
    -3.5562  -3.4704  -3.3940  -3.3419   3.6631   3.8272   3.9221   3.9560
     3.9603   4.1177   4.2886   4.5172   4.6492   4.6612   4.6972   4.8334
     4.8525   5.0358   5.0751   5.3032   5.5200   5.6764   5.7784   5.8429
     5.8789   6.1075   6.1845   6.3061   6.4395   6.5213   6.5721   6.6044
     6.7266   6.7962   6.8809   7.0607   7.2987   7.3992   7.6429   7.7857
     8.5447   8.7669   9.3893   9.4220   9.8817  10.0577  10.1592  10.2480
    10.3349  10.3537  10.4412  10.5548  10.7978  11.0382  11.5675  11.9374
    11.9715  12.0879  12.1201  12.2795  12.2898  12.3218  12.3559  12.5331
    12.6543  12.7246  12.7690  12.8791

     occupation numbers 
     1.0000   1.0000   1.0000   1.0000   1.0000   1.0000   1.0000   1.0000
     1.0000   1.0000   1.0000   1.0000   1.0000   1.0000   1.0000   1.0000
     1.0000   1.0000   1.0000   1.0000   1.0000   1.0000   1.0000   1.0000
     1.0000   1.0000   1.0000   1.0000   1.0000   1.0000   1.0000   1.0000
     1.0000   1.0000   1.0000   1.0000   1.0000   1.0000   1.0000   1.0000
     1.0000   1.0000   1.0000   1.0000   1.0000   1.0000   1.0000   1.0000
     1.0000   1.0000   1.0000   1.0000   1.0000   1.0000   1.0000   1.0000
     1.0000   1.0000   1.0000   1.0000   1.0000   1.0000   1.0000   1.0000
     1.0000   1.0000   1.0000   1.0000   1.0000   1.0000   1.0000   1.0000
     1.0000   1.0000   1.0000   1.0000   1.0000   1.0000   1.0000   1.0000
     0.0000   0.0000   0.0000   0.0000   0.0000   0.0000   0.0000   0.0000
     0.0000   0.0000   0.0000   0.0000   0.0000   0.0000   0.0000   0.0000
     0.0000   0.0000   0.0000   0.0000   0.0000   0.0000   0.0000   0.0000
     0.0000   0.0000   0.0000   0.0000

          k = 0.0500 0.0000 0.0914 ( 18728 PWs)   bands (ev):

   -41.4258 -41.4258 -41.4214 -41.4214 -26.6706 -26.6706 -26.6691 -26.6690
   -19.5145 -19.5145 -19.4795 -19.4795 -19.4311 -19.4311 -19.4066 -19.4066
   -19.3910 -19.3910 -19.3757 -19.3757  -8.7692  -8.7659  -8.7616  -8.7583
    -8.7350  -8.7241  -8.6637  -8.6633  -8.6151  -8.6148  -8.6076  -8.6071
    -4.8327  -4.7227  -4.0766  -4.0593  -3.8128  -3.7617  -3.6903  -3.6886
    -3.5534  -3.5013  -3.3769  -3.3467   3.6882   3.7845   3.9251   3.9473
     3.9877   4.0791   4.3667   4.5845   4.5872   4.6851   4.7077   4.8299
     4.8501   5.0452   5.0623   5.1037   5.4651   5.6124   5.8517   5.8614
     5.9801   6.1650   6.2896   6.3316   6.4044   6.5413   6.5701   6.6154
     6.7299   6.8044   6.8333   7.1528   7.1544   7.3347   7.6704   7.7531
     8.5858   8.7135   9.4027   9.4209   9.9120  10.0114  10.1901  10.2514
    10.3332  10.3512  10.4658  10.5343  10.8333  10.9755  11.6939  11.8667
    11.9520  12.1272  12.1420  12.2523  12.2851  12.2852  12.3277  12.4119
    12.7133  12.8116  12.8684  12.9961

     occupation numbers 
     1.0000   1.0000   1.0000   1.0000   1.0000   1.0000   1.0000   1.0000
     1.0000   1.0000   1.0000   1.0000   1.0000   1.0000   1.0000   1.0000
     1.0000   1.0000   1.0000   1.0000   1.0000   1.0000   1.0000   1.0000
     1.0000   1.0000   1.0000   1.0000   1.0000   1.0000   1.0000   1.0000
     1.0000   1.0000   1.0000   1.0000   1.0000   1.0000   1.0000   1.0000
     1.0000   1.0000   1.0000   1.0000   1.0000   1.0000   1.0000   1.0000
     1.0000   1.0000   1.0000   1.0000   1.0000   1.0000   1.0000   1.0000
     1.0000   1.0000   1.0000   1.0000   1.0000   1.0000   1.0000   1.0000
     1.0000   1.0000   1.0000   1.0000   1.0000   1.0000   1.0000   1.0000
     1.0000   1.0000   1.0000   1.0000   1.0000   1.0000   1.0000   1.0000
     0.0000   0.0000   0.0000   0.0000   0.0000   0.0000   0.0000   0.0000
     0.0000   0.0000   0.0000   0.0000   0.0000   0.0000   0.0000   0.0000
     0.0000   0.0000   0.0000   0.0000   0.0000   0.0000   0.0000   0.0000
     0.0000   0.0000   0.0000   0.0000

          k = 0.0500 0.0000-0.1371 ( 18744 PWs)   bands (ev):

   -41.4258 -41.4258 -41.4214 -41.4214 -26.6706 -26.6706 -26.6690 -26.6690
   -19.5145 -19.5145 -19.4795 -19.4795 -19.4311 -19.4311 -19.4066 -19.4066
   -19.3910 -19.3910 -19.3757 -19.3757  -8.7675  -8.7675  -8.7603  -8.7603
    -8.7293  -8.7293  -8.6635  -8.6635  -8.6150  -8.6150  -8.6074  -8.6074
    -4.7810  -4.7810  -4.0648  -4.0648  -3.7864  -3.7864  -3.6861  -3.6861
    -3.5341  -3.5341  -3.3590  -3.3590   3.7319   3.7319   3.9337   3.9337
     4.0316   4.0316   4.4800   4.4800   4.6497   4.6497   4.7812   4.7812
     4.9167   4.9167   5.0644   5.0644   5.5233   5.5233   5.8591   5.8591
     6.1163   6.1163   6.2864   6.2864   6.5552   6.5552   6.5879   6.5879
     6.7220   6.7220   6.9720   6.9720   7.2491   7.2491   7.7104   7.7104
     8.6466   8.6466   9.4148   9.4148   9.9584   9.9584  10.2255  10.2255
    10.3437  10.3437  10.5017  10.5017  10.8977  10.8977  11.8004  11.8004
    12.0467  12.0467  12.1613  12.1613  12.2883  12.2883  12.3402  12.3402
    12.8177  12.8177  13.0118  13.0118

     occupation numbers 
     1.0000   1.0000   1.0000   1.0000   1.0000   1.0000   1.0000   1.0000
     1.0000   1.0000   1.0000   1.0000   1.0000   1.0000   1.0000   1.0000
     1.0000   1.0000   1.0000   1.0000   1.0000   1.0000   1.0000   1.0000
     1.0000   1.0000   1.0000   1.0000   1.0000   1.0000   1.0000   1.0000
     1.0000   1.0000   1.0000   1.0000   1.0000   1.0000   1.0000   1.0000
     1.0000   1.0000   1.0000   1.0000   1.0000   1.0000   1.0000   1.0000
     1.0000   1.0000   1.0000   1.0000   1.0000   1.0000   1.0000   1.0000
     1.0000   1.0000   1.0000   1.0000   1.0000   1.0000   1.0000   1.0000
     1.0000   1.0000   1.0000   1.0000   1.0000   1.0000   1.0000   1.0000
     1.0000   1.0000   1.0000   1.0000   1.0000   1.0000   1.0000   1.0000
     0.0000   0.0000   0.0000   0.0000   0.0000   0.0000   0.0000   0.0000
     0.0000   0.0000   0.0000   0.0000   0.0000   0.0000   0.0000   0.0000
     0.0000   0.0000   0.0000   0.0000   0.0000   0.0000   0.0000   0.0000
     0.0000   0.0000   0.0000   0.0000

          k = 0.0500 0.0444 0.0000 ( 18687 PWs)   bands (ev):

   -41.4258 -41.4258 -41.4214 -41.4214 -26.6706 -26.6705 -26.6691 -26.6689
   -19.5145 -19.5145 -19.4795 -19.4795 -19.4311 -19.4311 -19.4066 -19.4066
   -19.3910 -19.3910 -19.3757 -19.3757  -8.7731  -8.7636  -8.7634  -8.7501
    -8.7429  -8.7178  -8.6664  -8.6640  -8.6151  -8.6144  -8.6080  -8.6071
    -4.8684  -4.6489  -4.1043  -4.0747  -3.8792  -3.7974  -3.6496  -3.6464
    -3.5594  -3.4404  -3.4074  -3.3446   3.6196   3.8380   3.8539   3.9050
     4.0333   4.1118   4.2607   4.5208   4.6478   4.7019   4.7558   4.8273
     4.8874   5.0320   5.1001   5.4604   5.5309   5.6534   5.6753   5.8660
     5.8814   6.0364   6.1978   6.2692   6.4686   6.5028   6.5583   6.5870
     6.7168   6.8259   6.9225   7.0059   7.3219   7.4177   7.5921   7.7486
     8.5567   8.8026   9.3718   9.4035   9.8765  10.0825  10.1583  10.2401
    10.3293  10.3702  10.4271  10.5870  10.8060  11.0825  11.5254  11.9677
    11.9938  12.0355  12.1222  12.2551  12.2932  12.3091  12.4139  12.4344
    12.7118  12.7407  12.8358  12.8755

     occupation numbers 
     1.0000   1.0000   1.0000   1.0000   1.0000   1.0000   1.0000   1.0000
     1.0000   1.0000   1.0000   1.0000   1.0000   1.0000   1.0000   1.0000
     1.0000   1.0000   1.0000   1.0000   1.0000   1.0000   1.0000   1.0000
     1.0000   1.0000   1.0000   1.0000   1.0000   1.0000   1.0000   1.0000
     1.0000   1.0000   1.0000   1.0000   1.0000   1.0000   1.0000   1.0000
     1.0000   1.0000   1.0000   1.0000   1.0000   1.0000   1.0000   1.0000
     1.0000   1.0000   1.0000   1.0000   1.0000   1.0000   1.0000   1.0000
     1.0000   1.0000   1.0000   1.0000   1.0000   1.0000   1.0000   1.0000
     1.0000   1.0000   1.0000   1.0000   1.0000   1.0000   1.0000   1.0000
     1.0000   1.0000   1.0000   1.0000   1.0000   1.0000   1.0000   1.0000
     0.0000   0.0000   0.0000   0.0000   0.0000   0.0000   0.0000   0.0000
     0.0000   0.0000   0.0000   0.0000   0.0000   0.0000   0.0000   0.0000
     0.0000   0.0000   0.0000   0.0000   0.0000   0.0000   0.0000   0.0000
     0.0000   0.0000   0.0000   0.0000

          k = 0.0500 0.0444 0.0457 ( 18698 PWs)   bands (ev):

   -41.4258 -41.4258 -41.4214 -41.4214 -26.6706 -26.6705 -26.6691 -26.6690
   -19.5145 -19.5145 -19.4795 -19.4795 -19.4311 -19.4311 -19.4066 -19.4066
   -19.3910 -19.3910 -19.3757 -19.3757  -8.7725  -8.7645  -8.7625  -8.7527
    -8.7396  -8.7191  -8.6662  -8.6642  -8.6150  -8.6145  -8.6079  -8.6071
    -4.8564  -4.6678  -4.0990  -4.0744  -3.8712  -3.7993  -3.6530  -3.6433
    -3.5580  -3.4538  -3.3996  -3.3451   3.6286   3.7864   3.8999   3.9101
     4.0218   4.1001   4.2887   4.5450   4.6600   4.6999   4.7336   4.8285
     4.8807   5.0330   5.1133   5.2987   5.5122   5.6236   5.7990   5.8730
     5.8938   6.1466   6.1705   6.2828   6.4245   6.5117   6.5593   6.5971
     6.7566   6.7939   6.8895   7.0530   7.2775   7.3864   7.6026   7.7404
     8.5705   8.7829   9.3771   9.4040   9.8867  10.0614  10.1695  10.2515
    10.3252  10.3714  10.4311  10.5766  10.8189  11.0605  11.5792  11.9097
    12.0085  12.0550  12.1349  12.2552  12.2804  12.3115  12.3391  12.5216
    12.6784  12.7352  12.7998  12.8798

     occupation numbers 
     1.0000   1.0000   1.0000   1.0000   1.0000   1.0000   1.0000   1.0000
     1.0000   1.0000   1.0000   1.0000   1.0000   1.0000   1.0000   1.0000
     1.0000   1.0000   1.0000   1.0000   1.0000   1.0000   1.0000   1.0000
     1.0000   1.0000   1.0000   1.0000   1.0000   1.0000   1.0000   1.0000
     1.0000   1.0000   1.0000   1.0000   1.0000   1.0000   1.0000   1.0000
     1.0000   1.0000   1.0000   1.0000   1.0000   1.0000   1.0000   1.0000
     1.0000   1.0000   1.0000   1.0000   1.0000   1.0000   1.0000   1.0000
     1.0000   1.0000   1.0000   1.0000   1.0000   1.0000   1.0000   1.0000
     1.0000   1.0000   1.0000   1.0000   1.0000   1.0000   1.0000   1.0000
     1.0000   1.0000   1.0000   1.0000   1.0000   1.0000   1.0000   1.0000
     0.0000   0.0000   0.0000   0.0000   0.0000   0.0000   0.0000   0.0000
     0.0000   0.0000   0.0000   0.0000   0.0000   0.0000   0.0000   0.0000
     0.0000   0.0000   0.0000   0.0000   0.0000   0.0000   0.0000   0.0000
     0.0000   0.0000   0.0000   0.0000

          k = 0.0500 0.0444 0.0914 ( 18717 PWs)   bands (ev):

   -41.4258 -41.4258 -41.4214 -41.4214 -26.6706 -26.6705 -26.6691 -26.6690
   -19.5145 -19.5145 -19.4795 -19.4795 -19.4311 -19.4311 -19.4066 -19.4066
   -19.3910 -19.3910 -19.3757 -19.3757  -8.7708  -8.7661  -8.7611  -8.7563
    -8.7340  -8.7228  -8.6658  -8.6646  -8.6149  -8.6146  -8.6078  -8.6073
    -4.8223  -4.7149  -4.0884  -4.0751  -3.8502  -3.8075  -3.6540  -3.6437
    -3.5473  -3.4855  -3.3819  -3.3502   3.6538   3.7355   3.9061   3.9490
     3.9996   4.0685   4.3768   4.6054   4.6211   4.7019   4.7327   4.8326
     4.8628   5.0129   5.0913   5.1515   5.4723   5.6057   5.8685   5.8835
     5.9734   6.1453   6.2749   6.2988   6.4235   6.5311   6.5559   6.6132
     6.7404   6.8078   6.8501   7.1401   7.1484   7.3189   7.6320   7.7137
     8.6099   8.7319   9.3888   9.4036   9.9168  10.0152  10.1935  10.2524
    10.3340  10.3705  10.4509  10.5442  10.8606  11.0024  11.7106  11.8627
    11.9749  12.1043  12.1480  12.2215  12.2781  12.2868  12.3074  12.4188
    12.7076  12.8010  12.8640  13.0077

     occupation numbers 
     1.0000   1.0000   1.0000   1.0000   1.0000   1.0000   1.0000   1.0000
     1.0000   1.0000   1.0000   1.0000   1.0000   1.0000   1.0000   1.0000
     1.0000   1.0000   1.0000   1.0000   1.0000   1.0000   1.0000   1.0000
     1.0000   1.0000   1.0000   1.0000   1.0000   1.0000   1.0000   1.0000
     1.0000   1.0000   1.0000   1.0000   1.0000   1.0000   1.0000   1.0000
     1.0000   1.0000   1.0000   1.0000   1.0000   1.0000   1.0000   1.0000
     1.0000   1.0000   1.0000   1.0000   1.0000   1.0000   1.0000   1.0000
     1.0000   1.0000   1.0000   1.0000   1.0000   1.0000   1.0000   1.0000
     1.0000   1.0000   1.0000   1.0000   1.0000   1.0000   1.0000   1.0000
     1.0000   1.0000   1.0000   1.0000   1.0000   1.0000   1.0000   1.0000
     0.0000   0.0000   0.0000   0.0000   0.0000   0.0000   0.0000   0.0000
     0.0000   0.0000   0.0000   0.0000   0.0000   0.0000   0.0000   0.0000
     0.0000   0.0000   0.0000   0.0000   0.0000   0.0000   0.0000   0.0000
     0.0000   0.0000   0.0000   0.0000

          k = 0.0500 0.0444-0.1371 ( 18726 PWs)   bands (ev):

   -41.4258 -41.4258 -41.4214 -41.4214 -26.6706 -26.6706 -26.6690 -26.6690
   -19.5145 -19.5145 -19.4795 -19.4795 -19.4311 -19.4311 -19.4066 -19.4066
   -19.3910 -19.3910 -19.3757 -19.3757  -8.7684  -8.7684  -8.7591  -8.7591
    -8.7280  -8.7280  -8.6652  -8.6652  -8.6148  -8.6148  -8.6075  -8.6075
    -4.7717  -4.7717  -4.0796  -4.0796  -3.8255  -3.8255  -3.6494  -3.6494
    -3.5210  -3.5210  -3.3632  -3.3632   3.6909   3.6909   3.9290   3.9290
     4.0270   4.0270   4.5030   4.5030   4.6716   4.6716   4.7941   4.7941
     4.9028   4.9028   5.1036   5.1036   5.5312   5.5312   5.8795   5.8795
     6.0933   6.0933   6.2701   6.2701   6.5449   6.5449   6.5872   6.5872
     6.7255   6.7255   6.9819   6.9819   7.2347   7.2347   7.6731   7.6731
     8.6681   8.6681   9.3990   9.3990   9.9626   9.9626  10.2245  10.2245
    10.3574  10.3574  10.4953  10.4953  10.9277  10.9277  11.8187  11.8187
    12.0450  12.0450  12.1508  12.1508  12.2853  12.2853  12.3249  12.3249
    12.8063  12.8063  12.9888  12.9888

     occupation numbers 
     1.0000   1.0000   1.0000   1.0000   1.0000   1.0000   1.0000   1.0000
     1.0000   1.0000   1.0000   1.0000   1.0000   1.0000   1.0000   1.0000
     1.0000   1.0000   1.0000   1.0000   1.0000   1.0000   1.0000   1.0000
     1.0000   1.0000   1.0000   1.0000   1.0000   1.0000   1.0000   1.0000
     1.0000   1.0000   1.0000   1.0000   1.0000   1.0000   1.0000   1.0000
     1.0000   1.0000   1.0000   1.0000   1.0000   1.0000   1.0000   1.0000
     1.0000   1.0000   1.0000   1.0000   1.0000   1.0000   1.0000   1.0000
     1.0000   1.0000   1.0000   1.0000   1.0000   1.0000   1.0000   1.0000
     1.0000   1.0000   1.0000   1.0000   1.0000   1.0000   1.0000   1.0000
     1.0000   1.0000   1.0000   1.0000   1.0000   1.0000   1.0000   1.0000
     0.0000   0.0000   0.0000   0.0000   0.0000   0.0000   0.0000   0.0000
     0.0000   0.0000   0.0000   0.0000   0.0000   0.0000   0.0000   0.0000
     0.0000   0.0000   0.0000   0.0000   0.0000   0.0000   0.0000   0.0000
     0.0000   0.0000   0.0000   0.0000

          k = 0.0500 0.0888 0.0000 ( 18692 PWs)   bands (ev):

   -41.4258 -41.4258 -41.4214 -41.4214 -26.6705 -26.6704 -26.6693 -26.6691
   -19.5145 -19.5145 -19.4796 -19.4796 -19.4311 -19.4311 -19.4066 -19.4066
   -19.3910 -19.3910 -19.3757 -19.3757  -8.7759  -8.7652  -8.7614  -8.7441
    -8.7412  -8.7141  -8.6726  -8.6678  -8.6145  -8.6138  -8.6085  -8.6076
    -4.8356  -4.6348  -4.1281  -4.1210  -3.9240  -3.8667  -3.5944  -3.5654
    -3.5634  -3.4245  -3.4045  -3.3534   3.5458   3.7619   3.8111   3.8133
     4.0486   4.1877   4.2475   4.6037   4.6956   4.7263   4.7986   4.8604
     4.9639   5.0330   5.1984   5.3502   5.5059   5.6510   5.6743   5.9407
     5.9452   6.1293   6.1738   6.1779   6.4488   6.5143   6.5269   6.5995
     6.7704   6.8163   6.9370   6.9929   7.2547   7.3743   7.4843   7.6102
     8.6302   8.8462   9.3364   9.3492   9.8952  10.0901  10.1884  10.2534
    10.2998  10.4130  10.4260  10.6232  10.8736  11.1417  11.5434  11.8918
    11.9597  12.0651  12.0913  12.2446  12.2542  12.3163  12.3539  12.4568
    12.7455  12.7912  12.8439  12.9737

     occupation numbers 
     1.0000   1.0000   1.0000   1.0000   1.0000   1.0000   1.0000   1.0000
     1.0000   1.0000   1.0000   1.0000   1.0000   1.0000   1.0000   1.0000
     1.0000   1.0000   1.0000   1.0000   1.0000   1.0000   1.0000   1.0000
     1.0000   1.0000   1.0000   1.0000   1.0000   1.0000   1.0000   1.0000
     1.0000   1.0000   1.0000   1.0000   1.0000   1.0000   1.0000   1.0000
     1.0000   1.0000   1.0000   1.0000   1.0000   1.0000   1.0000   1.0000
     1.0000   1.0000   1.0000   1.0000   1.0000   1.0000   1.0000   1.0000
     1.0000   1.0000   1.0000   1.0000   1.0000   1.0000   1.0000   1.0000
     1.0000   1.0000   1.0000   1.0000   1.0000   1.0000   1.0000   1.0000
     1.0000   1.0000   1.0000   1.0000   1.0000   1.0000   1.0000   1.0000
     0.0000   0.0000   0.0000   0.0000   0.0000   0.0000   0.0000   0.0000
     0.0000   0.0000   0.0000   0.0000   0.0000   0.0000   0.0000   0.0000
     0.0000   0.0000   0.0000   0.0000   0.0000   0.0000   0.0000   0.0000
     0.0000   0.0000   0.0000   0.0000

          k = 0.0500 0.0888 0.0457 ( 18688 PWs)   bands (ev):

   -41.4258 -41.4258 -41.4214 -41.4214 -26.6705 -26.6704 -26.6692 -26.6691
   -19.5145 -19.5145 -19.4796 -19.4796 -19.4311 -19.4311 -19.4066 -19.4066
   -19.3910 -19.3910 -19.3757 -19.3757  -8.7751  -8.7654  -8.7613  -8.7486
    -8.7363  -8.7154  -8.6722  -8.6681  -8.6145  -8.6138  -8.6084  -8.6077
    -4.8244  -4.6513  -4.1332  -4.1155  -3.9156  -3.8654  -3.5971  -3.5831
    -3.5427  -3.4212  -3.4127  -3.3534   3.5554   3.7192   3.8043   3.8494
     4.0487   4.1685   4.2983   4.6054   4.6961   4.7413   4.7928   4.8459
     4.9417   5.0200   5.1842   5.3232   5.5130   5.5609   5.8048   5.9407
     5.9459   6.1084   6.1926   6.2324   6.4435   6.4975   6.5236   6.6070
     6.7833   6.8166   6.8957   7.0373   7.2191   7.3416   7.4934   7.6146
     8.6427   8.8293   9.3398   9.3503   9.9053  10.0714  10.1940  10.2594
    10.3077  10.4115  10.4244  10.6048  10.8917  11.1233  11.5990  11.8739
    11.9894  12.0415  12.1222  12.2081  12.2499  12.3086  12.3270  12.5068
    12.7495  12.7653  12.8169  12.9082

     occupation numbers 
     1.0000   1.0000   1.0000   1.0000   1.0000   1.0000   1.0000   1.0000
     1.0000   1.0000   1.0000   1.0000   1.0000   1.0000   1.0000   1.0000
     1.0000   1.0000   1.0000   1.0000   1.0000   1.0000   1.0000   1.0000
     1.0000   1.0000   1.0000   1.0000   1.0000   1.0000   1.0000   1.0000
     1.0000   1.0000   1.0000   1.0000   1.0000   1.0000   1.0000   1.0000
     1.0000   1.0000   1.0000   1.0000   1.0000   1.0000   1.0000   1.0000
     1.0000   1.0000   1.0000   1.0000   1.0000   1.0000   1.0000   1.0000
     1.0000   1.0000   1.0000   1.0000   1.0000   1.0000   1.0000   1.0000
     1.0000   1.0000   1.0000   1.0000   1.0000   1.0000   1.0000   1.0000
     1.0000   1.0000   1.0000   1.0000   1.0000   1.0000   1.0000   1.0000
     0.0000   0.0000   0.0000   0.0000   0.0000   0.0000   0.0000   0.0000
     0.0000   0.0000   0.0000   0.0000   0.0000   0.0000   0.0000   0.0000
     0.0000   0.0000   0.0000   0.0000   0.0000   0.0000   0.0000   0.0000
     0.0000   0.0000   0.0000   0.0000

          k = 0.0500 0.0888 0.0914 ( 18710 PWs)   bands (ev):

   -41.4258 -41.4258 -41.4214 -41.4214 -26.6705 -26.6704 -26.6692 -26.6691
   -19.5145 -19.5145 -19.4796 -19.4796 -19.4311 -19.4311 -19.4066 -19.4066
   -19.3910 -19.3910 -19.3757 -19.3757  -8.7729  -8.7669  -8.7601  -8.7535
    -8.7301  -8.7190  -8.6712  -8.6689  -8.6143  -8.6140  -8.6083  -8.6078
    -4.7924  -4.6935  -4.1325  -4.1164  -3.8951  -3.8658  -3.6027  -3.5964
    -3.5167  -3.4494  -3.3955  -3.3594   3.5811   3.6632   3.8112   3.8590
     4.0607   4.1365   4.4141   4.6297   4.6778   4.7406   4.7778   4.8289
     4.8992   4.9585   5.1650   5.2986   5.4878   5.5725   5.8943   5.9322
     5.9661   6.0850   6.2459   6.2698   6.4626   6.5041   6.5284   6.6165
     6.7471   6.8073   6.8920   7.1143   7.1178   7.2739   7.5260   7.6049
     8.6780   8.7852   9.3468   9.3523   9.9344  10.0281  10.2069  10.2482
    10.3482  10.4051  10.4336  10.5532  10.9417  11.0748  11.7389  11.8660
    11.9894  12.0569  12.1089  12.1531  12.2627  12.2858  12.3136  12.4651
    12.6886  12.7888  12.8405  13.0016

     occupation numbers 
     1.0000   1.0000   1.0000   1.0000   1.0000   1.0000   1.0000   1.0000
     1.0000   1.0000   1.0000   1.0000   1.0000   1.0000   1.0000   1.0000
     1.0000   1.0000   1.0000   1.0000   1.0000   1.0000   1.0000   1.0000
     1.0000   1.0000   1.0000   1.0000   1.0000   1.0000   1.0000   1.0000
     1.0000   1.0000   1.0000   1.0000   1.0000   1.0000   1.0000   1.0000
     1.0000   1.0000   1.0000   1.0000   1.0000   1.0000   1.0000   1.0000
     1.0000   1.0000   1.0000   1.0000   1.0000   1.0000   1.0000   1.0000
     1.0000   1.0000   1.0000   1.0000   1.0000   1.0000   1.0000   1.0000
     1.0000   1.0000   1.0000   1.0000   1.0000   1.0000   1.0000   1.0000
     1.0000   1.0000   1.0000   1.0000   1.0000   1.0000   1.0000   1.0000
     0.0000   0.0000   0.0000   0.0000   0.0000   0.0000   0.0000   0.0000
     0.0000   0.0000   0.0000   0.0000   0.0000   0.0000   0.0000   0.0000
     0.0000   0.0000   0.0000   0.0000   0.0000   0.0000   0.0000   0.0000
     0.0000   0.0000   0.0000   0.0000

          k = 0.0500 0.0888-0.1371 ( 18702 PWs)   bands (ev):

   -41.4258 -41.4258 -41.4214 -41.4214 -26.6705 -26.6705 -26.6692 -26.6692
   -19.5145 -19.5145 -19.4796 -19.4796 -19.4311 -19.4311 -19.4066 -19.4066
   -19.3910 -19.3910 -19.3757 -19.3757  -8.7698  -8.7698  -8.7574  -8.7574
    -8.7241  -8.7241  -8.6700  -8.6700  -8.6142  -8.6142  -8.6080  -8.6080
    -4.7454  -4.7454  -4.1247  -4.1247  -3.8753  -3.8753  -3.6034  -3.6034
    -3.4847  -3.4847  -3.3746  -3.3746   3.6173   3.6173   3.8348   3.8348
     4.0954   4.0954   4.5614   4.5614   4.6886   4.6886   4.8071   4.8071
     4.8942   4.8942   5.2240   5.2240   5.5379   5.5379   5.9245   5.9245
     6.0290   6.0290   6.2627   6.2627   6.5138   6.5138   6.5849   6.5849
     6.7352   6.7352   6.9937   6.9937   7.1967   7.1967   7.5703   7.5703
     8.7294   8.7294   9.3518   9.3518   9.9781   9.9781  10.2260  10.2260
    10.3853  10.3853  10.4843  10.4843  11.0089  11.0089  11.8620  11.8620
    12.0016  12.0016  12.1114  12.1114  12.2796  12.2796  12.3426  12.3426
    12.7783  12.7783  12.9233  12.9233

     occupation numbers 
     1.0000   1.0000   1.0000   1.0000   1.0000   1.0000   1.0000   1.0000
     1.0000   1.0000   1.0000   1.0000   1.0000   1.0000   1.0000   1.0000
     1.0000   1.0000   1.0000   1.0000   1.0000   1.0000   1.0000   1.0000
     1.0000   1.0000   1.0000   1.0000   1.0000   1.0000   1.0000   1.0000
     1.0000   1.0000   1.0000   1.0000   1.0000   1.0000   1.0000   1.0000
     1.0000   1.0000   1.0000   1.0000   1.0000   1.0000   1.0000   1.0000
     1.0000   1.0000   1.0000   1.0000   1.0000   1.0000   1.0000   1.0000
     1.0000   1.0000   1.0000   1.0000   1.0000   1.0000   1.0000   1.0000
     1.0000   1.0000   1.0000   1.0000   1.0000   1.0000   1.0000   1.0000
     1.0000   1.0000   1.0000   1.0000   1.0000   1.0000   1.0000   1.0000
     0.0000   0.0000   0.0000   0.0000   0.0000   0.0000   0.0000   0.0000
     0.0000   0.0000   0.0000   0.0000   0.0000   0.0000   0.0000   0.0000
     0.0000   0.0000   0.0000   0.0000   0.0000   0.0000   0.0000   0.0000
     0.0000   0.0000   0.0000   0.0000

          k = 0.0500 0.1333 0.0000 ( 18708 PWs)   bands (ev):

   -41.4258 -41.4258 -41.4214 -41.4214 -26.6704 -26.6702 -26.6694 -26.6692
   -19.5144 -19.5144 -19.4797 -19.4796 -19.4311 -19.4310 -19.4066 -19.4066
   -19.3910 -19.3910 -19.3757 -19.3757  -8.7772  -8.7680  -8.7584  -8.7461
    -8.7299  -8.7080  -8.6815  -8.6742  -8.6136  -8.6129  -8.6093  -8.6084
    -4.7848  -4.6210  -4.1968  -4.1557  -3.9451  -3.9172  -3.5593  -3.5458
    -3.5008  -3.4488  -3.3708  -3.3630   3.4800   3.6349   3.7508   3.7755
     4.0696   4.2240   4.3116   4.7012   4.7020   4.7804   4.7825   4.9435
     4.9502   5.0957   5.2681   5.2748   5.5709   5.5905   5.7363   5.9784
     6.0043   6.0725   6.1378   6.2509   6.4186   6.4538   6.6300   6.6442
     6.7905   6.8276   6.9413   6.9895   7.1773   7.2358   7.3766   7.4094
     8.7381   8.9132   9.2618   9.2766   9.9306  10.0919  10.2107  10.2685
    10.2913  10.4250  10.4716  10.6365  10.9960  11.2382  11.5263  11.8291
    11.8733  12.0413  12.0976  12.1646  12.2273  12.3198  12.4057  12.4670
    12.7001  12.7799  12.9923  13.0874

     occupation numbers 
     1.0000   1.0000   1.0000   1.0000   1.0000   1.0000   1.0000   1.0000
     1.0000   1.0000   1.0000   1.0000   1.0000   1.0000   1.0000   1.0000
     1.0000   1.0000   1.0000   1.0000   1.0000   1.0000   1.0000   1.0000
     1.0000   1.0000   1.0000   1.0000   1.0000   1.0000   1.0000   1.0000
     1.0000   1.0000   1.0000   1.0000   1.0000   1.0000   1.0000   1.0000
     1.0000   1.0000   1.0000   1.0000   1.0000   1.0000   1.0000   1.0000
     1.0000   1.0000   1.0000   1.0000   1.0000   1.0000   1.0000   1.0000
     1.0000   1.0000   1.0000   1.0000   1.0000   1.0000   1.0000   1.0000
     1.0000   1.0000   1.0000   1.0000   1.0000   1.0000   1.0000   1.0000
     1.0000   1.0000   1.0000   1.0000   1.0000   1.0000   1.0000   1.0000
     0.0000   0.0000   0.0000   0.0000   0.0000   0.0000   0.0000   0.0000
     0.0000   0.0000   0.0000   0.0000   0.0000   0.0000   0.0000   0.0000
     0.0000   0.0000   0.0000   0.0000   0.0000   0.0000   0.0000   0.0000
     0.0000   0.0000   0.0000   0.0000

          k = 0.0500 0.1333 0.0457 ( 18691 PWs)   bands (ev):

   -41.4258 -41.4258 -41.4214 -41.4214 -26.6703 -26.6702 -26.6694 -26.6692
   -19.5144 -19.5144 -19.4797 -19.4796 -19.4311 -19.4310 -19.4066 -19.4066
   -19.3910 -19.3910 -19.3757 -19.3757  -8.7762  -8.7677  -8.7589  -8.7484
    -8.7275  -8.7093  -8.6809  -8.6746  -8.6136  -8.6129  -8.6092  -8.6085
    -4.7749  -4.6330  -4.2005  -4.1595  -3.9371  -3.9120  -3.5634  -3.5518
    -3.4925  -3.4378  -3.3862  -3.3605   3.4888   3.6223   3.7308   3.7842
     4.0834   4.2104   4.3671   4.6853   4.7035   4.7803   4.7903   4.9102
     4.9448   5.0407   5.2349   5.3833   5.5004   5.5978   5.7973   5.9391
     6.0125   6.0596   6.1847   6.2848   6.4217   6.4532   6.6035   6.6366
     6.7652   6.8438   6.9150   7.0258   7.1461   7.2312   7.3501   7.4480
     8.7489   8.9004   9.2641   9.2777   9.9401  10.0796  10.2161  10.2558
    10.3154  10.4230  10.4628  10.6132  11.0158  11.2218  11.5779  11.8352
    11.8993  12.0190  12.0995  12.1548  12.2339  12.3209  12.3714  12.4846
    12.7142  12.7903  12.9045  12.9937

     occupation numbers 
     1.0000   1.0000   1.0000   1.0000   1.0000   1.0000   1.0000   1.0000
     1.0000   1.0000   1.0000   1.0000   1.0000   1.0000   1.0000   1.0000
     1.0000   1.0000   1.0000   1.0000   1.0000   1.0000   1.0000   1.0000
     1.0000   1.0000   1.0000   1.0000   1.0000   1.0000   1.0000   1.0000
     1.0000   1.0000   1.0000   1.0000   1.0000   1.0000   1.0000   1.0000
     1.0000   1.0000   1.0000   1.0000   1.0000   1.0000   1.0000   1.0000
     1.0000   1.0000   1.0000   1.0000   1.0000   1.0000   1.0000   1.0000
     1.0000   1.0000   1.0000   1.0000   1.0000   1.0000   1.0000   1.0000
     1.0000   1.0000   1.0000   1.0000   1.0000   1.0000   1.0000   1.0000
     1.0000   1.0000   1.0000   1.0000   1.0000   1.0000   1.0000   1.0000
     0.0000   0.0000   0.0000   0.0000   0.0000   0.0000   0.0000   0.0000
     0.0000   0.0000   0.0000   0.0000   0.0000   0.0000   0.0000   0.0000
     0.0000   0.0000   0.0000   0.0000   0.0000   0.0000   0.0000   0.0000
     0.0000   0.0000   0.0000   0.0000

          k = 0.0500 0.1333 0.0914 ( 18696 PWs)   bands (ev):

   -41.4258 -41.4258 -41.4214 -41.4214 -26.6703 -26.6702 -26.6694 -26.6693
   -19.5144 -19.5144 -19.4797 -19.4797 -19.4311 -19.4310 -19.4066 -19.4066
   -19.3910 -19.3910 -19.3757 -19.3757  -8.7736  -8.7679  -8.7591  -8.7527
    -8.7226  -8.7127  -8.6792  -8.6757  -8.6135  -8.6131  -8.6090  -8.6086
    -4.7470  -4.6650  -4.2012  -4.1732  -3.9189  -3.9040  -3.5697  -3.5622
    -3.4723  -3.4155  -3.4118  -3.3685   3.5128   3.5882   3.7230   3.7710
     4.1189   4.1934   4.4894   4.6712   4.7019   4.7740   4.7886   4.8282
     4.9170   4.9555   5.2835   5.4451   5.4884   5.5464   5.8573   5.9308
     6.0151   6.0532   6.2408   6.3309   6.4311   6.4633   6.5695   6.6234
     6.7371   6.7997   6.9322   7.0619   7.0860   7.1954   7.3814   7.4628
     8.7790   8.8663   9.2699   9.2785   9.9671  10.0473  10.2240  10.2424
    10.3672  10.4189  10.4493  10.5516  11.0658  11.1816  11.7018  11.8722
    11.9224  11.9867  12.0570  12.1488  12.2570  12.3052  12.3479  12.4938
    12.6772  12.7596  12.8587  12.9723

     occupation numbers 
     1.0000   1.0000   1.0000   1.0000   1.0000   1.0000   1.0000   1.0000
     1.0000   1.0000   1.0000   1.0000   1.0000   1.0000   1.0000   1.0000
     1.0000   1.0000   1.0000   1.0000   1.0000   1.0000   1.0000   1.0000
     1.0000   1.0000   1.0000   1.0000   1.0000   1.0000   1.0000   1.0000
     1.0000   1.0000   1.0000   1.0000   1.0000   1.0000   1.0000   1.0000
     1.0000   1.0000   1.0000   1.0000   1.0000   1.0000   1.0000   1.0000
     1.0000   1.0000   1.0000   1.0000   1.0000   1.0000   1.0000   1.0000
     1.0000   1.0000   1.0000   1.0000   1.0000   1.0000   1.0000   1.0000
     1.0000   1.0000   1.0000   1.0000   1.0000   1.0000   1.0000   1.0000
     1.0000   1.0000   1.0000   1.0000   1.0000   1.0000   1.0000   1.0000
     0.0000   0.0000   0.0000   0.0000   0.0000   0.0000   0.0000   0.0000
     0.0000   0.0000   0.0000   0.0000   0.0000   0.0000   0.0000   0.0000
     0.0000   0.0000   0.0000   0.0000   0.0000   0.0000   0.0000   0.0000
     0.0000   0.0000   0.0000   0.0000

          k = 0.0500 0.1333-0.1371 ( 18702 PWs)   bands (ev):

   -41.4258 -41.4258 -41.4214 -41.4214 -26.6703 -26.6703 -26.6693 -26.6693
   -19.5144 -19.5144 -19.4797 -19.4797 -19.4310 -19.4310 -19.4066 -19.4066
   -19.3910 -19.3910 -19.3757 -19.3757  -8.7703  -8.7703  -8.7568  -8.7568
    -8.7174  -8.7174  -8.6773  -8.6773  -8.6133  -8.6133  -8.6088  -8.6088
    -4.7071  -4.7071  -4.1906  -4.1906  -3.9050  -3.9050  -3.5696  -3.5696
    -3.4448  -3.4448  -3.3876  -3.3876   3.5477   3.5477   3.7419   3.7419
     4.1621   4.1621   4.6430   4.6430   4.6889   4.6889   4.7923   4.7923
     4.9153   4.9153   5.3737   5.3737   5.5190   5.5190   5.9125   5.9125
     6.0279   6.0279   6.2986   6.2986   6.4680   6.4680   6.5830   6.5830
     6.7482   6.7482   6.9833   6.9833   7.1424   7.1424   7.4345   7.4345
     8.8216   8.8216   9.2759   9.2759  10.0058  10.0058  10.2319  10.2319
    10.4099  10.4099  10.4770  10.4770  11.1266  11.1266  11.8376  11.8376
    11.9368  11.9368  12.0945  12.0945  12.2835  12.2835  12.3962  12.3962
    12.7260  12.7260  12.8961  12.8961

     occupation numbers 
     1.0000   1.0000   1.0000   1.0000   1.0000   1.0000   1.0000   1.0000
     1.0000   1.0000   1.0000   1.0000   1.0000   1.0000   1.0000   1.0000
     1.0000   1.0000   1.0000   1.0000   1.0000   1.0000   1.0000   1.0000
     1.0000   1.0000   1.0000   1.0000   1.0000   1.0000   1.0000   1.0000
     1.0000   1.0000   1.0000   1.0000   1.0000   1.0000   1.0000   1.0000
     1.0000   1.0000   1.0000   1.0000   1.0000   1.0000   1.0000   1.0000
     1.0000   1.0000   1.0000   1.0000   1.0000   1.0000   1.0000   1.0000
     1.0000   1.0000   1.0000   1.0000   1.0000   1.0000   1.0000   1.0000
     1.0000   1.0000   1.0000   1.0000   1.0000   1.0000   1.0000   1.0000
     1.0000   1.0000   1.0000   1.0000   1.0000   1.0000   1.0000   1.0000
     0.0000   0.0000   0.0000   0.0000   0.0000   0.0000   0.0000   0.0000
     0.0000   0.0000   0.0000   0.0000   0.0000   0.0000   0.0000   0.0000
     0.0000   0.0000   0.0000   0.0000   0.0000   0.0000   0.0000   0.0000
     0.0000   0.0000   0.0000   0.0000

          k = 0.0500 0.1777 0.0000 ( 18686 PWs)   bands (ev):

   -41.4258 -41.4258 -41.4214 -41.4214 -26.6701 -26.6700 -26.6696 -26.6695
   -19.5143 -19.5143 -19.4797 -19.4797 -19.4310 -19.4310 -19.4067 -19.4066
   -19.3910 -19.3910 -19.3757 -19.3757  -8.7765  -8.7713  -8.7551  -8.7487
    -8.7176  -8.7002  -8.6926  -8.6824  -8.6126  -8.6118  -8.6103  -8.6094
    -4.7230  -4.6257  -4.2425  -4.2031  -3.9531  -3.9435  -3.5418  -3.5065
    -3.4888  -3.4619  -3.3622  -3.3518   3.4481   3.5266   3.7233   3.7407
     4.1076   4.1916   4.4485   4.6808   4.7635   4.7739   4.8011   4.8377
     5.0621   5.1710   5.2928   5.3417   5.4538   5.6360   5.7674   5.9310
     5.9795   6.0653   6.2756   6.3292   6.3997   6.4675   6.6736   6.7014
     6.7440   6.8844   6.9964   7.0065   7.0238   7.1118   7.1959   7.2748
     8.8651   8.9919   9.1533   9.1979   9.9785  10.0721  10.2254  10.2490
    10.3393  10.4107  10.5349  10.6257  11.1462  11.3782  11.4359  11.7391
    11.8111  11.9324  12.1457  12.1770  12.2424  12.3098  12.4139  12.4294
    12.6568  12.7765  13.1259  13.1852

     occupation numbers 
     1.0000   1.0000   1.0000   1.0000   1.0000   1.0000   1.0000   1.0000
     1.0000   1.0000   1.0000   1.0000   1.0000   1.0000   1.0000   1.0000
     1.0000   1.0000   1.0000   1.0000   1.0000   1.0000   1.0000   1.0000
     1.0000   1.0000   1.0000   1.0000   1.0000   1.0000   1.0000   1.0000
     1.0000   1.0000   1.0000   1.0000   1.0000   1.0000   1.0000   1.0000
     1.0000   1.0000   1.0000   1.0000   1.0000   1.0000   1.0000   1.0000
     1.0000   1.0000   1.0000   1.0000   1.0000   1.0000   1.0000   1.0000
     1.0000   1.0000   1.0000   1.0000   1.0000   1.0000   1.0000   1.0000
     1.0000   1.0000   1.0000   1.0000   1.0000   1.0000   1.0000   1.0000
     1.0000   1.0000   1.0000   1.0000   1.0000   1.0000   1.0000   1.0000
     0.0000   0.0000   0.0000   0.0000   0.0000   0.0000   0.0000   0.0000
     0.0000   0.0000   0.0000   0.0000   0.0000   0.0000   0.0000   0.0000
     0.0000   0.0000   0.0000   0.0000   0.0000   0.0000   0.0000   0.0000
     0.0000   0.0000   0.0000   0.0000

          k = 0.0500 0.1777 0.0457 ( 18696 PWs)   bands (ev):

   -41.4258 -41.4258 -41.4214 -41.4214 -26.6701 -26.6700 -26.6696 -26.6695
   -19.5143 -19.5143 -19.4797 -19.4797 -19.4310 -19.4310 -19.4067 -19.4066
   -19.3910 -19.3910 -19.3757 -19.3757  -8.7755  -8.7706  -8.7560  -8.7503
    -8.7161  -8.7017  -8.6913  -8.6828  -8.6125  -8.6119  -8.6102  -8.6095
    -4.7155  -4.6303  -4.2492  -4.2121  -3.9451  -3.9359  -3.5441  -3.5196
    -3.4747  -3.4519  -3.3702  -3.3554   3.4547   3.5244   3.7055   3.7351
     4.1248   4.1968   4.4858   4.6856   4.7548   4.7699   4.8072   4.8229
     5.0173   5.1240   5.2932   5.4135   5.4192   5.6602   5.7906   5.8987
     6.0188   6.0641   6.2830   6.3444   6.3964   6.4806   6.6387   6.6998
     6.7260   6.8595   6.9290   7.0209   7.0711   7.1065   7.1907   7.3131
     8.8740   8.9843   9.1567   9.1963   9.9867  10.0692  10.2285  10.2455
    10.3506  10.4118  10.5177  10.6011  11.1659  11.3520  11.4870  11.7421
    11.8338  11.9375  12.1459  12.1742  12.2485  12.3059  12.3827  12.4415
    12.6596  12.7742  13.0563  13.0945

     occupation numbers 
     1.0000   1.0000   1.0000   1.0000   1.0000   1.0000   1.0000   1.0000
     1.0000   1.0000   1.0000   1.0000   1.0000   1.0000   1.0000   1.0000
     1.0000   1.0000   1.0000   1.0000   1.0000   1.0000   1.0000   1.0000
     1.0000   1.0000   1.0000   1.0000   1.0000   1.0000   1.0000   1.0000
     1.0000   1.0000   1.0000   1.0000   1.0000   1.0000   1.0000   1.0000
     1.0000   1.0000   1.0000   1.0000   1.0000   1.0000   1.0000   1.0000
     1.0000   1.0000   1.0000   1.0000   1.0000   1.0000   1.0000   1.0000
     1.0000   1.0000   1.0000   1.0000   1.0000   1.0000   1.0000   1.0000
     1.0000   1.0000   1.0000   1.0000   1.0000   1.0000   1.0000   1.0000
     1.0000   1.0000   1.0000   1.0000   1.0000   1.0000   1.0000   1.0000
     0.0000   0.0000   0.0000   0.0000   0.0000   0.0000   0.0000   0.0000
     0.0000   0.0000   0.0000   0.0000   0.0000   0.0000   0.0000   0.0000
     0.0000   0.0000   0.0000   0.0000   0.0000   0.0000   0.0000   0.0000
     0.0000   0.0000   0.0000   0.0000

          k = 0.0500 0.1777 0.0914 ( 18696 PWs)   bands (ev):

   -41.4258 -41.4258 -41.4214 -41.4214 -26.6701 -26.6700 -26.6696 -26.6695
   -19.5143 -19.5143 -19.4797 -19.4797 -19.4310 -19.4310 -19.4066 -19.4066
   -19.3910 -19.3910 -19.3757 -19.3757  -8.7730  -8.7694  -8.7577  -8.7539
    -8.7127  -8.7049  -8.6888  -8.6842  -8.6124  -8.6120  -8.6100  -8.6096
    -4.6952  -4.6449  -4.2574  -4.2331  -3.9287  -3.9230  -3.5470  -3.5347
    -3.4535  -3.4321  -3.3863  -3.3679   3.4730   3.5160   3.6828   3.7109
     4.1650   4.2081   4.5741   4.6887   4.7317   4.7683   4.7840   4.8095
     4.9704   5.0322   5.2943   5.3800   5.5168   5.6666   5.8293   5.9009
     6.0512   6.0602   6.3185   6.3741   6.3848   6.5016   6.5692   6.6460
     6.7341   6.8061   6.9190   6.9898   7.0517   7.1059   7.2638   7.3438
     8.8981   8.9623   9.1664   9.1902  10.0082  10.0578  10.2304  10.2441
    10.3862  10.4178  10.4809  10.5387  11.2138  11.3147  11.5789  11.7287
    11.8902  11.9570  12.1326  12.1655  12.2659  12.3044  12.3486  12.4318
    12.6676  12.7463  12.9623  13.0293

     occupation numbers 
     1.0000   1.0000   1.0000   1.0000   1.0000   1.0000   1.0000   1.0000
     1.0000   1.0000   1.0000   1.0000   1.0000   1.0000   1.0000   1.0000
     1.0000   1.0000   1.0000   1.0000   1.0000   1.0000   1.0000   1.0000
     1.0000   1.0000   1.0000   1.0000   1.0000   1.0000   1.0000   1.0000
     1.0000   1.0000   1.0000   1.0000   1.0000   1.0000   1.0000   1.0000
     1.0000   1.0000   1.0000   1.0000   1.0000   1.0000   1.0000   1.0000
     1.0000   1.0000   1.0000   1.0000   1.0000   1.0000   1.0000   1.0000
     1.0000   1.0000   1.0000   1.0000   1.0000   1.0000   1.0000   1.0000
     1.0000   1.0000   1.0000   1.0000   1.0000   1.0000   1.0000   1.0000
     1.0000   1.0000   1.0000   1.0000   1.0000   1.0000   1.0000   1.0000
     0.0000   0.0000   0.0000   0.0000   0.0000   0.0000   0.0000   0.0000
     0.0000   0.0000   0.0000   0.0000   0.0000   0.0000   0.0000   0.0000
     0.0000   0.0000   0.0000   0.0000   0.0000   0.0000   0.0000   0.0000
     0.0000   0.0000   0.0000   0.0000

          k = 0.0500 0.1777-0.1371 ( 18706 PWs)   bands (ev):

   -41.4258 -41.4258 -41.4214 -41.4214 -26.6701 -26.6701 -26.6695 -26.6695
   -19.5143 -19.5143 -19.4797 -19.4797 -19.4310 -19.4310 -19.4066 -19.4066
   -19.3910 -19.3910 -19.3757 -19.3757  -8.7701  -8.7701  -8.7572  -8.7572
    -8.7087  -8.7087  -8.6862  -8.6862  -8.6122  -8.6122  -8.6098  -8.6098
    -4.6687  -4.6687  -4.2521  -4.2521  -3.9189  -3.9189  -3.5444  -3.5444
    -3.4323  -3.4323  -3.3856  -3.3856   3.4970   3.4970   3.6853   3.6853
     4.2010   4.2010   4.6590   4.6590   4.7330   4.7330   4.7919   4.7919
     4.9710   4.9710   5.3275   5.3275   5.6089   5.6089   5.8866   5.8866
     6.0579   6.0579   6.3598   6.3598   6.4350   6.4350   6.5892   6.5892
     6.7637   6.7637   6.9369   6.9369   7.0792   7.0792   7.3275   7.3275
     8.9306   8.9306   9.1792   9.1792  10.0353  10.0353  10.2375  10.2375
    10.4269  10.4269  10.4710  10.4710  11.2683  11.2683  11.6696  11.6696
    11.9495  11.9495  12.1387  12.1387  12.2862  12.2862  12.3817  12.3817
    12.6949  12.6949  12.9725  12.9725

     occupation numbers 
     1.0000   1.0000   1.0000   1.0000   1.0000   1.0000   1.0000   1.0000
     1.0000   1.0000   1.0000   1.0000   1.0000   1.0000   1.0000   1.0000
     1.0000   1.0000   1.0000   1.0000   1.0000   1.0000   1.0000   1.0000
     1.0000   1.0000   1.0000   1.0000   1.0000   1.0000   1.0000   1.0000
     1.0000   1.0000   1.0000   1.0000   1.0000   1.0000   1.0000   1.0000
     1.0000   1.0000   1.0000   1.0000   1.0000   1.0000   1.0000   1.0000
     1.0000   1.0000   1.0000   1.0000   1.0000   1.0000   1.0000   1.0000
     1.0000   1.0000   1.0000   1.0000   1.0000   1.0000   1.0000   1.0000
     1.0000   1.0000   1.0000   1.0000   1.0000   1.0000   1.0000   1.0000
     1.0000   1.0000   1.0000   1.0000   1.0000   1.0000   1.0000   1.0000
     0.0000   0.0000   0.0000   0.0000   0.0000   0.0000   0.0000   0.0000
     0.0000   0.0000   0.0000   0.0000   0.0000   0.0000   0.0000   0.0000
     0.0000   0.0000   0.0000   0.0000   0.0000   0.0000   0.0000   0.0000
     0.0000   0.0000   0.0000   0.0000

          k = 0.0500-0.2221 0.0000 ( 18664 PWs)   bands (ev):

   -41.4258 -41.4258 -41.4214 -41.4214 -26.6699 -26.6699 -26.6697 -26.6697
   -19.5143 -19.5143 -19.4798 -19.4798 -19.4310 -19.4310 -19.4067 -19.4067
   -19.3910 -19.3910 -19.3757 -19.3757  -8.7743  -8.7743  -8.7518  -8.7518
    -8.7049  -8.7048  -8.6914  -8.6914  -8.6114  -8.6114  -8.6106  -8.6106
    -4.6632  -4.6631  -4.2412  -4.2411  -3.9531  -3.9531  -3.5163  -3.5162
    -3.4757  -3.4757  -3.3516  -3.3515   3.4625   3.4625   3.7211   3.7211
     4.1513   4.1513   4.5874   4.5874   4.7657   4.7657   4.8055   4.8056
     5.1804   5.1804   5.3034   5.3035   5.5309   5.5309   5.8173   5.8173
     6.0608   6.0608   6.3166   6.3166   6.4880   6.4880   6.7138   6.7139
     6.7774   6.7775   6.9890   6.9891   7.0590   7.0591   7.1554   7.1554
     8.9902   8.9903   9.1169   9.1170  10.0299  10.0299  10.2375  10.2376
    10.3811  10.3811  10.5903  10.5904  11.2980  11.2981  11.5578  11.5578
    11.8473  11.8473  12.1934  12.1934  12.2866  12.2866  12.3789  12.3790
    12.7160  12.7160  13.2061  13.2061

     occupation numbers 
     1.0000   1.0000   1.0000   1.0000   1.0000   1.0000   1.0000   1.0000
     1.0000   1.0000   1.0000   1.0000   1.0000   1.0000   1.0000   1.0000
     1.0000   1.0000   1.0000   1.0000   1.0000   1.0000   1.0000   1.0000
     1.0000   1.0000   1.0000   1.0000   1.0000   1.0000   1.0000   1.0000
     1.0000   1.0000   1.0000   1.0000   1.0000   1.0000   1.0000   1.0000
     1.0000   1.0000   1.0000   1.0000   1.0000   1.0000   1.0000   1.0000
     1.0000   1.0000   1.0000   1.0000   1.0000   1.0000   1.0000   1.0000
     1.0000   1.0000   1.0000   1.0000   1.0000   1.0000   1.0000   1.0000
     1.0000   1.0000   1.0000   1.0000   1.0000   1.0000   1.0000   1.0000
     1.0000   1.0000   1.0000   1.0000   1.0000   1.0000   1.0000   1.0000
     0.0000   0.0000   0.0000   0.0000   0.0000   0.0000   0.0000   0.0000
     0.0000   0.0000   0.0000   0.0000   0.0000   0.0000   0.0000   0.0000
     0.0000   0.0000   0.0000   0.0000   0.0000   0.0000   0.0000   0.0000
     0.0000   0.0000   0.0000   0.0000

          k = 0.0500-0.2221 0.0457 ( 18700 PWs)   bands (ev):

   -41.4258 -41.4258 -41.4214 -41.4214 -26.6699 -26.6699 -26.6697 -26.6697
   -19.5143 -19.5143 -19.4798 -19.4798 -19.4310 -19.4310 -19.4067 -19.4067
   -19.3910 -19.3910 -19.3757 -19.3757  -8.7735  -8.7734  -8.7530  -8.7530
    -8.7042  -8.7042  -8.6917  -8.6917  -8.6114  -8.6114  -8.6106  -8.6106
    -4.6603  -4.6603  -4.2509  -4.2509  -3.9450  -3.9450  -3.5221  -3.5220
    -3.4659  -3.4659  -3.3568  -3.3568   3.4656   3.4657   3.7081   3.7081
     4.1649   4.1649   4.6072   4.6072   4.7659   4.7660   4.7994   4.7995
     5.1172   5.1172   5.3238   5.3239   5.5460   5.5460   5.8460   5.8461
     6.0592   6.0592   6.3240   6.3240   6.4836   6.4836   6.6865   6.6866
     6.7788   6.7788   6.9485   6.9486   7.0565   7.0565   7.2035   7.2035
     8.9955   8.9956   9.1135   9.1136  10.0343  10.0343  10.2377  10.2377
    10.3863  10.3863  10.5676  10.5677  11.3164  11.3164  11.5574  11.5574
    11.8688  11.8689  12.1966  12.1966  12.2802  12.2803  12.3730  12.3730
    12.7111  12.7111  13.1705  13.1705

     occupation numbers 
     1.0000   1.0000   1.0000   1.0000   1.0000   1.0000   1.0000   1.0000
     1.0000   1.0000   1.0000   1.0000   1.0000   1.0000   1.0000   1.0000
     1.0000   1.0000   1.0000   1.0000   1.0000   1.0000   1.0000   1.0000
     1.0000   1.0000   1.0000   1.0000   1.0000   1.0000   1.0000   1.0000
     1.0000   1.0000   1.0000   1.0000   1.0000   1.0000   1.0000   1.0000
     1.0000   1.0000   1.0000   1.0000   1.0000   1.0000   1.0000   1.0000
     1.0000   1.0000   1.0000   1.0000   1.0000   1.0000   1.0000   1.0000
     1.0000   1.0000   1.0000   1.0000   1.0000   1.0000   1.0000   1.0000
     1.0000   1.0000   1.0000   1.0000   1.0000   1.0000   1.0000   1.0000
     1.0000   1.0000   1.0000   1.0000   1.0000   1.0000   1.0000   1.0000
     0.0000   0.0000   0.0000   0.0000   0.0000   0.0000   0.0000   0.0000
     0.0000   0.0000   0.0000   0.0000   0.0000   0.0000   0.0000   0.0000
     0.0000   0.0000   0.0000   0.0000   0.0000   0.0000   0.0000   0.0000
     0.0000   0.0000   0.0000   0.0000

          k = 0.0500-0.2221 0.0914 ( 18690 PWs)   bands (ev):

   -41.4258 -41.4258 -41.4214 -41.4214 -26.6699 -26.6699 -26.6697 -26.6697
   -19.5143 -19.5143 -19.4798 -19.4798 -19.4310 -19.4310 -19.4067 -19.4067
   -19.3910 -19.3910 -19.3757 -19.3757  -8.7713  -8.7713  -8.7558  -8.7558
    -8.7028  -8.7028  -8.6925  -8.6925  -8.6114  -8.6114  -8.6106  -8.6106
    -4.6543  -4.6542  -4.2695  -4.2695  -3.9300  -3.9300  -3.5302  -3.5302
    -3.4473  -3.4473  -3.3697  -3.3697   3.4734   3.4734   3.6811   3.6811
     4.1957   4.1957   4.6418   4.6419   4.7552   4.7552   4.7983   4.7983
     5.0551   5.0551   5.2741   5.2741   5.6256   5.6256   5.8781   5.8781
     6.0604   6.0604   6.3464   6.3464   6.4681   6.4681   6.6305   6.6305
     6.7802   6.7803   6.8989   6.8990   7.0535   7.0535   7.2671   7.2671
     9.0076   9.0076   9.1051   9.1052  10.0436  10.0437  10.2385  10.2385
    10.4058  10.4058  10.5132  10.5133  11.3549  11.3549  11.5530  11.5530
    11.9193  11.9193  12.1987  12.1987  12.2811  12.2811  12.3428  12.3428
    12.7078  12.7078  13.1086  13.1087

     occupation numbers 
     1.0000   1.0000   1.0000   1.0000   1.0000   1.0000   1.0000   1.0000
     1.0000   1.0000   1.0000   1.0000   1.0000   1.0000   1.0000   1.0000
     1.0000   1.0000   1.0000   1.0000   1.0000   1.0000   1.0000   1.0000
     1.0000   1.0000   1.0000   1.0000   1.0000   1.0000   1.0000   1.0000
     1.0000   1.0000   1.0000   1.0000   1.0000   1.0000   1.0000   1.0000
     1.0000   1.0000   1.0000   1.0000   1.0000   1.0000   1.0000   1.0000
     1.0000   1.0000   1.0000   1.0000   1.0000   1.0000   1.0000   1.0000
     1.0000   1.0000   1.0000   1.0000   1.0000   1.0000   1.0000   1.0000
     1.0000   1.0000   1.0000   1.0000   1.0000   1.0000   1.0000   1.0000
     1.0000   1.0000   1.0000   1.0000   1.0000   1.0000   1.0000   1.0000
     0.0000   0.0000   0.0000   0.0000   0.0000   0.0000   0.0000   0.0000
     0.0000   0.0000   0.0000   0.0000   0.0000   0.0000   0.0000   0.0000
     0.0000   0.0000   0.0000   0.0000   0.0000   0.0000   0.0000   0.0000
     0.0000   0.0000   0.0000   0.0000

          k = 0.0500-0.2221-0.1371 ( 18700 PWs)   bands (ev):

   -41.4258 -41.4258 -41.4214 -41.4214 -26.6699 -26.6699 -26.6697 -26.6697
   -19.5143 -19.5143 -19.4798 -19.4798 -19.4310 -19.4310 -19.4067 -19.4067
   -19.3910 -19.3910 -19.3757 -19.3757  -8.7699  -8.7699  -8.7575  -8.7575
    -8.7021  -8.7021  -8.6929  -8.6929  -8.6114  -8.6114  -8.6106  -8.6106
    -4.6511  -4.6511  -4.2784  -4.2784  -3.9229  -3.9229  -3.5335  -3.5335
    -3.4365  -3.4365  -3.3785  -3.3785   3.4781   3.4781   3.6670   3.6670
     4.2133   4.2133   4.6538   4.6538   4.7445   4.7445   4.8051   4.8051
     5.0407   5.0407   5.2342   5.2342   5.6763   5.6763   5.8793   5.8793
     6.0644   6.0644   6.3668   6.3668   6.4511   6.4511   6.6025   6.6025
     6.7810   6.7810   6.8804   6.8804   7.0523   7.0523   7.2921   7.2921
     9.0147   9.0147   9.0997   9.0997  10.0486  10.0486  10.2391  10.2391
    10.4349  10.4349  10.4666  10.4666  11.3760  11.3760  11.5481  11.5481
    11.9495  11.9495  12.1970  12.1970  12.2981  12.2981  12.3100  12.3100
    12.7037  12.7037  13.0855  13.0855

     occupation numbers 
     1.0000   1.0000   1.0000   1.0000   1.0000   1.0000   1.0000   1.0000
     1.0000   1.0000   1.0000   1.0000   1.0000   1.0000   1.0000   1.0000
     1.0000   1.0000   1.0000   1.0000   1.0000   1.0000   1.0000   1.0000
     1.0000   1.0000   1.0000   1.0000   1.0000   1.0000   1.0000   1.0000
     1.0000   1.0000   1.0000   1.0000   1.0000   1.0000   1.0000   1.0000
     1.0000   1.0000   1.0000   1.0000   1.0000   1.0000   1.0000   1.0000
     1.0000   1.0000   1.0000   1.0000   1.0000   1.0000   1.0000   1.0000
     1.0000   1.0000   1.0000   1.0000   1.0000   1.0000   1.0000   1.0000
     1.0000   1.0000   1.0000   1.0000   1.0000   1.0000   1.0000   1.0000
     1.0000   1.0000   1.0000   1.0000   1.0000   1.0000   1.0000   1.0000
     0.0000   0.0000   0.0000   0.0000   0.0000   0.0000   0.0000   0.0000
     0.0000   0.0000   0.0000   0.0000   0.0000   0.0000   0.0000   0.0000
     0.0000   0.0000   0.0000   0.0000   0.0000   0.0000   0.0000   0.0000
     0.0000   0.0000   0.0000   0.0000

          k = 0.1000 0.0000 0.0000 ( 18683 PWs)   bands (ev):

   -41.4254 -41.4254 -41.4212 -41.4212 -26.6692 -26.6691 -26.6677 -26.6675
   -19.5123 -19.5123 -19.4780 -19.4779 -19.4307 -19.4306 -19.4104 -19.4104
   -19.3958 -19.3958 -19.3839 -19.3839  -8.7636  -8.7586  -8.7573  -8.7479
    -8.7378  -8.7151  -8.6604  -8.6598  -8.6429  -8.6427  -8.6325  -8.6314
    -4.8276  -4.6103  -4.0727  -4.0301  -3.8456  -3.7493  -3.7033  -3.6930
    -3.5470  -3.4388  -3.4009  -3.3459   3.7046   3.8497   3.9622   3.9966
     4.0140   4.1373   4.2792   4.3789   4.4980   4.5424   4.6427   4.9309
     4.9524   5.2210   5.2222   5.5280   5.5542   5.6637   5.6680   5.6721
     5.7080   5.9123   6.0638   6.3514   6.4043   6.4243   6.4322   6.4669
     6.5499   6.8171   6.8318   6.8365   7.1618   7.3798   7.5922   7.6604
     8.7289   8.9101   9.5775   9.5858   9.9857  10.1028  10.1076  10.2184
    10.2362  10.4478  10.4828  10.5547  10.9141  11.1680  11.6052  11.8734
    11.9490  12.0012  12.1269  12.1644  12.2692  12.3698  12.3793  12.5536
    12.7496  12.8525  12.9578  12.9835

     occupation numbers 
     1.0000   1.0000   1.0000   1.0000   1.0000   1.0000   1.0000   1.0000
     1.0000   1.0000   1.0000   1.0000   1.0000   1.0000   1.0000   1.0000
     1.0000   1.0000   1.0000   1.0000   1.0000   1.0000   1.0000   1.0000
     1.0000   1.0000   1.0000   1.0000   1.0000   1.0000   1.0000   1.0000
     1.0000   1.0000   1.0000   1.0000   1.0000   1.0000   1.0000   1.0000
     1.0000   1.0000   1.0000   1.0000   1.0000   1.0000   1.0000   1.0000
     1.0000   1.0000   1.0000   1.0000   1.0000   1.0000   1.0000   1.0000
     1.0000   1.0000   1.0000   1.0000   1.0000   1.0000   1.0000   1.0000
     1.0000   1.0000   1.0000   1.0000   1.0000   1.0000   1.0000   1.0000
     1.0000   1.0000   1.0000   1.0000   1.0000   1.0000   1.0000   1.0000
     0.0000   0.0000   0.0000   0.0000   0.0000   0.0000   0.0000   0.0000
     0.0000   0.0000   0.0000   0.0000   0.0000   0.0000   0.0000   0.0000
     0.0000   0.0000   0.0000   0.0000   0.0000   0.0000   0.0000   0.0000
     0.0000   0.0000   0.0000   0.0000

          k = 0.1000 0.0000 0.0457 ( 18679 PWs)   bands (ev):

   -41.4254 -41.4254 -41.4212 -41.4212 -26.6692 -26.6691 -26.6677 -26.6675
   -19.5123 -19.5123 -19.4780 -19.4780 -19.4307 -19.4306 -19.4104 -19.4104
   -19.3958 -19.3958 -19.3839 -19.3839  -8.7632  -8.7587  -8.7570  -8.7497
    -8.7353  -8.7164  -8.6604  -8.6598  -8.6429  -8.6427  -8.6324  -8.6315
    -4.8158  -4.6292  -4.0652  -4.0306  -3.8386  -3.7548  -3.7012  -3.6911
    -3.5466  -3.4519  -3.3940  -3.3457   3.7100   3.8396   3.9653   3.9965
     4.0143   4.1169   4.2944   4.4078   4.5264   4.5313   4.6337   4.9185
     4.9580   5.2135   5.2234   5.3775   5.5364   5.6453   5.6459   5.7102
     5.7766   6.0619   6.0655   6.3050   6.3962   6.4037   6.4503   6.4846
     6.5770   6.7591   6.8081   6.9315   7.1037   7.3633   7.5962   7.6552
     8.7398   8.8968   9.5803   9.5878   9.9895  10.0919  10.1145  10.2188
    10.2474  10.4380  10.4821  10.5439  10.9292  11.1507  11.6510  11.8164
    11.8959  12.0678  12.1482  12.1880  12.2573  12.3645  12.3750  12.5861
    12.7586  12.8139  12.8852  13.0181

     occupation numbers 
     1.0000   1.0000   1.0000   1.0000   1.0000   1.0000   1.0000   1.0000
     1.0000   1.0000   1.0000   1.0000   1.0000   1.0000   1.0000   1.0000
     1.0000   1.0000   1.0000   1.0000   1.0000   1.0000   1.0000   1.0000
     1.0000   1.0000   1.0000   1.0000   1.0000   1.0000   1.0000   1.0000
     1.0000   1.0000   1.0000   1.0000   1.0000   1.0000   1.0000   1.0000
     1.0000   1.0000   1.0000   1.0000   1.0000   1.0000   1.0000   1.0000
     1.0000   1.0000   1.0000   1.0000   1.0000   1.0000   1.0000   1.0000
     1.0000   1.0000   1.0000   1.0000   1.0000   1.0000   1.0000   1.0000
     1.0000   1.0000   1.0000   1.0000   1.0000   1.0000   1.0000   1.0000
     1.0000   1.0000   1.0000   1.0000   1.0000   1.0000   1.0000   1.0000
     0.0000   0.0000   0.0000   0.0000   0.0000   0.0000   0.0000   0.0000
     0.0000   0.0000   0.0000   0.0000   0.0000   0.0000   0.0000   0.0000
     0.0000   0.0000   0.0000   0.0000   0.0000   0.0000   0.0000   0.0000
     0.0000   0.0000   0.0000   0.0000

          k = 0.1000 0.0000 0.0914 ( 18701 PWs)   bands (ev):

   -41.4254 -41.4254 -41.4212 -41.4212 -26.6692 -26.6691 -26.6676 -26.6675
   -19.5123 -19.5123 -19.4780 -19.4780 -19.4307 -19.4306 -19.4104 -19.4104
   -19.3958 -19.3958 -19.3839 -19.3839  -8.7620  -8.7593  -8.7562  -8.7526
    -8.7304  -8.7199  -8.6602  -8.6599  -8.6429  -8.6428  -8.6322  -8.6317
    -4.7822  -4.6760  -4.0504  -4.0328  -3.8193  -3.7705  -3.6959  -3.6884
    -3.5390  -3.4827  -3.3778  -3.3495   3.7296   3.8082   3.9741   4.0067
     4.0072   4.0751   4.3461   4.4725   4.4822   4.6025   4.6212   4.8622
     4.9782   5.1233   5.2321   5.2873   5.4852   5.6004   5.6690   5.7013
     5.9177   6.0526   6.2676   6.2786   6.3532   6.4080   6.4362   6.5275
     6.6108   6.7359   6.7582   6.9682   7.0596   7.2997   7.6072   7.6413
     8.7705   8.8614   9.5867   9.5915  10.0037  10.0642  10.1346  10.1974
    10.2956  10.4072  10.4848  10.5195  10.9733  11.1030  11.7284  11.7553
    11.8834  12.1173  12.1561  12.2404  12.2491  12.2966  12.3928  12.5119
    12.7569  12.8983  12.9071  13.1089

     occupation numbers 
     1.0000   1.0000   1.0000   1.0000   1.0000   1.0000   1.0000   1.0000
     1.0000   1.0000   1.0000   1.0000   1.0000   1.0000   1.0000   1.0000
     1.0000   1.0000   1.0000   1.0000   1.0000   1.0000   1.0000   1.0000
     1.0000   1.0000   1.0000   1.0000   1.0000   1.0000   1.0000   1.0000
     1.0000   1.0000   1.0000   1.0000   1.0000   1.0000   1.0000   1.0000
     1.0000   1.0000   1.0000   1.0000   1.0000   1.0000   1.0000   1.0000
     1.0000   1.0000   1.0000   1.0000   1.0000   1.0000   1.0000   1.0000
     1.0000   1.0000   1.0000   1.0000   1.0000   1.0000   1.0000   1.0000
     1.0000   1.0000   1.0000   1.0000   1.0000   1.0000   1.0000   1.0000
     1.0000   1.0000   1.0000   1.0000   1.0000   1.0000   1.0000   1.0000
     0.0000   0.0000   0.0000   0.0000   0.0000   0.0000   0.0000   0.0000
     0.0000   0.0000   0.0000   0.0000   0.0000   0.0000   0.0000   0.0000
     0.0000   0.0000   0.0000   0.0000   0.0000   0.0000   0.0000   0.0000
     0.0000   0.0000   0.0000   0.0000

          k = 0.1000 0.0000-0.1371 ( 18742 PWs)   bands (ev):

   -41.4254 -41.4254 -41.4212 -41.4212 -26.6692 -26.6692 -26.6676 -26.6676
   -19.5123 -19.5123 -19.4780 -19.4780 -19.4307 -19.4307 -19.4104 -19.4104
   -19.3958 -19.3958 -19.3839 -19.3839  -8.7605  -8.7605  -8.7548  -8.7548
    -8.7249  -8.7249  -8.6600  -8.6600  -8.6428  -8.6428  -8.6319  -8.6319
    -4.7322  -4.7322  -4.0388  -4.0388  -3.7939  -3.7939  -3.6902  -3.6902
    -3.5163  -3.5163  -3.3609  -3.3609   3.7654   3.7654   3.9899   3.9899
     4.0351   4.0351   4.4177   4.4177   4.5450   4.5450   4.7467   4.7467
     5.0255   5.0255   5.2517   5.2517   5.5340   5.5340   5.6842   5.6842
     6.0152   6.0152   6.2757   6.2757   6.4124   6.4124   6.4889   6.4889
     6.6588   6.6588   6.8294   6.8294   7.1905   7.1905   7.6234   7.6234
     8.8148   8.8148   9.5917   9.5917  10.0306  10.0306  10.1651  10.1651
    10.3560  10.3560  10.4971  10.4971  11.0373  11.0373  11.7322  11.7322
    12.0322  12.0322  12.1795  12.1795  12.2712  12.2712  12.4277  12.4277
    12.8803  12.8803  12.9983  12.9983

     occupation numbers 
     1.0000   1.0000   1.0000   1.0000   1.0000   1.0000   1.0000   1.0000
     1.0000   1.0000   1.0000   1.0000   1.0000   1.0000   1.0000   1.0000
     1.0000   1.0000   1.0000   1.0000   1.0000   1.0000   1.0000   1.0000
     1.0000   1.0000   1.0000   1.0000   1.0000   1.0000   1.0000   1.0000
     1.0000   1.0000   1.0000   1.0000   1.0000   1.0000   1.0000   1.0000
     1.0000   1.0000   1.0000   1.0000   1.0000   1.0000   1.0000   1.0000
     1.0000   1.0000   1.0000   1.0000   1.0000   1.0000   1.0000   1.0000
     1.0000   1.0000   1.0000   1.0000   1.0000   1.0000   1.0000   1.0000
     1.0000   1.0000   1.0000   1.0000   1.0000   1.0000   1.0000   1.0000
     1.0000   1.0000   1.0000   1.0000   1.0000   1.0000   1.0000   1.0000
     0.0000   0.0000   0.0000   0.0000   0.0000   0.0000   0.0000   0.0000
     0.0000   0.0000   0.0000   0.0000   0.0000   0.0000   0.0000   0.0000
     0.0000   0.0000   0.0000   0.0000   0.0000   0.0000   0.0000   0.0000
     0.0000   0.0000   0.0000   0.0000

          k = 0.1000 0.0444 0.0000 ( 18673 PWs)   bands (ev):

   -41.4254 -41.4254 -41.4212 -41.4212 -26.6692 -26.6690 -26.6677 -26.6675
   -19.5123 -19.5123 -19.4780 -19.4780 -19.4307 -19.4306 -19.4104 -19.4104
   -19.3958 -19.3958 -19.3839 -19.3839  -8.7661  -8.7579  -8.7571  -8.7442
    -8.7382  -8.7138  -8.6634  -8.6606  -8.6426  -8.6420  -8.6327  -8.6316
    -4.8169  -4.6051  -4.0765  -4.0455  -3.8840  -3.7998  -3.6553  -3.6494
    -3.5488  -3.4266  -3.4065  -3.3484   3.6694   3.8547   3.8978   3.9529
     4.0873   4.1140   4.2725   4.4057   4.5162   4.6132   4.6511   4.9383
     4.9543   5.1833   5.2358   5.5142   5.5336   5.6637   5.6664   5.6884
     5.7362   5.9827   6.0759   6.3111   6.3698   6.3736   6.4385   6.4641
     6.6171   6.7930   6.8242   6.8633   7.1421   7.3722   7.5647   7.6407
     8.7537   8.9264   9.5674   9.5746   9.9700  10.0923  10.1240  10.2197
    10.2293  10.4583  10.4730  10.5636  10.9391  11.1921  11.6069  11.8286
    11.8837  12.0733  12.1431  12.1547  12.2408  12.3600  12.3995  12.5129
    12.7693  12.8847  12.9821  12.9864

     occupation numbers 
     1.0000   1.0000   1.0000   1.0000   1.0000   1.0000   1.0000   1.0000
     1.0000   1.0000   1.0000   1.0000   1.0000   1.0000   1.0000   1.0000
     1.0000   1.0000   1.0000   1.0000   1.0000   1.0000   1.0000   1.0000
     1.0000   1.0000   1.0000   1.0000   1.0000   1.0000   1.0000   1.0000
     1.0000   1.0000   1.0000   1.0000   1.0000   1.0000   1.0000   1.0000
     1.0000   1.0000   1.0000   1.0000   1.0000   1.0000   1.0000   1.0000
     1.0000   1.0000   1.0000   1.0000   1.0000   1.0000   1.0000   1.0000
     1.0000   1.0000   1.0000   1.0000   1.0000   1.0000   1.0000   1.0000
     1.0000   1.0000   1.0000   1.0000   1.0000   1.0000   1.0000   1.0000
     1.0000   1.0000   1.0000   1.0000   1.0000   1.0000   1.0000   1.0000
     0.0000   0.0000   0.0000   0.0000   0.0000   0.0000   0.0000   0.0000
     0.0000   0.0000   0.0000   0.0000   0.0000   0.0000   0.0000   0.0000
     0.0000   0.0000   0.0000   0.0000   0.0000   0.0000   0.0000   0.0000
     0.0000   0.0000   0.0000   0.0000

          k = 0.1000 0.0444 0.0457 ( 18683 PWs)   bands (ev):

   -41.4254 -41.4254 -41.4212 -41.4212 -26.6692 -26.6690 -26.6677 -26.6675
   -19.5123 -19.5123 -19.4780 -19.4780 -19.4307 -19.4306 -19.4104 -19.4104
   -19.3958 -19.3958 -19.3839 -19.3839  -8.7655  -8.7583  -8.7567  -8.7470
    -8.7348  -8.7151  -8.6632  -8.6607  -8.6426  -8.6420  -8.6326  -8.6317
    -4.8053  -4.6233  -4.0715  -4.0456  -3.8760  -3.8026  -3.6566  -3.6483
    -3.5463  -3.4400  -3.3992  -3.3483   3.6764   3.8177   3.9316   3.9527
     4.0744   4.1062   4.2926   4.4293   4.5402   4.5954   4.6479   4.9282
     4.9525   5.1621   5.2419   5.3897   5.5320   5.6424   5.6735   5.7099
     5.8136   6.0672   6.0900   6.2637   6.3628   6.3956   6.4450   6.4579
     6.6430   6.7466   6.8063   6.9368   7.0910   7.3540   7.5694   7.6352
     8.7641   8.9138   9.5699   9.5765   9.9745  10.0814  10.1290  10.2113
    10.2509  10.4499  10.4718  10.5493  10.9556  11.1757  11.6537  11.7777
    11.9024  12.0679  12.1501  12.1859  12.2432  12.3539  12.3659  12.5598
    12.7861  12.8327  12.8971  13.0216

     occupation numbers 
     1.0000   1.0000   1.0000   1.0000   1.0000   1.0000   1.0000   1.0000
     1.0000   1.0000   1.0000   1.0000   1.0000   1.0000   1.0000   1.0000
     1.0000   1.0000   1.0000   1.0000   1.0000   1.0000   1.0000   1.0000
     1.0000   1.0000   1.0000   1.0000   1.0000   1.0000   1.0000   1.0000
     1.0000   1.0000   1.0000   1.0000   1.0000   1.0000   1.0000   1.0000
     1.0000   1.0000   1.0000   1.0000   1.0000   1.0000   1.0000   1.0000
     1.0000   1.0000   1.0000   1.0000   1.0000   1.0000   1.0000   1.0000
     1.0000   1.0000   1.0000   1.0000   1.0000   1.0000   1.0000   1.0000
     1.0000   1.0000   1.0000   1.0000   1.0000   1.0000   1.0000   1.0000
     1.0000   1.0000   1.0000   1.0000   1.0000   1.0000   1.0000   1.0000
     0.0000   0.0000   0.0000   0.0000   0.0000   0.0000   0.0000   0.0000
     0.0000   0.0000   0.0000   0.0000   0.0000   0.0000   0.0000   0.0000
     0.0000   0.0000   0.0000   0.0000   0.0000   0.0000   0.0000   0.0000
     0.0000   0.0000   0.0000   0.0000

          k = 0.1000 0.0444 0.0914 ( 18714 PWs)   bands (ev):

   -41.4254 -41.4254 -41.4212 -41.4212 -26.6692 -26.6691 -26.6677 -26.6676
   -19.5123 -19.5123 -19.4780 -19.4780 -19.4307 -19.4306 -19.4104 -19.4104
   -19.3958 -19.3958 -19.3839 -19.3839  -8.7639  -8.7596  -8.7554  -8.7506
    -8.7293  -8.7186  -8.6626  -8.6612  -8.6425  -8.6422  -8.6324  -8.6319
    -4.7723  -4.6687  -4.0612  -4.0471  -3.8552  -3.8124  -3.6568  -3.6492
    -3.5338  -3.4715  -3.3824  -3.3525   3.6970   3.7710   3.9487   3.9742
     4.0453   4.0828   4.3604   4.4792   4.5509   4.5834   4.6573   4.8683
     4.9621   5.0779   5.2506   5.3199   5.4914   5.6142   5.6988   5.7173
     5.9257   6.0567   6.2266   6.2579   6.3273   6.4062   6.4367   6.5028
     6.6565   6.7133   6.7768   6.9715   7.0589   7.2902   7.5823   7.6204
     8.7935   8.8800   9.5756   9.5798   9.9903  10.0530  10.1431  10.1906
    10.3050  10.4220  10.4740  10.5160  11.0019  11.1301  11.7369  11.7419
    11.9010  12.0976  12.1527  12.2328  12.2502  12.2810  12.3665  12.5167
    12.7453  12.8814  12.9220  13.0971

     occupation numbers 
     1.0000   1.0000   1.0000   1.0000   1.0000   1.0000   1.0000   1.0000
     1.0000   1.0000   1.0000   1.0000   1.0000   1.0000   1.0000   1.0000
     1.0000   1.0000   1.0000   1.0000   1.0000   1.0000   1.0000   1.0000
     1.0000   1.0000   1.0000   1.0000   1.0000   1.0000   1.0000   1.0000
     1.0000   1.0000   1.0000   1.0000   1.0000   1.0000   1.0000   1.0000
     1.0000   1.0000   1.0000   1.0000   1.0000   1.0000   1.0000   1.0000
     1.0000   1.0000   1.0000   1.0000   1.0000   1.0000   1.0000   1.0000
     1.0000   1.0000   1.0000   1.0000   1.0000   1.0000   1.0000   1.0000
     1.0000   1.0000   1.0000   1.0000   1.0000   1.0000   1.0000   1.0000
     1.0000   1.0000   1.0000   1.0000   1.0000   1.0000   1.0000   1.0000
     0.0000   0.0000   0.0000   0.0000   0.0000   0.0000   0.0000   0.0000
     0.0000   0.0000   0.0000   0.0000   0.0000   0.0000   0.0000   0.0000
     0.0000   0.0000   0.0000   0.0000   0.0000   0.0000   0.0000   0.0000
     0.0000   0.0000   0.0000   0.0000

          k = 0.1000 0.0444-0.1371 ( 18706 PWs)   bands (ev):

   -41.4254 -41.4254 -41.4212 -41.4212 -26.6691 -26.6691 -26.6676 -26.6676
   -19.5123 -19.5123 -19.4780 -19.4780 -19.4306 -19.4306 -19.4104 -19.4104
   -19.3958 -19.3958 -19.3839 -19.3839  -8.7617  -8.7617  -8.7534  -8.7534
    -8.7237  -8.7237  -8.6619  -8.6619  -8.6423  -8.6423  -8.6321  -8.6321
    -4.7235  -4.7235  -4.0523  -4.0523  -3.8309  -3.8309  -3.6534  -3.6534
    -3.5068  -3.5068  -3.3647  -3.3647   3.7296   3.7296   3.9679   3.9679
     4.0513   4.0513   4.4500   4.4500   4.5601   4.5601   4.7528   4.7528
     4.9986   4.9986   5.2780   5.2780   5.5443   5.5443   5.7129   5.7129
     6.0153   6.0153   6.2394   6.2394   6.3941   6.3941   6.4909   6.4909
     6.6570   6.6570   6.8492   6.8492   7.1844   7.1844   7.6008   7.6008
     8.8356   8.8356   9.5800   9.5800  10.0186  10.0186  10.1651  10.1651
    10.3702  10.3702  10.4873  10.4873  11.0662  11.0662  11.7390  11.7390
    12.0328  12.0328  12.1720  12.1720  12.2610  12.2610  12.4161  12.4161
    12.8496  12.8496  13.0073  13.0073

     occupation numbers 
     1.0000   1.0000   1.0000   1.0000   1.0000   1.0000   1.0000   1.0000
     1.0000   1.0000   1.0000   1.0000   1.0000   1.0000   1.0000   1.0000
     1.0000   1.0000   1.0000   1.0000   1.0000   1.0000   1.0000   1.0000
     1.0000   1.0000   1.0000   1.0000   1.0000   1.0000   1.0000   1.0000
     1.0000   1.0000   1.0000   1.0000   1.0000   1.0000   1.0000   1.0000
     1.0000   1.0000   1.0000   1.0000   1.0000   1.0000   1.0000   1.0000
     1.0000   1.0000   1.0000   1.0000   1.0000   1.0000   1.0000   1.0000
     1.0000   1.0000   1.0000   1.0000   1.0000   1.0000   1.0000   1.0000
     1.0000   1.0000   1.0000   1.0000   1.0000   1.0000   1.0000   1.0000
     1.0000   1.0000   1.0000   1.0000   1.0000   1.0000   1.0000   1.0000
     0.0000   0.0000   0.0000   0.0000   0.0000   0.0000   0.0000   0.0000
     0.0000   0.0000   0.0000   0.0000   0.0000   0.0000   0.0000   0.0000
     0.0000   0.0000   0.0000   0.0000   0.0000   0.0000   0.0000   0.0000
     0.0000   0.0000   0.0000   0.0000

          k = 0.1000 0.0888 0.0000 ( 18676 PWs)   bands (ev):

   -41.4254 -41.4254 -41.4212 -41.4212 -26.6691 -26.6689 -26.6678 -26.6676
   -19.5122 -19.5122 -19.4781 -19.4781 -19.4306 -19.4306 -19.4104 -19.4104
   -19.3958 -19.3958 -19.3839 -19.3839  -8.7691  -8.7596  -8.7550  -8.7394
    -8.7357  -8.7100  -8.6698  -8.6645  -8.6416  -8.6407  -8.6333  -8.6323
    -4.7857  -4.5920  -4.0959  -4.0911  -3.9264  -3.8664  -3.5969  -3.5787
    -3.5487  -3.4224  -3.3993  -3.3553   3.6031   3.8043   3.8461   3.8702
     4.0731   4.2129   4.2526   4.4775   4.5721   4.6577   4.7314   4.9268
     5.0135   5.1112   5.2688   5.4259   5.5101   5.6301   5.6675   5.7686
     5.8746   6.0614   6.1110   6.2127   6.2887   6.2999   6.4635   6.4943
     6.7143   6.7423   6.8090   6.9038   7.1079   7.3438   7.4837   7.5696
     8.8234   8.9735   9.5351   9.5362   9.9472  10.0698  10.1528  10.2071
    10.2284  10.4633  10.4857  10.5692  11.0157  11.2590  11.6004  11.7429
    11.8313  12.0947  12.1354  12.1763  12.1959  12.3586  12.4180  12.4450
    12.7882  12.9451  12.9642  13.0634

     occupation numbers 
     1.0000   1.0000   1.0000   1.0000   1.0000   1.0000   1.0000   1.0000
     1.0000   1.0000   1.0000   1.0000   1.0000   1.0000   1.0000   1.0000
     1.0000   1.0000   1.0000   1.0000   1.0000   1.0000   1.0000   1.0000
     1.0000   1.0000   1.0000   1.0000   1.0000   1.0000   1.0000   1.0000
     1.0000   1.0000   1.0000   1.0000   1.0000   1.0000   1.0000   1.0000
     1.0000   1.0000   1.0000   1.0000   1.0000   1.0000   1.0000   1.0000
     1.0000   1.0000   1.0000   1.0000   1.0000   1.0000   1.0000   1.0000
     1.0000   1.0000   1.0000   1.0000   1.0000   1.0000   1.0000   1.0000
     1.0000   1.0000   1.0000   1.0000   1.0000   1.0000   1.0000   1.0000
     1.0000   1.0000   1.0000   1.0000   1.0000   1.0000   1.0000   1.0000
     0.0000   0.0000   0.0000   0.0000   0.0000   0.0000   0.0000   0.0000
     0.0000   0.0000   0.0000   0.0000   0.0000   0.0000   0.0000   0.0000
     0.0000   0.0000   0.0000   0.0000   0.0000   0.0000   0.0000   0.0000
     0.0000   0.0000   0.0000   0.0000

          k = 0.1000 0.0888 0.0457 ( 18691 PWs)   bands (ev):

   -41.4254 -41.4254 -41.4212 -41.4212 -26.6691 -26.6689 -26.6678 -26.6676
   -19.5122 -19.5122 -19.4781 -19.4781 -19.4306 -19.4306 -19.4104 -19.4104
   -19.3958 -19.3958 -19.3839 -19.3839  -8.7683  -8.7597  -8.7550  -8.7434
    -8.7313  -8.7113  -8.6693  -8.6648  -8.6415  -8.6407  -8.6332  -8.6323
    -4.7748  -4.6079  -4.1023  -4.0848  -3.9181  -3.8659  -3.5986  -3.5869
    -3.5372  -3.4160  -3.4114  -3.3549   3.6109   3.7614   3.8567   3.8872
     4.0727   4.1973   4.3005   4.4811   4.5853   4.6635   4.7131   4.9177
     4.9922   5.0814   5.2726   5.3951   5.5303   5.5710   5.7477   5.7653
     5.8918   6.0825   6.1237   6.1873   6.2830   6.3481   6.4550   6.4785
     6.7072   6.7405   6.7936   6.9547   7.0702   7.3228   7.4903   7.5657
     8.8327   8.9628   9.5361   9.5385   9.9524  10.0608  10.1555  10.1890
    10.2602  10.4608  10.4786  10.5496  11.0337  11.2438  11.6453  11.7383
    11.8551  12.0828  12.1348  12.1875  12.2005  12.3183  12.3756  12.5167
    12.8160  12.8823  12.9164  13.0132

     occupation numbers 
     1.0000   1.0000   1.0000   1.0000   1.0000   1.0000   1.0000   1.0000
     1.0000   1.0000   1.0000   1.0000   1.0000   1.0000   1.0000   1.0000
     1.0000   1.0000   1.0000   1.0000   1.0000   1.0000   1.0000   1.0000
     1.0000   1.0000   1.0000   1.0000   1.0000   1.0000   1.0000   1.0000
     1.0000   1.0000   1.0000   1.0000   1.0000   1.0000   1.0000   1.0000
     1.0000   1.0000   1.0000   1.0000   1.0000   1.0000   1.0000   1.0000
     1.0000   1.0000   1.0000   1.0000   1.0000   1.0000   1.0000   1.0000
     1.0000   1.0000   1.0000   1.0000   1.0000   1.0000   1.0000   1.0000
     1.0000   1.0000   1.0000   1.0000   1.0000   1.0000   1.0000   1.0000
     1.0000   1.0000   1.0000   1.0000   1.0000   1.0000   1.0000   1.0000
     0.0000   0.0000   0.0000   0.0000   0.0000   0.0000   0.0000   0.0000
     0.0000   0.0000   0.0000   0.0000   0.0000   0.0000   0.0000   0.0000
     0.0000   0.0000   0.0000   0.0000   0.0000   0.0000   0.0000   0.0000
     0.0000   0.0000   0.0000   0.0000

          k = 0.1000 0.0888 0.0914 ( 18696 PWs)   bands (ev):

   -41.4254 -41.4254 -41.4212 -41.4212 -26.6690 -26.6690 -26.6678 -26.6677
   -19.5122 -19.5122 -19.4781 -19.4781 -19.4306 -19.4306 -19.4104 -19.4104
   -19.3958 -19.3958 -19.3839 -19.3839  -8.7661  -8.7607  -8.7542  -8.7480
    -8.7254  -8.7148  -8.6682  -8.6656  -8.6414  -8.6409  -8.6330  -8.6325
    -4.7439  -4.6485  -4.1022  -4.0861  -3.8979  -3.8679  -3.6023  -3.5977
    -3.5127  -3.4443  -3.3953  -3.3603   3.6324   3.7079   3.8594   3.8962
     4.0859   4.1677   4.4046   4.5106   4.5874   4.6606   4.6962   4.8714
     4.9488   5.0125   5.2899   5.3729   5.5073   5.6037   5.7543   5.7788
     5.9443   6.0580   6.1638   6.2233   6.2658   6.4009   6.4482   6.4802
     6.6618   6.7170   6.8177   6.9739   7.0625   7.2608   7.5075   7.5525
     8.8586   8.9338   9.5395   9.5418   9.9697  10.0346  10.1591  10.1715
    10.3230  10.4524  10.4636  10.5008  11.0816  11.2027  11.7144  11.7730
    11.8907  12.0783  12.1282  12.1823  12.2192  12.2568  12.3682  12.5376
    12.7236  12.8586  12.9257  13.0397

     occupation numbers 
     1.0000   1.0000   1.0000   1.0000   1.0000   1.0000   1.0000   1.0000
     1.0000   1.0000   1.0000   1.0000   1.0000   1.0000   1.0000   1.0000
     1.0000   1.0000   1.0000   1.0000   1.0000   1.0000   1.0000   1.0000
     1.0000   1.0000   1.0000   1.0000   1.0000   1.0000   1.0000   1.0000
     1.0000   1.0000   1.0000   1.0000   1.0000   1.0000   1.0000   1.0000
     1.0000   1.0000   1.0000   1.0000   1.0000   1.0000   1.0000   1.0000
     1.0000   1.0000   1.0000   1.0000   1.0000   1.0000   1.0000   1.0000
     1.0000   1.0000   1.0000   1.0000   1.0000   1.0000   1.0000   1.0000
     1.0000   1.0000   1.0000   1.0000   1.0000   1.0000   1.0000   1.0000
     1.0000   1.0000   1.0000   1.0000   1.0000   1.0000   1.0000   1.0000
     0.0000   0.0000   0.0000   0.0000   0.0000   0.0000   0.0000   0.0000
     0.0000   0.0000   0.0000   0.0000   0.0000   0.0000   0.0000   0.0000
     0.0000   0.0000   0.0000   0.0000   0.0000   0.0000   0.0000   0.0000
     0.0000   0.0000   0.0000   0.0000

          k = 0.1000 0.0888-0.1371 ( 18692 PWs)   bands (ev):

   -41.4254 -41.4254 -41.4212 -41.4212 -26.6690 -26.6690 -26.6677 -26.6677
   -19.5122 -19.5122 -19.4781 -19.4781 -19.4306 -19.4306 -19.4104 -19.4104
   -19.3958 -19.3958 -19.3839 -19.3839  -8.7633  -8.7633  -8.7517  -8.7517
    -8.7197  -8.7197  -8.6669  -8.6669  -8.6411  -8.6411  -8.6327  -8.6327
    -4.6985  -4.6985  -4.0946  -4.0946  -3.8782  -3.8782  -3.6031  -3.6031
    -3.4802  -3.4802  -3.3749  -3.3749   3.6648   3.6648   3.8765   3.8765
     4.1240   4.1240   4.5152   4.5152   4.5880   4.5880   4.7696   4.7696
     4.9612   4.9612   5.3295   5.3295   5.5616   5.5616   5.7697   5.7697
     6.0100   6.0100   6.1829   6.1829   6.3613   6.3613   6.4822   6.4822
     6.6597   6.6597   6.8860   6.8860   7.1675   7.1675   7.5308   7.5308
     8.8954   8.8954   9.5424   9.5424   9.9995   9.9995  10.1627  10.1627
    10.3996  10.3996  10.4677  10.4677  11.1440  11.1440  11.7574  11.7574
    12.0208  12.0208  12.1240  12.1240  12.2394  12.2394  12.4300  12.4300
    12.7927  12.7927  12.9900  12.9900

     occupation numbers 
     1.0000   1.0000   1.0000   1.0000   1.0000   1.0000   1.0000   1.0000
     1.0000   1.0000   1.0000   1.0000   1.0000   1.0000   1.0000   1.0000
     1.0000   1.0000   1.0000   1.0000   1.0000   1.0000   1.0000   1.0000
     1.0000   1.0000   1.0000   1.0000   1.0000   1.0000   1.0000   1.0000
     1.0000   1.0000   1.0000   1.0000   1.0000   1.0000   1.0000   1.0000
     1.0000   1.0000   1.0000   1.0000   1.0000   1.0000   1.0000   1.0000
     1.0000   1.0000   1.0000   1.0000   1.0000   1.0000   1.0000   1.0000
     1.0000   1.0000   1.0000   1.0000   1.0000   1.0000   1.0000   1.0000
     1.0000   1.0000   1.0000   1.0000   1.0000   1.0000   1.0000   1.0000
     1.0000   1.0000   1.0000   1.0000   1.0000   1.0000   1.0000   1.0000
     0.0000   0.0000   0.0000   0.0000   0.0000   0.0000   0.0000   0.0000
     0.0000   0.0000   0.0000   0.0000   0.0000   0.0000   0.0000   0.0000
     0.0000   0.0000   0.0000   0.0000   0.0000   0.0000   0.0000   0.0000
     0.0000   0.0000   0.0000   0.0000

          k = 0.1000 0.1333 0.0000 ( 18686 PWs)   bands (ev):

   -41.4254 -41.4254 -41.4212 -41.4212 -26.6689 -26.6687 -26.6680 -26.6678
   -19.5121 -19.5121 -19.4782 -19.4781 -19.4306 -19.4306 -19.4104 -19.4104
   -19.3958 -19.3958 -19.3839 -19.3839  -8.7704  -8.7622  -8.7524  -8.7412
    -8.7249  -8.7040  -8.6786  -8.6709  -8.6401  -8.6392  -8.6343  -8.6333
    -4.7373  -4.5798  -4.1619  -4.1227  -3.9449  -3.9159  -3.5557  -3.5378
    -3.5163  -3.4460  -3.3726  -3.3627   3.5476   3.6940   3.8069   3.8188
     4.0861   4.2248   4.3255   4.5684   4.6234   4.6652   4.7797   4.9889
     4.9924   5.1101   5.3012   5.3789   5.5369   5.5583   5.6860   5.8280
     5.9365   6.0432   6.1536   6.1920   6.2215   6.2568   6.5149   6.5733
     6.6695   6.7951   6.8119   6.9484   7.0916   7.2662   7.3739   7.4336
     8.9259   9.0449   9.4656   9.4774   9.9417  10.0458  10.1732  10.1807
    10.2525  10.4468  10.5207  10.5719  11.1328  11.3629  11.5614  11.6771
    11.8026  12.0197  12.1218  12.1419  12.2183  12.2946  12.4537  12.4800
    12.7868  12.8266  13.0322  13.1556

     occupation numbers 
     1.0000   1.0000   1.0000   1.0000   1.0000   1.0000   1.0000   1.0000
     1.0000   1.0000   1.0000   1.0000   1.0000   1.0000   1.0000   1.0000
     1.0000   1.0000   1.0000   1.0000   1.0000   1.0000   1.0000   1.0000
     1.0000   1.0000   1.0000   1.0000   1.0000   1.0000   1.0000   1.0000
     1.0000   1.0000   1.0000   1.0000   1.0000   1.0000   1.0000   1.0000
     1.0000   1.0000   1.0000   1.0000   1.0000   1.0000   1.0000   1.0000
     1.0000   1.0000   1.0000   1.0000   1.0000   1.0000   1.0000   1.0000
     1.0000   1.0000   1.0000   1.0000   1.0000   1.0000   1.0000   1.0000
     1.0000   1.0000   1.0000   1.0000   1.0000   1.0000   1.0000   1.0000
     1.0000   1.0000   1.0000   1.0000   1.0000   1.0000   1.0000   1.0000
     0.0000   0.0000   0.0000   0.0000   0.0000   0.0000   0.0000   0.0000
     0.0000   0.0000   0.0000   0.0000   0.0000   0.0000   0.0000   0.0000
     0.0000   0.0000   0.0000   0.0000   0.0000   0.0000   0.0000   0.0000
     0.0000   0.0000   0.0000   0.0000

          k = 0.1000 0.1333 0.0457 ( 18690 PWs)   bands (ev):

   -41.4254 -41.4254 -41.4212 -41.4212 -26.6689 -26.6688 -26.6680 -26.6678
   -19.5121 -19.5121 -19.4782 -19.4782 -19.4306 -19.4306 -19.4104 -19.4104
   -19.3958 -19.3958 -19.3839 -19.3839  -8.7695  -8.7619  -8.7529  -8.7433
    -8.7227  -8.7053  -8.6779  -8.6713  -8.6401  -8.6392  -8.6342  -8.6333
    -4.7277  -4.5912  -4.1661  -4.1265  -3.9371  -3.9110  -3.5586  -3.5483
    -3.5029  -3.4359  -3.3874  -3.3609   3.5548   3.6794   3.7854   3.8296
     4.1001   4.2213   4.3739   4.5553   4.6214   4.6839   4.7712   4.9423
     4.9901   5.0740   5.3039   5.4175   5.5020   5.5508   5.7515   5.8167
     5.9244   6.0420   6.1559   6.2073   6.2273   6.2942   6.5007   6.5502
     6.6540   6.7817   6.8301   6.9737   7.0677   7.2489   7.3748   7.4407
     8.9338   9.0370   9.4673   9.4781   9.9480  10.0439  10.1602  10.1766
    10.2786  10.4467  10.5084  10.5519  11.1506  11.3464  11.6090  11.7042
    11.8136  12.0186  12.1021  12.1505  12.2179  12.2815  12.4256  12.5065
    12.7924  12.8256  12.9789  13.0342

     occupation numbers 
     1.0000   1.0000   1.0000   1.0000   1.0000   1.0000   1.0000   1.0000
     1.0000   1.0000   1.0000   1.0000   1.0000   1.0000   1.0000   1.0000
     1.0000   1.0000   1.0000   1.0000   1.0000   1.0000   1.0000   1.0000
     1.0000   1.0000   1.0000   1.0000   1.0000   1.0000   1.0000   1.0000
     1.0000   1.0000   1.0000   1.0000   1.0000   1.0000   1.0000   1.0000
     1.0000   1.0000   1.0000   1.0000   1.0000   1.0000   1.0000   1.0000
     1.0000   1.0000   1.0000   1.0000   1.0000   1.0000   1.0000   1.0000
     1.0000   1.0000   1.0000   1.0000   1.0000   1.0000   1.0000   1.0000
     1.0000   1.0000   1.0000   1.0000   1.0000   1.0000   1.0000   1.0000
     1.0000   1.0000   1.0000   1.0000   1.0000   1.0000   1.0000   1.0000
     0.0000   0.0000   0.0000   0.0000   0.0000   0.0000   0.0000   0.0000
     0.0000   0.0000   0.0000   0.0000   0.0000   0.0000   0.0000   0.0000
     0.0000   0.0000   0.0000   0.0000   0.0000   0.0000   0.0000   0.0000
     0.0000   0.0000   0.0000   0.0000

          k = 0.1000 0.1333 0.0914 ( 18693 PWs)   bands (ev):

   -41.4254 -41.4254 -41.4212 -41.4212 -26.6689 -26.6688 -26.6679 -26.6679
   -19.5121 -19.5121 -19.4782 -19.4782 -19.4306 -19.4306 -19.4104 -19.4104
   -19.3958 -19.3958 -19.3839 -19.3839  -8.7671  -8.7619  -8.7532  -8.7474
    -8.7181  -8.7085  -8.6762  -8.6725  -8.6399  -8.6394  -8.6340  -8.6335
    -4.7008  -4.6220  -4.1675  -4.1403  -3.9193  -3.9039  -3.5640  -3.5601
    -3.4784  -3.4173  -3.4111  -3.3690   3.5751   3.6444   3.7757   3.8168
     4.1378   4.2150   4.4857   4.5470   4.6068   4.7172   4.7419   4.8527
     4.9658   5.0083   5.3340   5.4150   5.5141   5.5634   5.7898   5.8033
     5.9363   6.0383   6.1678   6.1889   6.2806   6.3736   6.4574   6.5114
     6.6437   6.7386   6.8709   6.9665   7.0719   7.1996   7.3928   7.4407
     8.9555   9.0152   9.4717   9.4786   9.9672  10.0292  10.1448  10.1693
    10.3388  10.4494  10.4796  10.4990  11.1968  11.3078  11.7024  11.7842
    11.8348  12.0117  12.0740  12.1172  12.2134  12.2719  12.4170  12.5425
    12.7248  12.7938  12.9217  12.9961

     occupation numbers 
     1.0000   1.0000   1.0000   1.0000   1.0000   1.0000   1.0000   1.0000
     1.0000   1.0000   1.0000   1.0000   1.0000   1.0000   1.0000   1.0000
     1.0000   1.0000   1.0000   1.0000   1.0000   1.0000   1.0000   1.0000
     1.0000   1.0000   1.0000   1.0000   1.0000   1.0000   1.0000   1.0000
     1.0000   1.0000   1.0000   1.0000   1.0000   1.0000   1.0000   1.0000
     1.0000   1.0000   1.0000   1.0000   1.0000   1.0000   1.0000   1.0000
     1.0000   1.0000   1.0000   1.0000   1.0000   1.0000   1.0000   1.0000
     1.0000   1.0000   1.0000   1.0000   1.0000   1.0000   1.0000   1.0000
     1.0000   1.0000   1.0000   1.0000   1.0000   1.0000   1.0000   1.0000
     1.0000   1.0000   1.0000   1.0000   1.0000   1.0000   1.0000   1.0000
     0.0000   0.0000   0.0000   0.0000   0.0000   0.0000   0.0000   0.0000
     0.0000   0.0000   0.0000   0.0000   0.0000   0.0000   0.0000   0.0000
     0.0000   0.0000   0.0000   0.0000   0.0000   0.0000   0.0000   0.0000
     0.0000   0.0000   0.0000   0.0000

          k = 0.1000 0.1333-0.1371 ( 18686 PWs)   bands (ev):

   -41.4254 -41.4254 -41.4212 -41.4212 -26.6688 -26.6688 -26.6679 -26.6679
   -19.5121 -19.5121 -19.4782 -19.4782 -19.4306 -19.4306 -19.4104 -19.4104
   -19.3958 -19.3958 -19.3839 -19.3839  -8.7640  -8.7640  -8.7512  -8.7512
    -8.7130  -8.7130  -8.6742  -8.6742  -8.6397  -8.6397  -8.6337  -8.6337
    -4.6624  -4.6624  -4.1575  -4.1575  -3.9055  -3.9055  -3.5655  -3.5655
    -3.4482  -3.4482  -3.3877  -3.3877   3.6062   3.6062   3.7904   3.7904
     4.1846   4.1846   4.5673   4.5673   4.6318   4.6318   4.7758   4.7758
     4.9674   4.9674   5.3770   5.3770   5.5506   5.5506   5.7955   5.7955
     5.9944   5.9944   6.1729   6.1729   6.3647   6.3647   6.4636   6.4636
     6.6805   6.6805   6.9136   6.9136   7.1345   7.1345   7.4213   7.4213
     8.9852   8.9852   9.4763   9.4763   9.9978   9.9978  10.1534  10.1534
    10.4161  10.4161  10.4625  10.4625  11.2547  11.2547  11.7769  11.7769
    11.9422  11.9422  12.0692  12.0692  12.2421  12.2421  12.4792  12.4792
    12.7317  12.7317  12.9589  12.9589

     occupation numbers 
     1.0000   1.0000   1.0000   1.0000   1.0000   1.0000   1.0000   1.0000
     1.0000   1.0000   1.0000   1.0000   1.0000   1.0000   1.0000   1.0000
     1.0000   1.0000   1.0000   1.0000   1.0000   1.0000   1.0000   1.0000
     1.0000   1.0000   1.0000   1.0000   1.0000   1.0000   1.0000   1.0000
     1.0000   1.0000   1.0000   1.0000   1.0000   1.0000   1.0000   1.0000
     1.0000   1.0000   1.0000   1.0000   1.0000   1.0000   1.0000   1.0000
     1.0000   1.0000   1.0000   1.0000   1.0000   1.0000   1.0000   1.0000
     1.0000   1.0000   1.0000   1.0000   1.0000   1.0000   1.0000   1.0000
     1.0000   1.0000   1.0000   1.0000   1.0000   1.0000   1.0000   1.0000
     1.0000   1.0000   1.0000   1.0000   1.0000   1.0000   1.0000   1.0000
     0.0000   0.0000   0.0000   0.0000   0.0000   0.0000   0.0000   0.0000
     0.0000   0.0000   0.0000   0.0000   0.0000   0.0000   0.0000   0.0000
     0.0000   0.0000   0.0000   0.0000   0.0000   0.0000   0.0000   0.0000
     0.0000   0.0000   0.0000   0.0000

          k = 0.1000 0.1777 0.0000 ( 18714 PWs)   bands (ev):

   -41.4254 -41.4254 -41.4212 -41.4212 -26.6687 -26.6685 -26.6682 -26.6680
   -19.5121 -19.5121 -19.4782 -19.4782 -19.4306 -19.4306 -19.4104 -19.4104
   -19.3958 -19.3958 -19.3839 -19.3839  -8.7699  -8.7652  -8.7495  -8.7437
    -8.7131  -8.6964  -8.6893  -8.6789  -8.6386  -8.6376  -8.6356  -8.6346
    -4.6784  -4.5853  -4.2051  -4.1674  -3.9514  -3.9415  -3.5303  -3.5103
    -3.4872  -3.4720  -3.3632  -3.3573   3.5233   3.5984   3.7768   3.7896
     4.1171   4.1923   4.4365   4.5975   4.6510   4.7047   4.7839   4.8856
     5.1026   5.1498   5.3133   5.4421   5.4583   5.5867   5.7310   5.8433
     5.8586   5.9556   6.0726   6.1306   6.3018   6.3780   6.5961   6.6256
     6.6787   6.8314   6.8845   6.9718   7.1054   7.1107   7.2490   7.2854
     9.0433   9.1226   9.3760   9.4004   9.9562  10.0170  10.1705  10.1800
    10.2939  10.4046  10.5543  10.5796  11.2597  11.4816  11.5101  11.6621
    11.7560  11.8998  12.0603  12.1012  12.2900  12.3090  12.4704  12.5233
    12.6787  12.7561  13.0735  13.2097

     occupation numbers 
     1.0000   1.0000   1.0000   1.0000   1.0000   1.0000   1.0000   1.0000
     1.0000   1.0000   1.0000   1.0000   1.0000   1.0000   1.0000   1.0000
     1.0000   1.0000   1.0000   1.0000   1.0000   1.0000   1.0000   1.0000
     1.0000   1.0000   1.0000   1.0000   1.0000   1.0000   1.0000   1.0000
     1.0000   1.0000   1.0000   1.0000   1.0000   1.0000   1.0000   1.0000
     1.0000   1.0000   1.0000   1.0000   1.0000   1.0000   1.0000   1.0000
     1.0000   1.0000   1.0000   1.0000   1.0000   1.0000   1.0000   1.0000
     1.0000   1.0000   1.0000   1.0000   1.0000   1.0000   1.0000   1.0000
     1.0000   1.0000   1.0000   1.0000   1.0000   1.0000   1.0000   1.0000
     1.0000   1.0000   1.0000   1.0000   1.0000   1.0000   1.0000   1.0000
     0.0000   0.0000   0.0000   0.0000   0.0000   0.0000   0.0000   0.0000
     0.0000   0.0000   0.0000   0.0000   0.0000   0.0000   0.0000   0.0000
     0.0000   0.0000   0.0000   0.0000   0.0000   0.0000   0.0000   0.0000
     0.0000   0.0000   0.0000   0.0000

          k = 0.1000 0.1777 0.0457 ( 18686 PWs)   bands (ev):

   -41.4254 -41.4254 -41.4212 -41.4212 -26.6687 -26.6685 -26.6682 -26.6680
   -19.5121 -19.5121 -19.4782 -19.4782 -19.4306 -19.4306 -19.4104 -19.4104
   -19.3958 -19.3958 -19.3839 -19.3839  -8.7690  -8.7646  -8.7503  -8.7451
    -8.7118  -8.6978  -8.6880  -8.6794  -8.6385  -8.6377  -8.6355  -8.6346
    -4.6712  -4.5897  -4.2121  -4.1765  -3.9436  -3.9340  -3.5344  -3.5199
    -3.4778  -3.4576  -3.3726  -3.3601   3.5286   3.5951   3.7577   3.7844
     4.1355   4.2017   4.4701   4.6012   4.6408   4.7133   4.7786   4.8684
     5.0688   5.1290   5.3191   5.4034   5.4908   5.5987   5.7402   5.8112
     5.8832   5.9823   6.0885   6.1543   6.3010   6.3874   6.5519   6.6203
     6.6823   6.8192   6.8960   6.9661   7.0638   7.1237   7.2446   7.3137
     9.0495   9.1184   9.3781   9.3997   9.9643  10.0230  10.1527  10.1772
    10.3116  10.4083  10.5367  10.5621  11.2794  11.4608  11.5622  11.6888
    11.7690  11.8866  12.0603  12.1106  12.2760  12.3143  12.4681  12.5048
    12.6789  12.7504  13.0627  13.0915

     occupation numbers 
     1.0000   1.0000   1.0000   1.0000   1.0000   1.0000   1.0000   1.0000
     1.0000   1.0000   1.0000   1.0000   1.0000   1.0000   1.0000   1.0000
     1.0000   1.0000   1.0000   1.0000   1.0000   1.0000   1.0000   1.0000
     1.0000   1.0000   1.0000   1.0000   1.0000   1.0000   1.0000   1.0000
     1.0000   1.0000   1.0000   1.0000   1.0000   1.0000   1.0000   1.0000
     1.0000   1.0000   1.0000   1.0000   1.0000   1.0000   1.0000   1.0000
     1.0000   1.0000   1.0000   1.0000   1.0000   1.0000   1.0000   1.0000
     1.0000   1.0000   1.0000   1.0000   1.0000   1.0000   1.0000   1.0000
     1.0000   1.0000   1.0000   1.0000   1.0000   1.0000   1.0000   1.0000
     1.0000   1.0000   1.0000   1.0000   1.0000   1.0000   1.0000   1.0000
     0.0000   0.0000   0.0000   0.0000   0.0000   0.0000   0.0000   0.0000
     0.0000   0.0000   0.0000   0.0000   0.0000   0.0000   0.0000   0.0000
     0.0000   0.0000   0.0000   0.0000   0.0000   0.0000   0.0000   0.0000
     0.0000   0.0000   0.0000   0.0000

          k = 0.1000 0.1777 0.0914 ( 18701 PWs)   bands (ev):

   -41.4254 -41.4254 -41.4212 -41.4212 -26.6687 -26.6686 -26.6682 -26.6681
   -19.5121 -19.5121 -19.4782 -19.4782 -19.4306 -19.4306 -19.4104 -19.4104
   -19.3958 -19.3958 -19.3839 -19.3839  -8.7667  -8.7635  -8.7519  -8.7485
    -8.7085  -8.7009  -8.6855  -8.6808  -8.6384  -8.6379  -8.6352  -8.6348
    -4.6518  -4.6036  -4.2209  -4.1975  -3.9276  -3.9216  -3.5397  -3.5325
    -3.4566  -3.4334  -3.3915  -3.3728   3.5441   3.5849   3.7337   3.7598
     4.1791   4.2215   4.5369   4.5942   4.6421   4.7355   4.7600   4.8192
     5.0286   5.0713   5.3168   5.3705   5.5384   5.5943   5.7398   5.8063
     5.9289   6.0036   6.1282   6.1958   6.3106   6.4119   6.4845   6.5672
     6.7051   6.7889   6.9138   6.9483   7.0355   7.0908   7.2827   7.3328
     9.0659   9.1060   9.3838   9.3968   9.9867  10.0315  10.1283  10.1611
    10.3569  10.4198  10.4961  10.5174  11.3276  11.4295  11.6623  11.7508
    11.7992  11.8510  12.0627  12.1110  12.2585  12.3024  12.4454  12.5006
    12.6869  12.7351  12.9695  13.0297

     occupation numbers 
     1.0000   1.0000   1.0000   1.0000   1.0000   1.0000   1.0000   1.0000
     1.0000   1.0000   1.0000   1.0000   1.0000   1.0000   1.0000   1.0000
     1.0000   1.0000   1.0000   1.0000   1.0000   1.0000   1.0000   1.0000
     1.0000   1.0000   1.0000   1.0000   1.0000   1.0000   1.0000   1.0000
     1.0000   1.0000   1.0000   1.0000   1.0000   1.0000   1.0000   1.0000
     1.0000   1.0000   1.0000   1.0000   1.0000   1.0000   1.0000   1.0000
     1.0000   1.0000   1.0000   1.0000   1.0000   1.0000   1.0000   1.0000
     1.0000   1.0000   1.0000   1.0000   1.0000   1.0000   1.0000   1.0000
     1.0000   1.0000   1.0000   1.0000   1.0000   1.0000   1.0000   1.0000
     1.0000   1.0000   1.0000   1.0000   1.0000   1.0000   1.0000   1.0000
     0.0000   0.0000   0.0000   0.0000   0.0000   0.0000   0.0000   0.0000
     0.0000   0.0000   0.0000   0.0000   0.0000   0.0000   0.0000   0.0000
     0.0000   0.0000   0.0000   0.0000   0.0000   0.0000   0.0000   0.0000
     0.0000   0.0000   0.0000   0.0000

          k = 0.1000 0.1777-0.1371 ( 18718 PWs)   bands (ev):

   -41.4254 -41.4254 -41.4212 -41.4212 -26.6686 -26.6686 -26.6681 -26.6681
   -19.5121 -19.5121 -19.4782 -19.4782 -19.4306 -19.4306 -19.4104 -19.4104
   -19.3958 -19.3958 -19.3839 -19.3839  -8.7641  -8.7641  -8.7515  -8.7515
    -8.7046  -8.7046  -8.6829  -8.6829  -8.6381  -8.6381  -8.6350  -8.6350
    -4.6264  -4.6264  -4.2161  -4.2161  -3.9179  -3.9179  -3.5396  -3.5396
    -3.4326  -3.4326  -3.3920  -3.3920   3.5659   3.5659   3.7349   3.7349
     4.2182   4.2182   4.5712   4.5712   4.7066   4.7066   4.7675   4.7675
     5.0268   5.0268   5.3377   5.3377   5.5695   5.5695   5.7759   5.7759
     5.9830   5.9830   6.1765   6.1765   6.3724   6.3724   6.4995   6.4995
     6.7454   6.7454   6.9264   6.9264   7.0527   7.0527   7.3208   7.3208
     9.0869   9.0869   9.3909   9.3909  10.0160  10.0160  10.1356  10.1356
    10.4116  10.4116  10.4764  10.4764  11.3832  11.3832  11.7574  11.7574
    11.8197  11.8197  12.0796  12.0796  12.2711  12.2711  12.4680  12.4680
    12.7081  12.7081  12.9715  12.9715

     occupation numbers 
     1.0000   1.0000   1.0000   1.0000   1.0000   1.0000   1.0000   1.0000
     1.0000   1.0000   1.0000   1.0000   1.0000   1.0000   1.0000   1.0000
     1.0000   1.0000   1.0000   1.0000   1.0000   1.0000   1.0000   1.0000
     1.0000   1.0000   1.0000   1.0000   1.0000   1.0000   1.0000   1.0000
     1.0000   1.0000   1.0000   1.0000   1.0000   1.0000   1.0000   1.0000
     1.0000   1.0000   1.0000   1.0000   1.0000   1.0000   1.0000   1.0000
     1.0000   1.0000   1.0000   1.0000   1.0000   1.0000   1.0000   1.0000
     1.0000   1.0000   1.0000   1.0000   1.0000   1.0000   1.0000   1.0000
     1.0000   1.0000   1.0000   1.0000   1.0000   1.0000   1.0000   1.0000
     1.0000   1.0000   1.0000   1.0000   1.0000   1.0000   1.0000   1.0000
     0.0000   0.0000   0.0000   0.0000   0.0000   0.0000   0.0000   0.0000
     0.0000   0.0000   0.0000   0.0000   0.0000   0.0000   0.0000   0.0000
     0.0000   0.0000   0.0000   0.0000   0.0000   0.0000   0.0000   0.0000
     0.0000   0.0000   0.0000   0.0000

          k = 0.1000-0.2221 0.0000 ( 18688 PWs)   bands (ev):

   -41.4254 -41.4254 -41.4212 -41.4212 -26.6685 -26.6685 -26.6683 -26.6683
   -19.5120 -19.5120 -19.4783 -19.4783 -19.4306 -19.4306 -19.4104 -19.4104
   -19.3958 -19.3958 -19.3839 -19.3839  -8.7680  -8.7680  -8.7465  -8.7465
    -8.7010  -8.7010  -8.6877  -8.6877  -8.6370  -8.6370  -8.6360  -8.6360
    -4.6215  -4.6215  -4.2036  -4.2036  -3.9509  -3.9509  -3.5054  -3.5053
    -3.4860  -3.4859  -3.3567  -3.3566   3.5395   3.5395   3.7728   3.7728
     4.1552   4.1552   4.5328   4.5328   4.7029   4.7029   4.8101   4.8101
     5.1648   5.1648   5.3509   5.3509   5.5564   5.5564   5.8026   5.8026
     5.8554   5.8554   6.0689   6.0689   6.3764   6.3764   6.6333   6.6334
     6.8353   6.8353   6.9432   6.9433   7.0377   7.0377   7.2053   7.2054
     9.1384   9.1385   9.3373   9.3373   9.9840   9.9840  10.1757  10.1757
    10.3480  10.3481  10.5762  10.5762  11.3765  11.3765  11.6823  11.6823
    11.7165  11.7165  12.0699  12.0700  12.3560  12.3560  12.4612  12.4612
    12.6906  12.6906  13.1341  13.1341

     occupation numbers 
     1.0000   1.0000   1.0000   1.0000   1.0000   1.0000   1.0000   1.0000
     1.0000   1.0000   1.0000   1.0000   1.0000   1.0000   1.0000   1.0000
     1.0000   1.0000   1.0000   1.0000   1.0000   1.0000   1.0000   1.0000
     1.0000   1.0000   1.0000   1.0000   1.0000   1.0000   1.0000   1.0000
     1.0000   1.0000   1.0000   1.0000   1.0000   1.0000   1.0000   1.0000
     1.0000   1.0000   1.0000   1.0000   1.0000   1.0000   1.0000   1.0000
     1.0000   1.0000   1.0000   1.0000   1.0000   1.0000   1.0000   1.0000
     1.0000   1.0000   1.0000   1.0000   1.0000   1.0000   1.0000   1.0000
     1.0000   1.0000   1.0000   1.0000   1.0000   1.0000   1.0000   1.0000
     1.0000   1.0000   1.0000   1.0000   1.0000   1.0000   1.0000   1.0000
     0.0000   0.0000   0.0000   0.0000   0.0000   0.0000   0.0000   0.0000
     0.0000   0.0000   0.0000   0.0000   0.0000   0.0000   0.0000   0.0000
     0.0000   0.0000   0.0000   0.0000   0.0000   0.0000   0.0000   0.0000
     0.0000   0.0000   0.0000   0.0000

          k = 0.1000-0.2221 0.0457 ( 18704 PWs)   bands (ev):

   -41.4254 -41.4254 -41.4212 -41.4212 -26.6685 -26.6685 -26.6683 -26.6683
   -19.5120 -19.5120 -19.4783 -19.4783 -19.4306 -19.4306 -19.4104 -19.4104
   -19.3958 -19.3958 -19.3839 -19.3839  -8.7672  -8.7672  -8.7477  -8.7476
    -8.7004  -8.7003  -8.6881  -8.6881  -8.6370  -8.6370  -8.6360  -8.6360
    -4.6187  -4.6187  -4.2135  -4.2135  -3.9429  -3.9429  -3.5153  -3.5153
    -3.4711  -3.4711  -3.3624  -3.3624   3.5416   3.5416   3.7591   3.7591
     4.1710   4.1710   4.5493   4.5493   4.7025   4.7025   4.8032   4.8032
     5.1350   5.1350   5.3451   5.3452   5.5580   5.5581   5.7854   5.7854
     5.8968   5.8969   6.0898   6.0898   6.3763   6.3763   6.6098   6.6098
     6.8426   6.8426   6.9374   6.9375   7.0047   7.0047   7.2333   7.2333
     9.1408   9.1409   9.3369   9.3369   9.9930   9.9930  10.1648  10.1648
    10.3578  10.3578  10.5582  10.5583  11.3995  11.3995  11.6866  11.6866
    11.7286  11.7286  12.0763  12.0763  12.3455  12.3455  12.4598  12.4599
    12.6813  12.6813  13.1151  13.1152

     occupation numbers 
     1.0000   1.0000   1.0000   1.0000   1.0000   1.0000   1.0000   1.0000
     1.0000   1.0000   1.0000   1.0000   1.0000   1.0000   1.0000   1.0000
     1.0000   1.0000   1.0000   1.0000   1.0000   1.0000   1.0000   1.0000
     1.0000   1.0000   1.0000   1.0000   1.0000   1.0000   1.0000   1.0000
     1.0000   1.0000   1.0000   1.0000   1.0000   1.0000   1.0000   1.0000
     1.0000   1.0000   1.0000   1.0000   1.0000   1.0000   1.0000   1.0000
     1.0000   1.0000   1.0000   1.0000   1.0000   1.0000   1.0000   1.0000
     1.0000   1.0000   1.0000   1.0000   1.0000   1.0000   1.0000   1.0000
     1.0000   1.0000   1.0000   1.0000   1.0000   1.0000   1.0000   1.0000
     1.0000   1.0000   1.0000   1.0000   1.0000   1.0000   1.0000   1.0000
     0.0000   0.0000   0.0000   0.0000   0.0000   0.0000   0.0000   0.0000
     0.0000   0.0000   0.0000   0.0000   0.0000   0.0000   0.0000   0.0000
     0.0000   0.0000   0.0000   0.0000   0.0000   0.0000   0.0000   0.0000
     0.0000   0.0000   0.0000   0.0000

          k = 0.1000-0.2221 0.0914 ( 18716 PWs)   bands (ev):

   -41.4254 -41.4254 -41.4212 -41.4212 -26.6685 -26.6685 -26.6683 -26.6683
   -19.5120 -19.5120 -19.4783 -19.4783 -19.4306 -19.4306 -19.4104 -19.4104
   -19.3958 -19.3958 -19.3839 -19.3839  -8.7652  -8.7652  -8.7502  -8.7502
    -8.6990  -8.6990  -8.6889  -8.6889  -8.6370  -8.6370  -8.6361  -8.6361
    -4.6130  -4.6130  -4.2321  -4.2321  -3.9282  -3.9282  -3.5255  -3.5255
    -3.4478  -3.4477  -3.3774  -3.3773   3.5474   3.5474   3.7309   3.7309
     4.2073   4.2073   4.5693   4.5693   4.7138   4.7139   4.7848   4.7848
     5.0978   5.0978   5.2968   5.2969   5.5903   5.5903   5.7592   5.7592
     5.9559   5.9559   6.1430   6.1431   6.3703   6.3703   6.5600   6.5600
     6.8563   6.8563   6.9197   6.9197   6.9614   6.9614   7.2720   7.2720
     9.1457   9.1457   9.3359   9.3359  10.0152  10.0152  10.1395  10.1395
    10.3848  10.3848  10.5151  10.5151  11.4467  11.4467  11.6805  11.6806
    11.7731  11.7732  12.0883  12.0883  12.3250  12.3250  12.4316  12.4317
    12.6964  12.6964  13.0441  13.0441

     occupation numbers 
     1.0000   1.0000   1.0000   1.0000   1.0000   1.0000   1.0000   1.0000
     1.0000   1.0000   1.0000   1.0000   1.0000   1.0000   1.0000   1.0000
     1.0000   1.0000   1.0000   1.0000   1.0000   1.0000   1.0000   1.0000
     1.0000   1.0000   1.0000   1.0000   1.0000   1.0000   1.0000   1.0000
     1.0000   1.0000   1.0000   1.0000   1.0000   1.0000   1.0000   1.0000
     1.0000   1.0000   1.0000   1.0000   1.0000   1.0000   1.0000   1.0000
     1.0000   1.0000   1.0000   1.0000   1.0000   1.0000   1.0000   1.0000
     1.0000   1.0000   1.0000   1.0000   1.0000   1.0000   1.0000   1.0000
     1.0000   1.0000   1.0000   1.0000   1.0000   1.0000   1.0000   1.0000
     1.0000   1.0000   1.0000   1.0000   1.0000   1.0000   1.0000   1.0000
     0.0000   0.0000   0.0000   0.0000   0.0000   0.0000   0.0000   0.0000
     0.0000   0.0000   0.0000   0.0000   0.0000   0.0000   0.0000   0.0000
     0.0000   0.0000   0.0000   0.0000   0.0000   0.0000   0.0000   0.0000
     0.0000   0.0000   0.0000   0.0000

          k = 0.1000-0.2221-0.1371 ( 18708 PWs)   bands (ev):

   -41.4254 -41.4254 -41.4212 -41.4212 -26.6685 -26.6685 -26.6683 -26.6683
   -19.5120 -19.5120 -19.4783 -19.4783 -19.4306 -19.4306 -19.4104 -19.4104
   -19.3958 -19.3958 -19.3839 -19.3839  -8.7640  -8.7640  -8.7518  -8.7518
    -8.6982  -8.6982  -8.6894  -8.6894  -8.6370  -8.6370  -8.6361  -8.6361
    -4.6100  -4.6100  -4.2410  -4.2410  -3.9214  -3.9214  -3.5292  -3.5292
    -3.4335  -3.4335  -3.3888  -3.3888   3.5513   3.5513   3.7163   3.7163
     4.2284   4.2284   4.5690   4.5690   4.7354   4.7354   4.7666   4.7666
     5.0882   5.0882   5.2630   5.2630   5.6140   5.6140   5.7437   5.7437
     5.9801   5.9801   6.1804   6.1804   6.3594   6.3594   6.5334   6.5334
     6.8805   6.8805   6.8830   6.8830   6.9539   6.9539   7.2872   7.2872
     9.1482   9.1482   9.3352   9.3352  10.0304  10.0304  10.1230  10.1230
    10.4085  10.4085  10.4834  10.4834  11.4716  11.4716  11.6736  11.6736
    11.8035  11.8035  12.0927  12.0927  12.3151  12.3151  12.4066  12.4066
    12.7208  12.7208  12.9956  12.9956

     occupation numbers 
     1.0000   1.0000   1.0000   1.0000   1.0000   1.0000   1.0000   1.0000
     1.0000   1.0000   1.0000   1.0000   1.0000   1.0000   1.0000   1.0000
     1.0000   1.0000   1.0000   1.0000   1.0000   1.0000   1.0000   1.0000
     1.0000   1.0000   1.0000   1.0000   1.0000   1.0000   1.0000   1.0000
     1.0000   1.0000   1.0000   1.0000   1.0000   1.0000   1.0000   1.0000
     1.0000   1.0000   1.0000   1.0000   1.0000   1.0000   1.0000   1.0000
     1.0000   1.0000   1.0000   1.0000   1.0000   1.0000   1.0000   1.0000
     1.0000   1.0000   1.0000   1.0000   1.0000   1.0000   1.0000   1.0000
     1.0000   1.0000   1.0000   1.0000   1.0000   1.0000   1.0000   1.0000
     1.0000   1.0000   1.0000   1.0000   1.0000   1.0000   1.0000   1.0000
     0.0000   0.0000   0.0000   0.0000   0.0000   0.0000   0.0000   0.0000
     0.0000   0.0000   0.0000   0.0000   0.0000   0.0000   0.0000   0.0000
     0.0000   0.0000   0.0000   0.0000   0.0000   0.0000   0.0000   0.0000
     0.0000   0.0000   0.0000   0.0000

          k = 0.1500 0.0000 0.0000 ( 18669 PWs)   bands (ev):

   -41.4247 -41.4247 -41.4207 -41.4207 -26.6670 -26.6668 -26.6654 -26.6653
   -19.5088 -19.5088 -19.4758 -19.4757 -19.4305 -19.4304 -19.4199 -19.4199
   -19.3996 -19.3996 -19.3961 -19.3961  -8.7523  -8.7493  -8.7488  -8.7381
    -8.7310  -8.7088  -8.6864  -8.6851  -8.6704  -8.6689  -8.6549  -8.6539
    -4.7444  -4.5398  -4.0325  -3.9914  -3.8548  -3.7652  -3.7100  -3.6886
    -3.5270  -3.4102  -3.4001  -3.3526   3.7677   3.8576   4.0269   4.0522
     4.0560   4.1913   4.2571   4.2991   4.4195   4.4284   4.6040   4.9900
     5.0844   5.3204   5.3401   5.4013   5.4650   5.5623   5.6483   5.6732
     5.7170   5.8448   5.8626   6.1886   6.1943   6.2705   6.3421   6.4234
     6.4400   6.6825   6.6859   6.8297   6.9876   7.2819   7.4501   7.4960
     8.9836   9.0830   9.7135   9.8005  10.1109  10.1254  10.1416  10.1715
    10.2085  10.4875  10.5100  10.5129  11.1150  11.3575  11.7389  11.7970
    11.8615  11.9496  12.0275  12.1787  12.3160  12.3163  12.4675  12.7005
    12.9111  12.9678  13.1237  13.2009

     occupation numbers 
     1.0000   1.0000   1.0000   1.0000   1.0000   1.0000   1.0000   1.0000
     1.0000   1.0000   1.0000   1.0000   1.0000   1.0000   1.0000   1.0000
     1.0000   1.0000   1.0000   1.0000   1.0000   1.0000   1.0000   1.0000
     1.0000   1.0000   1.0000   1.0000   1.0000   1.0000   1.0000   1.0000
     1.0000   1.0000   1.0000   1.0000   1.0000   1.0000   1.0000   1.0000
     1.0000   1.0000   1.0000   1.0000   1.0000   1.0000   1.0000   1.0000
     1.0000   1.0000   1.0000   1.0000   1.0000   1.0000   1.0000   1.0000
     1.0000   1.0000   1.0000   1.0000   1.0000   1.0000   1.0000   1.0000
     1.0000   1.0000   1.0000   1.0000   1.0000   1.0000   1.0000   1.0000
     1.0000   1.0000   1.0000   1.0000   1.0000   1.0000   1.0000   1.0000
     0.0000   0.0000   0.0000   0.0000   0.0000   0.0000   0.0000   0.0000
     0.0000   0.0000   0.0000   0.0000   0.0000   0.0000   0.0000   0.0000
     0.0000   0.0000   0.0000   0.0000   0.0000   0.0000   0.0000   0.0000
     0.0000   0.0000   0.0000   0.0000

          k = 0.1500 0.0000 0.0457 ( 18667 PWs)   bands (ev):

   -41.4247 -41.4247 -41.4207 -41.4207 -26.6670 -26.6668 -26.6654 -26.6653
   -19.5088 -19.5088 -19.4758 -19.4757 -19.4305 -19.4304 -19.4199 -19.4199
   -19.3996 -19.3996 -19.3961 -19.3961  -8.7520  -8.7493  -8.7485  -8.7401
    -8.7285  -8.7102  -8.6861  -8.6851  -8.6703  -8.6690  -8.6548  -8.6539
    -4.7333  -4.5575  -4.0259  -3.9922  -3.8478  -3.7700  -3.7080  -3.6889
    -3.5244  -3.4239  -3.3937  -3.3509   3.7707   3.8515   4.0336   4.0476
     4.0480   4.1711   4.2432   4.3528   4.4099   4.4632   4.5954   4.9723
     5.0905   5.2678   5.3654   5.4023   5.4583   5.5114   5.5883   5.7111
     5.7361   5.8453   5.9756   6.1779   6.1846   6.2530   6.3503   6.4275
     6.4618   6.6504   6.6698   6.9007   6.9217   7.2865   7.4534   7.4935
     8.9903   9.0757   9.7212   9.7961  10.0951  10.1082  10.1604  10.1813
    10.2214  10.4629  10.5053  10.5113  11.1326  11.3432  11.7372  11.7461
    11.8331  12.0081  12.0354  12.2427  12.2782  12.3670  12.4890  12.7084
    12.8757  12.9361  13.1405  13.1445

     occupation numbers 
     1.0000   1.0000   1.0000   1.0000   1.0000   1.0000   1.0000   1.0000
     1.0000   1.0000   1.0000   1.0000   1.0000   1.0000   1.0000   1.0000
     1.0000   1.0000   1.0000   1.0000   1.0000   1.0000   1.0000   1.0000
     1.0000   1.0000   1.0000   1.0000   1.0000   1.0000   1.0000   1.0000
     1.0000   1.0000   1.0000   1.0000   1.0000   1.0000   1.0000   1.0000
     1.0000   1.0000   1.0000   1.0000   1.0000   1.0000   1.0000   1.0000
     1.0000   1.0000   1.0000   1.0000   1.0000   1.0000   1.0000   1.0000
     1.0000   1.0000   1.0000   1.0000   1.0000   1.0000   1.0000   1.0000
     1.0000   1.0000   1.0000   1.0000   1.0000   1.0000   1.0000   1.0000
     1.0000   1.0000   1.0000   1.0000   1.0000   1.0000   1.0000   1.0000
     0.0000   0.0000   0.0000   0.0000   0.0000   0.0000   0.0000   0.0000
     0.0000   0.0000   0.0000   0.0000   0.0000   0.0000   0.0000   0.0000
     0.0000   0.0000   0.0000   0.0000   0.0000   0.0000   0.0000   0.0000
     0.0000   0.0000   0.0000   0.0000

          k = 0.1500 0.0000 0.0914 ( 18680 PWs)   bands (ev):

   -41.4247 -41.4247 -41.4207 -41.4207 -26.6669 -26.6669 -26.6654 -26.6653
   -19.5088 -19.5088 -19.4758 -19.4757 -19.4305 -19.4304 -19.4199 -19.4199
   -19.3996 -19.3996 -19.3961 -19.3961  -8.7510  -8.7494  -8.7477  -8.7433
    -8.7238  -8.7138  -8.6856  -8.6850  -8.6702  -8.6694  -8.6546  -8.6541
    -4.7016  -4.6015  -4.0125  -3.9951  -3.8290  -3.7841  -3.7029  -3.6912
    -3.5126  -3.4546  -3.3787  -3.3529   3.7828   3.8329   4.0343   4.0373
     4.0533   4.1257   4.2669   4.3649   4.4309   4.5638   4.5797   4.8890
     5.1087   5.1918   5.3888   5.4051   5.4423   5.4531   5.5731   5.6808
     5.8167   5.8485   6.1094   6.1412   6.1988   6.2566   6.3951   6.4064
     6.5011   6.5629   6.6694   6.7908   7.0356   7.2575   7.4621   7.4856
     9.0084   9.0570   9.7412   9.7839  10.0737  10.0812  10.1854  10.1920
    10.2630  10.4043  10.4975  10.5036  11.1800  11.3020  11.6752  11.6915
    11.8958  12.0166  12.0803  12.3133  12.3365  12.3616  12.5299  12.6708
    12.7912  12.9765  13.1118  13.1284

     occupation numbers 
     1.0000   1.0000   1.0000   1.0000   1.0000   1.0000   1.0000   1.0000
     1.0000   1.0000   1.0000   1.0000   1.0000   1.0000   1.0000   1.0000
     1.0000   1.0000   1.0000   1.0000   1.0000   1.0000   1.0000   1.0000
     1.0000   1.0000   1.0000   1.0000   1.0000   1.0000   1.0000   1.0000
     1.0000   1.0000   1.0000   1.0000   1.0000   1.0000   1.0000   1.0000
     1.0000   1.0000   1.0000   1.0000   1.0000   1.0000   1.0000   1.0000
     1.0000   1.0000   1.0000   1.0000   1.0000   1.0000   1.0000   1.0000
     1.0000   1.0000   1.0000   1.0000   1.0000   1.0000   1.0000   1.0000
     1.0000   1.0000   1.0000   1.0000   1.0000   1.0000   1.0000   1.0000
     1.0000   1.0000   1.0000   1.0000   1.0000   1.0000   1.0000   1.0000
     0.0000   0.0000   0.0000   0.0000   0.0000   0.0000   0.0000   0.0000
     0.0000   0.0000   0.0000   0.0000   0.0000   0.0000   0.0000   0.0000
     0.0000   0.0000   0.0000   0.0000   0.0000   0.0000   0.0000   0.0000
     0.0000   0.0000   0.0000   0.0000

          k = 0.1500 0.0000-0.1371 ( 18684 PWs)   bands (ev):

   -41.4247 -41.4247 -41.4207 -41.4207 -26.6669 -26.6669 -26.6654 -26.6654
   -19.5088 -19.5088 -19.4758 -19.4758 -19.4304 -19.4304 -19.4199 -19.4199
   -19.3996 -19.3996 -19.3961 -19.3961  -8.7500  -8.7500  -8.7460  -8.7460
    -8.7187  -8.7187  -8.6852  -8.6852  -8.6698  -8.6698  -8.6544  -8.6544
    -4.6545  -4.6545  -4.0014  -4.0014  -3.8053  -3.8053  -3.6963  -3.6963
    -3.4878  -3.4878  -3.3630  -3.3630   3.8061   3.8061   4.0302   4.0302
     4.0844   4.0844   4.3123   4.3123   4.5060   4.5060   4.7374   4.7374
     5.1402   5.1402   5.4054   5.4054   5.4308   5.4308   5.6223   5.6223
     5.8482   5.8482   6.1278   6.1278   6.2603   6.2603   6.4371   6.4371
     6.4835   6.4835   6.6976   6.6976   7.1678   7.1678   7.4739   7.4739
     9.0326   9.0326   9.7648   9.7648  10.0668  10.0668  10.1946  10.1946
    10.3308  10.3308  10.4967  10.4967  11.2424  11.2424  11.6584  11.6584
    11.9688  11.9688  12.2004  12.2004  12.3887  12.3887  12.5715  12.5715
    12.9071  12.9071  13.0954  13.0954

     occupation numbers 
     1.0000   1.0000   1.0000   1.0000   1.0000   1.0000   1.0000   1.0000
     1.0000   1.0000   1.0000   1.0000   1.0000   1.0000   1.0000   1.0000
     1.0000   1.0000   1.0000   1.0000   1.0000   1.0000   1.0000   1.0000
     1.0000   1.0000   1.0000   1.0000   1.0000   1.0000   1.0000   1.0000
     1.0000   1.0000   1.0000   1.0000   1.0000   1.0000   1.0000   1.0000
     1.0000   1.0000   1.0000   1.0000   1.0000   1.0000   1.0000   1.0000
     1.0000   1.0000   1.0000   1.0000   1.0000   1.0000   1.0000   1.0000
     1.0000   1.0000   1.0000   1.0000   1.0000   1.0000   1.0000   1.0000
     1.0000   1.0000   1.0000   1.0000   1.0000   1.0000   1.0000   1.0000
     1.0000   1.0000   1.0000   1.0000   1.0000   1.0000   1.0000   1.0000
     0.0000   0.0000   0.0000   0.0000   0.0000   0.0000   0.0000   0.0000
     0.0000   0.0000   0.0000   0.0000   0.0000   0.0000   0.0000   0.0000
     0.0000   0.0000   0.0000   0.0000   0.0000   0.0000   0.0000   0.0000
     0.0000   0.0000   0.0000   0.0000

          k = 0.1500 0.0444 0.0000 ( 18672 PWs)   bands (ev):

   -41.4247 -41.4247 -41.4207 -41.4207 -26.6669 -26.6668 -26.6655 -26.6653
   -19.5088 -19.5088 -19.4758 -19.4758 -19.4305 -19.4304 -19.4199 -19.4199
   -19.3996 -19.3996 -19.3961 -19.3961  -8.7553  -8.7493  -8.7472  -8.7351
    -8.7313  -8.7076  -8.6866  -8.6848  -8.6706  -8.6691  -8.6563  -8.6549
    -4.7346  -4.5353  -4.0351  -4.0029  -3.8912  -3.8065  -3.6676  -3.6536
    -3.5266  -3.4051  -3.4031  -3.3540   3.7373   3.8750   3.9518   4.0213
     4.1245   4.1698   4.2806   4.2851   4.4341   4.5089   4.6054   5.0105
     5.0553   5.2096   5.3279   5.4540   5.4976   5.5429   5.6412   5.6741
     5.7495   5.8793   5.8997   6.1169   6.2364   6.2364   6.3257   6.4420
     6.4666   6.6512   6.6822   6.8542   6.9855   7.2793   7.4559   7.4830
     9.0049   9.0964   9.7110   9.7901  10.0901  10.0932  10.1516  10.1551
    10.2285  10.4841  10.4975  10.5158  11.1447  11.3773  11.7179  11.7558
    11.7941  12.0118  12.0351  12.2046  12.3014  12.3473  12.4424  12.6675
    12.8777  12.9980  13.1142  13.2141

     occupation numbers 
     1.0000   1.0000   1.0000   1.0000   1.0000   1.0000   1.0000   1.0000
     1.0000   1.0000   1.0000   1.0000   1.0000   1.0000   1.0000   1.0000
     1.0000   1.0000   1.0000   1.0000   1.0000   1.0000   1.0000   1.0000
     1.0000   1.0000   1.0000   1.0000   1.0000   1.0000   1.0000   1.0000
     1.0000   1.0000   1.0000   1.0000   1.0000   1.0000   1.0000   1.0000
     1.0000   1.0000   1.0000   1.0000   1.0000   1.0000   1.0000   1.0000
     1.0000   1.0000   1.0000   1.0000   1.0000   1.0000   1.0000   1.0000
     1.0000   1.0000   1.0000   1.0000   1.0000   1.0000   1.0000   1.0000
     1.0000   1.0000   1.0000   1.0000   1.0000   1.0000   1.0000   1.0000
     1.0000   1.0000   1.0000   1.0000   1.0000   1.0000   1.0000   1.0000
     0.0000   0.0000   0.0000   0.0000   0.0000   0.0000   0.0000   0.0000
     0.0000   0.0000   0.0000   0.0000   0.0000   0.0000   0.0000   0.0000
     0.0000   0.0000   0.0000   0.0000   0.0000   0.0000   0.0000   0.0000
     0.0000   0.0000   0.0000   0.0000

          k = 0.1500 0.0444 0.0457 ( 18677 PWs)   bands (ev):

   -41.4247 -41.4247 -41.4207 -41.4207 -26.6669 -26.6668 -26.6655 -26.6653
   -19.5088 -19.5088 -19.4758 -19.4758 -19.4305 -19.4304 -19.4199 -19.4199
   -19.3996 -19.3996 -19.3961 -19.3961  -8.7548  -8.7493  -8.7471  -8.7381
    -8.7279  -8.7089  -8.6863  -8.6848  -8.6706  -8.6692  -8.6562  -8.6550
    -4.7236  -4.5523  -4.0308  -4.0034  -3.8830  -3.8099  -3.6671  -3.6544
    -3.5230  -3.4171  -3.3984  -3.3524   3.7416   3.8522   3.9706   4.0147
     4.1141   4.1665   4.2643   4.3295   4.4715   4.4942   4.6015   4.9874
     5.0599   5.1845   5.3339   5.4197   5.4905   5.5591   5.5885   5.6855
     5.7917   5.8793   5.9645   6.1268   6.1708   6.2678   6.3480   6.4220
     6.4914   6.6196   6.6784   6.9054   6.9375   7.2798   7.4561   7.4811
     9.0111   9.0900   9.7180   9.7861  10.0672  10.1060  10.1409  10.1805
    10.2315  10.4628  10.4940  10.5113  11.1628  11.3647  11.6820  11.7474
    11.8372  11.9998  12.0472  12.2227  12.3145  12.3689  12.4615  12.6785
    12.8671  12.9601  13.0918  13.1658

     occupation numbers 
     1.0000   1.0000   1.0000   1.0000   1.0000   1.0000   1.0000   1.0000
     1.0000   1.0000   1.0000   1.0000   1.0000   1.0000   1.0000   1.0000
     1.0000   1.0000   1.0000   1.0000   1.0000   1.0000   1.0000   1.0000
     1.0000   1.0000   1.0000   1.0000   1.0000   1.0000   1.0000   1.0000
     1.0000   1.0000   1.0000   1.0000   1.0000   1.0000   1.0000   1.0000
     1.0000   1.0000   1.0000   1.0000   1.0000   1.0000   1.0000   1.0000
     1.0000   1.0000   1.0000   1.0000   1.0000   1.0000   1.0000   1.0000
     1.0000   1.0000   1.0000   1.0000   1.0000   1.0000   1.0000   1.0000
     1.0000   1.0000   1.0000   1.0000   1.0000   1.0000   1.0000   1.0000
     1.0000   1.0000   1.0000   1.0000   1.0000   1.0000   1.0000   1.0000
     0.0000   0.0000   0.0000   0.0000   0.0000   0.0000   0.0000   0.0000
     0.0000   0.0000   0.0000   0.0000   0.0000   0.0000   0.0000   0.0000
     0.0000   0.0000   0.0000   0.0000   0.0000   0.0000   0.0000   0.0000
     0.0000   0.0000   0.0000   0.0000

          k = 0.1500 0.0444 0.0914 ( 18693 PWs)   bands (ev):

   -41.4247 -41.4247 -41.4207 -41.4207 -26.6669 -26.6668 -26.6654 -26.6653
   -19.5088 -19.5088 -19.4758 -19.4758 -19.4305 -19.4304 -19.4199 -19.4199
   -19.3996 -19.3996 -19.3961 -19.3961  -8.7533  -8.7499  -8.7463  -8.7418
    -8.7227  -8.7126  -8.6856  -8.6848  -8.6704  -8.6696  -8.6559  -8.6552
    -4.6925  -4.5949  -4.0215  -4.0063  -3.8624  -3.8206  -3.6653  -3.6574
    -3.5089  -3.4480  -3.3828  -3.3550   3.7556   3.8148   3.9937   4.0057
     4.0996   4.1414   4.2933   4.3684   4.4779   4.5409   4.6135   4.8958
     5.0711   5.1325   5.3466   5.3850   5.4854   5.5349   5.6027   5.6749
     5.8469   5.8786   6.0415   6.1111   6.1771   6.2695   6.3998   6.4178
     6.4994   6.5652   6.6771   6.8081   7.0409   7.2494   7.4584   7.4747
     9.0278   9.0731   9.7359   9.7749  10.0525  10.0826  10.1582  10.1947
    10.2652  10.4076  10.4889  10.5001  11.2106  11.3278  11.6480  11.7073
    11.9027  12.0022  12.0762  12.2880  12.3391  12.3674  12.4952  12.6678
    12.7805  12.9759  13.0544  13.1630

     occupation numbers 
     1.0000   1.0000   1.0000   1.0000   1.0000   1.0000   1.0000   1.0000
     1.0000   1.0000   1.0000   1.0000   1.0000   1.0000   1.0000   1.0000
     1.0000   1.0000   1.0000   1.0000   1.0000   1.0000   1.0000   1.0000
     1.0000   1.0000   1.0000   1.0000   1.0000   1.0000   1.0000   1.0000
     1.0000   1.0000   1.0000   1.0000   1.0000   1.0000   1.0000   1.0000
     1.0000   1.0000   1.0000   1.0000   1.0000   1.0000   1.0000   1.0000
     1.0000   1.0000   1.0000   1.0000   1.0000   1.0000   1.0000   1.0000
     1.0000   1.0000   1.0000   1.0000   1.0000   1.0000   1.0000   1.0000
     1.0000   1.0000   1.0000   1.0000   1.0000   1.0000   1.0000   1.0000
     1.0000   1.0000   1.0000   1.0000   1.0000   1.0000   1.0000   1.0000
     0.0000   0.0000   0.0000   0.0000   0.0000   0.0000   0.0000   0.0000
     0.0000   0.0000   0.0000   0.0000   0.0000   0.0000   0.0000   0.0000
     0.0000   0.0000   0.0000   0.0000   0.0000   0.0000   0.0000   0.0000
     0.0000   0.0000   0.0000   0.0000

          k = 0.1500 0.0444-0.1371 ( 18694 PWs)   bands (ev):

   -41.4247 -41.4247 -41.4207 -41.4207 -26.6669 -26.6669 -26.6654 -26.6654
   -19.5088 -19.5088 -19.4758 -19.4758 -19.4304 -19.4304 -19.4199 -19.4199
   -19.3996 -19.3996 -19.3961 -19.3961  -8.7514  -8.7514  -8.7446  -8.7446
    -8.7174  -8.7174  -8.6851  -8.6851  -8.6700  -8.6700  -8.6556  -8.6556
    -4.6465  -4.6465  -4.0125  -4.0125  -3.8389  -3.8389  -3.6617  -3.6617
    -3.4821  -3.4821  -3.3661  -3.3661   3.7807   3.7807   4.0021   4.0021
     4.1099   4.1099   4.3433   4.3433   4.5126   4.5126   4.7454   4.7454
     5.0935   5.0935   5.3628   5.3628   5.5103   5.5103   5.6367   5.6367
     5.8746   5.8746   6.0746   6.0746   6.2411   6.2411   6.4471   6.4471
     6.4948   6.4948   6.7150   6.7150   7.1643   7.1643   7.4654   7.4654
     9.0504   9.0504   9.7574   9.7574  10.0578  10.0578  10.1804  10.1804
    10.3350  10.3350  10.4905  10.4905  11.2720  11.2720  11.6585  11.6585
    11.9626  11.9626  12.1989  12.1989  12.3750  12.3750  12.5548  12.5548
    12.8774  12.8774  13.1068  13.1068

     occupation numbers 
     1.0000   1.0000   1.0000   1.0000   1.0000   1.0000   1.0000   1.0000
     1.0000   1.0000   1.0000   1.0000   1.0000   1.0000   1.0000   1.0000
     1.0000   1.0000   1.0000   1.0000   1.0000   1.0000   1.0000   1.0000
     1.0000   1.0000   1.0000   1.0000   1.0000   1.0000   1.0000   1.0000
     1.0000   1.0000   1.0000   1.0000   1.0000   1.0000   1.0000   1.0000
     1.0000   1.0000   1.0000   1.0000   1.0000   1.0000   1.0000   1.0000
     1.0000   1.0000   1.0000   1.0000   1.0000   1.0000   1.0000   1.0000
     1.0000   1.0000   1.0000   1.0000   1.0000   1.0000   1.0000   1.0000
     1.0000   1.0000   1.0000   1.0000   1.0000   1.0000   1.0000   1.0000
     1.0000   1.0000   1.0000   1.0000   1.0000   1.0000   1.0000   1.0000
     0.0000   0.0000   0.0000   0.0000   0.0000   0.0000   0.0000   0.0000
     0.0000   0.0000   0.0000   0.0000   0.0000   0.0000   0.0000   0.0000
     0.0000   0.0000   0.0000   0.0000   0.0000   0.0000   0.0000   0.0000
     0.0000   0.0000   0.0000   0.0000

          k = 0.1500 0.0888 0.0000 ( 18691 PWs)   bands (ev):

   -41.4247 -41.4247 -41.4207 -41.4207 -26.6668 -26.6667 -26.6656 -26.6654
   -19.5087 -19.5087 -19.4759 -19.4758 -19.4304 -19.4304 -19.4199 -19.4199
   -19.3996 -19.3996 -19.3961 -19.3961  -8.7584  -8.7509  -8.7452  -8.7324
    -8.7277  -8.7039  -8.6871  -8.6842  -8.6712  -8.6695  -8.6599  -8.6581
    -4.7059  -4.5241  -4.0470  -4.0456  -3.9304  -3.8683  -3.6053  -3.5989
    -3.5235  -3.4192  -3.3867  -3.3578   3.6889   3.8670   3.8877   3.9550
     4.1081   4.2380   4.2530   4.3628   4.4793   4.5971   4.6500   5.0005
     5.0528   5.0942   5.3231   5.4328   5.4755   5.5679   5.6148   5.6387
     5.8943   5.9088   6.0036   6.0465   6.1431   6.2001   6.3641   6.4647
     6.5411   6.5861   6.6818   6.8926   7.0000   7.2683   7.4387   7.4484
     9.0647   9.1366   9.6997   9.7579  10.0361  10.0385  10.1483  10.1492
    10.2421  10.4555  10.4939  10.5256  11.2255  11.4284  11.6420  11.6858
    11.7561  11.9762  12.1074  12.2499  12.2586  12.4197  12.4214  12.5784
    12.8304  13.0386  13.0478  13.2333

     occupation numbers 
     1.0000   1.0000   1.0000   1.0000   1.0000   1.0000   1.0000   1.0000
     1.0000   1.0000   1.0000   1.0000   1.0000   1.0000   1.0000   1.0000
     1.0000   1.0000   1.0000   1.0000   1.0000   1.0000   1.0000   1.0000
     1.0000   1.0000   1.0000   1.0000   1.0000   1.0000   1.0000   1.0000
     1.0000   1.0000   1.0000   1.0000   1.0000   1.0000   1.0000   1.0000
     1.0000   1.0000   1.0000   1.0000   1.0000   1.0000   1.0000   1.0000
     1.0000   1.0000   1.0000   1.0000   1.0000   1.0000   1.0000   1.0000
     1.0000   1.0000   1.0000   1.0000   1.0000   1.0000   1.0000   1.0000
     1.0000   1.0000   1.0000   1.0000   1.0000   1.0000   1.0000   1.0000
     1.0000   1.0000   1.0000   1.0000   1.0000   1.0000   1.0000   1.0000
     0.0000   0.0000   0.0000   0.0000   0.0000   0.0000   0.0000   0.0000
     0.0000   0.0000   0.0000   0.0000   0.0000   0.0000   0.0000   0.0000
     0.0000   0.0000   0.0000   0.0000   0.0000   0.0000   0.0000   0.0000
     0.0000   0.0000   0.0000   0.0000

          k = 0.1500 0.0888 0.0457 ( 18687 PWs)   bands (ev):

   -41.4247 -41.4247 -41.4207 -41.4207 -26.6668 -26.6667 -26.6656 -26.6654
   -19.5087 -19.5087 -19.4759 -19.4758 -19.4304 -19.4304 -19.4199 -19.4199
   -19.3996 -19.3996 -19.3961 -19.3961  -8.7577  -8.7508  -8.7453  -8.7356
    -8.7242  -8.7053  -8.6866  -8.6842  -8.6712  -8.6697  -8.6598  -8.6582
    -4.6956  -4.5389  -4.0561  -4.0377  -3.9221  -3.8686  -3.6064  -3.6017
    -3.5167  -3.4118  -3.4010  -3.3561   3.6935   3.8212   3.9196   3.9489
     4.1087   4.2412   4.2846   4.3583   4.5039   4.5968   4.6368   4.9919
     5.0263   5.0782   5.3255   5.3888   5.5127   5.5671   5.6067   5.6625
     5.9069   5.9210   5.9951   6.0736   6.0827   6.2686   6.3489   6.4500
     6.5331   6.5915   6.6860   6.9063   6.9870   7.2620   7.4355   7.4458
     9.0696   9.1322   9.7047   9.7550  10.0196  10.0631  10.1194  10.1773
    10.2411  10.4459  10.4850  10.5178  11.2435  11.4215  11.6127  11.7473
    11.7726  11.9778  12.0864  12.2167  12.2982  12.4045  12.4383  12.6020
    12.8450  13.0034  13.0210  13.1400

     occupation numbers 
     1.0000   1.0000   1.0000   1.0000   1.0000   1.0000   1.0000   1.0000
     1.0000   1.0000   1.0000   1.0000   1.0000   1.0000   1.0000   1.0000
     1.0000   1.0000   1.0000   1.0000   1.0000   1.0000   1.0000   1.0000
     1.0000   1.0000   1.0000   1.0000   1.0000   1.0000   1.0000   1.0000
     1.0000   1.0000   1.0000   1.0000   1.0000   1.0000   1.0000   1.0000
     1.0000   1.0000   1.0000   1.0000   1.0000   1.0000   1.0000   1.0000
     1.0000   1.0000   1.0000   1.0000   1.0000   1.0000   1.0000   1.0000
     1.0000   1.0000   1.0000   1.0000   1.0000   1.0000   1.0000   1.0000
     1.0000   1.0000   1.0000   1.0000   1.0000   1.0000   1.0000   1.0000
     1.0000   1.0000   1.0000   1.0000   1.0000   1.0000   1.0000   1.0000
     0.0000   0.0000   0.0000   0.0000   0.0000   0.0000   0.0000   0.0000
     0.0000   0.0000   0.0000   0.0000   0.0000   0.0000   0.0000   0.0000
     0.0000   0.0000   0.0000   0.0000   0.0000   0.0000   0.0000   0.0000
     0.0000   0.0000   0.0000   0.0000

          k = 0.1500 0.0888 0.0914 ( 18682 PWs)   bands (ev):

   -41.4247 -41.4247 -41.4207 -41.4207 -26.6668 -26.6667 -26.6655 -26.6655
   -19.5087 -19.5087 -19.4759 -19.4758 -19.4304 -19.4304 -19.4199 -19.4199
   -19.3996 -19.3996 -19.3961 -19.3961  -8.7558  -8.7513  -8.7450  -8.7397
    -8.7189  -8.7089  -8.6857  -8.6844  -8.6710  -8.6701  -8.6594  -8.6585
    -4.6665  -4.5768  -4.0571  -4.0401  -3.9019  -3.8718  -3.6087  -3.6069
    -3.4968  -3.4316  -3.3939  -3.3606   3.7081   3.7721   3.9242   3.9450
     4.1266   4.2199   4.3519   4.3833   4.5320   4.5718   4.6583   4.9055
     5.0070   5.0449   5.3310   5.3565   5.5249   5.6018   5.6277   5.6648
     5.9307   5.9367   5.9664   6.0280   6.1399   6.2842   6.3692   6.4652
     6.4943   6.5926   6.7045   6.8384   7.0570   7.2280   7.4310   7.4384
     9.0830   9.1197   9.7177   9.7466  10.0169  10.0655  10.1121  10.1784
    10.2727  10.4056  10.4781  10.4997  11.2905  11.3963  11.6175  11.7217
    11.8849  11.9731  12.0690  12.2431  12.3210  12.3620  12.4666  12.6419
    12.7696  12.9265  13.0278  13.1075

     occupation numbers 
     1.0000   1.0000   1.0000   1.0000   1.0000   1.0000   1.0000   1.0000
     1.0000   1.0000   1.0000   1.0000   1.0000   1.0000   1.0000   1.0000
     1.0000   1.0000   1.0000   1.0000   1.0000   1.0000   1.0000   1.0000
     1.0000   1.0000   1.0000   1.0000   1.0000   1.0000   1.0000   1.0000
     1.0000   1.0000   1.0000   1.0000   1.0000   1.0000   1.0000   1.0000
     1.0000   1.0000   1.0000   1.0000   1.0000   1.0000   1.0000   1.0000
     1.0000   1.0000   1.0000   1.0000   1.0000   1.0000   1.0000   1.0000
     1.0000   1.0000   1.0000   1.0000   1.0000   1.0000   1.0000   1.0000
     1.0000   1.0000   1.0000   1.0000   1.0000   1.0000   1.0000   1.0000
     1.0000   1.0000   1.0000   1.0000   1.0000   1.0000   1.0000   1.0000
     0.0000   0.0000   0.0000   0.0000   0.0000   0.0000   0.0000   0.0000
     0.0000   0.0000   0.0000   0.0000   0.0000   0.0000   0.0000   0.0000
     0.0000   0.0000   0.0000   0.0000   0.0000   0.0000   0.0000   0.0000
     0.0000   0.0000   0.0000   0.0000

          k = 0.1500 0.0888-0.1371 ( 18680 PWs)   bands (ev):

   -41.4247 -41.4247 -41.4207 -41.4207 -26.6668 -26.6668 -26.6655 -26.6655
   -19.5087 -19.5087 -19.4759 -19.4759 -19.4304 -19.4304 -19.4199 -19.4199
   -19.3996 -19.3996 -19.3961 -19.3961  -8.7533  -8.7533  -8.7430  -8.7430
    -8.7137  -8.7137  -8.6848  -8.6848  -8.6706  -8.6706  -8.6590  -8.6590
    -4.6238  -4.6238  -4.0496  -4.0496  -3.8825  -3.8825  -3.6096  -3.6096
    -3.4663  -3.4663  -3.3745  -3.3745   3.7340   3.7340   3.9313   3.9313
     4.1709   4.1709   4.4026   4.4026   4.5355   4.5355   4.7673   4.7673
     5.0179   5.0179   5.3396   5.3396   5.5715   5.5715   5.6558   5.6558
     5.9414   5.9414   5.9800   5.9800   6.2143   6.2143   6.4384   6.4384
     6.5372   6.5372   6.7560   6.7560   7.1544   7.1544   7.4318   7.4318
     9.1016   9.1016   9.7334   9.7334  10.0341  10.0341  10.1462  10.1462
    10.3402  10.3402  10.4839  10.4839  11.3486  11.3486  11.6631  11.6631
    11.9464  11.9464  12.1678  12.1678  12.3434  12.3434  12.5467  12.5467
    12.8178  12.8178  13.0780  13.0780

     occupation numbers 
     1.0000   1.0000   1.0000   1.0000   1.0000   1.0000   1.0000   1.0000
     1.0000   1.0000   1.0000   1.0000   1.0000   1.0000   1.0000   1.0000
     1.0000   1.0000   1.0000   1.0000   1.0000   1.0000   1.0000   1.0000
     1.0000   1.0000   1.0000   1.0000   1.0000   1.0000   1.0000   1.0000
     1.0000   1.0000   1.0000   1.0000   1.0000   1.0000   1.0000   1.0000
     1.0000   1.0000   1.0000   1.0000   1.0000   1.0000   1.0000   1.0000
     1.0000   1.0000   1.0000   1.0000   1.0000   1.0000   1.0000   1.0000
     1.0000   1.0000   1.0000   1.0000   1.0000   1.0000   1.0000   1.0000
     1.0000   1.0000   1.0000   1.0000   1.0000   1.0000   1.0000   1.0000
     1.0000   1.0000   1.0000   1.0000   1.0000   1.0000   1.0000   1.0000
     0.0000   0.0000   0.0000   0.0000   0.0000   0.0000   0.0000   0.0000
     0.0000   0.0000   0.0000   0.0000   0.0000   0.0000   0.0000   0.0000
     0.0000   0.0000   0.0000   0.0000   0.0000   0.0000   0.0000   0.0000
     0.0000   0.0000   0.0000   0.0000

          k = 0.1500 0.1333 0.0000 ( 18701 PWs)   bands (ev):

   -41.4247 -41.4247 -41.4207 -41.4207 -26.6667 -26.6665 -26.6658 -26.6656
   -19.5086 -19.5086 -19.4760 -19.4759 -19.4304 -19.4304 -19.4199 -19.4199
   -19.3996 -19.3996 -19.3961 -19.3961  -8.7599  -8.7532  -8.7432  -8.7341
    -8.7184  -8.6984  -8.6887  -8.6835  -8.6721  -8.6702  -8.6646  -8.6631
    -4.6615  -4.5144  -4.1081  -4.0715  -3.9447  -3.9160  -3.5643  -3.5418
    -3.5151  -3.4403  -3.3699  -3.3617   3.6535   3.7849   3.8790   3.8915
     4.1097   4.2190   4.3127   4.4740   4.5302   4.5822   4.7621   4.9825
     4.9949   5.1023   5.3376   5.3958   5.4343   5.5648   5.5987   5.6373
     5.8571   5.9551   6.0053   6.0278   6.1507   6.1555   6.4622   6.4762
     6.5831   6.6063   6.7178   6.9013   7.0531   7.2383   7.3596   7.3899
     9.1518   9.2003   9.6680   9.7014   9.9776   9.9932  10.1268  10.1546
    10.2447  10.4033  10.5163  10.5411  11.3251  11.4968  11.5636  11.6626
    11.7290  11.9391  12.0636  12.1954  12.3019  12.4732  12.4867  12.4954
    12.7901  12.8951  13.0611  13.2483

     occupation numbers 
     1.0000   1.0000   1.0000   1.0000   1.0000   1.0000   1.0000   1.0000
     1.0000   1.0000   1.0000   1.0000   1.0000   1.0000   1.0000   1.0000
     1.0000   1.0000   1.0000   1.0000   1.0000   1.0000   1.0000   1.0000
     1.0000   1.0000   1.0000   1.0000   1.0000   1.0000   1.0000   1.0000
     1.0000   1.0000   1.0000   1.0000   1.0000   1.0000   1.0000   1.0000
     1.0000   1.0000   1.0000   1.0000   1.0000   1.0000   1.0000   1.0000
     1.0000   1.0000   1.0000   1.0000   1.0000   1.0000   1.0000   1.0000
     1.0000   1.0000   1.0000   1.0000   1.0000   1.0000   1.0000   1.0000
     1.0000   1.0000   1.0000   1.0000   1.0000   1.0000   1.0000   1.0000
     1.0000   1.0000   1.0000   1.0000   1.0000   1.0000   1.0000   1.0000
     0.0000   0.0000   0.0000   0.0000   0.0000   0.0000   0.0000   0.0000
     0.0000   0.0000   0.0000   0.0000   0.0000   0.0000   0.0000   0.0000
     0.0000   0.0000   0.0000   0.0000   0.0000   0.0000   0.0000   0.0000
     0.0000   0.0000   0.0000   0.0000

          k = 0.1500 0.1333 0.0457 ( 18699 PWs)   bands (ev):

   -41.4247 -41.4247 -41.4207 -41.4207 -26.6667 -26.6665 -26.6657 -26.6656
   -19.5086 -19.5086 -19.4759 -19.4759 -19.4304 -19.4304 -19.4199 -19.4199
   -19.3996 -19.3996 -19.3961 -19.3961  -8.7591  -8.7529  -8.7436  -8.7358
    -8.7165  -8.6999  -8.6879  -8.6836  -8.6720  -8.6704  -8.6645  -8.6632
    -4.6525  -4.5250  -4.1134  -4.0752  -3.9371  -3.9111  -3.5658  -3.5508
    -3.5024  -3.4315  -3.3844  -3.3599   3.6576   3.7659   3.8653   3.8954
     4.1242   4.2312   4.3461   4.4580   4.5336   4.6064   4.7448   4.9504
     4.9954   5.0766   5.3354   5.3818   5.4404   5.5688   5.6194   5.6402
     5.8600   5.9413   6.0030   6.0374   6.1528   6.2093   6.3948   6.5069
     6.5648   6.6327   6.7218   6.8989   7.0508   7.2271   7.3590   7.3835
     9.1553   9.1981   9.6708   9.6996   9.9749  10.0130  10.1010  10.1646
    10.2498  10.3993  10.5049  10.5332  11.3433  11.5046  11.5661  11.7102
    11.7418  11.9391  12.0552  12.1815  12.3069  12.4268  12.4765  12.5430
    12.8038  12.8788  13.0441  13.1176

     occupation numbers 
     1.0000   1.0000   1.0000   1.0000   1.0000   1.0000   1.0000   1.0000
     1.0000   1.0000   1.0000   1.0000   1.0000   1.0000   1.0000   1.0000
     1.0000   1.0000   1.0000   1.0000   1.0000   1.0000   1.0000   1.0000
     1.0000   1.0000   1.0000   1.0000   1.0000   1.0000   1.0000   1.0000
     1.0000   1.0000   1.0000   1.0000   1.0000   1.0000   1.0000   1.0000
     1.0000   1.0000   1.0000   1.0000   1.0000   1.0000   1.0000   1.0000
     1.0000   1.0000   1.0000   1.0000   1.0000   1.0000   1.0000   1.0000
     1.0000   1.0000   1.0000   1.0000   1.0000   1.0000   1.0000   1.0000
     1.0000   1.0000   1.0000   1.0000   1.0000   1.0000   1.0000   1.0000
     1.0000   1.0000   1.0000   1.0000   1.0000   1.0000   1.0000   1.0000
     0.0000   0.0000   0.0000   0.0000   0.0000   0.0000   0.0000   0.0000
     0.0000   0.0000   0.0000   0.0000   0.0000   0.0000   0.0000   0.0000
     0.0000   0.0000   0.0000   0.0000   0.0000   0.0000   0.0000   0.0000
     0.0000   0.0000   0.0000   0.0000

          k = 0.1500 0.1333 0.0914 ( 18689 PWs)   bands (ev):

   -41.4247 -41.4247 -41.4207 -41.4207 -26.6666 -26.6665 -26.6657 -26.6656
   -19.5086 -19.5086 -19.4759 -19.4759 -19.4304 -19.4304 -19.4199 -19.4199
   -19.3996 -19.3996 -19.3961 -19.3961  -8.7570  -8.7527  -8.7441  -8.7394
    -8.7123  -8.7033  -8.6863  -8.6840  -8.6718  -8.6708  -8.6642  -8.6634
    -4.6273  -4.5535  -4.1164  -4.0897  -3.9198  -3.9044  -3.5684  -3.5622
    -3.4773  -3.4165  -3.4061  -3.3679   3.6709   3.7293   3.8522   3.8816
     4.1666   4.2486   4.4022   4.4560   4.5367   4.6465   4.7157   4.8786
     4.9857   5.0234   5.3311   5.3485   5.4854   5.5898   5.6157   5.6451
     5.8810   5.9249   6.0045   6.0429   6.1744   6.2925   6.3284   6.4865
     6.5737   6.6453   6.7501   6.8571   7.0795   7.1912   7.3582   7.3705
     9.1653   9.1909   9.6782   9.6947   9.9844  10.0416  10.0682  10.1504
    10.2824  10.3804  10.4887  10.5115  11.3904  11.4948  11.6046  11.7232
    11.8443  11.9434  12.0345  12.1550  12.3021  12.3741  12.4990  12.5980
    12.7669  12.8314  12.9990  13.0202

     occupation numbers 
     1.0000   1.0000   1.0000   1.0000   1.0000   1.0000   1.0000   1.0000
     1.0000   1.0000   1.0000   1.0000   1.0000   1.0000   1.0000   1.0000
     1.0000   1.0000   1.0000   1.0000   1.0000   1.0000   1.0000   1.0000
     1.0000   1.0000   1.0000   1.0000   1.0000   1.0000   1.0000   1.0000
     1.0000   1.0000   1.0000   1.0000   1.0000   1.0000   1.0000   1.0000
     1.0000   1.0000   1.0000   1.0000   1.0000   1.0000   1.0000   1.0000
     1.0000   1.0000   1.0000   1.0000   1.0000   1.0000   1.0000   1.0000
     1.0000   1.0000   1.0000   1.0000   1.0000   1.0000   1.0000   1.0000
     1.0000   1.0000   1.0000   1.0000   1.0000   1.0000   1.0000   1.0000
     1.0000   1.0000   1.0000   1.0000   1.0000   1.0000   1.0000   1.0000
     0.0000   0.0000   0.0000   0.0000   0.0000   0.0000   0.0000   0.0000
     0.0000   0.0000   0.0000   0.0000   0.0000   0.0000   0.0000   0.0000
     0.0000   0.0000   0.0000   0.0000   0.0000   0.0000   0.0000   0.0000
     0.0000   0.0000   0.0000   0.0000

          k = 0.1500 0.1333-0.1371 ( 18682 PWs)   bands (ev):

   -41.4247 -41.4247 -41.4207 -41.4207 -26.6666 -26.6666 -26.6657 -26.6657
   -19.5086 -19.5086 -19.4759 -19.4759 -19.4304 -19.4304 -19.4199 -19.4199
   -19.3996 -19.3996 -19.3961 -19.3961  -8.7543  -8.7543  -8.7426  -8.7426
    -8.7077  -8.7077  -8.6849  -8.6849  -8.6713  -8.6713  -8.6638  -8.6638
    -4.5913  -4.5913  -4.1071  -4.1071  -3.9063  -3.9063  -3.5681  -3.5681
    -3.4461  -3.4461  -3.3858  -3.3858   3.6952   3.6952   3.8595   3.8595
     4.2206   4.2206   4.4437   4.4437   4.5925   4.5925   4.7812   4.7812
     4.9903   4.9903   5.3321   5.3321   5.5499   5.5499   5.6300   5.6300
     5.9185   5.9185   6.0114   6.0114   6.2319   6.2319   6.4134   6.4134
     6.6183   6.6183   6.7971   6.7971   7.1358   7.1358   7.3611   7.3611
     9.1788   9.1788   9.6871   9.6871  10.0105  10.0105  10.1074  10.1074
    10.3366  10.3366  10.4911  10.4911  11.4486  11.4486  11.6743  11.6743
    11.9306  11.9306  12.0785  12.0785  12.3260  12.3260  12.5738  12.5738
    12.7575  12.7575  12.9909  12.9909

     occupation numbers 
     1.0000   1.0000   1.0000   1.0000   1.0000   1.0000   1.0000   1.0000
     1.0000   1.0000   1.0000   1.0000   1.0000   1.0000   1.0000   1.0000
     1.0000   1.0000   1.0000   1.0000   1.0000   1.0000   1.0000   1.0000
     1.0000   1.0000   1.0000   1.0000   1.0000   1.0000   1.0000   1.0000
     1.0000   1.0000   1.0000   1.0000   1.0000   1.0000   1.0000   1.0000
     1.0000   1.0000   1.0000   1.0000   1.0000   1.0000   1.0000   1.0000
     1.0000   1.0000   1.0000   1.0000   1.0000   1.0000   1.0000   1.0000
     1.0000   1.0000   1.0000   1.0000   1.0000   1.0000   1.0000   1.0000
     1.0000   1.0000   1.0000   1.0000   1.0000   1.0000   1.0000   1.0000
     1.0000   1.0000   1.0000   1.0000   1.0000   1.0000   1.0000   1.0000
     0.0000   0.0000   0.0000   0.0000   0.0000   0.0000   0.0000   0.0000
     0.0000   0.0000   0.0000   0.0000   0.0000   0.0000   0.0000   0.0000
     0.0000   0.0000   0.0000   0.0000   0.0000   0.0000   0.0000   0.0000
     0.0000   0.0000   0.0000   0.0000

          k = 0.1500 0.1777 0.0000 ( 18694 PWs)   bands (ev):

   -41.4247 -41.4247 -41.4207 -41.4207 -26.6664 -26.6663 -26.6660 -26.6658
   -19.5086 -19.5086 -19.4760 -19.4760 -19.4304 -19.4304 -19.4199 -19.4199
   -19.3996 -19.3996 -19.3961 -19.3961  -8.7597  -8.7558  -8.7410  -8.7362
    -8.7086  -8.6926  -8.6919  -8.6835  -8.6728  -8.6707  -8.6687  -8.6684
    -4.6076  -4.5214  -4.1470  -4.1115  -3.9490  -3.9400  -3.5310  -3.5092
    -3.5022  -3.4653  -3.3622  -3.3601   3.6432   3.7124   3.8576   3.8612
     4.1290   4.1873   4.3825   4.5032   4.5776   4.6207   4.8021   4.9046
     5.0629   5.0967   5.3545   5.3917   5.4256   5.5605   5.6020   5.6121
     5.7827   5.9187   5.9333   5.9546   6.1759   6.2297   6.4682   6.5130
     6.6977   6.7087   6.8066   6.8887   7.1128   7.1608   7.2771   7.2775
     9.2469   9.2729   9.6121   9.6275   9.9462   9.9619  10.1170  10.1485
    10.2584  10.3471  10.5434  10.5555  11.3886  11.4935  11.5915  11.7072
    11.7286  11.9096  11.9574  12.0710  12.3829  12.4636  12.5175  12.5888
    12.7058  12.7481  13.0688  13.1675

     occupation numbers 
     1.0000   1.0000   1.0000   1.0000   1.0000   1.0000   1.0000   1.0000
     1.0000   1.0000   1.0000   1.0000   1.0000   1.0000   1.0000   1.0000
     1.0000   1.0000   1.0000   1.0000   1.0000   1.0000   1.0000   1.0000
     1.0000   1.0000   1.0000   1.0000   1.0000   1.0000   1.0000   1.0000
     1.0000   1.0000   1.0000   1.0000   1.0000   1.0000   1.0000   1.0000
     1.0000   1.0000   1.0000   1.0000   1.0000   1.0000   1.0000   1.0000
     1.0000   1.0000   1.0000   1.0000   1.0000   1.0000   1.0000   1.0000
     1.0000   1.0000   1.0000   1.0000   1.0000   1.0000   1.0000   1.0000
     1.0000   1.0000   1.0000   1.0000   1.0000   1.0000   1.0000   1.0000
     1.0000   1.0000   1.0000   1.0000   1.0000   1.0000   1.0000   1.0000
     0.0000   0.0000   0.0000   0.0000   0.0000   0.0000   0.0000   0.0000
     0.0000   0.0000   0.0000   0.0000   0.0000   0.0000   0.0000   0.0000
     0.0000   0.0000   0.0000   0.0000   0.0000   0.0000   0.0000   0.0000
     0.0000   0.0000   0.0000   0.0000

          k = 0.1500 0.1777 0.0457 ( 18700 PWs)   bands (ev):

   -41.4247 -41.4247 -41.4207 -41.4207 -26.6664 -26.6663 -26.6660 -26.6658
   -19.5086 -19.5086 -19.4760 -19.4760 -19.4304 -19.4304 -19.4199 -19.4199
   -19.3996 -19.3996 -19.3961 -19.3961  -8.7589  -8.7553  -8.7417  -8.7375
    -8.7074  -8.6946  -8.6901  -8.6838  -8.6727  -8.6708  -8.6686  -8.6684
    -4.6009  -4.5254  -4.1547  -4.1210  -3.9414  -3.9321  -3.5348  -3.5231
    -3.4847  -3.4537  -3.3731  -3.3618   3.6458   3.7063   3.8356   3.8570
     4.1498   4.2045   4.4049   4.5045   4.5731   4.6407   4.7895   4.8847
     5.0510   5.0874   5.3469   5.3831   5.4032   5.5543   5.5901   5.6135
     5.8088   5.9151   5.9522   5.9965   6.1904   6.2398   6.4237   6.5164
     6.7001   6.7340   6.7970   6.8851   7.0997   7.1492   7.2683   7.2841
     9.2495   9.2727   9.6133   9.6266   9.9524   9.9782  10.0968  10.1425
    10.2680  10.3477  10.5315  10.5470  11.4172  11.5214  11.6065  11.7118
    11.7514  11.8989  11.9727  12.0624  12.3739  12.4488  12.5308  12.5674
    12.6988  12.7439  13.0589  13.1095

     occupation numbers 
     1.0000   1.0000   1.0000   1.0000   1.0000   1.0000   1.0000   1.0000
     1.0000   1.0000   1.0000   1.0000   1.0000   1.0000   1.0000   1.0000
     1.0000   1.0000   1.0000   1.0000   1.0000   1.0000   1.0000   1.0000
     1.0000   1.0000   1.0000   1.0000   1.0000   1.0000   1.0000   1.0000
     1.0000   1.0000   1.0000   1.0000   1.0000   1.0000   1.0000   1.0000
     1.0000   1.0000   1.0000   1.0000   1.0000   1.0000   1.0000   1.0000
     1.0000   1.0000   1.0000   1.0000   1.0000   1.0000   1.0000   1.0000
     1.0000   1.0000   1.0000   1.0000   1.0000   1.0000   1.0000   1.0000
     1.0000   1.0000   1.0000   1.0000   1.0000   1.0000   1.0000   1.0000
     1.0000   1.0000   1.0000   1.0000   1.0000   1.0000   1.0000   1.0000
     0.0000   0.0000   0.0000   0.0000   0.0000   0.0000   0.0000   0.0000
     0.0000   0.0000   0.0000   0.0000   0.0000   0.0000   0.0000   0.0000
     0.0000   0.0000   0.0000   0.0000   0.0000   0.0000   0.0000   0.0000
     0.0000   0.0000   0.0000   0.0000

          k = 0.1500 0.1777 0.0914 ( 18708 PWs)   bands (ev):

   -41.4247 -41.4247 -41.4207 -41.4207 -26.6664 -26.6663 -26.6659 -26.6658
   -19.5086 -19.5086 -19.4760 -19.4760 -19.4304 -19.4304 -19.4199 -19.4199
   -19.3996 -19.3996 -19.3961 -19.3961  -8.7568  -8.7542  -8.7432  -8.7404
    -8.7044  -8.6975  -8.6881  -8.6847  -8.6724  -8.6713  -8.6685  -8.6683
    -4.5828  -4.5382  -4.1645  -4.1424  -3.9257  -3.9197  -3.5402  -3.5352
    -3.4591  -3.4307  -3.3936  -3.3745   3.6553   3.6919   3.8093   3.8314
     4.2003   4.2419   4.4338   4.4883   4.6018   4.6885   4.7514   4.8326
     5.0322   5.0593   5.3302   5.3424   5.4185   5.5209   5.5729   5.5983
     5.8884   5.9264   5.9857   6.0454   6.2108   6.2665   6.3729   6.4816
     6.7230   6.7592   6.7994   6.8624   7.0812   7.1175   7.2674   7.2817
     9.2563   9.2705   9.6164   9.6240   9.9740  10.0174  10.0546  10.1154
    10.2956  10.3458  10.5105  10.5241  11.4838  11.5709  11.6340  11.7099
    11.8265  11.9078  11.9814  12.0281  12.3470  12.3996  12.5403  12.5745
    12.7041  12.7296  12.9689  13.0009

     occupation numbers 
     1.0000   1.0000   1.0000   1.0000   1.0000   1.0000   1.0000   1.0000
     1.0000   1.0000   1.0000   1.0000   1.0000   1.0000   1.0000   1.0000
     1.0000   1.0000   1.0000   1.0000   1.0000   1.0000   1.0000   1.0000
     1.0000   1.0000   1.0000   1.0000   1.0000   1.0000   1.0000   1.0000
     1.0000   1.0000   1.0000   1.0000   1.0000   1.0000   1.0000   1.0000
     1.0000   1.0000   1.0000   1.0000   1.0000   1.0000   1.0000   1.0000
     1.0000   1.0000   1.0000   1.0000   1.0000   1.0000   1.0000   1.0000
     1.0000   1.0000   1.0000   1.0000   1.0000   1.0000   1.0000   1.0000
     1.0000   1.0000   1.0000   1.0000   1.0000   1.0000   1.0000   1.0000
     1.0000   1.0000   1.0000   1.0000   1.0000   1.0000   1.0000   1.0000
     0.0000   0.0000   0.0000   0.0000   0.0000   0.0000   0.0000   0.0000
     0.0000   0.0000   0.0000   0.0000   0.0000   0.0000   0.0000   0.0000
     0.0000   0.0000   0.0000   0.0000   0.0000   0.0000   0.0000   0.0000
     0.0000   0.0000   0.0000   0.0000

          k = 0.1500 0.1777-0.1371 ( 18688 PWs)   bands (ev):

   -41.4247 -41.4247 -41.4207 -41.4207 -26.6664 -26.6664 -26.6659 -26.6659
   -19.5086 -19.5086 -19.4760 -19.4760 -19.4304 -19.4304 -19.4199 -19.4199
   -19.3996 -19.3996 -19.3961 -19.3961  -8.7546  -8.7546  -8.7430  -8.7430
    -8.7009  -8.7009  -8.6862  -8.6862  -8.6719  -8.6719  -8.6684  -8.6684
    -4.5592  -4.5592  -4.1606  -4.1606  -3.9163  -3.9163  -3.5409  -3.5409
    -3.4316  -3.4316  -3.3947  -3.3947   3.6727   3.6727   3.8078   3.8078
     4.2466   4.2466   4.4548   4.4548   4.6737   4.6737   4.7654   4.7654
     5.0329   5.0329   5.3255   5.3255   5.4607   5.4607   5.5817   5.5817
     5.9361   5.9361   6.0281   6.0281   6.2423   6.2423   6.4138   6.4138
     6.7525   6.7525   6.8266   6.8266   7.0868   7.0868   7.2738   7.2738
     9.2646   9.2646   9.6203   9.6203  10.0092  10.0092  10.0691  10.0691
    10.3287  10.3287  10.5052  10.5052  11.5502  11.5502  11.6818  11.6818
    11.9199  11.9199  11.9719  11.9719  12.3489  12.3489  12.5632  12.5632
    12.7296  12.7296  12.9176  12.9176

     occupation numbers 
     1.0000   1.0000   1.0000   1.0000   1.0000   1.0000   1.0000   1.0000
     1.0000   1.0000   1.0000   1.0000   1.0000   1.0000   1.0000   1.0000
     1.0000   1.0000   1.0000   1.0000   1.0000   1.0000   1.0000   1.0000
     1.0000   1.0000   1.0000   1.0000   1.0000   1.0000   1.0000   1.0000
     1.0000   1.0000   1.0000   1.0000   1.0000   1.0000   1.0000   1.0000
     1.0000   1.0000   1.0000   1.0000   1.0000   1.0000   1.0000   1.0000
     1.0000   1.0000   1.0000   1.0000   1.0000   1.0000   1.0000   1.0000
     1.0000   1.0000   1.0000   1.0000   1.0000   1.0000   1.0000   1.0000
     1.0000   1.0000   1.0000   1.0000   1.0000   1.0000   1.0000   1.0000
     1.0000   1.0000   1.0000   1.0000   1.0000   1.0000   1.0000   1.0000
     0.0000   0.0000   0.0000   0.0000   0.0000   0.0000   0.0000   0.0000
     0.0000   0.0000   0.0000   0.0000   0.0000   0.0000   0.0000   0.0000
     0.0000   0.0000   0.0000   0.0000   0.0000   0.0000   0.0000   0.0000
     0.0000   0.0000   0.0000   0.0000

          k = 0.1500-0.2221 0.0000 ( 18730 PWs)   bands (ev):

   -41.4247 -41.4247 -41.4207 -41.4207 -26.6662 -26.6662 -26.6660 -26.6660
   -19.5086 -19.5086 -19.4760 -19.4760 -19.4304 -19.4304 -19.4199 -19.4199
   -19.3996 -19.3996 -19.3961 -19.3961  -8.7582  -8.7582  -8.7386  -8.7385
    -8.6995  -8.6995  -8.6862  -8.6862  -8.6722  -8.6722  -8.6704  -8.6704
    -4.5555  -4.5554  -4.1449  -4.1449  -3.9483  -3.9483  -3.5072  -3.5071
    -3.4878  -3.4877  -3.3593  -3.3593   3.6629   3.6629   3.8501   3.8502
     4.1568   4.1568   4.4469   4.4469   4.6330   4.6331   4.8410   4.8410
     5.0905   5.0905   5.3913   5.3913   5.4758   5.4758   5.6038   5.6038
     5.8162   5.8163   5.9253   5.9254   6.2148   6.2149   6.4964   6.4964
     6.7744   6.7744   6.8917   6.8917   7.0996   7.0996   7.2268   7.2268
     9.3051   9.3051   9.5799   9.5799   9.9442   9.9443  10.1293  10.1293
    10.2954  10.2954  10.5584  10.5584  11.4334  11.4334  11.6752  11.6753
    11.8543  11.8543  11.9306  11.9306  12.4791  12.4791  12.5405  12.5405
    12.6840  12.6840  13.0959  13.0959

     occupation numbers 
     1.0000   1.0000   1.0000   1.0000   1.0000   1.0000   1.0000   1.0000
     1.0000   1.0000   1.0000   1.0000   1.0000   1.0000   1.0000   1.0000
     1.0000   1.0000   1.0000   1.0000   1.0000   1.0000   1.0000   1.0000
     1.0000   1.0000   1.0000   1.0000   1.0000   1.0000   1.0000   1.0000
     1.0000   1.0000   1.0000   1.0000   1.0000   1.0000   1.0000   1.0000
     1.0000   1.0000   1.0000   1.0000   1.0000   1.0000   1.0000   1.0000
     1.0000   1.0000   1.0000   1.0000   1.0000   1.0000   1.0000   1.0000
     1.0000   1.0000   1.0000   1.0000   1.0000   1.0000   1.0000   1.0000
     1.0000   1.0000   1.0000   1.0000   1.0000   1.0000   1.0000   1.0000
     1.0000   1.0000   1.0000   1.0000   1.0000   1.0000   1.0000   1.0000
     0.0000   0.0000   0.0000   0.0000   0.0000   0.0000   0.0000   0.0000
     0.0000   0.0000   0.0000   0.0000   0.0000   0.0000   0.0000   0.0000
     0.0000   0.0000   0.0000   0.0000   0.0000   0.0000   0.0000   0.0000
     0.0000   0.0000   0.0000   0.0000

          k = 0.1500-0.2221 0.0457 ( 18706 PWs)   bands (ev):

   -41.4247 -41.4247 -41.4207 -41.4207 -26.6662 -26.6662 -26.6660 -26.6660
   -19.5086 -19.5086 -19.4760 -19.4760 -19.4304 -19.4304 -19.4199 -19.4199
   -19.3996 -19.3996 -19.3961 -19.3961  -8.7575  -8.7575  -8.7396  -8.7396
    -8.6989  -8.6989  -8.6866  -8.6866  -8.6721  -8.6721  -8.6705  -8.6705
    -4.5529  -4.5529  -4.1552  -4.1552  -3.9401  -3.9401  -3.5174  -3.5173
    -3.4718  -3.4718  -3.3655  -3.3654   3.6625   3.6625   3.8350   3.8350
     4.1772   4.1772   4.4585   4.4585   4.6396   4.6397   4.8279   4.8279
     5.0857   5.0857   5.3696   5.3697   5.4607   5.4607   5.5851   5.5851
     5.8648   5.8648   5.9407   5.9408   6.2241   6.2241   6.4775   6.4775
     6.7896   6.7896   6.8860   6.8861   7.0769   7.0769   7.2315   7.2315
     9.3066   9.3066   9.5798   9.5798   9.9563   9.9564  10.1152  10.1152
    10.3016  10.3016  10.5480  10.5480  11.4693  11.4693  11.6819  11.6820
    11.8616  11.8616  11.9326  11.9326  12.4579  12.4579  12.5573  12.5574
    12.6603  12.6603  13.0774  13.0774

     occupation numbers 
     1.0000   1.0000   1.0000   1.0000   1.0000   1.0000   1.0000   1.0000
     1.0000   1.0000   1.0000   1.0000   1.0000   1.0000   1.0000   1.0000
     1.0000   1.0000   1.0000   1.0000   1.0000   1.0000   1.0000   1.0000
     1.0000   1.0000   1.0000   1.0000   1.0000   1.0000   1.0000   1.0000
     1.0000   1.0000   1.0000   1.0000   1.0000   1.0000   1.0000   1.0000
     1.0000   1.0000   1.0000   1.0000   1.0000   1.0000   1.0000   1.0000
     1.0000   1.0000   1.0000   1.0000   1.0000   1.0000   1.0000   1.0000
     1.0000   1.0000   1.0000   1.0000   1.0000   1.0000   1.0000   1.0000
     1.0000   1.0000   1.0000   1.0000   1.0000   1.0000   1.0000   1.0000
     1.0000   1.0000   1.0000   1.0000   1.0000   1.0000   1.0000   1.0000
     0.0000   0.0000   0.0000   0.0000   0.0000   0.0000   0.0000   0.0000
     0.0000   0.0000   0.0000   0.0000   0.0000   0.0000   0.0000   0.0000
     0.0000   0.0000   0.0000   0.0000   0.0000   0.0000   0.0000   0.0000
     0.0000   0.0000   0.0000   0.0000

          k = 0.1500-0.2221 0.0914 ( 18694 PWs)   bands (ev):

   -41.4247 -41.4247 -41.4207 -41.4207 -26.6662 -26.6662 -26.6660 -26.6660
   -19.5086 -19.5086 -19.4760 -19.4760 -19.4304 -19.4304 -19.4199 -19.4199
   -19.3996 -19.3996 -19.3961 -19.3961  -8.7558  -8.7557  -8.7419  -8.7418
    -8.6975  -8.6975  -8.6875  -8.6875  -8.6718  -8.6718  -8.6706  -8.6706
    -4.5476  -4.5476  -4.1741  -4.1741  -3.9256  -3.9256  -3.5274  -3.5274
    -3.4461  -3.4460  -3.3820  -3.3819   3.6639   3.6639   3.8045   3.8046
     4.2248   4.2248   4.4643   4.4643   4.6732   4.6733   4.7898   4.7899
     5.0790   5.0790   5.3229   5.3229   5.4360   5.4360   5.5638   5.5638
     5.9303   5.9303   5.9930   5.9930   6.2344   6.2344   6.4401   6.4402
     6.8147   6.8147   6.8841   6.8841   7.0289   7.0289   7.2367   7.2367
     9.3096   9.3096   9.5794   9.5794   9.9888   9.9888  10.0790  10.0790
    10.3161  10.3162  10.5250  10.5250  11.5519  11.5520  11.6888  11.6888
    11.8766  11.8767  11.9403  11.9403  12.4120  12.4120  12.5443  12.5443
    12.6761  12.6761  12.9829  12.9829

     occupation numbers 
     1.0000   1.0000   1.0000   1.0000   1.0000   1.0000   1.0000   1.0000
     1.0000   1.0000   1.0000   1.0000   1.0000   1.0000   1.0000   1.0000
     1.0000   1.0000   1.0000   1.0000   1.0000   1.0000   1.0000   1.0000
     1.0000   1.0000   1.0000   1.0000   1.0000   1.0000   1.0000   1.0000
     1.0000   1.0000   1.0000   1.0000   1.0000   1.0000   1.0000   1.0000
     1.0000   1.0000   1.0000   1.0000   1.0000   1.0000   1.0000   1.0000
     1.0000   1.0000   1.0000   1.0000   1.0000   1.0000   1.0000   1.0000
     1.0000   1.0000   1.0000   1.0000   1.0000   1.0000   1.0000   1.0000
     1.0000   1.0000   1.0000   1.0000   1.0000   1.0000   1.0000   1.0000
     1.0000   1.0000   1.0000   1.0000   1.0000   1.0000   1.0000   1.0000
     0.0000   0.0000   0.0000   0.0000   0.0000   0.0000   0.0000   0.0000
     0.0000   0.0000   0.0000   0.0000   0.0000   0.0000   0.0000   0.0000
     0.0000   0.0000   0.0000   0.0000   0.0000   0.0000   0.0000   0.0000
     0.0000   0.0000   0.0000   0.0000

          k = 0.1500-0.2221-0.1371 ( 18720 PWs)   bands (ev):

   -41.4247 -41.4247 -41.4207 -41.4207 -26.6662 -26.6662 -26.6660 -26.6660
   -19.5086 -19.5086 -19.4760 -19.4760 -19.4304 -19.4304 -19.4199 -19.4199
   -19.3996 -19.3996 -19.3961 -19.3961  -8.7547  -8.7547  -8.7432  -8.7432
    -8.6968  -8.6968  -8.6881  -8.6881  -8.6717  -8.6717  -8.6707  -8.6707
    -4.5448  -4.5448  -4.1830  -4.1830  -3.9191  -3.9191  -3.5310  -3.5310
    -3.4282  -3.4282  -3.3967  -3.3967   3.6659   3.6659   3.7888   3.7888
     4.2541   4.2541   4.4559   4.4559   4.7328   4.7328   4.7330   4.7330
     5.0773   5.0773   5.2975   5.2975   5.4265   5.4265   5.5563   5.5563
     5.9466   5.9466   6.0400   6.0400   6.2294   6.2294   6.4223   6.4223
     6.8243   6.8243   6.8911   6.8911   7.0005   7.0005   7.2379   7.2379
     9.3111   9.3111   9.5792   9.5792  10.0322  10.0322  10.0339  10.0339
    10.3251  10.3251  10.5119  10.5119  11.6071  11.6071  11.6808  11.6808
    11.8851  11.8851  11.9463  11.9463  12.3858  12.3858  12.5155  12.5155
    12.7353  12.7353  12.8940  12.8940

     occupation numbers 
     1.0000   1.0000   1.0000   1.0000   1.0000   1.0000   1.0000   1.0000
     1.0000   1.0000   1.0000   1.0000   1.0000   1.0000   1.0000   1.0000
     1.0000   1.0000   1.0000   1.0000   1.0000   1.0000   1.0000   1.0000
     1.0000   1.0000   1.0000   1.0000   1.0000   1.0000   1.0000   1.0000
     1.0000   1.0000   1.0000   1.0000   1.0000   1.0000   1.0000   1.0000
     1.0000   1.0000   1.0000   1.0000   1.0000   1.0000   1.0000   1.0000
     1.0000   1.0000   1.0000   1.0000   1.0000   1.0000   1.0000   1.0000
     1.0000   1.0000   1.0000   1.0000   1.0000   1.0000   1.0000   1.0000
     1.0000   1.0000   1.0000   1.0000   1.0000   1.0000   1.0000   1.0000
     1.0000   1.0000   1.0000   1.0000   1.0000   1.0000   1.0000   1.0000
     0.0000   0.0000   0.0000   0.0000   0.0000   0.0000   0.0000   0.0000
     0.0000   0.0000   0.0000   0.0000   0.0000   0.0000   0.0000   0.0000
     0.0000   0.0000   0.0000   0.0000   0.0000   0.0000   0.0000   0.0000
     0.0000   0.0000   0.0000   0.0000

          k = 0.2000 0.0000 0.0000 ( 18676 PWs)   bands (ev):

   -41.4238 -41.4238 -41.4202 -41.4202 -26.6641 -26.6640 -26.6626 -26.6625
   -19.5045 -19.5045 -19.4734 -19.4734 -19.4342 -19.4342 -19.4323 -19.4323
   -19.4090 -19.4090 -19.4017 -19.4017  -8.7425  -8.7406  -8.7400  -8.7385
    -8.7372  -8.7281  -8.7180  -8.7171  -8.7106  -8.7002  -8.6480  -8.6470
    -4.6353  -4.4479  -3.9876  -3.9525  -3.8654  -3.7844  -3.7116  -3.6885
    -3.4929  -3.3991  -3.3751  -3.3606   3.8132   3.8698   4.0311   4.0993
     4.1036   4.1163   4.3328   4.3368   4.3905   4.4111   4.5286   5.0033
     5.0914   5.1882   5.3185   5.4302   5.4456   5.4819   5.5003   5.6197
     5.8048   5.8192   5.8234   5.9658   5.9849   6.0820   6.1877   6.4216
     6.4773   6.5150   6.5464   6.8425   6.8516   7.1321   7.2107   7.3538
     9.2355   9.2716   9.7731   9.9148  10.0924  10.1260  10.1476  10.2987
    10.3277  10.3756  10.4873  10.5539  11.4021  11.5702  11.8470  11.8662
    11.9071  11.9345  11.9775  12.1184  12.2696  12.3491  12.5748  12.9036
    13.0570  13.1518  13.2283  13.3854

     occupation numbers 
     1.0000   1.0000   1.0000   1.0000   1.0000   1.0000   1.0000   1.0000
     1.0000   1.0000   1.0000   1.0000   1.0000   1.0000   1.0000   1.0000
     1.0000   1.0000   1.0000   1.0000   1.0000   1.0000   1.0000   1.0000
     1.0000   1.0000   1.0000   1.0000   1.0000   1.0000   1.0000   1.0000
     1.0000   1.0000   1.0000   1.0000   1.0000   1.0000   1.0000   1.0000
     1.0000   1.0000   1.0000   1.0000   1.0000   1.0000   1.0000   1.0000
     1.0000   1.0000   1.0000   1.0000   1.0000   1.0000   1.0000   1.0000
     1.0000   1.0000   1.0000   1.0000   1.0000   1.0000   1.0000   1.0000
     1.0000   1.0000   1.0000   1.0000   1.0000   1.0000   1.0000   1.0000
     1.0000   1.0000   1.0000   1.0000   1.0000   1.0000   1.0000   1.0000
     0.0000   0.0000   0.0000   0.0000   0.0000   0.0000   0.0000   0.0000
     0.0000   0.0000   0.0000   0.0000   0.0000   0.0000   0.0000   0.0000
     0.0000   0.0000   0.0000   0.0000   0.0000   0.0000   0.0000   0.0000
     0.0000   0.0000   0.0000   0.0000

          k = 0.2000 0.0000 0.0457 ( 18694 PWs)   bands (ev):

   -41.4238 -41.4238 -41.4202 -41.4202 -26.6641 -26.6640 -26.6626 -26.6625
   -19.5045 -19.5045 -19.4734 -19.4734 -19.4342 -19.4342 -19.4323 -19.4323
   -19.4090 -19.4090 -19.4017 -19.4017  -8.7424  -8.7407  -8.7398  -8.7385
    -8.7368  -8.7290  -8.7178  -8.7170  -8.7098  -8.7009  -8.6480  -8.6471
    -4.6250  -4.4640  -3.9825  -3.9535  -3.8584  -3.7886  -3.7099  -3.6899
    -3.4895  -3.3930  -3.3926  -3.3540   3.8168   3.8649   4.0190   4.0829
     4.1158   4.1262   4.2973   4.3569   4.3711   4.4694   4.5329   4.9847
     5.0998   5.1876   5.3173   5.4095   5.4483   5.4796   5.5107   5.6361
     5.7801   5.7833   5.8460   5.9487   6.0264   6.0947   6.2011   6.4012
     6.4366   6.5310   6.5473   6.7822   6.9045   7.1604   7.2221   7.3464
     9.2378   9.2673   9.7817   9.9034  10.1115  10.1182  10.1388  10.2943
    10.3300  10.3647  10.4860  10.5451  11.4143  11.5498  11.7813  11.7820
    11.8957  11.9980  12.0465  12.2136  12.2323  12.4071  12.6095  12.8990
    12.9995  13.1616  13.2062  13.3794

     occupation numbers 
     1.0000   1.0000   1.0000   1.0000   1.0000   1.0000   1.0000   1.0000
     1.0000   1.0000   1.0000   1.0000   1.0000   1.0000   1.0000   1.0000
     1.0000   1.0000   1.0000   1.0000   1.0000   1.0000   1.0000   1.0000
     1.0000   1.0000   1.0000   1.0000   1.0000   1.0000   1.0000   1.0000
     1.0000   1.0000   1.0000   1.0000   1.0000   1.0000   1.0000   1.0000
     1.0000   1.0000   1.0000   1.0000   1.0000   1.0000   1.0000   1.0000
     1.0000   1.0000   1.0000   1.0000   1.0000   1.0000   1.0000   1.0000
     1.0000   1.0000   1.0000   1.0000   1.0000   1.0000   1.0000   1.0000
     1.0000   1.0000   1.0000   1.0000   1.0000   1.0000   1.0000   1.0000
     1.0000   1.0000   1.0000   1.0000   1.0000   1.0000   1.0000   1.0000
     0.0000   0.0000   0.0000   0.0000   0.0000   0.0000   0.0000   0.0000
     0.0000   0.0000   0.0000   0.0000   0.0000   0.0000   0.0000   0.0000
     0.0000   0.0000   0.0000   0.0000   0.0000   0.0000   0.0000   0.0000
     0.0000   0.0000   0.0000   0.0000

          k = 0.2000 0.0000 0.0914 ( 18689 PWs)   bands (ev):

   -41.4238 -41.4238 -41.4202 -41.4202 -26.6641 -26.6640 -26.6626 -26.6625
   -19.5045 -19.5045 -19.4734 -19.4734 -19.4342 -19.4342 -19.4323 -19.4323
   -19.4090 -19.4090 -19.4017 -19.4017  -8.7421  -8.7411  -8.7393  -8.7385
    -8.7356  -8.7311  -8.7176  -8.7170  -8.7078  -8.7027  -8.6478  -8.6473
    -4.5959  -4.5042  -3.9721  -3.9567  -3.8403  -3.8005  -3.7055  -3.6939
    -3.4768  -3.4224  -3.3787  -3.3540   3.8265   3.8533   4.0045   4.0457
     4.1486   4.1608   4.2456   4.2885   4.4307   4.5217   4.5974   4.9031
     5.1241   5.1791   5.3228   5.3756   5.4556   5.4802   5.5310   5.6787
     5.7080   5.7907   5.8370   5.9175   6.1005   6.1297   6.2189   6.3311
     6.4020   6.5573   6.5629   6.6477   7.0249   7.1747   7.2523   7.3254
     9.2432   9.2582   9.8058   9.8755  10.1049  10.1172  10.1606  10.2688
    10.3349  10.3480  10.4877  10.5237  11.4413  11.5067  11.7111  11.7264
    11.8777  11.9721  12.1689  12.3009  12.3528  12.4449  12.6767  12.8545
    12.9082  13.1118  13.2079  13.2957

     occupation numbers 
     1.0000   1.0000   1.0000   1.0000   1.0000   1.0000   1.0000   1.0000
     1.0000   1.0000   1.0000   1.0000   1.0000   1.0000   1.0000   1.0000
     1.0000   1.0000   1.0000   1.0000   1.0000   1.0000   1.0000   1.0000
     1.0000   1.0000   1.0000   1.0000   1.0000   1.0000   1.0000   1.0000
     1.0000   1.0000   1.0000   1.0000   1.0000   1.0000   1.0000   1.0000
     1.0000   1.0000   1.0000   1.0000   1.0000   1.0000   1.0000   1.0000
     1.0000   1.0000   1.0000   1.0000   1.0000   1.0000   1.0000   1.0000
     1.0000   1.0000   1.0000   1.0000   1.0000   1.0000   1.0000   1.0000
     1.0000   1.0000   1.0000   1.0000   1.0000   1.0000   1.0000   1.0000
     1.0000   1.0000   1.0000   1.0000   1.0000   1.0000   1.0000   1.0000
     0.0000   0.0000   0.0000   0.0000   0.0000   0.0000   0.0000   0.0000
     0.0000   0.0000   0.0000   0.0000   0.0000   0.0000   0.0000   0.0000
     0.0000   0.0000   0.0000   0.0000   0.0000   0.0000   0.0000   0.0000
     0.0000   0.0000   0.0000   0.0000

          k = 0.2000 0.0000-0.1371 ( 18696 PWs)   bands (ev):

   -41.4238 -41.4238 -41.4202 -41.4202 -26.6641 -26.6641 -26.6626 -26.6626
   -19.5045 -19.5045 -19.4734 -19.4734 -19.4342 -19.4342 -19.4323 -19.4323
   -19.4090 -19.4090 -19.4017 -19.4017  -8.7416  -8.7416  -8.7388  -8.7388
    -8.7335  -8.7335  -8.7172  -8.7172  -8.7052  -8.7052  -8.6476  -8.6476
    -4.5526  -4.5526  -3.9628  -3.9628  -3.8188  -3.8188  -3.6997  -3.6997
    -3.4530  -3.4530  -3.3635  -3.3635   3.8396   3.8396   4.0132   4.0132
     4.1929   4.1929   4.2193   4.2193   4.4845   4.4845   4.7576   4.7576
     5.1553   5.1553   5.3443   5.3443   5.4666   5.4666   5.6087   5.6087
     5.7388   5.7388   5.8821   5.8821   6.1746   6.1746   6.2074   6.2074
     6.5026   6.5026   6.5745   6.5745   7.1274   7.1274   7.2913   7.2913
     9.2499   9.2499   9.8399   9.8399  10.1030  10.1030  10.2180  10.2180
    10.3401  10.3401  10.5009  10.5009  11.4699  11.4699  11.7000  11.7000
    11.9050  11.9050  12.2903  12.2903  12.4432  12.4432  12.7353  12.7353
    12.9825  12.9825  13.2521  13.2521

     occupation numbers 
     1.0000   1.0000   1.0000   1.0000   1.0000   1.0000   1.0000   1.0000
     1.0000   1.0000   1.0000   1.0000   1.0000   1.0000   1.0000   1.0000
     1.0000   1.0000   1.0000   1.0000   1.0000   1.0000   1.0000   1.0000
     1.0000   1.0000   1.0000   1.0000   1.0000   1.0000   1.0000   1.0000
     1.0000   1.0000   1.0000   1.0000   1.0000   1.0000   1.0000   1.0000
     1.0000   1.0000   1.0000   1.0000   1.0000   1.0000   1.0000   1.0000
     1.0000   1.0000   1.0000   1.0000   1.0000   1.0000   1.0000   1.0000
     1.0000   1.0000   1.0000   1.0000   1.0000   1.0000   1.0000   1.0000
     1.0000   1.0000   1.0000   1.0000   1.0000   1.0000   1.0000   1.0000
     1.0000   1.0000   1.0000   1.0000   1.0000   1.0000   1.0000   1.0000
     0.0000   0.0000   0.0000   0.0000   0.0000   0.0000   0.0000   0.0000
     0.0000   0.0000   0.0000   0.0000   0.0000   0.0000   0.0000   0.0000
     0.0000   0.0000   0.0000   0.0000   0.0000   0.0000   0.0000   0.0000
     0.0000   0.0000   0.0000   0.0000

          k = 0.2000 0.0444 0.0000 ( 18680 PWs)   bands (ev):

   -41.4238 -41.4238 -41.4202 -41.4202 -26.6641 -26.6639 -26.6627 -26.6625
   -19.5045 -19.5045 -19.4734 -19.4734 -19.4342 -19.4342 -19.4323 -19.4323
   -19.4090 -19.4090 -19.4017 -19.4017  -8.7428  -8.7423  -8.7405  -8.7374
    -8.7360  -8.7285  -8.7183  -8.7174  -8.7088  -8.6986  -8.6496  -8.6481
    -4.6266  -4.4443  -3.9883  -3.9568  -3.8987  -3.8165  -3.6787  -3.6621
    -3.4922  -3.4035  -3.3722  -3.3605   3.8016   3.8859   3.9937   4.0573
     4.1263   4.1812   4.2787   4.3113   4.4200   4.4842   4.5249   5.0082
     5.0759   5.1413   5.3103   5.4301   5.4374   5.4452   5.4736   5.6375
     5.8067   5.8545   5.8621   5.9510   6.0231   6.0581   6.2032   6.4112
     6.4714   6.5070   6.5556   6.8403   6.8799   7.1372   7.2300   7.3517
     9.2513   9.2780   9.7703   9.8984  10.0820  10.0962  10.1804  10.2578
    10.3403  10.3673  10.4768  10.5514  11.4289  11.5616  11.7768  11.8392
    11.8448  11.9550  12.0584  12.1662  12.3016  12.3478  12.5305  12.8924
    12.9771  13.1595  13.2179  13.3592

     occupation numbers 
     1.0000   1.0000   1.0000   1.0000   1.0000   1.0000   1.0000   1.0000
     1.0000   1.0000   1.0000   1.0000   1.0000   1.0000   1.0000   1.0000
     1.0000   1.0000   1.0000   1.0000   1.0000   1.0000   1.0000   1.0000
     1.0000   1.0000   1.0000   1.0000   1.0000   1.0000   1.0000   1.0000
     1.0000   1.0000   1.0000   1.0000   1.0000   1.0000   1.0000   1.0000
     1.0000   1.0000   1.0000   1.0000   1.0000   1.0000   1.0000   1.0000
     1.0000   1.0000   1.0000   1.0000   1.0000   1.0000   1.0000   1.0000
     1.0000   1.0000   1.0000   1.0000   1.0000   1.0000   1.0000   1.0000
     1.0000   1.0000   1.0000   1.0000   1.0000   1.0000   1.0000   1.0000
     1.0000   1.0000   1.0000   1.0000   1.0000   1.0000   1.0000   1.0000
     0.0000   0.0000   0.0000   0.0000   0.0000   0.0000   0.0000   0.0000
     0.0000   0.0000   0.0000   0.0000   0.0000   0.0000   0.0000   0.0000
     0.0000   0.0000   0.0000   0.0000   0.0000   0.0000   0.0000   0.0000
     0.0000   0.0000   0.0000   0.0000

          k = 0.2000 0.0444 0.0457 ( 18705 PWs)   bands (ev):

   -41.4238 -41.4238 -41.4202 -41.4202 -26.6641 -26.6640 -26.6627 -26.6625
   -19.5045 -19.5045 -19.4734 -19.4734 -19.4342 -19.4342 -19.4323 -19.4323
   -19.4090 -19.4090 -19.4017 -19.4017  -8.7424  -8.7421  -8.7406  -8.7377
    -8.7356  -8.7293  -8.7183  -8.7173  -8.7080  -8.6992  -8.6495  -8.6482
    -4.6166  -4.4598  -3.9856  -3.9583  -3.8898  -3.8199  -3.6777  -3.6634
    -3.4884  -3.3978  -3.3891  -3.3541   3.8040   3.8751   3.9921   4.0502
     4.1386   4.1755   4.2606   4.3327   4.4247   4.4873   4.5456   4.9921
     5.0750   5.1392   5.3087   5.3933   5.4446   5.4671   5.4896   5.6505
     5.7641   5.8277   5.8699   5.9700   6.0098   6.1082   6.2165   6.3656
     6.4590   6.5272   6.5557   6.7899   6.9235   7.1531   7.2422   7.3443
     9.2531   9.2753   9.7776   9.8883  10.0810  10.1143  10.1676  10.2598
    10.3241  10.3643  10.4777  10.5435  11.4430  11.5434  11.7333  11.7901
    11.9119  11.9497  12.0694  12.1873  12.3160  12.4092  12.5646  12.8869
    12.9557  13.1475  13.1896  13.3317

     occupation numbers 
     1.0000   1.0000   1.0000   1.0000   1.0000   1.0000   1.0000   1.0000
     1.0000   1.0000   1.0000   1.0000   1.0000   1.0000   1.0000   1.0000
     1.0000   1.0000   1.0000   1.0000   1.0000   1.0000   1.0000   1.0000
     1.0000   1.0000   1.0000   1.0000   1.0000   1.0000   1.0000   1.0000
     1.0000   1.0000   1.0000   1.0000   1.0000   1.0000   1.0000   1.0000
     1.0000   1.0000   1.0000   1.0000   1.0000   1.0000   1.0000   1.0000
     1.0000   1.0000   1.0000   1.0000   1.0000   1.0000   1.0000   1.0000
     1.0000   1.0000   1.0000   1.0000   1.0000   1.0000   1.0000   1.0000
     1.0000   1.0000   1.0000   1.0000   1.0000   1.0000   1.0000   1.0000
     1.0000   1.0000   1.0000   1.0000   1.0000   1.0000   1.0000   1.0000
     0.0000   0.0000   0.0000   0.0000   0.0000   0.0000   0.0000   0.0000
     0.0000   0.0000   0.0000   0.0000   0.0000   0.0000   0.0000   0.0000
     0.0000   0.0000   0.0000   0.0000   0.0000   0.0000   0.0000   0.0000
     0.0000   0.0000   0.0000   0.0000

          k = 0.2000 0.0444 0.0914 ( 18709 PWs)   bands (ev):

   -41.4238 -41.4238 -41.4202 -41.4202 -26.6641 -26.6640 -26.6626 -26.6625
   -19.5045 -19.5045 -19.4734 -19.4734 -19.4342 -19.4342 -19.4323 -19.4323
   -19.4090 -19.4090 -19.4017 -19.4017  -8.7419  -8.7413  -8.7407  -8.7385
    -8.7345  -8.7311  -8.7181  -8.7174  -8.7060  -8.7010  -8.6492  -8.6485
    -4.5880  -4.4986  -3.9787  -3.9630  -3.8690  -3.8301  -3.6751  -3.6668
    -3.4748  -3.4196  -3.3817  -3.3551   3.8127   3.8519   3.9931   4.0286
     4.1688   4.1851   4.2291   4.3156   4.4384   4.5140   4.6212   4.9112
     5.0872   5.1302   5.3118   5.3581   5.4506   5.4711   5.5415   5.6795
     5.7321   5.7681   5.8734   5.9215   6.0816   6.1644   6.2377   6.2921
     6.4494   6.5415   6.5721   6.6713   7.0297   7.1633   7.2636   7.3234
     9.2575   9.2693   9.7985   9.8626  10.0866  10.1295  10.1631  10.2530
    10.3032  10.3478  10.4846  10.5237  11.4732  11.5177  11.7011  11.7254
    11.8794  11.9593  12.1426  12.2893  12.3786  12.4503  12.6368  12.8480
    12.8943  13.0861  13.1719  13.2814

     occupation numbers 
     1.0000   1.0000   1.0000   1.0000   1.0000   1.0000   1.0000   1.0000
     1.0000   1.0000   1.0000   1.0000   1.0000   1.0000   1.0000   1.0000
     1.0000   1.0000   1.0000   1.0000   1.0000   1.0000   1.0000   1.0000
     1.0000   1.0000   1.0000   1.0000   1.0000   1.0000   1.0000   1.0000
     1.0000   1.0000   1.0000   1.0000   1.0000   1.0000   1.0000   1.0000
     1.0000   1.0000   1.0000   1.0000   1.0000   1.0000   1.0000   1.0000
     1.0000   1.0000   1.0000   1.0000   1.0000   1.0000   1.0000   1.0000
     1.0000   1.0000   1.0000   1.0000   1.0000   1.0000   1.0000   1.0000
     1.0000   1.0000   1.0000   1.0000   1.0000   1.0000   1.0000   1.0000
     1.0000   1.0000   1.0000   1.0000   1.0000   1.0000   1.0000   1.0000
     0.0000   0.0000   0.0000   0.0000   0.0000   0.0000   0.0000   0.0000
     0.0000   0.0000   0.0000   0.0000   0.0000   0.0000   0.0000   0.0000
     0.0000   0.0000   0.0000   0.0000   0.0000   0.0000   0.0000   0.0000
     0.0000   0.0000   0.0000   0.0000

          k = 0.2000 0.0444-0.1371 ( 18706 PWs)   bands (ev):

   -41.4238 -41.4238 -41.4202 -41.4202 -26.6640 -26.6640 -26.6626 -26.6626
   -19.5045 -19.5045 -19.4734 -19.4734 -19.4342 -19.4342 -19.4323 -19.4323
   -19.4090 -19.4090 -19.4017 -19.4017  -8.7414  -8.7414  -8.7396  -8.7396
    -8.7330  -8.7330  -8.7177  -8.7177  -8.7034  -8.7034  -8.6488  -8.6488
    -4.5457  -4.5457  -3.9704  -3.9704  -3.8469  -3.8469  -3.6712  -3.6712
    -3.4503  -3.4503  -3.3657  -3.3657   3.8290   3.8290   4.0053   4.0053
     4.1892   4.1892   4.2523   4.2523   4.4842   4.4842   4.7688   4.7688
     5.1109   5.1109   5.3292   5.3292   5.4611   5.4611   5.6265   5.6265
     5.7379   5.7379   5.8894   5.8894   6.1509   6.1509   6.2464   6.2464
     6.5091   6.5091   6.5898   6.5898   7.1229   7.1229   7.2923   7.2923
     9.2630   9.2630   9.8295   9.8295  10.1033  10.1033  10.2103  10.2103
    10.3206  10.3206  10.5012  10.5012  11.4988  11.4988  11.6946  11.6946
    11.8959  11.8959  12.2809  12.2809  12.4369  12.4369  12.7188  12.7188
    12.9648  12.9648  13.2289  13.2289

     occupation numbers 
     1.0000   1.0000   1.0000   1.0000   1.0000   1.0000   1.0000   1.0000
     1.0000   1.0000   1.0000   1.0000   1.0000   1.0000   1.0000   1.0000
     1.0000   1.0000   1.0000   1.0000   1.0000   1.0000   1.0000   1.0000
     1.0000   1.0000   1.0000   1.0000   1.0000   1.0000   1.0000   1.0000
     1.0000   1.0000   1.0000   1.0000   1.0000   1.0000   1.0000   1.0000
     1.0000   1.0000   1.0000   1.0000   1.0000   1.0000   1.0000   1.0000
     1.0000   1.0000   1.0000   1.0000   1.0000   1.0000   1.0000   1.0000
     1.0000   1.0000   1.0000   1.0000   1.0000   1.0000   1.0000   1.0000
     1.0000   1.0000   1.0000   1.0000   1.0000   1.0000   1.0000   1.0000
     1.0000   1.0000   1.0000   1.0000   1.0000   1.0000   1.0000   1.0000
     0.0000   0.0000   0.0000   0.0000   0.0000   0.0000   0.0000   0.0000
     0.0000   0.0000   0.0000   0.0000   0.0000   0.0000   0.0000   0.0000
     0.0000   0.0000   0.0000   0.0000   0.0000   0.0000   0.0000   0.0000
     0.0000   0.0000   0.0000   0.0000

          k = 0.2000 0.0888 0.0000 ( 18692 PWs)   bands (ev):

   -41.4238 -41.4238 -41.4202 -41.4202 -26.6640 -26.6638 -26.6628 -26.6626
   -19.5044 -19.5044 -19.4735 -19.4735 -19.4342 -19.4342 -19.4323 -19.4322
   -19.4090 -19.4090 -19.4017 -19.4017  -8.7454  -8.7418  -8.7403  -8.7373
    -8.7343  -8.7293  -8.7192  -8.7181  -8.7037  -8.6941  -8.6538  -8.6513
    -4.6015  -4.4359  -3.9923  -3.9887  -3.9352  -3.8723  -3.6222  -3.6202
    -3.4895  -3.4156  -3.3653  -3.3603   3.7876   3.9108   3.9409   4.0169
     4.1512   4.1957   4.2637   4.3282   4.4480   4.5057   4.6117   4.9550
     5.0518   5.1009   5.2707   5.3922   5.3965   5.4330   5.4646   5.6163
     5.7673   5.9148   5.9295   5.9490   6.0343   6.0713   6.2834   6.3713
     6.4488   6.5221   6.5967   6.8320   6.9480   7.1476   7.2652   7.3395
     9.2947   9.2988   9.7615   9.8524  10.0339  10.1065  10.1841  10.1895
    10.3330  10.3432  10.4691  10.5489  11.4790  11.5554  11.6566  11.7990
    11.8183  11.9232  12.1384  12.2378  12.3674  12.3969  12.4531  12.8313
    12.8618  13.1381  13.1563  13.2135

     occupation numbers 
     1.0000   1.0000   1.0000   1.0000   1.0000   1.0000   1.0000   1.0000
     1.0000   1.0000   1.0000   1.0000   1.0000   1.0000   1.0000   1.0000
     1.0000   1.0000   1.0000   1.0000   1.0000   1.0000   1.0000   1.0000
     1.0000   1.0000   1.0000   1.0000   1.0000   1.0000   1.0000   1.0000
     1.0000   1.0000   1.0000   1.0000   1.0000   1.0000   1.0000   1.0000
     1.0000   1.0000   1.0000   1.0000   1.0000   1.0000   1.0000   1.0000
     1.0000   1.0000   1.0000   1.0000   1.0000   1.0000   1.0000   1.0000
     1.0000   1.0000   1.0000   1.0000   1.0000   1.0000   1.0000   1.0000
     1.0000   1.0000   1.0000   1.0000   1.0000   1.0000   1.0000   1.0000
     1.0000   1.0000   1.0000   1.0000   1.0000   1.0000   1.0000   1.0000
     0.0000   0.0000   0.0000   0.0000   0.0000   0.0000   0.0000   0.0000
     0.0000   0.0000   0.0000   0.0000   0.0000   0.0000   0.0000   0.0000
     0.0000   0.0000   0.0000   0.0000   0.0000   0.0000   0.0000   0.0000
     0.0000   0.0000   0.0000   0.0000

          k = 0.2000 0.0888 0.0457 ( 18691 PWs)   bands (ev):

   -41.4238 -41.4238 -41.4202 -41.4202 -26.6640 -26.6638 -26.6628 -26.6626
   -19.5044 -19.5044 -19.4735 -19.4735 -19.4342 -19.4342 -19.4323 -19.4323
   -19.4090 -19.4090 -19.4017 -19.4017  -8.7448  -8.7416  -8.7404  -8.7377
    -8.7341  -8.7298  -8.7192  -8.7181  -8.7029  -8.6947  -8.6536  -8.6515
    -4.5921  -4.4492  -4.0039  -3.9807  -3.9265  -3.8725  -3.6229  -3.6209
    -3.4847  -3.4090  -3.3822  -3.3545   3.7882   3.8785   3.9615   4.0054
     4.1559   4.2058   4.2916   4.3105   4.4700   4.4954   4.6219   4.9523
     5.0487   5.0730   5.2737   5.3615   5.4208   5.4448   5.4726   5.6300
     5.7201   5.8923   5.9325   5.9609   6.0217   6.1440   6.2742   6.3297
     6.4768   6.5348   6.5905   6.8018   6.9719   7.1473   7.2704   7.3322
     9.2935   9.3014   9.7655   9.8450  10.0406  10.1215  10.1781  10.1881
    10.2949  10.3523  10.4731  10.5421  11.4953  11.5456  11.6759  11.7676
    11.8766  11.9150  12.0977  12.2172  12.4097  12.4228  12.4920  12.8248
    12.8742  13.1017  13.1247  13.2429

     occupation numbers 
     1.0000   1.0000   1.0000   1.0000   1.0000   1.0000   1.0000   1.0000
     1.0000   1.0000   1.0000   1.0000   1.0000   1.0000   1.0000   1.0000
     1.0000   1.0000   1.0000   1.0000   1.0000   1.0000   1.0000   1.0000
     1.0000   1.0000   1.0000   1.0000   1.0000   1.0000   1.0000   1.0000
     1.0000   1.0000   1.0000   1.0000   1.0000   1.0000   1.0000   1.0000
     1.0000   1.0000   1.0000   1.0000   1.0000   1.0000   1.0000   1.0000
     1.0000   1.0000   1.0000   1.0000   1.0000   1.0000   1.0000   1.0000
     1.0000   1.0000   1.0000   1.0000   1.0000   1.0000   1.0000   1.0000
     1.0000   1.0000   1.0000   1.0000   1.0000   1.0000   1.0000   1.0000
     1.0000   1.0000   1.0000   1.0000   1.0000   1.0000   1.0000   1.0000
     0.0000   0.0000   0.0000   0.0000   0.0000   0.0000   0.0000   0.0000
     0.0000   0.0000   0.0000   0.0000   0.0000   0.0000   0.0000   0.0000
     0.0000   0.0000   0.0000   0.0000   0.0000   0.0000   0.0000   0.0000
     0.0000   0.0000   0.0000   0.0000

          k = 0.2000 0.0888 0.0914 ( 18706 PWs)   bands (ev):

   -41.4238 -41.4238 -41.4202 -41.4202 -26.6639 -26.6639 -26.6627 -26.6627
   -19.5044 -19.5044 -19.4735 -19.4735 -19.4342 -19.4342 -19.4323 -19.4323
   -19.4090 -19.4090 -19.4017 -19.4017  -8.7433  -8.7414  -8.7404  -8.7390
    -8.7334  -8.7310  -8.7192  -8.7184  -8.7010  -8.6963  -8.6532  -8.6519
    -4.5654  -4.4836  -4.0066  -3.9870  -3.9048  -3.8755  -3.6241  -3.6227
    -3.4688  -3.4129  -3.3894  -3.3584   3.7937   3.8392   3.9689   3.9858
     4.1788   4.2354   4.2802   4.3275   4.4647   4.5060   4.6782   4.9139
     5.0253   5.0397   5.2804   5.3245   5.4363   5.4665   5.5067   5.6418
     5.6929   5.8015   5.9422   5.9801   6.0559   6.1858   6.2582   6.3220
     6.5110   6.5343   6.5992   6.7166   7.0417   7.1434   7.2746   7.3119
     9.2952   9.3029   9.7784   9.8250  10.0661  10.1311  10.1606  10.2079
    10.2503  10.3303  10.4858  10.5249  11.5345  11.5579  11.6891  11.7207
    11.8690  11.9230  12.1056  12.2785  12.4002  12.4628  12.5782  12.8154
    12.8496  13.0179  13.1039  13.1926

     occupation numbers 
     1.0000   1.0000   1.0000   1.0000   1.0000   1.0000   1.0000   1.0000
     1.0000   1.0000   1.0000   1.0000   1.0000   1.0000   1.0000   1.0000
     1.0000   1.0000   1.0000   1.0000   1.0000   1.0000   1.0000   1.0000
     1.0000   1.0000   1.0000   1.0000   1.0000   1.0000   1.0000   1.0000
     1.0000   1.0000   1.0000   1.0000   1.0000   1.0000   1.0000   1.0000
     1.0000   1.0000   1.0000   1.0000   1.0000   1.0000   1.0000   1.0000
     1.0000   1.0000   1.0000   1.0000   1.0000   1.0000   1.0000   1.0000
     1.0000   1.0000   1.0000   1.0000   1.0000   1.0000   1.0000   1.0000
     1.0000   1.0000   1.0000   1.0000   1.0000   1.0000   1.0000   1.0000
     1.0000   1.0000   1.0000   1.0000   1.0000   1.0000   1.0000   1.0000
     0.0000   0.0000   0.0000   0.0000   0.0000   0.0000   0.0000   0.0000
     0.0000   0.0000   0.0000   0.0000   0.0000   0.0000   0.0000   0.0000
     0.0000   0.0000   0.0000   0.0000   0.0000   0.0000   0.0000   0.0000
     0.0000   0.0000   0.0000   0.0000

          k = 0.2000 0.0888-0.1371 ( 18698 PWs)   bands (ev):

   -41.4238 -41.4238 -41.4202 -41.4202 -26.6639 -26.6639 -26.6627 -26.6627
   -19.5044 -19.5044 -19.4735 -19.4735 -19.4342 -19.4342 -19.4323 -19.4323
   -19.4090 -19.4090 -19.4017 -19.4017  -8.7416  -8.7416  -8.7403  -8.7403
    -8.7324  -8.7324  -8.7188  -8.7188  -8.6986  -8.6986  -8.6525  -8.6525
    -4.5263  -4.5263  -3.9989  -3.9989  -3.8856  -3.8856  -3.6242  -3.6242
    -3.4428  -3.4428  -3.3717  -3.3717   3.8101   3.8101   3.9721   3.9721
     4.2176   4.2176   4.3050   4.3050   4.4853   4.4853   4.7966   4.7966
     5.0261   5.0261   5.2963   5.2963   5.4500   5.4500   5.5882   5.5882
     5.7327   5.7327   5.9627   5.9627   6.1149   6.1149   6.3138   6.3138
     6.5266   6.5266   6.6370   6.6370   7.1109   7.1109   7.2869   7.2869
     9.2999   9.2999   9.7999   9.7999  10.1028  10.1028  10.1789  10.1789
    10.2842  10.2842  10.5042  10.5042  11.5708  11.5708  11.6853  11.6853
    11.8725  11.8725  12.2453  12.2453  12.4299  12.4299  12.6924  12.6924
    12.9098  12.9098  13.1476  13.1476

     occupation numbers 
     1.0000   1.0000   1.0000   1.0000   1.0000   1.0000   1.0000   1.0000
     1.0000   1.0000   1.0000   1.0000   1.0000   1.0000   1.0000   1.0000
     1.0000   1.0000   1.0000   1.0000   1.0000   1.0000   1.0000   1.0000
     1.0000   1.0000   1.0000   1.0000   1.0000   1.0000   1.0000   1.0000
     1.0000   1.0000   1.0000   1.0000   1.0000   1.0000   1.0000   1.0000
     1.0000   1.0000   1.0000   1.0000   1.0000   1.0000   1.0000   1.0000
     1.0000   1.0000   1.0000   1.0000   1.0000   1.0000   1.0000   1.0000
     1.0000   1.0000   1.0000   1.0000   1.0000   1.0000   1.0000   1.0000
     1.0000   1.0000   1.0000   1.0000   1.0000   1.0000   1.0000   1.0000
     1.0000   1.0000   1.0000   1.0000   1.0000   1.0000   1.0000   1.0000
     0.0000   0.0000   0.0000   0.0000   0.0000   0.0000   0.0000   0.0000
     0.0000   0.0000   0.0000   0.0000   0.0000   0.0000   0.0000   0.0000
     0.0000   0.0000   0.0000   0.0000   0.0000   0.0000   0.0000   0.0000
     0.0000   0.0000   0.0000   0.0000

          k = 0.2000 0.1333 0.0000 ( 18688 PWs)   bands (ev):

   -41.4238 -41.4238 -41.4202 -41.4202 -26.6638 -26.6637 -26.6629 -26.6628
   -19.5044 -19.5044 -19.4736 -19.4735 -19.4342 -19.4342 -19.4323 -19.4322
   -19.4090 -19.4090 -19.4017 -19.4017  -8.7468  -8.7425  -8.7396  -8.7362
    -8.7342  -8.7299  -8.7202  -8.7191  -8.6960  -8.6875  -8.6603  -8.6567
    -4.5628  -4.4300  -4.0429  -4.0076  -3.9429  -3.9192  -3.5828  -3.5739
    -3.4846  -3.4327  -3.3598  -3.3584   3.7853   3.8974   3.9263   3.9747
     4.1431   4.2160   4.2296   4.4404   4.4644   4.4942   4.7280   4.8815
     4.9940   5.1197   5.1794   5.3554   5.3913   5.4190   5.4733   5.6028
     5.6798   5.8599   5.9444   5.9779   6.0730   6.1098   6.3276   6.4170
     6.4233   6.5827   6.6844   6.8255   7.0233   7.1524   7.2753   7.3054
     9.3366   9.3548   9.7448   9.7868   9.9989  10.0851  10.1341  10.1615
    10.3053  10.3170  10.4869  10.5501  11.4593  11.5625  11.6389  11.7402
    11.7726  11.9528  12.0895  12.3093  12.3696  12.4809  12.5084  12.7238
    12.7791  12.9862  13.1211  13.1608

     occupation numbers 
     1.0000   1.0000   1.0000   1.0000   1.0000   1.0000   1.0000   1.0000
     1.0000   1.0000   1.0000   1.0000   1.0000   1.0000   1.0000   1.0000
     1.0000   1.0000   1.0000   1.0000   1.0000   1.0000   1.0000   1.0000
     1.0000   1.0000   1.0000   1.0000   1.0000   1.0000   1.0000   1.0000
     1.0000   1.0000   1.0000   1.0000   1.0000   1.0000   1.0000   1.0000
     1.0000   1.0000   1.0000   1.0000   1.0000   1.0000   1.0000   1.0000
     1.0000   1.0000   1.0000   1.0000   1.0000   1.0000   1.0000   1.0000
     1.0000   1.0000   1.0000   1.0000   1.0000   1.0000   1.0000   1.0000
     1.0000   1.0000   1.0000   1.0000   1.0000   1.0000   1.0000   1.0000
     1.0000   1.0000   1.0000   1.0000   1.0000   1.0000   1.0000   1.0000
     0.0000   0.0000   0.0000   0.0000   0.0000   0.0000   0.0000   0.0000
     0.0000   0.0000   0.0000   0.0000   0.0000   0.0000   0.0000   0.0000
     0.0000   0.0000   0.0000   0.0000   0.0000   0.0000   0.0000   0.0000
     0.0000   0.0000   0.0000   0.0000

          k = 0.2000 0.1333 0.0457 ( 18695 PWs)   bands (ev):

   -41.4238 -41.4238 -41.4202 -41.4202 -26.6638 -26.6637 -26.6629 -26.6628
   -19.5044 -19.5044 -19.4736 -19.4735 -19.4342 -19.4342 -19.4323 -19.4322
   -19.4090 -19.4090 -19.4017 -19.4017  -8.7462  -8.7422  -8.7397  -8.7370
    -8.7338  -8.7303  -8.7203  -8.7192  -8.6954  -8.6880  -8.6600  -8.6569
    -4.5545  -4.4393  -4.0508  -4.0117  -3.9363  -3.9122  -3.5836  -3.5761
    -3.4782  -3.4250  -3.3744  -3.3554   3.7839   3.8650   3.9391   3.9617
     4.1545   4.2286   4.2669   4.4180   4.4660   4.5198   4.7219   4.8777
     4.9907   5.0853   5.2052   5.3297   5.3863   5.4187   5.4711   5.6271
     5.6455   5.8854   5.9051   5.9797   6.1137   6.1454   6.2658   6.4228
     6.4729   6.5939   6.6725   6.8119   7.0298   7.1435   7.2690   7.2986
     9.3383   9.3570   9.7445   9.7804  10.0124  10.1021  10.1314  10.1539
    10.2695  10.3255  10.4891  10.5441  11.4808  11.5867  11.6619  11.7255
    11.8204  11.9285  12.0728  12.2738  12.4120  12.4643  12.5331  12.7151
    12.8006  12.9750  13.0783  13.1702

     occupation numbers 
     1.0000   1.0000   1.0000   1.0000   1.0000   1.0000   1.0000   1.0000
     1.0000   1.0000   1.0000   1.0000   1.0000   1.0000   1.0000   1.0000
     1.0000   1.0000   1.0000   1.0000   1.0000   1.0000   1.0000   1.0000
     1.0000   1.0000   1.0000   1.0000   1.0000   1.0000   1.0000   1.0000
     1.0000   1.0000   1.0000   1.0000   1.0000   1.0000   1.0000   1.0000
     1.0000   1.0000   1.0000   1.0000   1.0000   1.0000   1.0000   1.0000
     1.0000   1.0000   1.0000   1.0000   1.0000   1.0000   1.0000   1.0000
     1.0000   1.0000   1.0000   1.0000   1.0000   1.0000   1.0000   1.0000
     1.0000   1.0000   1.0000   1.0000   1.0000   1.0000   1.0000   1.0000
     1.0000   1.0000   1.0000   1.0000   1.0000   1.0000   1.0000   1.0000
     0.0000   0.0000   0.0000   0.0000   0.0000   0.0000   0.0000   0.0000
     0.0000   0.0000   0.0000   0.0000   0.0000   0.0000   0.0000   0.0000
     0.0000   0.0000   0.0000   0.0000   0.0000   0.0000   0.0000   0.0000
     0.0000   0.0000   0.0000   0.0000

          k = 0.2000 0.1333 0.0914 ( 18688 PWs)   bands (ev):

   -41.4238 -41.4238 -41.4202 -41.4202 -26.6638 -26.6637 -26.6629 -26.6628
   -19.5044 -19.5044 -19.4735 -19.4735 -19.4342 -19.4342 -19.4323 -19.4322
   -19.4090 -19.4090 -19.4017 -19.4017  -8.7445  -8.7418  -8.7398  -8.7387
    -8.7330  -8.7311  -8.7204  -8.7197  -8.6937  -8.6895  -8.6592  -8.6575
    -4.5315  -4.4648  -4.0561  -4.0291  -3.9184  -3.9039  -3.5848  -3.5806
    -3.4597  -3.4117  -3.3936  -3.3634   3.7855   3.8266   3.9276   3.9425
     4.1966   4.2841   4.2954   4.3911   4.4709   4.5376   4.7379   4.8623
     4.9831   5.0219   5.2315   5.2864   5.3952   5.4208   5.4653   5.5599
     5.7136   5.8210   5.9493   5.9898   6.1260   6.1821   6.2560   6.4116
     6.5353   6.6039   6.6715   6.7649   7.0566   7.1242   7.2565   7.2782
     9.3448   9.3587   9.7460   9.7662  10.0520  10.1102  10.1220  10.1649
    10.2251  10.3054  10.4975  10.5292  11.5474  11.6356  11.7007  11.7147
    11.8395  11.8922  12.0872  12.2536  12.4204  12.4604  12.5840  12.7190
    12.8080  12.9240  13.0304  13.0769

     occupation numbers 
     1.0000   1.0000   1.0000   1.0000   1.0000   1.0000   1.0000   1.0000
     1.0000   1.0000   1.0000   1.0000   1.0000   1.0000   1.0000   1.0000
     1.0000   1.0000   1.0000   1.0000   1.0000   1.0000   1.0000   1.0000
     1.0000   1.0000   1.0000   1.0000   1.0000   1.0000   1.0000   1.0000
     1.0000   1.0000   1.0000   1.0000   1.0000   1.0000   1.0000   1.0000
     1.0000   1.0000   1.0000   1.0000   1.0000   1.0000   1.0000   1.0000
     1.0000   1.0000   1.0000   1.0000   1.0000   1.0000   1.0000   1.0000
     1.0000   1.0000   1.0000   1.0000   1.0000   1.0000   1.0000   1.0000
     1.0000   1.0000   1.0000   1.0000   1.0000   1.0000   1.0000   1.0000
     1.0000   1.0000   1.0000   1.0000   1.0000   1.0000   1.0000   1.0000
     0.0000   0.0000   0.0000   0.0000   0.0000   0.0000   0.0000   0.0000
     0.0000   0.0000   0.0000   0.0000   0.0000   0.0000   0.0000   0.0000
     0.0000   0.0000   0.0000   0.0000   0.0000   0.0000   0.0000   0.0000
     0.0000   0.0000   0.0000   0.0000

          k = 0.2000 0.1333-0.1371 ( 18706 PWs)   bands (ev):

   -41.4238 -41.4238 -41.4202 -41.4202 -26.6638 -26.6638 -26.6629 -26.6629
   -19.5044 -19.5044 -19.4735 -19.4735 -19.4342 -19.4342 -19.4322 -19.4322
   -19.4090 -19.4090 -19.4017 -19.4017  -8.7424  -8.7424  -8.7399  -8.7399
    -8.7322  -8.7322  -8.7202  -8.7202  -8.6915  -8.6915  -8.6583  -8.6583
    -4.4988  -4.4988  -4.0476  -4.0476  -3.9052  -3.9052  -3.5841  -3.5841
    -3.4329  -3.4329  -3.3802  -3.3802   3.7990   3.7990   3.9259   3.9259
     4.2553   4.2553   4.3520   4.3520   4.5058   4.5058   4.8072   4.8072
     4.9828   4.9828   5.2530   5.2530   5.4128   5.4128   5.4977   5.4977
     5.7710   5.7710   5.9830   5.9830   6.1371   6.1371   6.3535   6.3535
     6.5818   6.5818   6.7092   6.7092   7.0946   7.0946   7.2575   7.2575
     9.3538   9.3538   9.7532   9.7532  10.0960  10.0960  10.1312  10.1312
    10.2586  10.2586  10.5119  10.5119  11.6425  11.6425  11.6885  11.6885
    11.8520  11.8520  12.1912  12.1912  12.4329  12.4329  12.6717  12.6717
    12.8398  12.8398  13.0204  13.0204

     occupation numbers 
     1.0000   1.0000   1.0000   1.0000   1.0000   1.0000   1.0000   1.0000
     1.0000   1.0000   1.0000   1.0000   1.0000   1.0000   1.0000   1.0000
     1.0000   1.0000   1.0000   1.0000   1.0000   1.0000   1.0000   1.0000
     1.0000   1.0000   1.0000   1.0000   1.0000   1.0000   1.0000   1.0000
     1.0000   1.0000   1.0000   1.0000   1.0000   1.0000   1.0000   1.0000
     1.0000   1.0000   1.0000   1.0000   1.0000   1.0000   1.0000   1.0000
     1.0000   1.0000   1.0000   1.0000   1.0000   1.0000   1.0000   1.0000
     1.0000   1.0000   1.0000   1.0000   1.0000   1.0000   1.0000   1.0000
     1.0000   1.0000   1.0000   1.0000   1.0000   1.0000   1.0000   1.0000
     1.0000   1.0000   1.0000   1.0000   1.0000   1.0000   1.0000   1.0000
     0.0000   0.0000   0.0000   0.0000   0.0000   0.0000   0.0000   0.0000
     0.0000   0.0000   0.0000   0.0000   0.0000   0.0000   0.0000   0.0000
     0.0000   0.0000   0.0000   0.0000   0.0000   0.0000   0.0000   0.0000
     0.0000   0.0000   0.0000   0.0000

          k = 0.2000 0.1777 0.0000 ( 18695 PWs)   bands (ev):

   -41.4238 -41.4238 -41.4202 -41.4202 -26.6636 -26.6635 -26.6631 -26.6630
   -19.5043 -19.5043 -19.4736 -19.4736 -19.4342 -19.4342 -19.4322 -19.4322
   -19.4090 -19.4090 -19.4017 -19.4017  -8.7469  -8.7442  -8.7382  -8.7351
    -8.7344  -8.7309  -8.7209  -8.7201  -8.6870  -8.6797  -8.6684  -8.6636
    -4.5158  -4.4390  -4.0750  -4.0407  -3.9454  -3.9405  -3.5539  -3.5443
    -3.4773  -3.4513  -3.3582  -3.3550   3.7980   3.8593   3.9301   3.9434
     4.1443   4.1805   4.2819   4.4060   4.5374   4.5473   4.7876   4.8312
     5.0174   5.0818   5.1095   5.2912   5.4033   5.4129   5.4897   5.5740
     5.6552   5.7927   5.9399   5.9946   6.0611   6.1240   6.3304   6.3872
     6.5431   6.6375   6.8100   6.8503   7.0832   7.1392   7.2428   7.2505
     9.3883   9.4127   9.7178   9.7208   9.9771  10.0124  10.1372  10.1424
    10.2798  10.2946  10.5162  10.5494  11.4376  11.4940  11.6918  11.7086
    11.7611  11.9782  12.0422  12.2959  12.4125  12.5642  12.5740  12.6354
    12.7443  12.8175  13.1204  13.1337

     occupation numbers 
     1.0000   1.0000   1.0000   1.0000   1.0000   1.0000   1.0000   1.0000
     1.0000   1.0000   1.0000   1.0000   1.0000   1.0000   1.0000   1.0000
     1.0000   1.0000   1.0000   1.0000   1.0000   1.0000   1.0000   1.0000
     1.0000   1.0000   1.0000   1.0000   1.0000   1.0000   1.0000   1.0000
     1.0000   1.0000   1.0000   1.0000   1.0000   1.0000   1.0000   1.0000
     1.0000   1.0000   1.0000   1.0000   1.0000   1.0000   1.0000   1.0000
     1.0000   1.0000   1.0000   1.0000   1.0000   1.0000   1.0000   1.0000
     1.0000   1.0000   1.0000   1.0000   1.0000   1.0000   1.0000   1.0000
     1.0000   1.0000   1.0000   1.0000   1.0000   1.0000   1.0000   1.0000
     1.0000   1.0000   1.0000   1.0000   1.0000   1.0000   1.0000   1.0000
     0.0000   0.0000   0.0000   0.0000   0.0000   0.0000   0.0000   0.0000
     0.0000   0.0000   0.0000   0.0000   0.0000   0.0000   0.0000   0.0000
     0.0000   0.0000   0.0000   0.0000   0.0000   0.0000   0.0000   0.0000
     0.0000   0.0000   0.0000   0.0000

          k = 0.2000 0.1777 0.0457 ( 18714 PWs)   bands (ev):

   -41.4238 -41.4238 -41.4202 -41.4202 -26.6636 -26.6635 -26.6631 -26.6630
   -19.5043 -19.5043 -19.4736 -19.4736 -19.4342 -19.4342 -19.4322 -19.4322
   -19.4090 -19.4090 -19.4017 -19.4017  -8.7463  -8.7438  -8.7383  -8.7364
    -8.7335  -8.7311  -8.7211  -8.7203  -8.6865  -8.6802  -8.6679  -8.6638
    -4.5097  -4.4424  -4.0843  -4.0519  -3.9381  -3.9298  -3.5555  -3.5477
    -3.4694  -3.4426  -3.3675  -3.3575   3.7942   3.8440   3.9178   3.9315
     4.1655   4.2066   4.3057   4.4147   4.5194   4.5703   4.7735   4.8242
     5.0154   5.0602   5.1349   5.2732   5.3811   5.3981   5.4734   5.5406
     5.6957   5.8286   5.9041   5.9801   6.1132   6.1562   6.3003   6.4001
     6.5662   6.6469   6.7987   6.8489   7.0782   7.1290   7.2267   7.2423
     9.3920   9.4154   9.7121   9.7129   9.9955  10.0298  10.1275  10.1407
    10.2596  10.2942  10.5151  10.5444  11.4731  11.5316  11.6888  11.7470
    11.7760  11.9435  12.0567  12.2676  12.4296  12.5577  12.5781  12.6227
    12.7425  12.8121  13.0773  13.1193

     occupation numbers 
     1.0000   1.0000   1.0000   1.0000   1.0000   1.0000   1.0000   1.0000
     1.0000   1.0000   1.0000   1.0000   1.0000   1.0000   1.0000   1.0000
     1.0000   1.0000   1.0000   1.0000   1.0000   1.0000   1.0000   1.0000
     1.0000   1.0000   1.0000   1.0000   1.0000   1.0000   1.0000   1.0000
     1.0000   1.0000   1.0000   1.0000   1.0000   1.0000   1.0000   1.0000
     1.0000   1.0000   1.0000   1.0000   1.0000   1.0000   1.0000   1.0000
     1.0000   1.0000   1.0000   1.0000   1.0000   1.0000   1.0000   1.0000
     1.0000   1.0000   1.0000   1.0000   1.0000   1.0000   1.0000   1.0000
     1.0000   1.0000   1.0000   1.0000   1.0000   1.0000   1.0000   1.0000
     1.0000   1.0000   1.0000   1.0000   1.0000   1.0000   1.0000   1.0000
     0.0000   0.0000   0.0000   0.0000   0.0000   0.0000   0.0000   0.0000
     0.0000   0.0000   0.0000   0.0000   0.0000   0.0000   0.0000   0.0000
     0.0000   0.0000   0.0000   0.0000   0.0000   0.0000   0.0000   0.0000
     0.0000   0.0000   0.0000   0.0000

          k = 0.2000 0.1777 0.0914 ( 18704 PWs)   bands (ev):

   -41.4238 -41.4238 -41.4202 -41.4202 -26.6636 -26.6635 -26.6631 -26.6630
   -19.5043 -19.5043 -19.4736 -19.4736 -19.4342 -19.4342 -19.4322 -19.4322
   -19.4090 -19.4090 -19.4017 -19.4017  -8.7446  -8.7429  -8.7389  -8.7383
    -8.7327  -8.7316  -8.7213  -8.7209  -8.6851  -8.6815  -8.6669  -8.6646
    -4.4933  -4.4535  -4.0960  -4.0752  -3.9218  -3.9161  -3.5580  -3.5539
    -3.4488  -3.4235  -3.3864  -3.3699   3.7914   3.8197   3.8902   3.9054
     4.2221   4.2711   4.3319   4.4092   4.5243   4.5906   4.7527   4.8043
     5.0108   5.0359   5.1632   5.2306   5.3478   5.3737   5.4539   5.4869
     5.7653   5.8340   5.9147   5.9697   6.1597   6.2009   6.2902   6.3984
     6.6104   6.6587   6.7944   6.8365   7.0703   7.1028   7.2027   7.2167
     9.4022   9.4185   9.6990   9.7009  10.0430  10.0611  10.1057  10.1368
    10.2307  10.2761  10.5151  10.5327  11.5638  11.6189  11.6983  11.7768
    11.8158  11.8920  12.0811  12.2115  12.4438  12.4961  12.6062  12.6460
    12.7475  12.7958  12.9815  13.0012

     occupation numbers 
     1.0000   1.0000   1.0000   1.0000   1.0000   1.0000   1.0000   1.0000
     1.0000   1.0000   1.0000   1.0000   1.0000   1.0000   1.0000   1.0000
     1.0000   1.0000   1.0000   1.0000   1.0000   1.0000   1.0000   1.0000
     1.0000   1.0000   1.0000   1.0000   1.0000   1.0000   1.0000   1.0000
     1.0000   1.0000   1.0000   1.0000   1.0000   1.0000   1.0000   1.0000
     1.0000   1.0000   1.0000   1.0000   1.0000   1.0000   1.0000   1.0000
     1.0000   1.0000   1.0000   1.0000   1.0000   1.0000   1.0000   1.0000
     1.0000   1.0000   1.0000   1.0000   1.0000   1.0000   1.0000   1.0000
     1.0000   1.0000   1.0000   1.0000   1.0000   1.0000   1.0000   1.0000
     1.0000   1.0000   1.0000   1.0000   1.0000   1.0000   1.0000   1.0000
     0.0000   0.0000   0.0000   0.0000   0.0000   0.0000   0.0000   0.0000
     0.0000   0.0000   0.0000   0.0000   0.0000   0.0000   0.0000   0.0000
     0.0000   0.0000   0.0000   0.0000   0.0000   0.0000   0.0000   0.0000
     0.0000   0.0000   0.0000   0.0000

          k = 0.2000 0.1777-0.1371 ( 18684 PWs)   bands (ev):

   -41.4238 -41.4238 -41.4202 -41.4202 -26.6635 -26.6635 -26.6631 -26.6631
   -19.5043 -19.5043 -19.4736 -19.4736 -19.4342 -19.4342 -19.4322 -19.4322
   -19.4090 -19.4090 -19.4017 -19.4017  -8.7429  -8.7429  -8.7394  -8.7394
    -8.7321  -8.7321  -8.7213  -8.7213  -8.6833  -8.6833  -8.6657  -8.6657
    -4.4722  -4.4722  -4.0933  -4.0933  -3.9125  -3.9125  -3.5578  -3.5578
    -3.4240  -3.4240  -3.3884  -3.3884   3.8003   3.8003   3.8845   3.8845
     4.2831   4.2831   4.3632   4.3632   4.5668   4.5668   4.7711   4.7711
     5.0158   5.0158   5.1904   5.1904   5.3504   5.3504   5.4549   5.4549
     5.8080   5.8080   5.9547   5.9547   6.1829   6.1829   6.3550   6.3550
     6.6464   6.6464   6.8147   6.8147   7.0769   7.0769   7.1969   7.1969
     9.4137   9.4137   9.6940   9.6940  10.0825  10.0825  10.1024  10.1024
    10.2430  10.2430  10.5210  10.5210  11.6605  11.6605  11.7136  11.7136
    11.8631  11.8631  12.1406  12.1406  12.4519  12.4519  12.6401  12.6401
    12.7953  12.7953  12.9024  12.9024

     occupation numbers 
     1.0000   1.0000   1.0000   1.0000   1.0000   1.0000   1.0000   1.0000
     1.0000   1.0000   1.0000   1.0000   1.0000   1.0000   1.0000   1.0000
     1.0000   1.0000   1.0000   1.0000   1.0000   1.0000   1.0000   1.0000
     1.0000   1.0000   1.0000   1.0000   1.0000   1.0000   1.0000   1.0000
     1.0000   1.0000   1.0000   1.0000   1.0000   1.0000   1.0000   1.0000
     1.0000   1.0000   1.0000   1.0000   1.0000   1.0000   1.0000   1.0000
     1.0000   1.0000   1.0000   1.0000   1.0000   1.0000   1.0000   1.0000
     1.0000   1.0000   1.0000   1.0000   1.0000   1.0000   1.0000   1.0000
     1.0000   1.0000   1.0000   1.0000   1.0000   1.0000   1.0000   1.0000
     1.0000   1.0000   1.0000   1.0000   1.0000   1.0000   1.0000   1.0000
     0.0000   0.0000   0.0000   0.0000   0.0000   0.0000   0.0000   0.0000
     0.0000   0.0000   0.0000   0.0000   0.0000   0.0000   0.0000   0.0000
     0.0000   0.0000   0.0000   0.0000   0.0000   0.0000   0.0000   0.0000
     0.0000   0.0000   0.0000   0.0000

          k = 0.2000-0.2221 0.0000 ( 18720 PWs)   bands (ev):

   -41.4238 -41.4238 -41.4202 -41.4202 -26.6634 -26.6634 -26.6632 -26.6632
   -19.5043 -19.5043 -19.4736 -19.4736 -19.4342 -19.4342 -19.4322 -19.4322
   -19.4090 -19.4090 -19.4017 -19.4017  -8.7459  -8.7459  -8.7366  -8.7366
    -8.7325  -8.7325  -8.7208  -8.7208  -8.6775  -8.6775  -8.6715  -8.6715
    -4.4702  -4.4701  -4.0712  -4.0711  -3.9456  -3.9456  -3.5384  -3.5384
    -3.4670  -3.4669  -3.3557  -3.3557   3.8243   3.8243   3.9312   3.9313
     4.1574   4.1574   4.3421   4.3421   4.5752   4.5752   4.8069   4.8070
     5.0363   5.0363   5.1803   5.1803   5.4122   5.4122   5.5205   5.5205
     5.7202   5.7202   5.9638   5.9639   6.0885   6.0885   6.3591   6.3591
     6.6181   6.6181   6.8879   6.8879   7.1121   7.1122   7.2150   7.2150
     9.4288   9.4288   9.6944   9.6944   9.9752   9.9753  10.1386  10.1387
    10.2776  10.2777  10.5391  10.5391  11.4494  11.4494  11.6829  11.6830
    11.8643  11.8643  12.1701  12.1702  12.5357  12.5358  12.5989  12.5989
    12.7384  12.7385  13.1250  13.1251

     occupation numbers 
     1.0000   1.0000   1.0000   1.0000   1.0000   1.0000   1.0000   1.0000
     1.0000   1.0000   1.0000   1.0000   1.0000   1.0000   1.0000   1.0000
     1.0000   1.0000   1.0000   1.0000   1.0000   1.0000   1.0000   1.0000
     1.0000   1.0000   1.0000   1.0000   1.0000   1.0000   1.0000   1.0000
     1.0000   1.0000   1.0000   1.0000   1.0000   1.0000   1.0000   1.0000
     1.0000   1.0000   1.0000   1.0000   1.0000   1.0000   1.0000   1.0000
     1.0000   1.0000   1.0000   1.0000   1.0000   1.0000   1.0000   1.0000
     1.0000   1.0000   1.0000   1.0000   1.0000   1.0000   1.0000   1.0000
     1.0000   1.0000   1.0000   1.0000   1.0000   1.0000   1.0000   1.0000
     1.0000   1.0000   1.0000   1.0000   1.0000   1.0000   1.0000   1.0000
     0.0000   0.0000   0.0000   0.0000   0.0000   0.0000   0.0000   0.0000
     0.0000   0.0000   0.0000   0.0000   0.0000   0.0000   0.0000   0.0000
     0.0000   0.0000   0.0000   0.0000   0.0000   0.0000   0.0000   0.0000
     0.0000   0.0000   0.0000   0.0000

          k = 0.2000-0.2221 0.0457 ( 18716 PWs)   bands (ev):

   -41.4238 -41.4238 -41.4202 -41.4202 -26.6634 -26.6634 -26.6632 -26.6632
   -19.5043 -19.5043 -19.4736 -19.4736 -19.4342 -19.4342 -19.4322 -19.4322
   -19.4090 -19.4090 -19.4017 -19.4017  -8.7453  -8.7453  -8.7371  -8.7371
    -8.7324  -8.7324  -8.7210  -8.7210  -8.6772  -8.6772  -8.6717  -8.6717
    -4.4678  -4.4678  -4.0829  -4.0829  -3.9362  -3.9362  -3.5415  -3.5415
    -3.4580  -3.4579  -3.3617  -3.3616   3.8170   3.8170   3.9153   3.9153
     4.1837   4.1837   4.3591   4.3591   4.5773   4.5774   4.7948   4.7948
     5.0392   5.0392   5.1727   5.1728   5.3902   5.3903   5.4917   5.4917
     5.7606   5.7607   5.9393   5.9393   6.1316   6.1317   6.3543   6.3543
     6.6314   6.6315   6.8853   6.8853   7.1029   7.1029   7.1993   7.1994
     9.4330   9.4331   9.6852   9.6852   9.9951   9.9952  10.1321  10.1321
    10.2689  10.2690  10.5358  10.5358  11.4898  11.4899  11.7001  11.7002
    11.8669  11.8669  12.1598  12.1599  12.5229  12.5229  12.6223  12.6223
    12.7103  12.7103  13.0918  13.0918

     occupation numbers 
     1.0000   1.0000   1.0000   1.0000   1.0000   1.0000   1.0000   1.0000
     1.0000   1.0000   1.0000   1.0000   1.0000   1.0000   1.0000   1.0000
     1.0000   1.0000   1.0000   1.0000   1.0000   1.0000   1.0000   1.0000
     1.0000   1.0000   1.0000   1.0000   1.0000   1.0000   1.0000   1.0000
     1.0000   1.0000   1.0000   1.0000   1.0000   1.0000   1.0000   1.0000
     1.0000   1.0000   1.0000   1.0000   1.0000   1.0000   1.0000   1.0000
     1.0000   1.0000   1.0000   1.0000   1.0000   1.0000   1.0000   1.0000
     1.0000   1.0000   1.0000   1.0000   1.0000   1.0000   1.0000   1.0000
     1.0000   1.0000   1.0000   1.0000   1.0000   1.0000   1.0000   1.0000
     1.0000   1.0000   1.0000   1.0000   1.0000   1.0000   1.0000   1.0000
     0.0000   0.0000   0.0000   0.0000   0.0000   0.0000   0.0000   0.0000
     0.0000   0.0000   0.0000   0.0000   0.0000   0.0000   0.0000   0.0000
     0.0000   0.0000   0.0000   0.0000   0.0000   0.0000   0.0000   0.0000
     0.0000   0.0000   0.0000   0.0000

          k = 0.2000-0.2221 0.0914 ( 18710 PWs)   bands (ev):

   -41.4238 -41.4238 -41.4202 -41.4202 -26.6634 -26.6634 -26.6632 -26.6632
   -19.5043 -19.5043 -19.4736 -19.4736 -19.4342 -19.4342 -19.4322 -19.4322
   -19.4090 -19.4090 -19.4017 -19.4017  -8.7440  -8.7440  -8.7383  -8.7383
    -8.7322  -8.7322  -8.7215  -8.7215  -8.6765  -8.6765  -8.6722  -8.6722
    -4.4630  -4.4629  -4.1031  -4.1031  -3.9209  -3.9209  -3.5464  -3.5464
    -3.4370  -3.4369  -3.3777  -3.3776   3.8074   3.8074   3.8825   3.8825
     4.2471   4.2472   4.3735   4.3735   4.5927   4.5928   4.7638   4.7639
     5.0476   5.0476   5.1539   5.1539   5.3466   5.3467   5.4557   5.4557
     5.8111   5.8111   5.9301   5.9301   6.1841   6.1841   6.3496   6.3496
     6.6565   6.6565   6.8861   6.8861   7.0784   7.0784   7.1683   7.1683
     9.4421   9.4421   9.6676   9.6676  10.0405  10.0406  10.1148  10.1148
    10.2491  10.2491  10.5287  10.5287  11.5871  11.5871  11.7282  11.7283
    11.8734  11.8734  12.1341  12.1342  12.4911  12.4911  12.6451  12.6451
    12.6974  12.6974  12.9718  12.9719

     occupation numbers 
     1.0000   1.0000   1.0000   1.0000   1.0000   1.0000   1.0000   1.0000
     1.0000   1.0000   1.0000   1.0000   1.0000   1.0000   1.0000   1.0000
     1.0000   1.0000   1.0000   1.0000   1.0000   1.0000   1.0000   1.0000
     1.0000   1.0000   1.0000   1.0000   1.0000   1.0000   1.0000   1.0000
     1.0000   1.0000   1.0000   1.0000   1.0000   1.0000   1.0000   1.0000
     1.0000   1.0000   1.0000   1.0000   1.0000   1.0000   1.0000   1.0000
     1.0000   1.0000   1.0000   1.0000   1.0000   1.0000   1.0000   1.0000
     1.0000   1.0000   1.0000   1.0000   1.0000   1.0000   1.0000   1.0000
     1.0000   1.0000   1.0000   1.0000   1.0000   1.0000   1.0000   1.0000
     1.0000   1.0000   1.0000   1.0000   1.0000   1.0000   1.0000   1.0000
     0.0000   0.0000   0.0000   0.0000   0.0000   0.0000   0.0000   0.0000
     0.0000   0.0000   0.0000   0.0000   0.0000   0.0000   0.0000   0.0000
     0.0000   0.0000   0.0000   0.0000   0.0000   0.0000   0.0000   0.0000
     0.0000   0.0000   0.0000   0.0000

          k = 0.2000-0.2221-0.1371 ( 18672 PWs)   bands (ev):

   -41.4238 -41.4238 -41.4202 -41.4202 -26.6634 -26.6634 -26.6632 -26.6632
   -19.5043 -19.5043 -19.4736 -19.4736 -19.4342 -19.4342 -19.4322 -19.4322
   -19.4090 -19.4090 -19.4017 -19.4017  -8.7430  -8.7430  -8.7393  -8.7393
    -8.7321  -8.7321  -8.7218  -8.7218  -8.6761  -8.6761  -8.6725  -8.6725
    -4.4604  -4.4604  -4.1122  -4.1122  -3.9143  -3.9143  -3.5486  -3.5486
    -3.4203  -3.4203  -3.3921  -3.3921   3.8054   3.8054   3.8652   3.8652
     4.2949   4.2949   4.3592   4.3592   4.6109   4.6109   4.7418   4.7418
     5.0545   5.0545   5.1407   5.1407   5.3270   5.3270   5.4414   5.4414
     5.8242   5.8242   5.9401   5.9401   6.2004   6.2004   6.3502   6.3502
     6.6685   6.6685   6.8907   6.8907   7.0616   7.0616   7.1531   7.1531
     9.4471   9.4471   9.6589   9.6589  10.0848  10.0848  10.0861  10.0861
    10.2374  10.2374  10.5251  10.5251  11.6613  11.6613  11.7207  11.7207
    11.8807  11.8807  12.1171  12.1171  12.4716  12.4716  12.6152  12.6152
    12.7850  12.7850  12.8506  12.8506

     occupation numbers 
     1.0000   1.0000   1.0000   1.0000   1.0000   1.0000   1.0000   1.0000
     1.0000   1.0000   1.0000   1.0000   1.0000   1.0000   1.0000   1.0000
     1.0000   1.0000   1.0000   1.0000   1.0000   1.0000   1.0000   1.0000
     1.0000   1.0000   1.0000   1.0000   1.0000   1.0000   1.0000   1.0000
     1.0000   1.0000   1.0000   1.0000   1.0000   1.0000   1.0000   1.0000
     1.0000   1.0000   1.0000   1.0000   1.0000   1.0000   1.0000   1.0000
     1.0000   1.0000   1.0000   1.0000   1.0000   1.0000   1.0000   1.0000
     1.0000   1.0000   1.0000   1.0000   1.0000   1.0000   1.0000   1.0000
     1.0000   1.0000   1.0000   1.0000   1.0000   1.0000   1.0000   1.0000
     1.0000   1.0000   1.0000   1.0000   1.0000   1.0000   1.0000   1.0000
     0.0000   0.0000   0.0000   0.0000   0.0000   0.0000   0.0000   0.0000
     0.0000   0.0000   0.0000   0.0000   0.0000   0.0000   0.0000   0.0000
     0.0000   0.0000   0.0000   0.0000   0.0000   0.0000   0.0000   0.0000
     0.0000   0.0000   0.0000   0.0000

          k = 0.2500 0.0000 0.0000 ( 18714 PWs)   bands (ev):

   -41.4227 -41.4227 -41.4196 -41.4196 -26.6610 -26.6608 -26.6595 -26.6594
   -19.5002 -19.5002 -19.4723 -19.4723 -19.4494 -19.4494 -19.4407 -19.4407
   -19.4162 -19.4162 -19.4034 -19.4033  -8.7981  -8.7980  -8.7721  -8.7700
    -8.7256  -8.7233  -8.7226  -8.7089  -8.7072  -8.6911  -8.6404  -8.6394
    -4.5074  -4.3417  -3.9505  -3.9281  -3.8743  -3.8040  -3.6998  -3.6845
    -3.4510  -3.3980  -3.3691  -3.3382   3.8191   3.8907   3.8910   4.0883
     4.0924   4.1829   4.3672   4.3912   4.4501   4.4677   4.5027   4.8384
     5.0728   5.1135   5.1800   5.1802   5.3681   5.4637   5.5041   5.6104
     5.7759   5.7777   5.8646   5.8810   5.9486   5.9717   6.1022   6.3879
     6.4240   6.4372   6.5159   6.7319   6.7661   6.9343   7.0346   7.2000
     9.4308   9.4481   9.7941   9.8299  10.0270  10.1300  10.2427  10.3023
    10.3934  10.4254  10.4635  10.5975  11.7292  11.7439  11.9214  11.9552
    12.0139  12.0348  12.0706  12.1080  12.3305  12.3450  12.6282  13.1026
    13.1193  13.2548  13.2928  13.3420

     occupation numbers 
     1.0000   1.0000   1.0000   1.0000   1.0000   1.0000   1.0000   1.0000
     1.0000   1.0000   1.0000   1.0000   1.0000   1.0000   1.0000   1.0000
     1.0000   1.0000   1.0000   1.0000   1.0000   1.0000   1.0000   1.0000
     1.0000   1.0000   1.0000   1.0000   1.0000   1.0000   1.0000   1.0000
     1.0000   1.0000   1.0000   1.0000   1.0000   1.0000   1.0000   1.0000
     1.0000   1.0000   1.0000   1.0000   1.0000   1.0000   1.0000   1.0000
     1.0000   1.0000   1.0000   1.0000   1.0000   1.0000   1.0000   1.0000
     1.0000   1.0000   1.0000   1.0000   1.0000   1.0000   1.0000   1.0000
     1.0000   1.0000   1.0000   1.0000   1.0000   1.0000   1.0000   1.0000
     1.0000   1.0000   1.0000   1.0000   1.0000   1.0000   1.0000   1.0000
     0.0000   0.0000   0.0000   0.0000   0.0000   0.0000   0.0000   0.0000
     0.0000   0.0000   0.0000   0.0000   0.0000   0.0000   0.0000   0.0000
     0.0000   0.0000   0.0000   0.0000   0.0000   0.0000   0.0000   0.0000
     0.0000   0.0000   0.0000   0.0000

          k = 0.2500 0.0000 0.0457 ( 18720 PWs)   bands (ev):

   -41.4227 -41.4227 -41.4196 -41.4196 -26.6610 -26.6608 -26.6595 -26.6594
   -19.5002 -19.5002 -19.4723 -19.4723 -19.4494 -19.4494 -19.4407 -19.4407
   -19.4162 -19.4162 -19.4034 -19.4033  -8.7981  -8.7980  -8.7720  -8.7701
    -8.7253  -8.7233  -8.7223  -8.7121  -8.7039  -8.6918  -8.6403  -8.6394
    -4.4982  -4.3557  -3.9481  -3.9290  -3.8671  -3.8074  -3.6986  -3.6855
    -3.4487  -3.3912  -3.3778  -3.3391   3.8246   3.8850   3.9015   4.0667
     4.0772   4.1989   4.3096   4.3977   4.4513   4.4832   4.5592   4.8587
     5.0512   5.0950   5.1961   5.2077   5.3802   5.4610   5.5031   5.6059
     5.7206   5.7607   5.8834   5.8898   5.9359   6.0067   6.1120   6.3291
     6.3418   6.4890   6.5260   6.6767   6.8254   6.9825   7.0545   7.1917
     9.4300   9.4440   9.7950   9.8272  10.0373  10.1386  10.2184  10.2905
    10.3989  10.4159  10.4743  10.5868  11.6826  11.7214  11.8677  11.9192
    11.9852  12.1163  12.1690  12.2051  12.2130  12.4486  12.6705  13.0728
    13.1260  13.2299  13.3087  13.3683

     occupation numbers 
     1.0000   1.0000   1.0000   1.0000   1.0000   1.0000   1.0000   1.0000
     1.0000   1.0000   1.0000   1.0000   1.0000   1.0000   1.0000   1.0000
     1.0000   1.0000   1.0000   1.0000   1.0000   1.0000   1.0000   1.0000
     1.0000   1.0000   1.0000   1.0000   1.0000   1.0000   1.0000   1.0000
     1.0000   1.0000   1.0000   1.0000   1.0000   1.0000   1.0000   1.0000
     1.0000   1.0000   1.0000   1.0000   1.0000   1.0000   1.0000   1.0000
     1.0000   1.0000   1.0000   1.0000   1.0000   1.0000   1.0000   1.0000
     1.0000   1.0000   1.0000   1.0000   1.0000   1.0000   1.0000   1.0000
     1.0000   1.0000   1.0000   1.0000   1.0000   1.0000   1.0000   1.0000
     1.0000   1.0000   1.0000   1.0000   1.0000   1.0000   1.0000   1.0000
     0.0000   0.0000   0.0000   0.0000   0.0000   0.0000   0.0000   0.0000
     0.0000   0.0000   0.0000   0.0000   0.0000   0.0000   0.0000   0.0000
     0.0000   0.0000   0.0000   0.0000   0.0000   0.0000   0.0000   0.0000
     0.0000   0.0000   0.0000   0.0000

          k = 0.2500 0.0000 0.0914 ( 18708 PWs)   bands (ev):

   -41.4227 -41.4227 -41.4196 -41.4196 -26.6609 -26.6609 -26.6595 -26.6594
   -19.5002 -19.5002 -19.4723 -19.4723 -19.4494 -19.4494 -19.4407 -19.4407
   -19.4162 -19.4162 -19.4034 -19.4034  -8.7981  -8.7981  -8.7716  -8.7705
    -8.7245  -8.7234  -8.7212  -8.7158  -8.7001  -8.6937  -8.6402  -8.6396
    -4.4722  -4.3910  -3.9426  -3.9317  -3.8502  -3.8171  -3.6956  -3.6883
    -3.4391  -3.3980  -3.3753  -3.3452   3.8407   3.8727   3.9231   4.0095
     4.0814   4.2124   4.2471   4.3570   4.4775   4.5062   4.6770   4.8882
     5.0030   5.0568   5.2262   5.2525   5.4123   5.4592   5.4961   5.5773
     5.6751   5.7279   5.8945   5.8952   5.9505   6.0360   6.1109   6.2108
     6.3051   6.4895   6.5449   6.6182   6.9247   7.0248   7.1034   7.1741
     9.4283   9.4352   9.7994   9.8193  10.0661  10.1580  10.1726  10.2556
    10.4043  10.4052  10.4969  10.5596  11.6271  11.6530  11.8798  11.9053
    11.9244  12.0650  12.2808  12.3088  12.3607  12.5009  12.7672  12.9985
    13.1082  13.1801  13.2937  13.3137

     occupation numbers 
     1.0000   1.0000   1.0000   1.0000   1.0000   1.0000   1.0000   1.0000
     1.0000   1.0000   1.0000   1.0000   1.0000   1.0000   1.0000   1.0000
     1.0000   1.0000   1.0000   1.0000   1.0000   1.0000   1.0000   1.0000
     1.0000   1.0000   1.0000   1.0000   1.0000   1.0000   1.0000   1.0000
     1.0000   1.0000   1.0000   1.0000   1.0000   1.0000   1.0000   1.0000
     1.0000   1.0000   1.0000   1.0000   1.0000   1.0000   1.0000   1.0000
     1.0000   1.0000   1.0000   1.0000   1.0000   1.0000   1.0000   1.0000
     1.0000   1.0000   1.0000   1.0000   1.0000   1.0000   1.0000   1.0000
     1.0000   1.0000   1.0000   1.0000   1.0000   1.0000   1.0000   1.0000
     1.0000   1.0000   1.0000   1.0000   1.0000   1.0000   1.0000   1.0000
     0.0000   0.0000   0.0000   0.0000   0.0000   0.0000   0.0000   0.0000
     0.0000   0.0000   0.0000   0.0000   0.0000   0.0000   0.0000   0.0000
     0.0000   0.0000   0.0000   0.0000   0.0000   0.0000   0.0000   0.0000
     0.0000   0.0000   0.0000   0.0000

          k = 0.2500 0.0000-0.1371 ( 18708 PWs)   bands (ev):

   -41.4227 -41.4227 -41.4196 -41.4196 -26.6609 -26.6609 -26.6594 -26.6594
   -19.5002 -19.5002 -19.4723 -19.4723 -19.4494 -19.4494 -19.4407 -19.4407
   -19.4162 -19.4162 -19.4034 -19.4034  -8.7981  -8.7981  -8.7710  -8.7710
    -8.7238  -8.7238  -8.7189  -8.7189  -8.6966  -8.6966  -8.6399  -8.6399
    -4.4338  -4.4338  -3.9365  -3.9365  -3.8319  -3.8319  -3.6919  -3.6919
    -3.4209  -3.4209  -3.3582  -3.3582   3.8588   3.8588   3.9554   3.9554
     4.1326   4.1326   4.2997   4.2997   4.5010   4.5010   4.8150   4.8150
     5.0126   5.0126   5.2544   5.2544   5.4499   5.4499   5.5198   5.5198
     5.6900   5.6900   5.8961   5.8961   6.0154   6.0154   6.1069   6.1069
     6.3903   6.3903   6.5894   6.5894   6.9993   6.9993   7.1498   7.1498
     9.4290   9.4290   9.8085   9.8085  10.1096  10.1096  10.2086  10.2086
    10.4037  10.4037  10.5267  10.5267  11.6144  11.6144  11.8991  11.8991
    11.9573  11.9573  12.3609  12.3609  12.4772  12.4772  12.8781  12.8781
    13.1084  13.1084  13.3017  13.3017

     occupation numbers 
     1.0000   1.0000   1.0000   1.0000   1.0000   1.0000   1.0000   1.0000
     1.0000   1.0000   1.0000   1.0000   1.0000   1.0000   1.0000   1.0000
     1.0000   1.0000   1.0000   1.0000   1.0000   1.0000   1.0000   1.0000
     1.0000   1.0000   1.0000   1.0000   1.0000   1.0000   1.0000   1.0000
     1.0000   1.0000   1.0000   1.0000   1.0000   1.0000   1.0000   1.0000
     1.0000   1.0000   1.0000   1.0000   1.0000   1.0000   1.0000   1.0000
     1.0000   1.0000   1.0000   1.0000   1.0000   1.0000   1.0000   1.0000
     1.0000   1.0000   1.0000   1.0000   1.0000   1.0000   1.0000   1.0000
     1.0000   1.0000   1.0000   1.0000   1.0000   1.0000   1.0000   1.0000
     1.0000   1.0000   1.0000   1.0000   1.0000   1.0000   1.0000   1.0000
     0.0000   0.0000   0.0000   0.0000   0.0000   0.0000   0.0000   0.0000
     0.0000   0.0000   0.0000   0.0000   0.0000   0.0000   0.0000   0.0000
     0.0000   0.0000   0.0000   0.0000   0.0000   0.0000   0.0000   0.0000
     0.0000   0.0000   0.0000   0.0000

          k = 0.2500 0.0444 0.0000 ( 18692 PWs)   bands (ev):

   -41.4227 -41.4227 -41.4196 -41.4196 -26.6609 -26.6608 -26.6596 -26.6594
   -19.5001 -19.5001 -19.4723 -19.4723 -19.4494 -19.4494 -19.4407 -19.4407
   -19.4162 -19.4162 -19.4034 -19.4033  -8.7976  -8.7973  -8.7729  -8.7708
    -8.7269  -8.7260  -8.7202  -8.7092  -8.7042  -8.6895  -8.6418  -8.6404
    -4.5003  -4.3394  -3.9497  -3.9294  -3.8957  -3.8253  -3.6805  -3.6681
    -3.4510  -3.4021  -3.3669  -3.3380   3.8276   3.8977   3.9013   4.0470
     4.1329   4.1957   4.3529   4.3833   4.3903   4.4615   4.5761   4.8374
     5.0772   5.0806   5.1585   5.1794   5.3659   5.4168   5.4840   5.6070
     5.7686   5.8053   5.8541   5.8656   5.9883   6.0102   6.1120   6.3383
     6.4156   6.4582   6.5495   6.7384   6.8031   6.9496   7.0456   7.2015
     9.4375   9.4453   9.7818   9.8144  10.0411  10.1302  10.2107  10.3266
    10.3695  10.4227  10.4567  10.5935  11.6718  11.7698  11.8481  11.9383
    11.9702  12.0824  12.1286  12.1665  12.3262  12.3523  12.6130  13.0200
    13.1036  13.1904  13.2736  13.3904

     occupation numbers 
     1.0000   1.0000   1.0000   1.0000   1.0000   1.0000   1.0000   1.0000
     1.0000   1.0000   1.0000   1.0000   1.0000   1.0000   1.0000   1.0000
     1.0000   1.0000   1.0000   1.0000   1.0000   1.0000   1.0000   1.0000
     1.0000   1.0000   1.0000   1.0000   1.0000   1.0000   1.0000   1.0000
     1.0000   1.0000   1.0000   1.0000   1.0000   1.0000   1.0000   1.0000
     1.0000   1.0000   1.0000   1.0000   1.0000   1.0000   1.0000   1.0000
     1.0000   1.0000   1.0000   1.0000   1.0000   1.0000   1.0000   1.0000
     1.0000   1.0000   1.0000   1.0000   1.0000   1.0000   1.0000   1.0000
     1.0000   1.0000   1.0000   1.0000   1.0000   1.0000   1.0000   1.0000
     1.0000   1.0000   1.0000   1.0000   1.0000   1.0000   1.0000   1.0000
     0.0000   0.0000   0.0000   0.0000   0.0000   0.0000   0.0000   0.0000
     0.0000   0.0000   0.0000   0.0000   0.0000   0.0000   0.0000   0.0000
     0.0000   0.0000   0.0000   0.0000   0.0000   0.0000   0.0000   0.0000
     0.0000   0.0000   0.0000   0.0000

          k = 0.2500 0.0444 0.0457 ( 18717 PWs)   bands (ev):

   -41.4227 -41.4227 -41.4196 -41.4196 -26.6609 -26.6608 -26.6595 -26.6594
   -19.5001 -19.5001 -19.4723 -19.4723 -19.4494 -19.4494 -19.4407 -19.4407
   -19.4162 -19.4162 -19.4034 -19.4033  -8.7976  -8.7973  -8.7727  -8.7709
    -8.7266  -8.7257  -8.7202  -8.7115  -8.7019  -8.6902  -8.6417  -8.6405
    -4.4913  -4.3529  -3.9502  -3.9301  -3.8869  -3.8281  -3.6796  -3.6689
    -3.4485  -3.3958  -3.3748  -3.3392   3.8317   3.8888   3.9140   4.0312
     4.1143   4.2074   4.3032   4.3795   4.4197   4.4849   4.6072   4.8562
     5.0527   5.0685   5.1817   5.1890   5.3755   5.4177   5.4781   5.6025
     5.7171   5.7742   5.8691   5.8901   5.9759   6.0526   6.1251   6.2599
     6.4019   6.4853   6.5473   6.6914   6.8465   6.9853   7.0678   7.1923
     9.4372   9.4435   9.7821   9.8114  10.0498  10.1386  10.1928  10.3085
    10.3725  10.4096  10.4740  10.5840  11.6446  11.7402  11.8584  11.8991
    11.9926  12.0943  12.1476  12.1894  12.3164  12.4459  12.6524  13.0123
    13.1142  13.1773  13.2726  13.3312

     occupation numbers 
     1.0000   1.0000   1.0000   1.0000   1.0000   1.0000   1.0000   1.0000
     1.0000   1.0000   1.0000   1.0000   1.0000   1.0000   1.0000   1.0000
     1.0000   1.0000   1.0000   1.0000   1.0000   1.0000   1.0000   1.0000
     1.0000   1.0000   1.0000   1.0000   1.0000   1.0000   1.0000   1.0000
     1.0000   1.0000   1.0000   1.0000   1.0000   1.0000   1.0000   1.0000
     1.0000   1.0000   1.0000   1.0000   1.0000   1.0000   1.0000   1.0000
     1.0000   1.0000   1.0000   1.0000   1.0000   1.0000   1.0000   1.0000
     1.0000   1.0000   1.0000   1.0000   1.0000   1.0000   1.0000   1.0000
     1.0000   1.0000   1.0000   1.0000   1.0000   1.0000   1.0000   1.0000
     1.0000   1.0000   1.0000   1.0000   1.0000   1.0000   1.0000   1.0000
     0.0000   0.0000   0.0000   0.0000   0.0000   0.0000   0.0000   0.0000
     0.0000   0.0000   0.0000   0.0000   0.0000   0.0000   0.0000   0.0000
     0.0000   0.0000   0.0000   0.0000   0.0000   0.0000   0.0000   0.0000
     0.0000   0.0000   0.0000   0.0000

          k = 0.2500 0.0444 0.0914 ( 18719 PWs)   bands (ev):

   -41.4227 -41.4227 -41.4196 -41.4196 -26.6609 -26.6608 -26.6595 -26.6594
   -19.5001 -19.5001 -19.4723 -19.4723 -19.4494 -19.4494 -19.4407 -19.4407
   -19.4162 -19.4162 -19.4034 -19.4034  -8.7976  -8.7974  -8.7723  -8.7713
    -8.7259  -8.7252  -8.7196  -8.7150  -8.6983  -8.6921  -8.6414  -8.6407
    -4.4659  -4.3869  -3.9477  -3.9344  -3.8679  -3.8362  -3.6773  -3.6713
    -3.4386  -3.3981  -3.3763  -3.3459   3.8449   3.8761   3.9315   3.9956
     4.1030   4.2174   4.2465   4.3457   4.4676   4.5094   4.7006   4.8890
     4.9975   5.0405   5.2013   5.2229   5.3935   5.4261   5.4704   5.5685
     5.6708   5.7244   5.8992   5.9239   5.9690   6.0977   6.1105   6.1924
     6.3474   6.4889   6.5581   6.6384   6.9294   7.0222   7.1103   7.1731
     9.4361   9.4399   9.7849   9.8029  10.0733  10.1506  10.1663  10.2641
    10.3764  10.3967  10.5010  10.5599  11.6176  11.6802  11.8721  11.8908
    11.9383  12.0408  12.2275  12.3335  12.3943  12.5003  12.7502  12.9728
    13.1073  13.1614  13.2247  13.2682

     occupation numbers 
     1.0000   1.0000   1.0000   1.0000   1.0000   1.0000   1.0000   1.0000
     1.0000   1.0000   1.0000   1.0000   1.0000   1.0000   1.0000   1.0000
     1.0000   1.0000   1.0000   1.0000   1.0000   1.0000   1.0000   1.0000
     1.0000   1.0000   1.0000   1.0000   1.0000   1.0000   1.0000   1.0000
     1.0000   1.0000   1.0000   1.0000   1.0000   1.0000   1.0000   1.0000
     1.0000   1.0000   1.0000   1.0000   1.0000   1.0000   1.0000   1.0000
     1.0000   1.0000   1.0000   1.0000   1.0000   1.0000   1.0000   1.0000
     1.0000   1.0000   1.0000   1.0000   1.0000   1.0000   1.0000   1.0000
     1.0000   1.0000   1.0000   1.0000   1.0000   1.0000   1.0000   1.0000
     1.0000   1.0000   1.0000   1.0000   1.0000   1.0000   1.0000   1.0000
     0.0000   0.0000   0.0000   0.0000   0.0000   0.0000   0.0000   0.0000
     0.0000   0.0000   0.0000   0.0000   0.0000   0.0000   0.0000   0.0000
     0.0000   0.0000   0.0000   0.0000   0.0000   0.0000   0.0000   0.0000
     0.0000   0.0000   0.0000   0.0000

          k = 0.2500 0.0444-0.1371 ( 18712 PWs)   bands (ev):

   -41.4227 -41.4227 -41.4196 -41.4196 -26.6609 -26.6609 -26.6595 -26.6595
   -19.5001 -19.5001 -19.4723 -19.4723 -19.4494 -19.4494 -19.4407 -19.4407
   -19.4162 -19.4162 -19.4034 -19.4034  -8.7975  -8.7975  -8.7718  -8.7718
    -8.7253  -8.7253  -8.7179  -8.7179  -8.6949  -8.6949  -8.6411  -8.6411
    -4.4284  -4.4284  -3.9414  -3.9414  -3.8495  -3.8495  -3.6743  -3.6743
    -3.4201  -3.4201  -3.3594  -3.3594   3.8619   3.8619   3.9555   3.9555
     4.1448   4.1448   4.2945   4.2945   4.5010   4.5010   4.8265   4.8265
     5.0002   5.0002   5.2226   5.2226   5.4162   5.4162   5.5081   5.5081
     5.6804   5.6804   5.9318   5.9318   6.0140   6.0140   6.1472   6.1472
     6.3989   6.3989   6.6049   6.6049   6.9989   6.9989   7.1490   7.1490
     9.4368   9.4368   9.7924   9.7924  10.1081  10.1081  10.2105  10.2105
    10.3852  10.3852  10.5301  10.5301  11.6304  11.6304  11.8942  11.8942
    11.9452  11.9452  12.3522  12.3522  12.4751  12.4751  12.8692  12.8692
    13.1015  13.1015  13.2452  13.2452

     occupation numbers 
     1.0000   1.0000   1.0000   1.0000   1.0000   1.0000   1.0000   1.0000
     1.0000   1.0000   1.0000   1.0000   1.0000   1.0000   1.0000   1.0000
     1.0000   1.0000   1.0000   1.0000   1.0000   1.0000   1.0000   1.0000
     1.0000   1.0000   1.0000   1.0000   1.0000   1.0000   1.0000   1.0000
     1.0000   1.0000   1.0000   1.0000   1.0000   1.0000   1.0000   1.0000
     1.0000   1.0000   1.0000   1.0000   1.0000   1.0000   1.0000   1.0000
     1.0000   1.0000   1.0000   1.0000   1.0000   1.0000   1.0000   1.0000
     1.0000   1.0000   1.0000   1.0000   1.0000   1.0000   1.0000   1.0000
     1.0000   1.0000   1.0000   1.0000   1.0000   1.0000   1.0000   1.0000
     1.0000   1.0000   1.0000   1.0000   1.0000   1.0000   1.0000   1.0000
     0.0000   0.0000   0.0000   0.0000   0.0000   0.0000   0.0000   0.0000
     0.0000   0.0000   0.0000   0.0000   0.0000   0.0000   0.0000   0.0000
     0.0000   0.0000   0.0000   0.0000   0.0000   0.0000   0.0000   0.0000
     0.0000   0.0000   0.0000   0.0000

          k = 0.2500 0.0888 0.0000 ( 18715 PWs)   bands (ev):

   -41.4227 -41.4227 -41.4196 -41.4196 -26.6608 -26.6607 -26.6597 -26.6595
   -19.5001 -19.5001 -19.4724 -19.4724 -19.4494 -19.4494 -19.4407 -19.4406
   -19.4162 -19.4162 -19.4034 -19.4033  -8.7960  -8.7954  -8.7750  -8.7730
    -8.7303  -8.7271  -8.7189  -8.7101  -8.6971  -8.6851  -8.6457  -8.6435
    -4.4797  -4.3347  -3.9476  -3.9464  -3.9249  -3.8702  -3.6425  -3.6372
    -3.4509  -3.4119  -3.3623  -3.3379   3.8523   3.9167   3.9280   4.0203
     4.1398   4.2426   4.3123   4.3377   4.3499   4.4708   4.6758   4.8176
     4.9919   5.0665   5.0978   5.2026   5.3503   5.3674   5.4559   5.5578
     5.7466   5.8199   5.8462   5.8530   6.0684   6.0744   6.1683   6.2734
     6.3735   6.4954   6.6259   6.7576   6.8833   6.9859   7.0757   7.2040
     9.4395   9.4548   9.7540   9.7770  10.0736  10.0960  10.1901  10.3062
    10.3518  10.4264  10.4341  10.5839  11.5886  11.7347  11.7918  11.8808
    11.9123  12.1660  12.1811  12.2312  12.3805  12.3990  12.5844  12.8987
    13.0186  13.1393  13.2021  13.3046

     occupation numbers 
     1.0000   1.0000   1.0000   1.0000   1.0000   1.0000   1.0000   1.0000
     1.0000   1.0000   1.0000   1.0000   1.0000   1.0000   1.0000   1.0000
     1.0000   1.0000   1.0000   1.0000   1.0000   1.0000   1.0000   1.0000
     1.0000   1.0000   1.0000   1.0000   1.0000   1.0000   1.0000   1.0000
     1.0000   1.0000   1.0000   1.0000   1.0000   1.0000   1.0000   1.0000
     1.0000   1.0000   1.0000   1.0000   1.0000   1.0000   1.0000   1.0000
     1.0000   1.0000   1.0000   1.0000   1.0000   1.0000   1.0000   1.0000
     1.0000   1.0000   1.0000   1.0000   1.0000   1.0000   1.0000   1.0000
     1.0000   1.0000   1.0000   1.0000   1.0000   1.0000   1.0000   1.0000
     1.0000   1.0000   1.0000   1.0000   1.0000   1.0000   1.0000   1.0000
     0.0000   0.0000   0.0000   0.0000   0.0000   0.0000   0.0000   0.0000
     0.0000   0.0000   0.0000   0.0000   0.0000   0.0000   0.0000   0.0000
     0.0000   0.0000   0.0000   0.0000   0.0000   0.0000   0.0000   0.0000
     0.0000   0.0000   0.0000   0.0000

          k = 0.2500 0.0888 0.0457 ( 18710 PWs)   bands (ev):

   -41.4227 -41.4227 -41.4196 -41.4196 -26.6608 -26.6607 -26.6596 -26.6595
   -19.5001 -19.5001 -19.4724 -19.4724 -19.4494 -19.4494 -19.4407 -19.4406
   -19.4162 -19.4162 -19.4034 -19.4033  -8.7960  -8.7955  -8.7748  -8.7731
    -8.7298  -8.7269  -8.7189  -8.7114  -8.6958  -8.6857  -8.6456  -8.6436
    -4.4714  -4.3462  -3.9641  -3.9340  -3.9185  -3.8694  -3.6424  -3.6376
    -3.4480  -3.4054  -3.3694  -3.3399   3.8519   3.9030   3.9421   4.0060
     4.1290   4.2406   4.2925   4.3512   4.3689   4.4900   4.6944   4.8336
     4.9931   5.0394   5.1152   5.1914   5.3525   5.3724   5.4458   5.5477
     5.7086   5.7833   5.8503   5.8968   6.0575   6.1228   6.1738   6.2148
     6.4135   6.4978   6.6142   6.7295   6.8992   6.9943   7.0997   7.1928
     9.4408   9.4582   9.7516   9.7710  10.0788  10.1050  10.1810  10.3075
    10.3300  10.3941  10.4711  10.5774  11.5840  11.7603  11.7774  11.8958
    11.9401  12.0898  12.1580  12.2485  12.4271  12.4540  12.6180  12.9109
    13.0293  13.1310  13.1939  13.2586

     occupation numbers 
     1.0000   1.0000   1.0000   1.0000   1.0000   1.0000   1.0000   1.0000
     1.0000   1.0000   1.0000   1.0000   1.0000   1.0000   1.0000   1.0000
     1.0000   1.0000   1.0000   1.0000   1.0000   1.0000   1.0000   1.0000
     1.0000   1.0000   1.0000   1.0000   1.0000   1.0000   1.0000   1.0000
     1.0000   1.0000   1.0000   1.0000   1.0000   1.0000   1.0000   1.0000
     1.0000   1.0000   1.0000   1.0000   1.0000   1.0000   1.0000   1.0000
     1.0000   1.0000   1.0000   1.0000   1.0000   1.0000   1.0000   1.0000
     1.0000   1.0000   1.0000   1.0000   1.0000   1.0000   1.0000   1.0000
     1.0000   1.0000   1.0000   1.0000   1.0000   1.0000   1.0000   1.0000
     1.0000   1.0000   1.0000   1.0000   1.0000   1.0000   1.0000   1.0000
     0.0000   0.0000   0.0000   0.0000   0.0000   0.0000   0.0000   0.0000
     0.0000   0.0000   0.0000   0.0000   0.0000   0.0000   0.0000   0.0000
     0.0000   0.0000   0.0000   0.0000   0.0000   0.0000   0.0000   0.0000
     0.0000   0.0000   0.0000   0.0000

          k = 0.2500 0.0888 0.0914 ( 18717 PWs)   bands (ev):

   -41.4227 -41.4227 -41.4196 -41.4196 -26.6608 -26.6607 -26.6596 -26.6595
   -19.5001 -19.5001 -19.4724 -19.4724 -19.4494 -19.4494 -19.4407 -19.4407
   -19.4162 -19.4162 -19.4034 -19.4033  -8.7959  -8.7956  -8.7745  -8.7735
    -8.7287  -8.7267  -8.7184  -8.7142  -8.6930  -8.6874  -8.6451  -8.6440
    -4.4477  -4.3758  -3.9682  -3.9466  -3.8948  -3.8703  -3.6418  -3.6389
    -3.4369  -3.3996  -3.3774  -3.3483   3.8566   3.8867   3.9477   3.9775
     4.1360   4.2327   4.2592   4.3301   4.4408   4.5105   4.7576   4.8712
     4.9856   4.9896   5.1316   5.1652   5.3599   5.3807   5.4325   5.5056
     5.6766   5.7242   5.8919   5.9474   6.0320   6.1010   6.2160   6.2267
     6.4035   6.4838   6.6132   6.6896   6.9425   7.0130   7.1278   7.1697
     9.4471   9.4618   9.7472   9.7579  10.0923  10.1184  10.1741  10.2734
    10.3186  10.3691  10.5057  10.5598  11.6070  11.7257  11.8345  11.8860
    11.9360  11.9889  12.2072  12.3340  12.4447  12.5139  12.7141  12.9255
    13.0299  13.1136  13.1503  13.1920

     occupation numbers 
     1.0000   1.0000   1.0000   1.0000   1.0000   1.0000   1.0000   1.0000
     1.0000   1.0000   1.0000   1.0000   1.0000   1.0000   1.0000   1.0000
     1.0000   1.0000   1.0000   1.0000   1.0000   1.0000   1.0000   1.0000
     1.0000   1.0000   1.0000   1.0000   1.0000   1.0000   1.0000   1.0000
     1.0000   1.0000   1.0000   1.0000   1.0000   1.0000   1.0000   1.0000
     1.0000   1.0000   1.0000   1.0000   1.0000   1.0000   1.0000   1.0000
     1.0000   1.0000   1.0000   1.0000   1.0000   1.0000   1.0000   1.0000
     1.0000   1.0000   1.0000   1.0000   1.0000   1.0000   1.0000   1.0000
     1.0000   1.0000   1.0000   1.0000   1.0000   1.0000   1.0000   1.0000
     1.0000   1.0000   1.0000   1.0000   1.0000   1.0000   1.0000   1.0000
     0.0000   0.0000   0.0000   0.0000   0.0000   0.0000   0.0000   0.0000
     0.0000   0.0000   0.0000   0.0000   0.0000   0.0000   0.0000   0.0000
     0.0000   0.0000   0.0000   0.0000   0.0000   0.0000   0.0000   0.0000
     0.0000   0.0000   0.0000   0.0000

          k = 0.2500 0.0888-0.1371 ( 18720 PWs)   bands (ev):

   -41.4227 -41.4227 -41.4196 -41.4196 -26.6608 -26.6608 -26.6596 -26.6596
   -19.5001 -19.5001 -19.4724 -19.4724 -19.4494 -19.4494 -19.4407 -19.4407
   -19.4162 -19.4162 -19.4034 -19.4034  -8.7958  -8.7958  -8.7740  -8.7740
    -8.7274  -8.7274  -8.7168  -8.7168  -8.6900  -8.6900  -8.6446  -8.6446
    -4.4133  -4.4133  -3.9606  -3.9606  -3.8779  -3.8779  -3.6405  -3.6405
    -3.4178  -3.4178  -3.3631  -3.3631   3.8702   3.8702   3.9540   3.9540
     4.1785   4.1785   4.2910   4.2910   4.4940   4.4940   4.8512   4.8512
     4.9651   4.9651   5.1428   5.1428   5.3741   5.3741   5.4549   5.4549
     5.6836   5.6836   5.9477   5.9477   6.0381   6.0381   6.2543   6.2543
     6.4147   6.4147   6.6534   6.6534   6.9942   6.9942   7.1481   7.1481
     9.4570   9.4570   9.7480   9.7480  10.1081  10.1081  10.2122  10.2122
    10.3421  10.3421  10.5351  10.5351  11.6673  11.6673  11.8679  11.8679
    11.9298  11.9298  12.3291  12.3291  12.4822  12.4822  12.8460  12.8460
    13.0462  13.0462  13.1603  13.1603

     occupation numbers 
     1.0000   1.0000   1.0000   1.0000   1.0000   1.0000   1.0000   1.0000
     1.0000   1.0000   1.0000   1.0000   1.0000   1.0000   1.0000   1.0000
     1.0000   1.0000   1.0000   1.0000   1.0000   1.0000   1.0000   1.0000
     1.0000   1.0000   1.0000   1.0000   1.0000   1.0000   1.0000   1.0000
     1.0000   1.0000   1.0000   1.0000   1.0000   1.0000   1.0000   1.0000
     1.0000   1.0000   1.0000   1.0000   1.0000   1.0000   1.0000   1.0000
     1.0000   1.0000   1.0000   1.0000   1.0000   1.0000   1.0000   1.0000
     1.0000   1.0000   1.0000   1.0000   1.0000   1.0000   1.0000   1.0000
     1.0000   1.0000   1.0000   1.0000   1.0000   1.0000   1.0000   1.0000
     1.0000   1.0000   1.0000   1.0000   1.0000   1.0000   1.0000   1.0000
     0.0000   0.0000   0.0000   0.0000   0.0000   0.0000   0.0000   0.0000
     0.0000   0.0000   0.0000   0.0000   0.0000   0.0000   0.0000   0.0000
     0.0000   0.0000   0.0000   0.0000   0.0000   0.0000   0.0000   0.0000
     0.0000   0.0000   0.0000   0.0000

          k = 0.2500 0.1333 0.0000 ( 18709 PWs)   bands (ev):

   -41.4227 -41.4227 -41.4196 -41.4196 -26.6607 -26.6605 -26.6598 -26.6597
   -19.5001 -19.5001 -19.4725 -19.4725 -19.4494 -19.4494 -19.4406 -19.4406
   -19.4162 -19.4161 -19.4034 -19.4033  -8.7935  -8.7925  -8.7782  -8.7764
    -8.7322  -8.7286  -8.7177  -8.7114  -8.6880  -8.6786  -8.6518  -8.6486
    -4.4482  -4.3337  -3.9849  -3.9449  -3.9295  -3.9194  -3.6080  -3.6073
    -3.4504  -3.4241  -3.3571  -3.3388   3.8908   3.9418   3.9543   4.0192
     4.1281   4.2440   4.2463   4.3232   4.3726   4.4885   4.7654   4.7791
     4.8938   5.0038   5.0403   5.2316   5.3182   5.3714   5.4403   5.4931
     5.7081   5.7639   5.8727   5.8921   6.0976   6.0990   6.2499   6.2739
     6.3284   6.5158   6.7254   6.7975   6.9608   7.0225   7.1137   7.2019
     9.4378   9.4747   9.7255   9.7319  10.0396  10.0999  10.1913  10.2285
    10.3585  10.4009  10.4535  10.5709  11.5239  11.6306  11.7459  11.8007
    11.9217  12.1102  12.2534  12.3110  12.4950  12.5382  12.5589  12.8072
    12.8622  13.1003  13.1573  13.2273

     occupation numbers 
     1.0000   1.0000   1.0000   1.0000   1.0000   1.0000   1.0000   1.0000
     1.0000   1.0000   1.0000   1.0000   1.0000   1.0000   1.0000   1.0000
     1.0000   1.0000   1.0000   1.0000   1.0000   1.0000   1.0000   1.0000
     1.0000   1.0000   1.0000   1.0000   1.0000   1.0000   1.0000   1.0000
     1.0000   1.0000   1.0000   1.0000   1.0000   1.0000   1.0000   1.0000
     1.0000   1.0000   1.0000   1.0000   1.0000   1.0000   1.0000   1.0000
     1.0000   1.0000   1.0000   1.0000   1.0000   1.0000   1.0000   1.0000
     1.0000   1.0000   1.0000   1.0000   1.0000   1.0000   1.0000   1.0000
     1.0000   1.0000   1.0000   1.0000   1.0000   1.0000   1.0000   1.0000
     1.0000   1.0000   1.0000   1.0000   1.0000   1.0000   1.0000   1.0000
     0.0000   0.0000   0.0000   0.0000   0.0000   0.0000   0.0000   0.0000
     0.0000   0.0000   0.0000   0.0000   0.0000   0.0000   0.0000   0.0000
     0.0000   0.0000   0.0000   0.0000   0.0000   0.0000   0.0000   0.0000
     0.0000   0.0000   0.0000   0.0000

          k = 0.2500 0.1333 0.0457 ( 18697 PWs)   bands (ev):

   -41.4227 -41.4227 -41.4196 -41.4196 -26.6607 -26.6605 -26.6598 -26.6597
   -19.5001 -19.5001 -19.4725 -19.4725 -19.4494 -19.4494 -19.4406 -19.4406
   -19.4162 -19.4161 -19.4034 -19.4033  -8.7934  -8.7926  -8.7781  -8.7765
    -8.7317  -8.7284  -8.7178  -8.7123  -8.6872  -8.6791  -8.6516  -8.6488
    -4.4409  -4.3414  -3.9956  -3.9506  -3.9286  -3.9039  -3.6089  -3.6072
    -3.4466  -3.4170  -3.3636  -3.3420   3.8817   3.9240   3.9618   4.0038
     4.1255   4.2391   4.3071   4.3208   4.3648   4.4983   4.7734   4.7898
     4.8995   4.9965   5.0400   5.2099   5.3183   5.3702   5.4217   5.4790
     5.6918   5.7812   5.8113   5.9431   6.0628   6.1569   6.2149   6.2976
     6.3787   6.5160   6.7150   6.7854   6.9584   7.0076   7.1316   7.1888
     9.4430   9.4819   9.7119   9.7251  10.0547  10.1094  10.1858  10.2288
    10.3375  10.3736  10.4782  10.5679  11.5398  11.6768  11.7389  11.8403
    11.9328  12.0460  12.2385  12.3229  12.4875  12.5590  12.5960  12.8245
    12.8709  13.1013  13.1243  13.1998

     occupation numbers 
     1.0000   1.0000   1.0000   1.0000   1.0000   1.0000   1.0000   1.0000
     1.0000   1.0000   1.0000   1.0000   1.0000   1.0000   1.0000   1.0000
     1.0000   1.0000   1.0000   1.0000   1.0000   1.0000   1.0000   1.0000
     1.0000   1.0000   1.0000   1.0000   1.0000   1.0000   1.0000   1.0000
     1.0000   1.0000   1.0000   1.0000   1.0000   1.0000   1.0000   1.0000
     1.0000   1.0000   1.0000   1.0000   1.0000   1.0000   1.0000   1.0000
     1.0000   1.0000   1.0000   1.0000   1.0000   1.0000   1.0000   1.0000
     1.0000   1.0000   1.0000   1.0000   1.0000   1.0000   1.0000   1.0000
     1.0000   1.0000   1.0000   1.0000   1.0000   1.0000   1.0000   1.0000
     1.0000   1.0000   1.0000   1.0000   1.0000   1.0000   1.0000   1.0000
     0.0000   0.0000   0.0000   0.0000   0.0000   0.0000   0.0000   0.0000
     0.0000   0.0000   0.0000   0.0000   0.0000   0.0000   0.0000   0.0000
     0.0000   0.0000   0.0000   0.0000   0.0000   0.0000   0.0000   0.0000
     0.0000   0.0000   0.0000   0.0000

          k = 0.2500 0.1333 0.0914 ( 18706 PWs)   bands (ev):

   -41.4227 -41.4227 -41.4196 -41.4196 -26.6606 -26.6606 -26.6598 -26.6597
   -19.5001 -19.5001 -19.4725 -19.4725 -19.4494 -19.4494 -19.4406 -19.4406
   -19.4162 -19.4162 -19.4034 -19.4033  -8.7933  -8.7928  -8.7777  -8.7768
    -8.7303  -8.7281  -8.7178  -8.7145  -8.6852  -8.6806  -8.6509  -8.6493
    -4.4206  -4.3629  -4.0029  -3.9759  -3.9063  -3.8930  -3.6097  -3.6081
    -3.4338  -3.4049  -3.3757  -3.3524   3.8736   3.9025   3.9481   3.9710
     4.1649   4.2509   4.2998   4.3425   4.4015   4.5035   4.8067   4.8195
     4.9102   4.9708   5.0446   5.1460   5.3286   5.3589   5.3993   5.4356
     5.6861   5.7290   5.8416   5.9452   6.0630   6.1677   6.2702   6.3358
     6.4155   6.4931   6.7088   6.7624   6.9590   6.9984   7.1436   7.1628
     9.4601   9.4916   9.6894   9.7060  10.0906  10.1203  10.1812  10.2420
    10.2822  10.3363  10.5108  10.5572  11.6023  11.7421  11.7804  11.8502
    11.9392  11.9524  12.2414  12.3397  12.4961  12.5614  12.6794  12.8675
    12.8726  13.0400  13.0941  13.1468

     occupation numbers 
     1.0000   1.0000   1.0000   1.0000   1.0000   1.0000   1.0000   1.0000
     1.0000   1.0000   1.0000   1.0000   1.0000   1.0000   1.0000   1.0000
     1.0000   1.0000   1.0000   1.0000   1.0000   1.0000   1.0000   1.0000
     1.0000   1.0000   1.0000   1.0000   1.0000   1.0000   1.0000   1.0000
     1.0000   1.0000   1.0000   1.0000   1.0000   1.0000   1.0000   1.0000
     1.0000   1.0000   1.0000   1.0000   1.0000   1.0000   1.0000   1.0000
     1.0000   1.0000   1.0000   1.0000   1.0000   1.0000   1.0000   1.0000
     1.0000   1.0000   1.0000   1.0000   1.0000   1.0000   1.0000   1.0000
     1.0000   1.0000   1.0000   1.0000   1.0000   1.0000   1.0000   1.0000
     1.0000   1.0000   1.0000   1.0000   1.0000   1.0000   1.0000   1.0000
     0.0000   0.0000   0.0000   0.0000   0.0000   0.0000   0.0000   0.0000
     0.0000   0.0000   0.0000   0.0000   0.0000   0.0000   0.0000   0.0000
     0.0000   0.0000   0.0000   0.0000   0.0000   0.0000   0.0000   0.0000
     0.0000   0.0000   0.0000   0.0000

          k = 0.2500 0.1333-0.1371 ( 18712 PWs)   bands (ev):

   -41.4227 -41.4227 -41.4196 -41.4196 -26.6606 -26.6606 -26.6597 -26.6597
   -19.5001 -19.5001 -19.4725 -19.4725 -19.4494 -19.4494 -19.4406 -19.4406
   -19.4162 -19.4162 -19.4034 -19.4034  -8.7931  -8.7931  -8.7773  -8.7773
    -8.7288  -8.7288  -8.7167  -8.7167  -8.6828  -8.6828  -8.6501  -8.6501
    -4.3921  -4.3921  -3.9955  -3.9955  -3.8934  -3.8934  -3.6094  -3.6094
    -3.4146  -3.4146  -3.3682  -3.3682   3.8821   3.8821   3.9470   3.9470
     4.2236   4.2236   4.3104   4.3104   4.4723   4.4723   4.8405   4.8405
     4.9298   4.9298   5.0758   5.0758   5.3447   5.3447   5.4013   5.4013
     5.6952   5.6952   5.8934   5.8934   6.1207   6.1207   6.3485   6.3485
     6.4323   6.4323   6.7343   6.7343   6.9805   6.9805   7.1465   7.1465
     9.4829   9.4829   9.6873   9.6873  10.1162  10.1162  10.2102  10.2102
    10.2923  10.2923  10.5378  10.5378  11.7019  11.7019  11.8258  11.8258
    11.9228  11.9228  12.3132  12.3132  12.5204  12.5204  12.7922  12.7922
    12.9460  12.9460  13.0954  13.0954

     occupation numbers 
     1.0000   1.0000   1.0000   1.0000   1.0000   1.0000   1.0000   1.0000
     1.0000   1.0000   1.0000   1.0000   1.0000   1.0000   1.0000   1.0000
     1.0000   1.0000   1.0000   1.0000   1.0000   1.0000   1.0000   1.0000
     1.0000   1.0000   1.0000   1.0000   1.0000   1.0000   1.0000   1.0000
     1.0000   1.0000   1.0000   1.0000   1.0000   1.0000   1.0000   1.0000
     1.0000   1.0000   1.0000   1.0000   1.0000   1.0000   1.0000   1.0000
     1.0000   1.0000   1.0000   1.0000   1.0000   1.0000   1.0000   1.0000
     1.0000   1.0000   1.0000   1.0000   1.0000   1.0000   1.0000   1.0000
     1.0000   1.0000   1.0000   1.0000   1.0000   1.0000   1.0000   1.0000
     1.0000   1.0000   1.0000   1.0000   1.0000   1.0000   1.0000   1.0000
     0.0000   0.0000   0.0000   0.0000   0.0000   0.0000   0.0000   0.0000
     0.0000   0.0000   0.0000   0.0000   0.0000   0.0000   0.0000   0.0000
     0.0000   0.0000   0.0000   0.0000   0.0000   0.0000   0.0000   0.0000
     0.0000   0.0000   0.0000   0.0000

          k = 0.2500 0.1777 0.0000 ( 18737 PWs)   bands (ev):

   -41.4227 -41.4227 -41.4196 -41.4196 -26.6605 -26.6603 -26.6600 -26.6599
   -19.5000 -19.5000 -19.4725 -19.4725 -19.4494 -19.4494 -19.4406 -19.4406
   -19.4162 -19.4161 -19.4034 -19.4033  -8.7901  -8.7889  -8.7821  -8.7804
    -8.7326  -8.7304  -8.7163  -8.7130  -8.6783  -8.6709  -8.6596  -8.6552
    -4.4099  -4.3450  -4.0046  -3.9659  -3.9397  -3.9327  -3.5866  -3.5843
    -3.4487  -3.4357  -3.3515  -3.3416   3.9349   3.9629   3.9675   4.0292
     4.1230   4.1874   4.2298   4.2907   4.4499   4.5019   4.7518   4.7934
     4.8328   4.9208   5.0456   5.1963   5.3233   5.3619   5.4440   5.4643
     5.6786   5.7119   5.9274   5.9286   6.0554   6.0853   6.2721   6.2950
     6.3756   6.5004   6.8213   6.8520   7.0141   7.0432   7.1440   7.1884
     9.4476   9.4832   9.6973   9.7042  10.0059  10.0687  10.1975  10.1994
    10.3546  10.3700  10.4925  10.5530  11.4915  11.5488  11.6986  11.7287
    11.9406  12.0300  12.3410  12.4394  12.5191  12.5960  12.6888  12.7152
    12.7408  12.9778  13.1567  13.2063

     occupation numbers 
     1.0000   1.0000   1.0000   1.0000   1.0000   1.0000   1.0000   1.0000
     1.0000   1.0000   1.0000   1.0000   1.0000   1.0000   1.0000   1.0000
     1.0000   1.0000   1.0000   1.0000   1.0000   1.0000   1.0000   1.0000
     1.0000   1.0000   1.0000   1.0000   1.0000   1.0000   1.0000   1.0000
     1.0000   1.0000   1.0000   1.0000   1.0000   1.0000   1.0000   1.0000
     1.0000   1.0000   1.0000   1.0000   1.0000   1.0000   1.0000   1.0000
     1.0000   1.0000   1.0000   1.0000   1.0000   1.0000   1.0000   1.0000
     1.0000   1.0000   1.0000   1.0000   1.0000   1.0000   1.0000   1.0000
     1.0000   1.0000   1.0000   1.0000   1.0000   1.0000   1.0000   1.0000
     1.0000   1.0000   1.0000   1.0000   1.0000   1.0000   1.0000   1.0000
     0.0000   0.0000   0.0000   0.0000   0.0000   0.0000   0.0000   0.0000
     0.0000   0.0000   0.0000   0.0000   0.0000   0.0000   0.0000   0.0000
     0.0000   0.0000   0.0000   0.0000   0.0000   0.0000   0.0000   0.0000
     0.0000   0.0000   0.0000   0.0000

          k = 0.2500 0.1777 0.0457 ( 18709 PWs)   bands (ev):

   -41.4227 -41.4227 -41.4196 -41.4196 -26.6605 -26.6603 -26.6600 -26.6599
   -19.5000 -19.5000 -19.4725 -19.4725 -19.4494 -19.4494 -19.4406 -19.4406
   -19.4162 -19.4161 -19.4034 -19.4033  -8.7900  -8.7890  -8.7820  -8.7805
    -8.7321  -8.7300  -8.7167  -8.7137  -8.6777  -8.6714  -8.6592  -8.6555
    -4.4046  -4.3476  -4.0165  -3.9845  -3.9274  -3.9178  -3.5873  -3.5850
    -3.4436  -3.4285  -3.3574  -3.3458   3.9148   3.9427   3.9650   4.0020
     4.1427   4.2262   4.2659   4.3060   4.4374   4.5025   4.7474   4.7935
     4.8440   4.9196   5.0437   5.1838   5.3212   5.3605   5.4108   5.4387
     5.6834   5.7333   5.8396   5.9433   6.0636   6.1603   6.2706   6.3268
     6.3947   6.5047   6.8153   6.8481   7.0012   7.0187   7.1490   7.1757
     9.4553   9.4934   9.6738   9.6933  10.0293  10.0915  10.1913  10.1956
    10.3334  10.3493  10.5028  10.5531  11.5237  11.5953  11.7072  11.7655
    11.9428  12.0038  12.3256  12.4106  12.5534  12.5955  12.6841  12.7151
    12.7593  12.9697  13.1098  13.1788

     occupation numbers 
     1.0000   1.0000   1.0000   1.0000   1.0000   1.0000   1.0000   1.0000
     1.0000   1.0000   1.0000   1.0000   1.0000   1.0000   1.0000   1.0000
     1.0000   1.0000   1.0000   1.0000   1.0000   1.0000   1.0000   1.0000
     1.0000   1.0000   1.0000   1.0000   1.0000   1.0000   1.0000   1.0000
     1.0000   1.0000   1.0000   1.0000   1.0000   1.0000   1.0000   1.0000
     1.0000   1.0000   1.0000   1.0000   1.0000   1.0000   1.0000   1.0000
     1.0000   1.0000   1.0000   1.0000   1.0000   1.0000   1.0000   1.0000
     1.0000   1.0000   1.0000   1.0000   1.0000   1.0000   1.0000   1.0000
     1.0000   1.0000   1.0000   1.0000   1.0000   1.0000   1.0000   1.0000
     1.0000   1.0000   1.0000   1.0000   1.0000   1.0000   1.0000   1.0000
     0.0000   0.0000   0.0000   0.0000   0.0000   0.0000   0.0000   0.0000
     0.0000   0.0000   0.0000   0.0000   0.0000   0.0000   0.0000   0.0000
     0.0000   0.0000   0.0000   0.0000   0.0000   0.0000   0.0000   0.0000
     0.0000   0.0000   0.0000   0.0000

          k = 0.2500 0.1777 0.0914 ( 18705 PWs)   bands (ev):

   -41.4227 -41.4227 -41.4196 -41.4196 -26.6604 -26.6604 -26.6600 -26.6599
   -19.5000 -19.5000 -19.4725 -19.4725 -19.4494 -19.4494 -19.4406 -19.4406
   -19.4162 -19.4161 -19.4034 -19.4033  -8.7898  -8.7892  -8.7817  -8.7809
    -8.7307  -8.7293  -8.7173  -8.7154  -8.6763  -8.6727  -8.6583  -8.6562
    -4.3903  -4.3566  -4.0304  -4.0113  -3.9084  -3.9027  -3.5885  -3.5869
    -3.4289  -3.4132  -3.3710  -3.3580   3.8937   3.9206   3.9345   3.9601
     4.2063   4.2750   4.3196   4.3481   4.4121   4.4887   4.7495   4.7886
     4.8732   4.9205   5.0409   5.1352   5.3206   5.3494   5.3738   5.3862
     5.6953   5.7255   5.8157   5.8878   6.1354   6.2142   6.3073   6.3679
     6.4318   6.5042   6.8112   6.8397   6.9702   6.9830   7.1454   7.1506
     9.4788   9.5140   9.6339   9.6602  10.0846  10.1361  10.1876  10.1920
    10.2767  10.3034  10.5219  10.5497  11.6121  11.7026  11.7472  11.8057
    11.9268  11.9556  12.2995  12.3700  12.5840  12.6052  12.6639  12.7320
    12.8088  12.9488  13.0081  13.0790

     occupation numbers 
     1.0000   1.0000   1.0000   1.0000   1.0000   1.0000   1.0000   1.0000
     1.0000   1.0000   1.0000   1.0000   1.0000   1.0000   1.0000   1.0000
     1.0000   1.0000   1.0000   1.0000   1.0000   1.0000   1.0000   1.0000
     1.0000   1.0000   1.0000   1.0000   1.0000   1.0000   1.0000   1.0000
     1.0000   1.0000   1.0000   1.0000   1.0000   1.0000   1.0000   1.0000
     1.0000   1.0000   1.0000   1.0000   1.0000   1.0000   1.0000   1.0000
     1.0000   1.0000   1.0000   1.0000   1.0000   1.0000   1.0000   1.0000
     1.0000   1.0000   1.0000   1.0000   1.0000   1.0000   1.0000   1.0000
     1.0000   1.0000   1.0000   1.0000   1.0000   1.0000   1.0000   1.0000
     1.0000   1.0000   1.0000   1.0000   1.0000   1.0000   1.0000   1.0000
     0.0000   0.0000   0.0000   0.0000   0.0000   0.0000   0.0000   0.0000
     0.0000   0.0000   0.0000   0.0000   0.0000   0.0000   0.0000   0.0000
     0.0000   0.0000   0.0000   0.0000   0.0000   0.0000   0.0000   0.0000
     0.0000   0.0000   0.0000   0.0000

          k = 0.2500 0.1777-0.1371 ( 18698 PWs)   bands (ev):

   -41.4227 -41.4227 -41.4196 -41.4196 -26.6604 -26.6604 -26.6599 -26.6599
   -19.5000 -19.5000 -19.4725 -19.4725 -19.4494 -19.4494 -19.4406 -19.4406
   -19.4162 -19.4162 -19.4034 -19.4034  -8.7895  -8.7895  -8.7813  -8.7813
    -8.7295  -8.7295  -8.7170  -8.7170  -8.6744  -8.6744  -8.6572  -8.6572
    -4.3722  -4.3722  -4.0290  -4.0290  -3.8990  -3.8990  -3.5884  -3.5884
    -3.4113  -3.4113  -3.3732  -3.3732   3.8967   3.8967   3.9334   3.9334
     4.2679   4.2679   4.3495   4.3495   4.4445   4.4445   4.7693   4.7693
     4.9087   4.9087   5.0679   5.0679   5.3305   5.3305   5.3644   5.3644
     5.7025   5.7025   5.8461   5.8461   6.1944   6.1944   6.3628   6.3628
     6.4742   6.4742   6.8253   6.8253   6.9605   6.9605   7.1385   7.1385
     9.5097   9.5097   9.6272   9.6272  10.1345  10.1345  10.2071  10.2071
    10.2461  10.2461  10.5390  10.5390  11.7207  11.7207  11.7904  11.7904
    11.9181  11.9181  12.3229  12.3229  12.5886  12.5886  12.7083  12.7083
    12.8940  12.8940  12.9743  12.9743

     occupation numbers 
     1.0000   1.0000   1.0000   1.0000   1.0000   1.0000   1.0000   1.0000
     1.0000   1.0000   1.0000   1.0000   1.0000   1.0000   1.0000   1.0000
     1.0000   1.0000   1.0000   1.0000   1.0000   1.0000   1.0000   1.0000
     1.0000   1.0000   1.0000   1.0000   1.0000   1.0000   1.0000   1.0000
     1.0000   1.0000   1.0000   1.0000   1.0000   1.0000   1.0000   1.0000
     1.0000   1.0000   1.0000   1.0000   1.0000   1.0000   1.0000   1.0000
     1.0000   1.0000   1.0000   1.0000   1.0000   1.0000   1.0000   1.0000
     1.0000   1.0000   1.0000   1.0000   1.0000   1.0000   1.0000   1.0000
     1.0000   1.0000   1.0000   1.0000   1.0000   1.0000   1.0000   1.0000
     1.0000   1.0000   1.0000   1.0000   1.0000   1.0000   1.0000   1.0000
     0.0000   0.0000   0.0000   0.0000   0.0000   0.0000   0.0000   0.0000
     0.0000   0.0000   0.0000   0.0000   0.0000   0.0000   0.0000   0.0000
     0.0000   0.0000   0.0000   0.0000   0.0000   0.0000   0.0000   0.0000
     0.0000   0.0000   0.0000   0.0000

          k = 0.2500-0.2221 0.0000 ( 18744 PWs)   bands (ev):

   -41.4227 -41.4227 -41.4196 -41.4196 -26.6602 -26.6602 -26.6601 -26.6601
   -19.5000 -19.5000 -19.4726 -19.4726 -19.4494 -19.4494 -19.4406 -19.4406
   -19.4161 -19.4161 -19.4033 -19.4033  -8.7862  -8.7861  -8.7847  -8.7847
    -8.7319  -8.7318  -8.7147  -8.7147  -8.6686  -8.6686  -8.6629  -8.6629
    -4.3724  -4.3724  -3.9967  -3.9967  -3.9363  -3.9363  -3.5774  -3.5774
    -3.4443  -3.4442  -3.3461  -3.3460   3.9600   3.9600   4.0025   4.0025
     4.1462   4.1462   4.2506   4.2506   4.4978   4.4978   4.7560   4.7560
     4.8553   4.8553   5.1169   5.1169   5.3414   5.3414   5.4562   5.4562
     5.6793   5.6793   5.9604   5.9604   6.0402   6.0402   6.2857   6.2858
     6.4509   6.4510   6.8719   6.8719   7.0409   7.0409   7.1661   7.1661
     9.4687   9.4688   9.6914   9.6914  10.0161  10.0161  10.2030  10.2030
    10.3540  10.3541  10.5273  10.5273  11.4996  11.4996  11.6910  11.6910
    11.9711  11.9711  12.4417  12.4417  12.5772  12.5772  12.6703  12.6703
    12.8405  12.8405  13.1817  13.1817

     occupation numbers 
     1.0000   1.0000   1.0000   1.0000   1.0000   1.0000   1.0000   1.0000
     1.0000   1.0000   1.0000   1.0000   1.0000   1.0000   1.0000   1.0000
     1.0000   1.0000   1.0000   1.0000   1.0000   1.0000   1.0000   1.0000
     1.0000   1.0000   1.0000   1.0000   1.0000   1.0000   1.0000   1.0000
     1.0000   1.0000   1.0000   1.0000   1.0000   1.0000   1.0000   1.0000
     1.0000   1.0000   1.0000   1.0000   1.0000   1.0000   1.0000   1.0000
     1.0000   1.0000   1.0000   1.0000   1.0000   1.0000   1.0000   1.0000
     1.0000   1.0000   1.0000   1.0000   1.0000   1.0000   1.0000   1.0000
     1.0000   1.0000   1.0000   1.0000   1.0000   1.0000   1.0000   1.0000
     1.0000   1.0000   1.0000   1.0000   1.0000   1.0000   1.0000   1.0000
     0.0000   0.0000   0.0000   0.0000   0.0000   0.0000   0.0000   0.0000
     0.0000   0.0000   0.0000   0.0000   0.0000   0.0000   0.0000   0.0000
     0.0000   0.0000   0.0000   0.0000   0.0000   0.0000   0.0000   0.0000
     0.0000   0.0000   0.0000   0.0000

          k = 0.2500-0.2221 0.0457 ( 18722 PWs)   bands (ev):

   -41.4227 -41.4227 -41.4196 -41.4196 -26.6602 -26.6602 -26.6601 -26.6601
   -19.5000 -19.5000 -19.4726 -19.4726 -19.4494 -19.4494 -19.4406 -19.4406
   -19.4161 -19.4161 -19.4033 -19.4033  -8.7861  -8.7861  -8.7848  -8.7848
    -8.7314  -8.7314  -8.7153  -8.7152  -8.6683  -8.6683  -8.6631  -8.6631
    -4.3703  -4.3703  -4.0117  -4.0117  -3.9237  -3.9237  -3.5784  -3.5784
    -3.4378  -3.4377  -3.3512  -3.3512   3.9398   3.9398   3.9801   3.9801
     4.1856   4.1856   4.2780   4.2780   4.4893   4.4893   4.7507   4.7507
     4.8601   4.8601   5.1126   5.1126   5.3415   5.3415   5.4193   5.4193
     5.6965   5.6966   5.8900   5.8900   6.1193   6.1193   6.3023   6.3024
     6.4605   6.4606   6.8696   6.8696   7.0195   7.0196   7.1590   7.1590
     9.4783   9.4783   9.6710   9.6711  10.0432  10.0432  10.1984  10.1984
    10.3332  10.3333  10.5310  10.5310  11.5418  11.5419  11.7151  11.7151
    11.9639  11.9639  12.4163  12.4163  12.5899  12.5899  12.6860  12.6861
    12.8213  12.8213  13.1369  13.1369

     occupation numbers 
     1.0000   1.0000   1.0000   1.0000   1.0000   1.0000   1.0000   1.0000
     1.0000   1.0000   1.0000   1.0000   1.0000   1.0000   1.0000   1.0000
     1.0000   1.0000   1.0000   1.0000   1.0000   1.0000   1.0000   1.0000
     1.0000   1.0000   1.0000   1.0000   1.0000   1.0000   1.0000   1.0000
     1.0000   1.0000   1.0000   1.0000   1.0000   1.0000   1.0000   1.0000
     1.0000   1.0000   1.0000   1.0000   1.0000   1.0000   1.0000   1.0000
     1.0000   1.0000   1.0000   1.0000   1.0000   1.0000   1.0000   1.0000
     1.0000   1.0000   1.0000   1.0000   1.0000   1.0000   1.0000   1.0000
     1.0000   1.0000   1.0000   1.0000   1.0000   1.0000   1.0000   1.0000
     1.0000   1.0000   1.0000   1.0000   1.0000   1.0000   1.0000   1.0000
     0.0000   0.0000   0.0000   0.0000   0.0000   0.0000   0.0000   0.0000
     0.0000   0.0000   0.0000   0.0000   0.0000   0.0000   0.0000   0.0000
     0.0000   0.0000   0.0000   0.0000   0.0000   0.0000   0.0000   0.0000
     0.0000   0.0000   0.0000   0.0000

          k = 0.2500-0.2221 0.0914 ( 18710 PWs)   bands (ev):

   -41.4227 -41.4227 -41.4196 -41.4196 -26.6602 -26.6602 -26.6601 -26.6601
   -19.5000 -19.5000 -19.4726 -19.4726 -19.4494 -19.4494 -19.4406 -19.4406
   -19.4161 -19.4161 -19.4033 -19.4033  -8.7859  -8.7858  -8.7851  -8.7851
    -8.7303  -8.7303  -8.7165  -8.7165  -8.6676  -8.6676  -8.6636  -8.6636
    -4.3659  -4.3659  -4.0336  -4.0336  -3.9070  -3.9070  -3.5802  -3.5801
    -3.4219  -3.4218  -3.3646  -3.3646   3.9147   3.9147   3.9412   3.9412
     4.2572   4.2573   4.3288   4.3288   4.4638   4.4638   4.7360   4.7360
     4.8801   4.8801   5.0940   5.0941   5.3397   5.3397   5.3620   5.3620
     5.7081   5.7081   5.8377   5.8377   6.1989   6.1989   6.3357   6.3358
     6.4824   6.4824   6.8694   6.8694   6.9732   6.9732   7.1415   7.1416
     9.5046   9.5046   9.6264   9.6264  10.1057  10.1057  10.1914  10.1914
    10.2794  10.2795  10.5369  10.5369  11.6447  11.6447  11.7658  11.7658
    11.9378  11.9378  12.3658  12.3658  12.6042  12.6042  12.7074  12.7074
    12.8108  12.8108  13.0145  13.0145

     occupation numbers 
     1.0000   1.0000   1.0000   1.0000   1.0000   1.0000   1.0000   1.0000
     1.0000   1.0000   1.0000   1.0000   1.0000   1.0000   1.0000   1.0000
     1.0000   1.0000   1.0000   1.0000   1.0000   1.0000   1.0000   1.0000
     1.0000   1.0000   1.0000   1.0000   1.0000   1.0000   1.0000   1.0000
     1.0000   1.0000   1.0000   1.0000   1.0000   1.0000   1.0000   1.0000
     1.0000   1.0000   1.0000   1.0000   1.0000   1.0000   1.0000   1.0000
     1.0000   1.0000   1.0000   1.0000   1.0000   1.0000   1.0000   1.0000
     1.0000   1.0000   1.0000   1.0000   1.0000   1.0000   1.0000   1.0000
     1.0000   1.0000   1.0000   1.0000   1.0000   1.0000   1.0000   1.0000
     1.0000   1.0000   1.0000   1.0000   1.0000   1.0000   1.0000   1.0000
     0.0000   0.0000   0.0000   0.0000   0.0000   0.0000   0.0000   0.0000
     0.0000   0.0000   0.0000   0.0000   0.0000   0.0000   0.0000   0.0000
     0.0000   0.0000   0.0000   0.0000   0.0000   0.0000   0.0000   0.0000
     0.0000   0.0000   0.0000   0.0000

          k = 0.2500-0.2221-0.1371 ( 18668 PWs)   bands (ev):

   -41.4227 -41.4227 -41.4196 -41.4196 -26.6602 -26.6602 -26.6601 -26.6601
   -19.5000 -19.5000 -19.4726 -19.4726 -19.4494 -19.4494 -19.4406 -19.4406
   -19.4161 -19.4161 -19.4033 -19.4033  -8.7855  -8.7855  -8.7855  -8.7855
    -8.7296  -8.7296  -8.7171  -8.7171  -8.6671  -8.6671  -8.6640  -8.6640
    -4.3636  -4.3636  -4.0427  -4.0427  -3.9004  -3.9004  -3.5810  -3.5810
    -3.4099  -3.4099  -3.3753  -3.3753   3.9091   3.9091   3.9206   3.9206
     4.2938   4.2938   4.3601   4.3601   4.4393   4.4393   4.7269   4.7269
     4.8977   4.8977   5.0759   5.0759   5.3375   5.3375   5.3402   5.3402
     5.7043   5.7043   5.8281   5.8281   6.2298   6.2298   6.3503   6.3503
     6.4958   6.4958   6.8734   6.8734   6.9460   6.9460   7.1312   7.1312
     9.5277   9.5277   9.5952   9.5952  10.1500  10.1500  10.2061  10.2061
    10.2209  10.2209  10.5394  10.5394  11.7270  11.7270  11.7748  11.7748
    11.9170  11.9170  12.3358  12.3358  12.6096  12.6096  12.7005  12.7005
    12.8735  12.8735  12.8986  12.8986

     occupation numbers 
     1.0000   1.0000   1.0000   1.0000   1.0000   1.0000   1.0000   1.0000
     1.0000   1.0000   1.0000   1.0000   1.0000   1.0000   1.0000   1.0000
     1.0000   1.0000   1.0000   1.0000   1.0000   1.0000   1.0000   1.0000
     1.0000   1.0000   1.0000   1.0000   1.0000   1.0000   1.0000   1.0000
     1.0000   1.0000   1.0000   1.0000   1.0000   1.0000   1.0000   1.0000
     1.0000   1.0000   1.0000   1.0000   1.0000   1.0000   1.0000   1.0000
     1.0000   1.0000   1.0000   1.0000   1.0000   1.0000   1.0000   1.0000
     1.0000   1.0000   1.0000   1.0000   1.0000   1.0000   1.0000   1.0000
     1.0000   1.0000   1.0000   1.0000   1.0000   1.0000   1.0000   1.0000
     1.0000   1.0000   1.0000   1.0000   1.0000   1.0000   1.0000   1.0000
     0.0000   0.0000   0.0000   0.0000   0.0000   0.0000   0.0000   0.0000
     0.0000   0.0000   0.0000   0.0000   0.0000   0.0000   0.0000   0.0000
     0.0000   0.0000   0.0000   0.0000   0.0000   0.0000   0.0000   0.0000
     0.0000   0.0000   0.0000   0.0000

          k = 0.3000 0.0000 0.0000 ( 18736 PWs)   bands (ev):

   -41.4217 -41.4217 -41.4191 -41.4191 -26.6578 -26.6577 -26.6564 -26.6563
   -19.4973 -19.4973 -19.4779 -19.4778 -19.4584 -19.4583 -19.4533 -19.4533
   -19.4172 -19.4171 -19.4050 -19.4049  -8.8548  -8.8544  -8.8220  -8.8209
    -8.7131  -8.7114  -8.7080  -8.6990  -8.6920  -8.6812  -8.6327  -8.6317
    -4.3701  -4.2315  -3.9332  -3.9259  -3.8763  -3.8195  -3.6740  -3.6688
    -3.4084  -3.3968  -3.3773  -3.3045   3.7193   3.7985   3.9214   4.0552
     4.1120   4.1607   4.2463   4.4154   4.5636   4.6058   4.6606   4.6754
     4.8660   4.8959   4.9898   5.1024   5.4383   5.4916   5.4960   5.5478
     5.6649   5.7377   5.7687   5.7727   6.0336   6.0962   6.1151   6.2756
     6.4409   6.4535   6.5414   6.5569   6.6439   6.7036   6.9691   7.0651
     9.5211   9.5811   9.6923   9.7787   9.9833  10.1180  10.1828  10.3272
    10.4203  10.4538  10.5659  10.6560  11.7795  11.9319  12.0103  12.0533
    12.0606  12.1944  12.2826  12.3021  12.3233  12.6283  12.6492  13.0926
    13.1215  13.1890  13.2591  13.3808

     occupation numbers 
     1.0000   1.0000   1.0000   1.0000   1.0000   1.0000   1.0000   1.0000
     1.0000   1.0000   1.0000   1.0000   1.0000   1.0000   1.0000   1.0000
     1.0000   1.0000   1.0000   1.0000   1.0000   1.0000   1.0000   1.0000
     1.0000   1.0000   1.0000   1.0000   1.0000   1.0000   1.0000   1.0000
     1.0000   1.0000   1.0000   1.0000   1.0000   1.0000   1.0000   1.0000
     1.0000   1.0000   1.0000   1.0000   1.0000   1.0000   1.0000   1.0000
     1.0000   1.0000   1.0000   1.0000   1.0000   1.0000   1.0000   1.0000
     1.0000   1.0000   1.0000   1.0000   1.0000   1.0000   1.0000   1.0000
     1.0000   1.0000   1.0000   1.0000   1.0000   1.0000   1.0000   1.0000
     1.0000   1.0000   1.0000   1.0000   1.0000   1.0000   1.0000   1.0000
     0.0000   0.0000   0.0000   0.0000   0.0000   0.0000   0.0000   0.0000
     0.0000   0.0000   0.0000   0.0000   0.0000   0.0000   0.0000   0.0000
     0.0000   0.0000   0.0000   0.0000   0.0000   0.0000   0.0000   0.0000
     0.0000   0.0000   0.0000   0.0000

          k = 0.3000 0.0000 0.0457 ( 18721 PWs)   bands (ev):

   -41.4217 -41.4217 -41.4191 -41.4191 -26.6578 -26.6577 -26.6564 -26.6563
   -19.4973 -19.4973 -19.4779 -19.4778 -19.4583 -19.4583 -19.4533 -19.4533
   -19.4172 -19.4171 -19.4050 -19.4049  -8.8548  -8.8544  -8.8219  -8.8210
    -8.7129  -8.7114  -8.7077  -8.7003  -8.6906  -8.6817  -8.6326  -8.6317
    -4.3623  -4.2430  -3.9336  -3.9263  -3.8696  -3.8222  -3.6733  -3.6690
    -3.4130  -3.3841  -3.3810  -3.3089   3.7321   3.8091   3.9102   4.0113
     4.0955   4.1529   4.2663   4.4225   4.5671   4.5991   4.6937   4.7083
     4.8704   4.8917   4.9899   5.1060   5.4443   5.4554   5.4862   5.5803
     5.6905   5.7030   5.7763   5.7841   6.0385   6.0816   6.0918   6.2146
     6.3326   6.5054   6.5089   6.6348   6.6396   6.7701   6.9898   7.0574
     9.5214   9.5742   9.6983   9.7709   9.9848  10.1007  10.2001  10.3349
    10.4171  10.4352  10.5675  10.6465  11.7407  11.8306  12.0357  12.0821
    12.1607  12.1952  12.2580  12.2866  12.4019  12.6611  12.6673  13.0900
    13.1267  13.1837  13.2693  13.3171

     occupation numbers 
     1.0000   1.0000   1.0000   1.0000   1.0000   1.0000   1.0000   1.0000
     1.0000   1.0000   1.0000   1.0000   1.0000   1.0000   1.0000   1.0000
     1.0000   1.0000   1.0000   1.0000   1.0000   1.0000   1.0000   1.0000
     1.0000   1.0000   1.0000   1.0000   1.0000   1.0000   1.0000   1.0000
     1.0000   1.0000   1.0000   1.0000   1.0000   1.0000   1.0000   1.0000
     1.0000   1.0000   1.0000   1.0000   1.0000   1.0000   1.0000   1.0000
     1.0000   1.0000   1.0000   1.0000   1.0000   1.0000   1.0000   1.0000
     1.0000   1.0000   1.0000   1.0000   1.0000   1.0000   1.0000   1.0000
     1.0000   1.0000   1.0000   1.0000   1.0000   1.0000   1.0000   1.0000
     1.0000   1.0000   1.0000   1.0000   1.0000   1.0000   1.0000   1.0000
     0.0000   0.0000   0.0000   0.0000   0.0000   0.0000   0.0000   0.0000
     0.0000   0.0000   0.0000   0.0000   0.0000   0.0000   0.0000   0.0000
     0.0000   0.0000   0.0000   0.0000   0.0000   0.0000   0.0000   0.0000
     0.0000   0.0000   0.0000   0.0000

          k = 0.3000 0.0000 0.0914 ( 18729 PWs)   bands (ev):

   -41.4217 -41.4217 -41.4191 -41.4191 -26.6578 -26.6577 -26.6564 -26.6563
   -19.4973 -19.4973 -19.4778 -19.4778 -19.4583 -19.4583 -19.4533 -19.4533
   -19.4171 -19.4171 -19.4050 -19.4049  -8.8547  -8.8545  -8.8217  -8.8212
    -8.7123  -8.7115  -8.7068  -8.7028  -8.6881  -8.6832  -8.6324  -8.6319
    -4.3402  -4.2721  -3.9329  -3.9279  -3.8554  -3.8299  -3.6718  -3.6694
    -3.4117  -3.3909  -3.3626  -3.3214   3.7702   3.8363   3.8821   3.9296
     4.0747   4.1195   4.3136   4.4124   4.5751   4.5877   4.7663   4.7933
     4.8767   4.8786   4.9940   5.0891   5.4154   5.4258   5.5070   5.5853
     5.6907   5.7363   5.8033   5.8099   5.9978   6.0120   6.0636   6.1106
     6.2832   6.4320   6.5692   6.6394   6.7428   6.8334   7.0282   7.0466
     9.5253   9.5569   9.7132   9.7527   9.9940  10.0593  10.2484  10.3533
    10.3856  10.4048  10.5772  10.6234  11.6970  11.7345  12.0274  12.0820
    12.1980  12.1994  12.3182  12.3984  12.4769  12.6605  12.7868  13.0576
    13.1537  13.1646  13.1999  13.2557

     occupation numbers 
     1.0000   1.0000   1.0000   1.0000   1.0000   1.0000   1.0000   1.0000
     1.0000   1.0000   1.0000   1.0000   1.0000   1.0000   1.0000   1.0000
     1.0000   1.0000   1.0000   1.0000   1.0000   1.0000   1.0000   1.0000
     1.0000   1.0000   1.0000   1.0000   1.0000   1.0000   1.0000   1.0000
     1.0000   1.0000   1.0000   1.0000   1.0000   1.0000   1.0000   1.0000
     1.0000   1.0000   1.0000   1.0000   1.0000   1.0000   1.0000   1.0000
     1.0000   1.0000   1.0000   1.0000   1.0000   1.0000   1.0000   1.0000
     1.0000   1.0000   1.0000   1.0000   1.0000   1.0000   1.0000   1.0000
     1.0000   1.0000   1.0000   1.0000   1.0000   1.0000   1.0000   1.0000
     1.0000   1.0000   1.0000   1.0000   1.0000   1.0000   1.0000   1.0000
     0.0000   0.0000   0.0000   0.0000   0.0000   0.0000   0.0000   0.0000
     0.0000   0.0000   0.0000   0.0000   0.0000   0.0000   0.0000   0.0000
     0.0000   0.0000   0.0000   0.0000   0.0000   0.0000   0.0000   0.0000
     0.0000   0.0000   0.0000   0.0000

          k = 0.3000 0.0000-0.1371 ( 18726 PWs)   bands (ev):

   -41.4217 -41.4217 -41.4191 -41.4191 -26.6577 -26.6577 -26.6563 -26.6563
   -19.4973 -19.4973 -19.4778 -19.4778 -19.4583 -19.4583 -19.4533 -19.4533
   -19.4171 -19.4171 -19.4050 -19.4050  -8.8546  -8.8546  -8.8214  -8.8214
    -8.7118  -8.7118  -8.7051  -8.7051  -8.6855  -8.6855  -8.6322  -8.6322
    -4.3078  -4.3078  -3.9305  -3.9305  -3.8412  -3.8412  -3.6704  -3.6704
    -3.4029  -3.4029  -3.3404  -3.3404   3.8294   3.8294   3.8713   3.8713
     4.0830   4.0830   4.3697   4.3697   4.5808   4.5808   4.8311   4.8311
     4.8717   4.8717   5.0295   5.0295   5.4052   5.4052   5.5491   5.5491
     5.7276   5.7276   5.8487   5.8487   5.9438   5.9438   6.0514   6.0514
     6.3448   6.3448   6.6201   6.6201   6.8172   6.8172   7.0464   7.0464
     9.5378   9.5378   9.7321   9.7321  10.0188  10.0188  10.3136  10.3136
    10.3830  10.3830  10.5974  10.5974  11.6915  11.6915  12.0389  12.0389
    12.2038  12.2038  12.4050  12.4050  12.5950  12.5950  12.9757  12.9757
    13.0857  13.0857  13.2180  13.2180

     occupation numbers 
     1.0000   1.0000   1.0000   1.0000   1.0000   1.0000   1.0000   1.0000
     1.0000   1.0000   1.0000   1.0000   1.0000   1.0000   1.0000   1.0000
     1.0000   1.0000   1.0000   1.0000   1.0000   1.0000   1.0000   1.0000
     1.0000   1.0000   1.0000   1.0000   1.0000   1.0000   1.0000   1.0000
     1.0000   1.0000   1.0000   1.0000   1.0000   1.0000   1.0000   1.0000
     1.0000   1.0000   1.0000   1.0000   1.0000   1.0000   1.0000   1.0000
     1.0000   1.0000   1.0000   1.0000   1.0000   1.0000   1.0000   1.0000
     1.0000   1.0000   1.0000   1.0000   1.0000   1.0000   1.0000   1.0000
     1.0000   1.0000   1.0000   1.0000   1.0000   1.0000   1.0000   1.0000
     1.0000   1.0000   1.0000   1.0000   1.0000   1.0000   1.0000   1.0000
     0.0000   0.0000   0.0000   0.0000   0.0000   0.0000   0.0000   0.0000
     0.0000   0.0000   0.0000   0.0000   0.0000   0.0000   0.0000   0.0000
     0.0000   0.0000   0.0000   0.0000   0.0000   0.0000   0.0000   0.0000
     0.0000   0.0000   0.0000   0.0000

          k = 0.3000 0.0444 0.0000 ( 18727 PWs)   bands (ev):

   -41.4217 -41.4217 -41.4191 -41.4191 -26.6578 -26.6576 -26.6564 -26.6563
   -19.4973 -19.4973 -19.4779 -19.4779 -19.4584 -19.4583 -19.4533 -19.4533
   -19.4172 -19.4171 -19.4050 -19.4049  -8.8541  -8.8536  -8.8229  -8.8217
    -8.7134  -8.7134  -8.7070  -8.6993  -8.6897  -8.6795  -8.6339  -8.6326
    -4.3649  -4.2310  -3.9336  -3.9330  -3.8772  -3.8277  -3.6677  -3.6627
    -3.4095  -3.4009  -3.3729  -3.3058   3.7301   3.7944   3.9440   4.0563
     4.1187   4.1548   4.2452   4.4222   4.5257   4.5552   4.6887   4.7110
     4.8339   4.8691   5.0088   5.1417   5.4310   5.4453   5.4745   5.5078
     5.7034   5.7447   5.7640   5.7728   6.0317   6.1094   6.1296   6.2478
     6.4008   6.4513   6.5891   6.6036   6.6710   6.7377   6.9669   7.0634
     9.5095   9.5728   9.6992   9.7496  10.0143  10.0946  10.1948  10.3377
    10.4081  10.4578  10.5508  10.6504  11.7240  11.9349  11.9691  12.0433
    12.0927  12.2234  12.2319  12.3249  12.3600  12.6269  12.6496  13.0094
    13.0656  13.2342  13.2528  13.3820

     occupation numbers 
     1.0000   1.0000   1.0000   1.0000   1.0000   1.0000   1.0000   1.0000
     1.0000   1.0000   1.0000   1.0000   1.0000   1.0000   1.0000   1.0000
     1.0000   1.0000   1.0000   1.0000   1.0000   1.0000   1.0000   1.0000
     1.0000   1.0000   1.0000   1.0000   1.0000   1.0000   1.0000   1.0000
     1.0000   1.0000   1.0000   1.0000   1.0000   1.0000   1.0000   1.0000
     1.0000   1.0000   1.0000   1.0000   1.0000   1.0000   1.0000   1.0000
     1.0000   1.0000   1.0000   1.0000   1.0000   1.0000   1.0000   1.0000
     1.0000   1.0000   1.0000   1.0000   1.0000   1.0000   1.0000   1.0000
     1.0000   1.0000   1.0000   1.0000   1.0000   1.0000   1.0000   1.0000
     1.0000   1.0000   1.0000   1.0000   1.0000   1.0000   1.0000   1.0000
     0.0000   0.0000   0.0000   0.0000   0.0000   0.0000   0.0000   0.0000
     0.0000   0.0000   0.0000   0.0000   0.0000   0.0000   0.0000   0.0000
     0.0000   0.0000   0.0000   0.0000   0.0000   0.0000   0.0000   0.0000
     0.0000   0.0000   0.0000   0.0000

          k = 0.3000 0.0444 0.0457 ( 18728 PWs)   bands (ev):

   -41.4217 -41.4217 -41.4191 -41.4191 -26.6577 -26.6577 -26.6564 -26.6563
   -19.4973 -19.4973 -19.4779 -19.4779 -19.4583 -19.4583 -19.4533 -19.4533
   -19.4171 -19.4171 -19.4050 -19.4049  -8.8540  -8.8536  -8.8228  -8.8218
    -8.7133  -8.7132  -8.7068  -8.7004  -8.6886  -8.6800  -8.6338  -8.6327
    -4.3573  -4.2418  -3.9387  -3.9293  -3.8711  -3.8297  -3.6671  -3.6628
    -3.4138  -3.3902  -3.3745  -3.3102   3.7410   3.8052   3.9288   4.0167
     4.0990   4.1541   4.2641   4.4248   4.5287   4.5748   4.7082   4.7390
     4.8386   4.8679   5.0044   5.1376   5.4221   5.4364   5.4556   5.5391
     5.6929   5.7405   5.7707   5.7821   6.0422   6.0847   6.1050   6.2098
     6.3385   6.4882   6.5610   6.6397   6.6733   6.7993   6.9849   7.0553
     9.5135   9.5685   9.6992   9.7430  10.0121  10.0837  10.2087  10.3433
    10.4057  10.4372  10.5564  10.6413  11.7044  11.8443  12.0179  12.0807
    12.1327  12.1641  12.2723  12.3158  12.4275  12.6585  12.6642  13.0118
    13.0927  13.2226  13.2286  13.3283

     occupation numbers 
     1.0000   1.0000   1.0000   1.0000   1.0000   1.0000   1.0000   1.0000
     1.0000   1.0000   1.0000   1.0000   1.0000   1.0000   1.0000   1.0000
     1.0000   1.0000   1.0000   1.0000   1.0000   1.0000   1.0000   1.0000
     1.0000   1.0000   1.0000   1.0000   1.0000   1.0000   1.0000   1.0000
     1.0000   1.0000   1.0000   1.0000   1.0000   1.0000   1.0000   1.0000
     1.0000   1.0000   1.0000   1.0000   1.0000   1.0000   1.0000   1.0000
     1.0000   1.0000   1.0000   1.0000   1.0000   1.0000   1.0000   1.0000
     1.0000   1.0000   1.0000   1.0000   1.0000   1.0000   1.0000   1.0000
     1.0000   1.0000   1.0000   1.0000   1.0000   1.0000   1.0000   1.0000
     1.0000   1.0000   1.0000   1.0000   1.0000   1.0000   1.0000   1.0000
     0.0000   0.0000   0.0000   0.0000   0.0000   0.0000   0.0000   0.0000
     0.0000   0.0000   0.0000   0.0000   0.0000   0.0000   0.0000   0.0000
     0.0000   0.0000   0.0000   0.0000   0.0000   0.0000   0.0000   0.0000
     0.0000   0.0000   0.0000   0.0000

          k = 0.3000 0.0444 0.0914 ( 18732 PWs)   bands (ev):

   -41.4217 -41.4217 -41.4191 -41.4191 -26.6577 -26.6577 -26.6564 -26.6563
   -19.4973 -19.4973 -19.4779 -19.4779 -19.4583 -19.4583 -19.4533 -19.4533
   -19.4171 -19.4171 -19.4050 -19.4049  -8.8540  -8.8537  -8.8226  -8.8220
    -8.7129  -8.7128  -8.7062  -8.7027  -8.6862  -8.6815  -8.6336  -8.6330
    -4.3357  -4.2696  -3.9395  -3.9308  -3.8579  -3.8356  -3.6657  -3.6633
    -3.4119  -3.3909  -3.3627  -3.3228   3.7736   3.8327   3.8896   3.9436
     4.0825   4.1296   4.3064   4.4024   4.5581   4.5863   4.7671   4.8111
     4.8486   4.8613   4.9973   5.1063   5.3920   5.4164   5.4771   5.5422
     5.6760   5.7398   5.7987   5.8321   5.9781   6.0344   6.0887   6.1517
     6.2945   6.4455   6.5890   6.6641   6.7392   6.8496   7.0200   7.0458
     9.5243   9.5562   9.7019   9.7277  10.0125  10.0546  10.2515  10.3544
    10.3862  10.3990  10.5712  10.6191  11.6893  11.7563  12.0191  12.0520
    12.1488  12.2256  12.2970  12.4170  12.4925  12.6611  12.7739  13.0206
    13.1261  13.1474  13.1844  13.2552

     occupation numbers 
     1.0000   1.0000   1.0000   1.0000   1.0000   1.0000   1.0000   1.0000
     1.0000   1.0000   1.0000   1.0000   1.0000   1.0000   1.0000   1.0000
     1.0000   1.0000   1.0000   1.0000   1.0000   1.0000   1.0000   1.0000
     1.0000   1.0000   1.0000   1.0000   1.0000   1.0000   1.0000   1.0000
     1.0000   1.0000   1.0000   1.0000   1.0000   1.0000   1.0000   1.0000
     1.0000   1.0000   1.0000   1.0000   1.0000   1.0000   1.0000   1.0000
     1.0000   1.0000   1.0000   1.0000   1.0000   1.0000   1.0000   1.0000
     1.0000   1.0000   1.0000   1.0000   1.0000   1.0000   1.0000   1.0000
     1.0000   1.0000   1.0000   1.0000   1.0000   1.0000   1.0000   1.0000
     1.0000   1.0000   1.0000   1.0000   1.0000   1.0000   1.0000   1.0000
     0.0000   0.0000   0.0000   0.0000   0.0000   0.0000   0.0000   0.0000
     0.0000   0.0000   0.0000   0.0000   0.0000   0.0000   0.0000   0.0000
     0.0000   0.0000   0.0000   0.0000   0.0000   0.0000   0.0000   0.0000
     0.0000   0.0000   0.0000   0.0000

          k = 0.3000 0.0444-0.1371 ( 18724 PWs)   bands (ev):

   -41.4217 -41.4217 -41.4191 -41.4191 -26.6577 -26.6577 -26.6564 -26.6564
   -19.4973 -19.4973 -19.4779 -19.4779 -19.4583 -19.4583 -19.4533 -19.4533
   -19.4171 -19.4171 -19.4050 -19.4050  -8.8538  -8.8538  -8.8223  -8.8223
    -8.7126  -8.7126  -8.7049  -8.7049  -8.6837  -8.6837  -8.6333  -8.6333
    -4.3042  -4.3042  -3.9356  -3.9356  -3.8451  -3.8451  -3.6643  -3.6643
    -3.4025  -3.4025  -3.3415  -3.3415   3.8236   3.8236   3.8852   3.8852
     4.0959   4.0959   4.3577   4.3577   4.5796   4.5796   4.8302   4.8302
     4.8562   4.8562   5.0344   5.0344   5.3926   5.3926   5.5130   5.5130
     5.7019   5.7019   5.8577   5.8577   5.9580   5.9580   6.0946   6.0946
     6.3581   6.3581   6.6402   6.6402   6.8186   6.8186   7.0426   7.0426
     9.5398   9.5398   9.7118   9.7118  10.0262  10.0262  10.3123  10.3123
    10.3826  10.3826  10.5932  10.5932  11.7058  11.7058  12.0137  12.0137
    12.1961  12.1961  12.4016  12.4016  12.5990  12.5990  12.9501  12.9501
    13.0747  13.0747  13.2065  13.2065

     occupation numbers 
     1.0000   1.0000   1.0000   1.0000   1.0000   1.0000   1.0000   1.0000
     1.0000   1.0000   1.0000   1.0000   1.0000   1.0000   1.0000   1.0000
     1.0000   1.0000   1.0000   1.0000   1.0000   1.0000   1.0000   1.0000
     1.0000   1.0000   1.0000   1.0000   1.0000   1.0000   1.0000   1.0000
     1.0000   1.0000   1.0000   1.0000   1.0000   1.0000   1.0000   1.0000
     1.0000   1.0000   1.0000   1.0000   1.0000   1.0000   1.0000   1.0000
     1.0000   1.0000   1.0000   1.0000   1.0000   1.0000   1.0000   1.0000
     1.0000   1.0000   1.0000   1.0000   1.0000   1.0000   1.0000   1.0000
     1.0000   1.0000   1.0000   1.0000   1.0000   1.0000   1.0000   1.0000
     1.0000   1.0000   1.0000   1.0000   1.0000   1.0000   1.0000   1.0000
     0.0000   0.0000   0.0000   0.0000   0.0000   0.0000   0.0000   0.0000
     0.0000   0.0000   0.0000   0.0000   0.0000   0.0000   0.0000   0.0000
     0.0000   0.0000   0.0000   0.0000   0.0000   0.0000   0.0000   0.0000
     0.0000   0.0000   0.0000   0.0000

          k = 0.3000 0.0888 0.0000 ( 18731 PWs)   bands (ev):

   -41.4217 -41.4217 -41.4191 -41.4191 -26.6577 -26.6575 -26.6565 -26.6564
   -19.4973 -19.4973 -19.4779 -19.4779 -19.4583 -19.4583 -19.4533 -19.4532
   -19.4171 -19.4171 -19.4050 -19.4049  -8.8519  -8.8513  -8.8254  -8.8242
    -8.7161  -8.7143  -8.7062  -8.7001  -8.6838  -8.6750  -8.6374  -8.6356
    -4.3499  -4.2308  -3.9498  -3.9356  -3.8791  -3.8469  -3.6524  -3.6485
    -3.4123  -3.4082  -3.3641  -3.3096   3.7605   3.7962   3.9859   4.0580
     4.1284   4.1484   4.2560   4.4167   4.4595   4.5048   4.7003   4.7326
     4.8135   4.8160   5.0346   5.2197   5.3522   5.3790   5.4219   5.4705
     5.7299   5.7391   5.7612   5.8064   6.0342   6.1251   6.1540   6.2265
     6.3444   6.4399   6.6650   6.7056   6.7406   6.8138   6.9618   7.0620
     9.4866   9.5474   9.7003   9.7077  10.0435  10.0720  10.2287  10.3578
    10.3693  10.4685  10.5164  10.6329  11.6433  11.8742  11.8803  11.9876
    12.1646  12.1856  12.3057  12.3275  12.4497  12.6251  12.6547  12.9312
    12.9994  13.2056  13.2391  13.3605

     occupation numbers 
     1.0000   1.0000   1.0000   1.0000   1.0000   1.0000   1.0000   1.0000
     1.0000   1.0000   1.0000   1.0000   1.0000   1.0000   1.0000   1.0000
     1.0000   1.0000   1.0000   1.0000   1.0000   1.0000   1.0000   1.0000
     1.0000   1.0000   1.0000   1.0000   1.0000   1.0000   1.0000   1.0000
     1.0000   1.0000   1.0000   1.0000   1.0000   1.0000   1.0000   1.0000
     1.0000   1.0000   1.0000   1.0000   1.0000   1.0000   1.0000   1.0000
     1.0000   1.0000   1.0000   1.0000   1.0000   1.0000   1.0000   1.0000
     1.0000   1.0000   1.0000   1.0000   1.0000   1.0000   1.0000   1.0000
     1.0000   1.0000   1.0000   1.0000   1.0000   1.0000   1.0000   1.0000
     1.0000   1.0000   1.0000   1.0000   1.0000   1.0000   1.0000   1.0000
     0.0000   0.0000   0.0000   0.0000   0.0000   0.0000   0.0000   0.0000
     0.0000   0.0000   0.0000   0.0000   0.0000   0.0000   0.0000   0.0000
     0.0000   0.0000   0.0000   0.0000   0.0000   0.0000   0.0000   0.0000
     0.0000   0.0000   0.0000   0.0000

          k = 0.3000 0.0888 0.0457 ( 18734 PWs)   bands (ev):

   -41.4217 -41.4217 -41.4191 -41.4191 -26.6577 -26.6576 -26.6565 -26.6564
   -19.4973 -19.4973 -19.4779 -19.4779 -19.4583 -19.4583 -19.4533 -19.4532
   -19.4171 -19.4171 -19.4050 -19.4049  -8.8519  -8.8513  -8.8254  -8.8243
    -8.7158  -8.7141  -8.7062  -8.7009  -8.6829  -8.6755  -8.6373  -8.6357
    -4.3428  -4.2397  -3.9545  -3.9349  -3.8741  -3.8466  -3.6521  -3.6486
    -3.4160  -3.3976  -3.3660  -3.3141   3.7654   3.8082   3.9552   4.0423
     4.0877   4.1739   4.2704   4.4163   4.4653   4.5370   4.7156   4.7456
     4.8145   4.8295   5.0235   5.2036   5.3474   5.3768   5.4080   5.4820
     5.7060   5.7355   5.7528   5.8330   6.0401   6.0752   6.1475   6.2398
     6.3425   6.4627   6.6402   6.7017   6.7308   6.8649   6.9751   7.0528
     9.4960   9.5498   9.6849   9.7037  10.0438  10.0659  10.2367  10.3566
    10.3715  10.4397  10.5335  10.6258  11.6470  11.8392  11.9293  12.0376
    12.0866  12.1881  12.2858  12.3707  12.4944  12.6450  12.6697  12.9433
    13.0275  13.1745  13.2251  13.3310

     occupation numbers 
     1.0000   1.0000   1.0000   1.0000   1.0000   1.0000   1.0000   1.0000
     1.0000   1.0000   1.0000   1.0000   1.0000   1.0000   1.0000   1.0000
     1.0000   1.0000   1.0000   1.0000   1.0000   1.0000   1.0000   1.0000
     1.0000   1.0000   1.0000   1.0000   1.0000   1.0000   1.0000   1.0000
     1.0000   1.0000   1.0000   1.0000   1.0000   1.0000   1.0000   1.0000
     1.0000   1.0000   1.0000   1.0000   1.0000   1.0000   1.0000   1.0000
     1.0000   1.0000   1.0000   1.0000   1.0000   1.0000   1.0000   1.0000
     1.0000   1.0000   1.0000   1.0000   1.0000   1.0000   1.0000   1.0000
     1.0000   1.0000   1.0000   1.0000   1.0000   1.0000   1.0000   1.0000
     1.0000   1.0000   1.0000   1.0000   1.0000   1.0000   1.0000   1.0000
     0.0000   0.0000   0.0000   0.0000   0.0000   0.0000   0.0000   0.0000
     0.0000   0.0000   0.0000   0.0000   0.0000   0.0000   0.0000   0.0000
     0.0000   0.0000   0.0000   0.0000   0.0000   0.0000   0.0000   0.0000
     0.0000   0.0000   0.0000   0.0000

          k = 0.3000 0.0888 0.0914 ( 18714 PWs)   bands (ev):

   -41.4217 -41.4217 -41.4191 -41.4191 -26.6576 -26.6576 -26.6565 -26.6564
   -19.4973 -19.4973 -19.4779 -19.4779 -19.4583 -19.4583 -19.4533 -19.4532
   -19.4171 -19.4171 -19.4050 -19.4049  -8.8518  -8.8515  -8.8251  -8.8245
    -8.7150  -8.7139  -8.7059  -8.7028  -8.6810  -8.6769  -8.6369  -8.6360
    -4.3228  -4.2635  -3.9566  -3.9410  -3.8627  -3.8476  -3.6511  -3.6490
    -3.4120  -3.3919  -3.3621  -3.3266   3.7854   3.8342   3.9012   3.9679
     4.1039   4.1635   4.3004   4.3767   4.5292   4.5664   4.7603   4.7722
     4.8183   4.8642   5.0059   5.1478   5.3413   5.3589   5.4210   5.4701
     5.6691   5.6993   5.7727   5.9199   5.9268   6.1144   6.1358   6.2297
     6.3219   6.4583   6.6407   6.7179   6.7494   6.8804   7.0096   7.0438
     9.5186   9.5544   9.6610   9.6849  10.0433  10.0534  10.2644  10.3512
    10.3707  10.3952  10.5580  10.6071  11.6777  11.7989  11.9712  12.0027
    12.0826  12.2169  12.2817  12.4409  12.5378  12.6642  12.7503  12.9776
    13.0494  13.0944  13.1861  13.2620

     occupation numbers 
     1.0000   1.0000   1.0000   1.0000   1.0000   1.0000   1.0000   1.0000
     1.0000   1.0000   1.0000   1.0000   1.0000   1.0000   1.0000   1.0000
     1.0000   1.0000   1.0000   1.0000   1.0000   1.0000   1.0000   1.0000
     1.0000   1.0000   1.0000   1.0000   1.0000   1.0000   1.0000   1.0000
     1.0000   1.0000   1.0000   1.0000   1.0000   1.0000   1.0000   1.0000
     1.0000   1.0000   1.0000   1.0000   1.0000   1.0000   1.0000   1.0000
     1.0000   1.0000   1.0000   1.0000   1.0000   1.0000   1.0000   1.0000
     1.0000   1.0000   1.0000   1.0000   1.0000   1.0000   1.0000   1.0000
     1.0000   1.0000   1.0000   1.0000   1.0000   1.0000   1.0000   1.0000
     1.0000   1.0000   1.0000   1.0000   1.0000   1.0000   1.0000   1.0000
     0.0000   0.0000   0.0000   0.0000   0.0000   0.0000   0.0000   0.0000
     0.0000   0.0000   0.0000   0.0000   0.0000   0.0000   0.0000   0.0000
     0.0000   0.0000   0.0000   0.0000   0.0000   0.0000   0.0000   0.0000
     0.0000   0.0000   0.0000   0.0000

          k = 0.3000 0.0888-0.1371 ( 18718 PWs)   bands (ev):

   -41.4217 -41.4217 -41.4191 -41.4191 -26.6576 -26.6576 -26.6565 -26.6565
   -19.4973 -19.4973 -19.4779 -19.4779 -19.4583 -19.4583 -19.4532 -19.4532
   -19.4171 -19.4171 -19.4050 -19.4050  -8.8516  -8.8516  -8.8248  -8.8248
    -8.7142  -8.7142  -8.7048  -8.7048  -8.6788  -8.6788  -8.6365  -8.6365
    -4.2941  -4.2941  -3.9507  -3.9507  -3.8526  -3.8526  -3.6499  -3.6499
    -3.4014  -3.4014  -3.3446  -3.3446   3.8218   3.8218   3.9054   3.9054
     4.1339   4.1339   4.3368   4.3368   4.5660   4.5660   4.7873   4.7873
     4.8501   4.8501   5.0572   5.0572   5.3453   5.3453   5.4450   5.4450
     5.6648   5.6648   5.8320   5.8320   6.0397   6.0397   6.1711   6.1711
     6.3876   6.3876   6.6847   6.6847   6.8254   6.8254   7.0375   7.0375
     9.5438   9.5438   9.6617   9.6617  10.0448  10.0448  10.3106  10.3106
    10.3760  10.3760  10.5829  10.5829  11.7400  11.7400  11.9623  11.9623
    12.1607  12.1607  12.3948  12.3948  12.6151  12.6151  12.8996  12.8996
    13.0427  13.0427  13.2027  13.2027

     occupation numbers 
     1.0000   1.0000   1.0000   1.0000   1.0000   1.0000   1.0000   1.0000
     1.0000   1.0000   1.0000   1.0000   1.0000   1.0000   1.0000   1.0000
     1.0000   1.0000   1.0000   1.0000   1.0000   1.0000   1.0000   1.0000
     1.0000   1.0000   1.0000   1.0000   1.0000   1.0000   1.0000   1.0000
     1.0000   1.0000   1.0000   1.0000   1.0000   1.0000   1.0000   1.0000
     1.0000   1.0000   1.0000   1.0000   1.0000   1.0000   1.0000   1.0000
     1.0000   1.0000   1.0000   1.0000   1.0000   1.0000   1.0000   1.0000
     1.0000   1.0000   1.0000   1.0000   1.0000   1.0000   1.0000   1.0000
     1.0000   1.0000   1.0000   1.0000   1.0000   1.0000   1.0000   1.0000
     1.0000   1.0000   1.0000   1.0000   1.0000   1.0000   1.0000   1.0000
     0.0000   0.0000   0.0000   0.0000   0.0000   0.0000   0.0000   0.0000
     0.0000   0.0000   0.0000   0.0000   0.0000   0.0000   0.0000   0.0000
     0.0000   0.0000   0.0000   0.0000   0.0000   0.0000   0.0000   0.0000
     0.0000   0.0000   0.0000   0.0000

          k = 0.3000 0.1333 0.0000 ( 18712 PWs)   bands (ev):

   -41.4217 -41.4217 -41.4191 -41.4191 -26.6575 -26.6574 -26.6567 -26.6566
   -19.4973 -19.4973 -19.4780 -19.4780 -19.4583 -19.4583 -19.4532 -19.4532
   -19.4171 -19.4171 -19.4050 -19.4049  -8.8485  -8.8477  -8.8293  -8.8280
    -8.7178  -8.7155  -8.7057  -8.7012  -8.6758  -8.6687  -8.6429  -8.6404
    -4.3268  -4.2350  -3.9663  -3.9417  -3.8812  -3.8667  -3.6355  -3.6333
    -3.4161  -3.4151  -3.3541  -3.3158   3.8052   3.8173   3.9982   4.0386
     4.1462   4.1699   4.2942   4.3686   4.3980   4.5054   4.6714   4.6810
     4.7764   4.8561   5.0571   5.2609   5.2755   5.2934   5.3840   5.4613
     5.6932   5.7057   5.8075   5.8679   6.0553   6.0622   6.2145   6.2515
     6.3001   6.4177   6.7382   6.7807   6.8523   6.8797   6.9603   7.0699
     9.4673   9.5086   9.6687   9.7034  10.0010  10.1126  10.2677  10.3142
    10.3815  10.4807  10.4825  10.6051  11.5844  11.7606  11.8231  11.9093
    12.1059  12.1552  12.3935  12.4509  12.5479  12.6249  12.7058  12.9056
    12.9059  13.1813  13.2150  13.2725

     occupation numbers 
     1.0000   1.0000   1.0000   1.0000   1.0000   1.0000   1.0000   1.0000
     1.0000   1.0000   1.0000   1.0000   1.0000   1.0000   1.0000   1.0000
     1.0000   1.0000   1.0000   1.0000   1.0000   1.0000   1.0000   1.0000
     1.0000   1.0000   1.0000   1.0000   1.0000   1.0000   1.0000   1.0000
     1.0000   1.0000   1.0000   1.0000   1.0000   1.0000   1.0000   1.0000
     1.0000   1.0000   1.0000   1.0000   1.0000   1.0000   1.0000   1.0000
     1.0000   1.0000   1.0000   1.0000   1.0000   1.0000   1.0000   1.0000
     1.0000   1.0000   1.0000   1.0000   1.0000   1.0000   1.0000   1.0000
     1.0000   1.0000   1.0000   1.0000   1.0000   1.0000   1.0000   1.0000
     1.0000   1.0000   1.0000   1.0000   1.0000   1.0000   1.0000   1.0000
     0.0000   0.0000   0.0000   0.0000   0.0000   0.0000   0.0000   0.0000
     0.0000   0.0000   0.0000   0.0000   0.0000   0.0000   0.0000   0.0000
     0.0000   0.0000   0.0000   0.0000   0.0000   0.0000   0.0000   0.0000
     0.0000   0.0000   0.0000   0.0000

          k = 0.3000 0.1333 0.0457 ( 18726 PWs)   bands (ev):

   -41.4217 -41.4217 -41.4191 -41.4191 -26.6575 -26.6574 -26.6567 -26.6566
   -19.4973 -19.4973 -19.4780 -19.4780 -19.4583 -19.4583 -19.4532 -19.4532
   -19.4171 -19.4171 -19.4050 -19.4049  -8.8485  -8.8477  -8.8293  -8.8281
    -8.7174  -8.7153  -8.7059  -8.7019  -8.6752  -8.6691  -8.6427  -8.6405
    -4.3207  -4.2407  -3.9720  -3.9457  -3.8768  -3.8627  -3.6355  -3.6334
    -3.4181  -3.4050  -3.3568  -3.3202   3.8014   3.8295   3.9578   4.0371
     4.1048   4.2157   4.3000   4.3824   4.4109   4.5178   4.6726   4.6962
     4.7844   4.8655   5.0461   5.2446   5.2670   5.3049   5.3646   5.4518
     5.6837   5.7158   5.7470   5.9093   5.9897   6.1126   6.2101   6.2812
     6.3286   6.4319   6.7146   6.7727   6.8064   6.9093   6.9868   7.0612
     9.4779   9.5175   9.6510   9.6894  10.0125  10.1077  10.2709  10.3164
    10.3745  10.4361  10.5183  10.6015  11.6044  11.8028  11.8276  11.9579
    12.0386  12.1668  12.3643  12.4523  12.5807  12.6433  12.7081  12.9132
    12.9361  13.1383  13.2079  13.2595

     occupation numbers 
     1.0000   1.0000   1.0000   1.0000   1.0000   1.0000   1.0000   1.0000
     1.0000   1.0000   1.0000   1.0000   1.0000   1.0000   1.0000   1.0000
     1.0000   1.0000   1.0000   1.0000   1.0000   1.0000   1.0000   1.0000
     1.0000   1.0000   1.0000   1.0000   1.0000   1.0000   1.0000   1.0000
     1.0000   1.0000   1.0000   1.0000   1.0000   1.0000   1.0000   1.0000
     1.0000   1.0000   1.0000   1.0000   1.0000   1.0000   1.0000   1.0000
     1.0000   1.0000   1.0000   1.0000   1.0000   1.0000   1.0000   1.0000
     1.0000   1.0000   1.0000   1.0000   1.0000   1.0000   1.0000   1.0000
     1.0000   1.0000   1.0000   1.0000   1.0000   1.0000   1.0000   1.0000
     1.0000   1.0000   1.0000   1.0000   1.0000   1.0000   1.0000   1.0000
     0.0000   0.0000   0.0000   0.0000   0.0000   0.0000   0.0000   0.0000
     0.0000   0.0000   0.0000   0.0000   0.0000   0.0000   0.0000   0.0000
     0.0000   0.0000   0.0000   0.0000   0.0000   0.0000   0.0000   0.0000
     0.0000   0.0000   0.0000   0.0000

          k = 0.3000 0.1333 0.0914 ( 18699 PWs)   bands (ev):

   -41.4217 -41.4217 -41.4191 -41.4191 -26.6575 -26.6574 -26.6566 -26.6566
   -19.4973 -19.4973 -19.4780 -19.4780 -19.4583 -19.4583 -19.4532 -19.4532
   -19.4171 -19.4171 -19.4050 -19.4049  -8.8483  -8.8479  -8.8290  -8.8284
    -8.7164  -8.7151  -8.7059  -8.7035  -8.6737  -8.6703  -8.6422  -8.6409
    -4.3038  -4.2571  -3.9770  -3.9586  -3.8662  -3.8576  -3.6352  -3.6338
    -3.4113  -3.3948  -3.3595  -3.3324   3.8085   3.8466   3.9073   3.9682
     4.1431   4.2153   4.3213   4.3570   4.4832   4.5329   4.6926   4.7163
     4.8105   4.8826   5.0356   5.1873   5.2681   5.2816   5.3707   5.4175
     5.6678   5.6744   5.7397   5.8615   6.0280   6.1859   6.2084   6.2912
     6.3497   6.4496   6.6919   6.7566   6.8006   6.8839   7.0298   7.0514
     9.5057   9.5452   9.6091   9.6520  10.0396  10.0928  10.2831  10.3295
    10.3483  10.3921  10.5472  10.5904  11.6694  11.8418  11.9047  11.9324
    12.0191  12.1588  12.3257  12.4655  12.6118  12.6888  12.7340  12.9307
    12.9711  13.0510  13.1926  13.2278

     occupation numbers 
     1.0000   1.0000   1.0000   1.0000   1.0000   1.0000   1.0000   1.0000
     1.0000   1.0000   1.0000   1.0000   1.0000   1.0000   1.0000   1.0000
     1.0000   1.0000   1.0000   1.0000   1.0000   1.0000   1.0000   1.0000
     1.0000   1.0000   1.0000   1.0000   1.0000   1.0000   1.0000   1.0000
     1.0000   1.0000   1.0000   1.0000   1.0000   1.0000   1.0000   1.0000
     1.0000   1.0000   1.0000   1.0000   1.0000   1.0000   1.0000   1.0000
     1.0000   1.0000   1.0000   1.0000   1.0000   1.0000   1.0000   1.0000
     1.0000   1.0000   1.0000   1.0000   1.0000   1.0000   1.0000   1.0000
     1.0000   1.0000   1.0000   1.0000   1.0000   1.0000   1.0000   1.0000
     1.0000   1.0000   1.0000   1.0000   1.0000   1.0000   1.0000   1.0000
     0.0000   0.0000   0.0000   0.0000   0.0000   0.0000   0.0000   0.0000
     0.0000   0.0000   0.0000   0.0000   0.0000   0.0000   0.0000   0.0000
     0.0000   0.0000   0.0000   0.0000   0.0000   0.0000   0.0000   0.0000
     0.0000   0.0000   0.0000   0.0000

          k = 0.3000 0.1333-0.1371 ( 18728 PWs)   bands (ev):

   -41.4217 -41.4217 -41.4191 -41.4191 -26.6575 -26.6575 -26.6566 -26.6566
   -19.4973 -19.4973 -19.4780 -19.4780 -19.4583 -19.4583 -19.4532 -19.4532
   -19.4171 -19.4171 -19.4050 -19.4050  -8.8481  -8.8481  -8.8287  -8.8287
    -8.7154  -8.7154  -8.7051  -8.7051  -8.6719  -8.6719  -8.6416  -8.6416
    -4.2804  -4.2804  -3.9718  -3.9718  -3.8584  -3.8584  -3.6345  -3.6345
    -3.3998  -3.3998  -3.3488  -3.3488   3.8324   3.8324   3.9131   3.9131
     4.1874   4.1874   4.3369   4.3369   4.5266   4.5266   4.7158   4.7158
     4.8569   4.8569   5.0929   5.0929   5.2701   5.2701   5.3883   5.3883
     5.6529   5.6529   5.7862   5.7862   6.1383   6.1383   6.2449   6.2449
     6.4103   6.4103   6.7220   6.7220   6.8359   6.8359   7.0474   7.0474
     9.5449   9.5449   9.6053   9.6053  10.0691  10.0691  10.3105  10.3105
    10.3567  10.3567  10.5716  10.5716  11.7726  11.7726  11.9241  11.9241
    12.0897  12.0897  12.3995  12.3995  12.6601  12.6601  12.8401  12.8401
    13.0110  13.0110  13.1992  13.1992

     occupation numbers 
     1.0000   1.0000   1.0000   1.0000   1.0000   1.0000   1.0000   1.0000
     1.0000   1.0000   1.0000   1.0000   1.0000   1.0000   1.0000   1.0000
     1.0000   1.0000   1.0000   1.0000   1.0000   1.0000   1.0000   1.0000
     1.0000   1.0000   1.0000   1.0000   1.0000   1.0000   1.0000   1.0000
     1.0000   1.0000   1.0000   1.0000   1.0000   1.0000   1.0000   1.0000
     1.0000   1.0000   1.0000   1.0000   1.0000   1.0000   1.0000   1.0000
     1.0000   1.0000   1.0000   1.0000   1.0000   1.0000   1.0000   1.0000
     1.0000   1.0000   1.0000   1.0000   1.0000   1.0000   1.0000   1.0000
     1.0000   1.0000   1.0000   1.0000   1.0000   1.0000   1.0000   1.0000
     1.0000   1.0000   1.0000   1.0000   1.0000   1.0000   1.0000   1.0000
     0.0000   0.0000   0.0000   0.0000   0.0000   0.0000   0.0000   0.0000
     0.0000   0.0000   0.0000   0.0000   0.0000   0.0000   0.0000   0.0000
     0.0000   0.0000   0.0000   0.0000   0.0000   0.0000   0.0000   0.0000
     0.0000   0.0000   0.0000   0.0000

          k = 0.3000 0.1777 0.0000 ( 18729 PWs)   bands (ev):

   -41.4217 -41.4217 -41.4191 -41.4191 -26.6573 -26.6572 -26.6569 -26.6568
   -19.4973 -19.4973 -19.4780 -19.4780 -19.4583 -19.4583 -19.4532 -19.4532
   -19.4171 -19.4171 -19.4050 -19.4049  -8.8442  -8.8431  -8.8341  -8.8328
    -8.7184  -8.7168  -8.7050  -8.7026  -8.6670  -8.6614  -8.6500  -8.6466
    -4.2988  -4.2480  -3.9731  -3.9539  -3.8829  -3.8790  -3.6230  -3.6222
    -3.4198  -3.4196  -3.3437  -3.3240   3.8573   3.8586   3.9688   3.9878
     4.1851   4.2088   4.3212   4.3290   4.3879   4.4939   4.6202   4.6293
     4.7803   4.8615   5.0981   5.2124   5.2275   5.2337   5.4106   5.4542
     5.6617   5.6730   5.8505   5.9285   6.0070   6.0745   6.2301   6.2607
     6.3149   6.3891   6.7973   6.8231   6.9079   6.9148   7.0013   7.0814
     9.4558   9.4730   9.6607   9.6874   9.9937  10.0915  10.2921  10.2945
    10.4070  10.4512  10.5019  10.5701  11.5623  11.6566  11.7949  11.8420
    12.0623  12.0823  12.4977  12.5856  12.6047  12.6543  12.7818  12.8027
    12.8976  13.1581  13.1816  13.2716

     occupation numbers 
     1.0000   1.0000   1.0000   1.0000   1.0000   1.0000   1.0000   1.0000
     1.0000   1.0000   1.0000   1.0000   1.0000   1.0000   1.0000   1.0000
     1.0000   1.0000   1.0000   1.0000   1.0000   1.0000   1.0000   1.0000
     1.0000   1.0000   1.0000   1.0000   1.0000   1.0000   1.0000   1.0000
     1.0000   1.0000   1.0000   1.0000   1.0000   1.0000   1.0000   1.0000
     1.0000   1.0000   1.0000   1.0000   1.0000   1.0000   1.0000   1.0000
     1.0000   1.0000   1.0000   1.0000   1.0000   1.0000   1.0000   1.0000
     1.0000   1.0000   1.0000   1.0000   1.0000   1.0000   1.0000   1.0000
     1.0000   1.0000   1.0000   1.0000   1.0000   1.0000   1.0000   1.0000
     1.0000   1.0000   1.0000   1.0000   1.0000   1.0000   1.0000   1.0000
     0.0000   0.0000   0.0000   0.0000   0.0000   0.0000   0.0000   0.0000
     0.0000   0.0000   0.0000   0.0000   0.0000   0.0000   0.0000   0.0000
     0.0000   0.0000   0.0000   0.0000   0.0000   0.0000   0.0000   0.0000
     0.0000   0.0000   0.0000   0.0000

          k = 0.3000 0.1777 0.0457 ( 18721 PWs)   bands (ev):

   -41.4217 -41.4217 -41.4191 -41.4191 -26.6573 -26.6572 -26.6569 -26.6568
   -19.4973 -19.4973 -19.4780 -19.4780 -19.4583 -19.4583 -19.4532 -19.4532
   -19.4171 -19.4171 -19.4050 -19.4049  -8.8441  -8.8432  -8.8340  -8.8329
    -8.7180  -8.7166  -8.7053  -8.7031  -8.6666  -8.6617  -8.6497  -8.6468
    -4.2943  -4.2497  -3.9808  -3.9617  -3.8780  -3.8723  -3.6233  -3.6223
    -3.4186  -3.4116  -3.3472  -3.3282   3.8479   3.8642   3.9402   3.9773
     4.1716   4.2457   4.3285   4.3569   4.3925   4.4955   4.6165   4.6411
     4.7909   4.8641   5.0925   5.1973   5.2144   5.2634   5.3737   5.4324
     5.6608   5.6837   5.7798   5.8884   6.0335   6.1418   6.2500   6.2987
     6.3273   6.3975   6.7821   6.8189   6.8549   6.8967   7.0375   7.0804
     9.4652   9.4835   9.6410   9.6695  10.0117  10.0991  10.2898  10.2948
    10.3900  10.4226  10.5213  10.5721  11.5945  11.7037  11.8082  11.8817
    12.0202  12.0926  12.4756  12.5358  12.6490  12.6690  12.7783  12.8152
    12.9078  13.1332  13.1490  13.2502

     occupation numbers 
     1.0000   1.0000   1.0000   1.0000   1.0000   1.0000   1.0000   1.0000
     1.0000   1.0000   1.0000   1.0000   1.0000   1.0000   1.0000   1.0000
     1.0000   1.0000   1.0000   1.0000   1.0000   1.0000   1.0000   1.0000
     1.0000   1.0000   1.0000   1.0000   1.0000   1.0000   1.0000   1.0000
     1.0000   1.0000   1.0000   1.0000   1.0000   1.0000   1.0000   1.0000
     1.0000   1.0000   1.0000   1.0000   1.0000   1.0000   1.0000   1.0000
     1.0000   1.0000   1.0000   1.0000   1.0000   1.0000   1.0000   1.0000
     1.0000   1.0000   1.0000   1.0000   1.0000   1.0000   1.0000   1.0000
     1.0000   1.0000   1.0000   1.0000   1.0000   1.0000   1.0000   1.0000
     1.0000   1.0000   1.0000   1.0000   1.0000   1.0000   1.0000   1.0000
     0.0000   0.0000   0.0000   0.0000   0.0000   0.0000   0.0000   0.0000
     0.0000   0.0000   0.0000   0.0000   0.0000   0.0000   0.0000   0.0000
     0.0000   0.0000   0.0000   0.0000   0.0000   0.0000   0.0000   0.0000
     0.0000   0.0000   0.0000   0.0000

          k = 0.3000 0.1777 0.0914 ( 18692 PWs)   bands (ev):

   -41.4217 -41.4217 -41.4191 -41.4191 -26.6573 -26.6572 -26.6568 -26.6568
   -19.4973 -19.4973 -19.4780 -19.4780 -19.4583 -19.4583 -19.4532 -19.4532
   -19.4171 -19.4171 -19.4050 -19.4049  -8.8439  -8.8434  -8.8338  -8.8331
    -8.7170  -8.7161  -8.7057  -8.7044  -8.6655  -8.6627  -8.6490  -8.6473
    -4.2825  -4.2560  -3.9910  -3.9782  -3.8675  -3.8635  -3.6235  -3.6228
    -3.4090  -3.3997  -3.3543  -3.3397   3.8434   3.8660   3.9032   3.9367
     4.1999   4.2518   4.3607   4.3758   4.4305   4.4898   4.6271   4.6528
     4.8237   4.8737   5.0807   5.1606   5.2205   5.2646   5.3312   5.3817
     5.6590   5.6747   5.7267   5.8014   6.1260   6.2241   6.2822   6.3150
     6.3657   6.4232   6.7404   6.7917   6.8301   6.8532   7.0686   7.0761
     9.4924   9.5159   9.5935   9.6240  10.0536  10.1084  10.2903  10.3023
    10.3495  10.3774  10.5458  10.5721  11.6819  11.8128  11.8593  11.9125
    11.9725  12.0808  12.4125  12.4891  12.6974  12.7065  12.7686  12.8259
    12.9418  13.0446  13.1067  13.1879

     occupation numbers 
     1.0000   1.0000   1.0000   1.0000   1.0000   1.0000   1.0000   1.0000
     1.0000   1.0000   1.0000   1.0000   1.0000   1.0000   1.0000   1.0000
     1.0000   1.0000   1.0000   1.0000   1.0000   1.0000   1.0000   1.0000
     1.0000   1.0000   1.0000   1.0000   1.0000   1.0000   1.0000   1.0000
     1.0000   1.0000   1.0000   1.0000   1.0000   1.0000   1.0000   1.0000
     1.0000   1.0000   1.0000   1.0000   1.0000   1.0000   1.0000   1.0000
     1.0000   1.0000   1.0000   1.0000   1.0000   1.0000   1.0000   1.0000
     1.0000   1.0000   1.0000   1.0000   1.0000   1.0000   1.0000   1.0000
     1.0000   1.0000   1.0000   1.0000   1.0000   1.0000   1.0000   1.0000
     1.0000   1.0000   1.0000   1.0000   1.0000   1.0000   1.0000   1.0000
     0.0000   0.0000   0.0000   0.0000   0.0000   0.0000   0.0000   0.0000
     0.0000   0.0000   0.0000   0.0000   0.0000   0.0000   0.0000   0.0000
     0.0000   0.0000   0.0000   0.0000   0.0000   0.0000   0.0000   0.0000
     0.0000   0.0000   0.0000   0.0000

          k = 0.3000 0.1777-0.1371 ( 18700 PWs)   bands (ev):

   -41.4217 -41.4217 -41.4191 -41.4191 -26.6573 -26.6573 -26.6568 -26.6568
   -19.4973 -19.4973 -19.4780 -19.4780 -19.4583 -19.4583 -19.4532 -19.4532
   -19.4171 -19.4171 -19.4049 -19.4049  -8.8437  -8.8437  -8.8335  -8.8335
    -8.7161  -8.7161  -8.7055  -8.7055  -8.6640  -8.6640  -8.6481  -8.6481
    -4.2679  -4.2679  -3.9906  -3.9906  -3.8614  -3.8614  -3.6233  -3.6233
    -3.3981  -3.3981  -3.3526  -3.3526   3.8534   3.8534   3.9032   3.9032
     4.2340   4.2340   4.3761   4.3761   4.4697   4.4697   4.6467   4.6467
     4.8652   4.8652   5.1028   5.1028   5.2347   5.2347   5.3445   5.3445
     5.6533   5.6533   5.7480   5.7480   6.2206   6.2206   6.2949   6.2949
     6.4142   6.4142   6.7436   6.7436   6.8354   6.8354   7.0744   7.0744
     9.5358   9.5358   9.5692   9.5692  10.0938  10.0938  10.3057  10.3057
    10.3360  10.3360  10.5634  10.5634  11.7982  11.7982  11.8958  11.8958
    12.0245  12.0245  12.4208  12.4208  12.7349  12.7349  12.7817  12.7817
    12.9923  12.9923  13.0979  13.0979

     occupation numbers 
     1.0000   1.0000   1.0000   1.0000   1.0000   1.0000   1.0000   1.0000
     1.0000   1.0000   1.0000   1.0000   1.0000   1.0000   1.0000   1.0000
     1.0000   1.0000   1.0000   1.0000   1.0000   1.0000   1.0000   1.0000
     1.0000   1.0000   1.0000   1.0000   1.0000   1.0000   1.0000   1.0000
     1.0000   1.0000   1.0000   1.0000   1.0000   1.0000   1.0000   1.0000
     1.0000   1.0000   1.0000   1.0000   1.0000   1.0000   1.0000   1.0000
     1.0000   1.0000   1.0000   1.0000   1.0000   1.0000   1.0000   1.0000
     1.0000   1.0000   1.0000   1.0000   1.0000   1.0000   1.0000   1.0000
     1.0000   1.0000   1.0000   1.0000   1.0000   1.0000   1.0000   1.0000
     1.0000   1.0000   1.0000   1.0000   1.0000   1.0000   1.0000   1.0000
     0.0000   0.0000   0.0000   0.0000   0.0000   0.0000   0.0000   0.0000
     0.0000   0.0000   0.0000   0.0000   0.0000   0.0000   0.0000   0.0000
     0.0000   0.0000   0.0000   0.0000   0.0000   0.0000   0.0000   0.0000
     0.0000   0.0000   0.0000   0.0000

          k = 0.3000-0.2221 0.0000 ( 18748 PWs)   bands (ev):

   -41.4217 -41.4217 -41.4191 -41.4191 -26.6571 -26.6571 -26.6570 -26.6570
   -19.4973 -19.4973 -19.4780 -19.4780 -19.4583 -19.4583 -19.4532 -19.4532
   -19.4171 -19.4171 -19.4049 -19.4049  -8.8392  -8.8392  -8.8380  -8.8380
    -8.7179  -8.7179  -8.7039  -8.7039  -8.6582  -8.6582  -8.6538  -8.6537
    -4.2707  -4.2706  -3.9674  -3.9674  -3.8831  -3.8831  -3.6183  -3.6183
    -3.4213  -3.4212  -3.3335  -3.3334   3.8992   3.8992   3.9370   3.9370
     4.2172   4.2172   4.3141   4.3142   4.4459   4.4459   4.6011   4.6011
     4.8207   4.8208   5.1638   5.1638   5.2006   5.2006   5.4404   5.4404
     5.6542   5.6542   5.9006   5.9006   6.0436   6.0437   6.2417   6.2418
     6.3574   6.3575   6.8298   6.8298   6.9148   6.9148   7.0631   7.0632
     9.4554   9.4554   9.6698   9.6698  10.0309  10.0309  10.3000  10.3000
    10.4282  10.4283  10.5328  10.5328  11.5864  11.5864  11.8019  11.8019
    12.0489  12.0490  12.5742  12.5743  12.6904  12.6904  12.7442  12.7443
    13.0151  13.0152  13.2539  13.2540

     occupation numbers 
     1.0000   1.0000   1.0000   1.0000   1.0000   1.0000   1.0000   1.0000
     1.0000   1.0000   1.0000   1.0000   1.0000   1.0000   1.0000   1.0000
     1.0000   1.0000   1.0000   1.0000   1.0000   1.0000   1.0000   1.0000
     1.0000   1.0000   1.0000   1.0000   1.0000   1.0000   1.0000   1.0000
     1.0000   1.0000   1.0000   1.0000   1.0000   1.0000   1.0000   1.0000
     1.0000   1.0000   1.0000   1.0000   1.0000   1.0000   1.0000   1.0000
     1.0000   1.0000   1.0000   1.0000   1.0000   1.0000   1.0000   1.0000
     1.0000   1.0000   1.0000   1.0000   1.0000   1.0000   1.0000   1.0000
     1.0000   1.0000   1.0000   1.0000   1.0000   1.0000   1.0000   1.0000
     1.0000   1.0000   1.0000   1.0000   1.0000   1.0000   1.0000   1.0000
     0.0000   0.0000   0.0000   0.0000   0.0000   0.0000   0.0000   0.0000
     0.0000   0.0000   0.0000   0.0000   0.0000   0.0000   0.0000   0.0000
     0.0000   0.0000   0.0000   0.0000   0.0000   0.0000   0.0000   0.0000
     0.0000   0.0000   0.0000   0.0000

          k = 0.3000-0.2221 0.0457 ( 18718 PWs)   bands (ev):

   -41.4217 -41.4217 -41.4191 -41.4191 -26.6571 -26.6571 -26.6570 -26.6570
   -19.4973 -19.4973 -19.4780 -19.4780 -19.4583 -19.4583 -19.4532 -19.4532
   -19.4171 -19.4171 -19.4049 -19.4049  -8.8392  -8.8391  -8.8381  -8.8380
    -8.7176  -8.7176  -8.7043  -8.7043  -8.6580  -8.6579  -8.6540  -8.6539
    -4.2688  -4.2687  -3.9762  -3.9762  -3.8767  -3.8767  -3.6186  -3.6186
    -3.4165  -3.4164  -3.3375  -3.3374   3.8918   3.8918   3.9231   3.9231
     4.2285   4.2285   4.3355   4.3355   4.4472   4.4472   4.6041   4.6041
     4.8260   4.8260   5.1495   5.1495   5.2136   5.2136   5.4075   5.4076
     5.6619   5.6620   5.8290   5.8290   6.1093   6.1093   6.2774   6.2774
     6.3624   6.3625   6.8275   6.8275   6.8715   6.8715   7.0774   7.0774
     9.4648   9.4648   9.6502   9.6502  10.0481  10.0481  10.2973  10.2974
    10.4053  10.4053  10.5424  10.5424  11.6277  11.6277  11.8283  11.8283
    12.0380  12.0381  12.5476  12.5476  12.7007  12.7007  12.7587  12.7587
    12.9996  12.9996  13.2102  13.2102

     occupation numbers 
     1.0000   1.0000   1.0000   1.0000   1.0000   1.0000   1.0000   1.0000
     1.0000   1.0000   1.0000   1.0000   1.0000   1.0000   1.0000   1.0000
     1.0000   1.0000   1.0000   1.0000   1.0000   1.0000   1.0000   1.0000
     1.0000   1.0000   1.0000   1.0000   1.0000   1.0000   1.0000   1.0000
     1.0000   1.0000   1.0000   1.0000   1.0000   1.0000   1.0000   1.0000
     1.0000   1.0000   1.0000   1.0000   1.0000   1.0000   1.0000   1.0000
     1.0000   1.0000   1.0000   1.0000   1.0000   1.0000   1.0000   1.0000
     1.0000   1.0000   1.0000   1.0000   1.0000   1.0000   1.0000   1.0000
     1.0000   1.0000   1.0000   1.0000   1.0000   1.0000   1.0000   1.0000
     1.0000   1.0000   1.0000   1.0000   1.0000   1.0000   1.0000   1.0000
     0.0000   0.0000   0.0000   0.0000   0.0000   0.0000   0.0000   0.0000
     0.0000   0.0000   0.0000   0.0000   0.0000   0.0000   0.0000   0.0000
     0.0000   0.0000   0.0000   0.0000   0.0000   0.0000   0.0000   0.0000
     0.0000   0.0000   0.0000   0.0000

          k = 0.3000-0.2221 0.0914 ( 18704 PWs)   bands (ev):

   -41.4217 -41.4217 -41.4191 -41.4191 -26.6571 -26.6571 -26.6570 -26.6570
   -19.4973 -19.4973 -19.4780 -19.4780 -19.4583 -19.4583 -19.4532 -19.4532
   -19.4171 -19.4171 -19.4049 -19.4049  -8.8390  -8.8389  -8.8383  -8.8382
    -8.7168  -8.7168  -8.7052  -8.7052  -8.6573  -8.6573  -8.6545  -8.6544
    -4.2648  -4.2648  -3.9914  -3.9914  -3.8666  -3.8665  -3.6191  -3.6190
    -3.4050  -3.4049  -3.3474  -3.3473   3.8794   3.8794   3.8976   3.8976
     4.2471   4.2471   4.3820   4.3820   4.4447   4.4447   4.6086   4.6086
     4.8482   4.8483   5.1166   5.1166   5.2345   5.2345   5.3479   5.3480
     5.6637   5.6637   5.7529   5.7529   6.2013   6.2014   6.3180   6.3180
     6.3872   6.3872   6.7896   6.7896   6.8310   6.8310   7.0886   7.0886
     9.4931   9.4931   9.6031   9.6031  10.0850  10.0850  10.2942  10.2942
    10.3598  10.3598  10.5555  10.5555  11.7300  11.7300  11.8797  11.8797
    12.0096  12.0096  12.4806  12.4806  12.7239  12.7239  12.7915  12.7915
    12.9724  12.9724  13.1058  13.1058

     occupation numbers 
     1.0000   1.0000   1.0000   1.0000   1.0000   1.0000   1.0000   1.0000
     1.0000   1.0000   1.0000   1.0000   1.0000   1.0000   1.0000   1.0000
     1.0000   1.0000   1.0000   1.0000   1.0000   1.0000   1.0000   1.0000
     1.0000   1.0000   1.0000   1.0000   1.0000   1.0000   1.0000   1.0000
     1.0000   1.0000   1.0000   1.0000   1.0000   1.0000   1.0000   1.0000
     1.0000   1.0000   1.0000   1.0000   1.0000   1.0000   1.0000   1.0000
     1.0000   1.0000   1.0000   1.0000   1.0000   1.0000   1.0000   1.0000
     1.0000   1.0000   1.0000   1.0000   1.0000   1.0000   1.0000   1.0000
     1.0000   1.0000   1.0000   1.0000   1.0000   1.0000   1.0000   1.0000
     1.0000   1.0000   1.0000   1.0000   1.0000   1.0000   1.0000   1.0000
     0.0000   0.0000   0.0000   0.0000   0.0000   0.0000   0.0000   0.0000
     0.0000   0.0000   0.0000   0.0000   0.0000   0.0000   0.0000   0.0000
     0.0000   0.0000   0.0000   0.0000   0.0000   0.0000   0.0000   0.0000
     0.0000   0.0000   0.0000   0.0000

          k = 0.3000-0.2221-0.1371 ( 18700 PWs)   bands (ev):

   -41.4217 -41.4217 -41.4191 -41.4191 -26.6571 -26.6571 -26.6570 -26.6570
   -19.4973 -19.4973 -19.4780 -19.4780 -19.4583 -19.4583 -19.4532 -19.4532
   -19.4171 -19.4171 -19.4049 -19.4049  -8.8388  -8.8388  -8.8384  -8.8384
    -8.7163  -8.7163  -8.7057  -8.7057  -8.6569  -8.6569  -8.6548  -8.6548
    -4.2627  -4.2627  -3.9982  -3.9982  -3.8623  -3.8623  -3.6193  -3.6193
    -3.3973  -3.3973  -3.3542  -3.3542   3.8755   3.8755   3.8844   3.8844
     4.2550   4.2550   4.4177   4.4177   4.4306   4.4306   4.6095   4.6095
     4.8696   4.8696   5.0909   5.0909   5.2451   5.2451   5.3206   5.3206
     5.6541   5.6541   5.7335   5.7335   6.2625   6.2625   6.3032   6.3032
     6.4122   6.4122   6.7521   6.7521   6.8311   6.8311   7.0893   7.0893
     9.5258   9.5258   9.5615   9.5615  10.1059  10.1059  10.2965  10.2965
    10.3319  10.3319  10.5604  10.5604  11.8251  11.8251  11.8611  11.8611
    12.0057  12.0057  12.4355  12.4355  12.7510  12.7510  12.7917  12.7917
    12.9915  12.9915  13.0212  13.0212

     occupation numbers 
     1.0000   1.0000   1.0000   1.0000   1.0000   1.0000   1.0000   1.0000
     1.0000   1.0000   1.0000   1.0000   1.0000   1.0000   1.0000   1.0000
     1.0000   1.0000   1.0000   1.0000   1.0000   1.0000   1.0000   1.0000
     1.0000   1.0000   1.0000   1.0000   1.0000   1.0000   1.0000   1.0000
     1.0000   1.0000   1.0000   1.0000   1.0000   1.0000   1.0000   1.0000
     1.0000   1.0000   1.0000   1.0000   1.0000   1.0000   1.0000   1.0000
     1.0000   1.0000   1.0000   1.0000   1.0000   1.0000   1.0000   1.0000
     1.0000   1.0000   1.0000   1.0000   1.0000   1.0000   1.0000   1.0000
     1.0000   1.0000   1.0000   1.0000   1.0000   1.0000   1.0000   1.0000
     1.0000   1.0000   1.0000   1.0000   1.0000   1.0000   1.0000   1.0000
     0.0000   0.0000   0.0000   0.0000   0.0000   0.0000   0.0000   0.0000
     0.0000   0.0000   0.0000   0.0000   0.0000   0.0000   0.0000   0.0000
     0.0000   0.0000   0.0000   0.0000   0.0000   0.0000   0.0000   0.0000
     0.0000   0.0000   0.0000   0.0000

          k = 0.3500 0.0000 0.0000 ( 18746 PWs)   bands (ev):

   -41.4206 -41.4206 -41.4186 -41.4186 -26.6549 -26.6548 -26.6536 -26.6535
   -19.4985 -19.4985 -19.4903 -19.4903 -19.4621 -19.4620 -19.4592 -19.4592
   -19.4162 -19.4162 -19.4067 -19.4066  -8.9050  -8.9044  -8.8670  -8.8663
    -8.7014  -8.7003  -8.6956  -8.6903  -8.6776  -8.6713  -8.6256  -8.6247
    -4.2361  -4.1330  -3.9396  -3.9366  -3.8619  -3.8245  -3.6483  -3.6480
    -3.3958  -3.3844  -3.3695  -3.2786   3.5764   3.7699   3.9503   3.9760
     3.9775   4.1591   4.2701   4.3921   4.5253   4.6367   4.6428   4.7286
     4.7954   4.8012   4.9050   5.1151   5.3391   5.4570   5.4998   5.5488
     5.6133   5.6421   5.7413   5.7482   5.9930   6.1536   6.2013   6.2945
     6.3324   6.4529   6.5065   6.5401   6.5931   6.6051   6.9096   6.9514
     9.5057   9.5465   9.6204   9.7284  10.0299  10.0371  10.2412  10.2702
    10.4186  10.5250  10.6184  10.6903  11.7599  11.8779  12.0709  12.1387
    12.2408  12.2937  12.3791  12.5271  12.6427  12.6671  12.9161  12.9912
    13.1215  13.1569  13.1769  13.1836

     occupation numbers 
     1.0000   1.0000   1.0000   1.0000   1.0000   1.0000   1.0000   1.0000
     1.0000   1.0000   1.0000   1.0000   1.0000   1.0000   1.0000   1.0000
     1.0000   1.0000   1.0000   1.0000   1.0000   1.0000   1.0000   1.0000
     1.0000   1.0000   1.0000   1.0000   1.0000   1.0000   1.0000   1.0000
     1.0000   1.0000   1.0000   1.0000   1.0000   1.0000   1.0000   1.0000
     1.0000   1.0000   1.0000   1.0000   1.0000   1.0000   1.0000   1.0000
     1.0000   1.0000   1.0000   1.0000   1.0000   1.0000   1.0000   1.0000
     1.0000   1.0000   1.0000   1.0000   1.0000   1.0000   1.0000   1.0000
     1.0000   1.0000   1.0000   1.0000   1.0000   1.0000   1.0000   1.0000
     1.0000   1.0000   1.0000   1.0000   1.0000   1.0000   1.0000   1.0000
     0.0000   0.0000   0.0000   0.0000   0.0000   0.0000   0.0000   0.0000
     0.0000   0.0000   0.0000   0.0000   0.0000   0.0000   0.0000   0.0000
     0.0000   0.0000   0.0000   0.0000   0.0000   0.0000   0.0000   0.0000
     0.0000   0.0000   0.0000   0.0000

          k = 0.3500 0.0000 0.0457 ( 18745 PWs)   bands (ev):

   -41.4206 -41.4206 -41.4186 -41.4186 -26.6549 -26.6548 -26.6536 -26.6535
   -19.4985 -19.4985 -19.4903 -19.4903 -19.4621 -19.4620 -19.4592 -19.4592
   -19.4162 -19.4162 -19.4066 -19.4066  -8.9050  -8.9045  -8.8670  -8.8664
    -8.7012  -8.7003  -8.6954  -8.6909  -8.6770  -8.6717  -8.6256  -8.6248
    -4.2300  -4.1409  -3.9396  -3.9379  -3.8578  -3.8265  -3.6479  -3.6477
    -3.3991  -3.3863  -3.3591  -3.2832   3.5911   3.7781   3.8828   3.9294
     4.0518   4.1422   4.2784   4.3963   4.5564   4.6421   4.6540   4.7253
     4.7581   4.8242   4.9174   5.1247   5.3253   5.4406   5.4907   5.6017
     5.6279   5.6367   5.7439   5.7553   5.9852   6.0655   6.1289   6.2584
     6.3852   6.4750   6.4928   6.5857   6.5969   6.6337   6.9235   6.9455
     9.5096   9.5526   9.6142   9.7107  10.0251  10.0372  10.2548  10.2805
    10.4121  10.5116  10.6147  10.6813  11.7555  11.8317  12.1212  12.1509
    12.2513  12.2987  12.3956  12.5338  12.6530  12.7012  12.8977  13.0025
    13.0783  13.1029  13.2036  13.2362

     occupation numbers 
     1.0000   1.0000   1.0000   1.0000   1.0000   1.0000   1.0000   1.0000
     1.0000   1.0000   1.0000   1.0000   1.0000   1.0000   1.0000   1.0000
     1.0000   1.0000   1.0000   1.0000   1.0000   1.0000   1.0000   1.0000
     1.0000   1.0000   1.0000   1.0000   1.0000   1.0000   1.0000   1.0000
     1.0000   1.0000   1.0000   1.0000   1.0000   1.0000   1.0000   1.0000
     1.0000   1.0000   1.0000   1.0000   1.0000   1.0000   1.0000   1.0000
     1.0000   1.0000   1.0000   1.0000   1.0000   1.0000   1.0000   1.0000
     1.0000   1.0000   1.0000   1.0000   1.0000   1.0000   1.0000   1.0000
     1.0000   1.0000   1.0000   1.0000   1.0000   1.0000   1.0000   1.0000
     1.0000   1.0000   1.0000   1.0000   1.0000   1.0000   1.0000   1.0000
     0.0000   0.0000   0.0000   0.0000   0.0000   0.0000   0.0000   0.0000
     0.0000   0.0000   0.0000   0.0000   0.0000   0.0000   0.0000   0.0000
     0.0000   0.0000   0.0000   0.0000   0.0000   0.0000   0.0000   0.0000
     0.0000   0.0000   0.0000   0.0000

          k = 0.3500 0.0000 0.0914 ( 18731 PWs)   bands (ev):

   -41.4206 -41.4206 -41.4186 -41.4186 -26.6549 -26.6549 -26.6535 -26.6535
   -19.4985 -19.4985 -19.4903 -19.4903 -19.4621 -19.4620 -19.4592 -19.4592
   -19.4162 -19.4162 -19.4066 -19.4066  -8.9049  -8.9046  -8.8668  -8.8665
    -8.7008  -8.7003  -8.6948  -8.6922  -8.6757  -8.6727  -8.6254  -8.6250
    -4.2129  -4.1617  -3.9398  -3.9397  -3.8489  -3.8320  -3.6472  -3.6471
    -3.4006  -3.3913  -3.3383  -3.2963   3.6339   3.7875   3.8015   3.8832
     4.0900   4.1150   4.3086   4.3881   4.6211   4.6684   4.6773   4.7103
     4.7195   4.8089   4.9773   5.1217   5.3125   5.3734   5.5489   5.5998
     5.6826   5.6851   5.7642   5.7703   5.9167   5.9271   6.0603   6.1745
     6.4057   6.4696   6.5239   6.6263   6.6624   6.6693   6.9368   6.9416
     9.5239   9.5635   9.6039   9.6694  10.0187  10.0309  10.2869  10.3103
    10.3975  10.4685  10.6178  10.6596  11.7482  11.7766  12.1425  12.1449
    12.3309  12.3500  12.4237  12.5258  12.6885  12.8130  12.8593  12.9369
    13.0301  13.1022  13.1724  13.2537

     occupation numbers 
     1.0000   1.0000   1.0000   1.0000   1.0000   1.0000   1.0000   1.0000
     1.0000   1.0000   1.0000   1.0000   1.0000   1.0000   1.0000   1.0000
     1.0000   1.0000   1.0000   1.0000   1.0000   1.0000   1.0000   1.0000
     1.0000   1.0000   1.0000   1.0000   1.0000   1.0000   1.0000   1.0000
     1.0000   1.0000   1.0000   1.0000   1.0000   1.0000   1.0000   1.0000
     1.0000   1.0000   1.0000   1.0000   1.0000   1.0000   1.0000   1.0000
     1.0000   1.0000   1.0000   1.0000   1.0000   1.0000   1.0000   1.0000
     1.0000   1.0000   1.0000   1.0000   1.0000   1.0000   1.0000   1.0000
     1.0000   1.0000   1.0000   1.0000   1.0000   1.0000   1.0000   1.0000
     1.0000   1.0000   1.0000   1.0000   1.0000   1.0000   1.0000   1.0000
     0.0000   0.0000   0.0000   0.0000   0.0000   0.0000   0.0000   0.0000
     0.0000   0.0000   0.0000   0.0000   0.0000   0.0000   0.0000   0.0000
     0.0000   0.0000   0.0000   0.0000   0.0000   0.0000   0.0000   0.0000
     0.0000   0.0000   0.0000   0.0000

          k = 0.3500 0.0000-0.1371 ( 18700 PWs)   bands (ev):

   -41.4206 -41.4206 -41.4186 -41.4186 -26.6549 -26.6549 -26.6535 -26.6535
   -19.4985 -19.4985 -19.4903 -19.4903 -19.4620 -19.4620 -19.4592 -19.4592
   -19.4162 -19.4162 -19.4066 -19.4066  -8.9047  -8.9047  -8.8667  -8.8667
    -8.7005  -8.7005  -8.6936  -8.6936  -8.6741  -8.6741  -8.6252  -8.6252
    -4.1882  -4.1882  -3.9401  -3.9401  -3.8397  -3.8397  -3.6468  -3.6468
    -3.3972  -3.3972  -3.3158  -3.3158   3.7015   3.7015   3.8375   3.8375
     4.1005   4.1005   4.3542   4.3542   4.6644   4.6644   4.6961   4.6961
     4.7512   4.7512   5.0647   5.0647   5.3273   5.3273   5.5805   5.5805
     5.7568   5.7568   5.7973   5.7973   5.8027   5.8027   6.0921   6.0921
     6.4274   6.4274   6.5939   6.5939   6.6962   6.6962   6.9404   6.9404
     9.5481   9.5481   9.6258   9.6258  10.0211  10.0211  10.3183  10.3183
    10.4136  10.4136  10.6353  10.6353  11.7507  11.7507  12.1372  12.1372
    12.3828  12.3828  12.4782  12.4782  12.7804  12.7804  12.8893  12.8893
    13.0381  13.0381  13.1975  13.1975

     occupation numbers 
     1.0000   1.0000   1.0000   1.0000   1.0000   1.0000   1.0000   1.0000
     1.0000   1.0000   1.0000   1.0000   1.0000   1.0000   1.0000   1.0000
     1.0000   1.0000   1.0000   1.0000   1.0000   1.0000   1.0000   1.0000
     1.0000   1.0000   1.0000   1.0000   1.0000   1.0000   1.0000   1.0000
     1.0000   1.0000   1.0000   1.0000   1.0000   1.0000   1.0000   1.0000
     1.0000   1.0000   1.0000   1.0000   1.0000   1.0000   1.0000   1.0000
     1.0000   1.0000   1.0000   1.0000   1.0000   1.0000   1.0000   1.0000
     1.0000   1.0000   1.0000   1.0000   1.0000   1.0000   1.0000   1.0000
     1.0000   1.0000   1.0000   1.0000   1.0000   1.0000   1.0000   1.0000
     1.0000   1.0000   1.0000   1.0000   1.0000   1.0000   1.0000   1.0000
     0.0000   0.0000   0.0000   0.0000   0.0000   0.0000   0.0000   0.0000
     0.0000   0.0000   0.0000   0.0000   0.0000   0.0000   0.0000   0.0000
     0.0000   0.0000   0.0000   0.0000   0.0000   0.0000   0.0000   0.0000
     0.0000   0.0000   0.0000   0.0000

          k = 0.3500 0.0444 0.0000 ( 18744 PWs)   bands (ev):

   -41.4206 -41.4206 -41.4186 -41.4186 -26.6549 -26.6548 -26.6536 -26.6535
   -19.4985 -19.4985 -19.4904 -19.4903 -19.4620 -19.4620 -19.4592 -19.4592
   -19.4162 -19.4162 -19.4066 -19.4066  -8.9041  -8.9035  -8.8680  -8.8673
    -8.7017  -8.7014  -8.6954  -8.6906  -8.6757  -8.6697  -8.6267  -8.6257
    -4.2330  -4.1340  -3.9450  -3.9388  -3.8557  -3.8228  -3.6488  -3.6487
    -3.3996  -3.3779  -3.3713  -3.2806   3.5832   3.7436   3.9636   3.9689
     4.0041   4.1658   4.2736   4.3997   4.5144   4.6006   4.6406   4.7179
     4.7657   4.8093   4.9377   5.1598   5.3232   5.4452   5.4801   5.5013
     5.6512   5.6565   5.6957   5.7944   5.9851   6.1239   6.1987   6.2864
     6.3885   6.4412   6.4682   6.4950   6.6560   6.6856   6.9029   6.9444
     9.4645   9.5916   9.6173   9.6986  10.0273  10.0558  10.2324  10.3023
    10.4139  10.5246  10.6050  10.6812  11.7258  11.9041  12.0666  12.1132
    12.2195  12.2831  12.4230  12.5345  12.6158  12.6373  12.8819  13.0258
    13.0373  13.1010  13.2777  13.3164

     occupation numbers 
     1.0000   1.0000   1.0000   1.0000   1.0000   1.0000   1.0000   1.0000
     1.0000   1.0000   1.0000   1.0000   1.0000   1.0000   1.0000   1.0000
     1.0000   1.0000   1.0000   1.0000   1.0000   1.0000   1.0000   1.0000
     1.0000   1.0000   1.0000   1.0000   1.0000   1.0000   1.0000   1.0000
     1.0000   1.0000   1.0000   1.0000   1.0000   1.0000   1.0000   1.0000
     1.0000   1.0000   1.0000   1.0000   1.0000   1.0000   1.0000   1.0000
     1.0000   1.0000   1.0000   1.0000   1.0000   1.0000   1.0000   1.0000
     1.0000   1.0000   1.0000   1.0000   1.0000   1.0000   1.0000   1.0000
     1.0000   1.0000   1.0000   1.0000   1.0000   1.0000   1.0000   1.0000
     1.0000   1.0000   1.0000   1.0000   1.0000   1.0000   1.0000   1.0000
     0.0000   0.0000   0.0000   0.0000   0.0000   0.0000   0.0000   0.0000
     0.0000   0.0000   0.0000   0.0000   0.0000   0.0000   0.0000   0.0000
     0.0000   0.0000   0.0000   0.0000   0.0000   0.0000   0.0000   0.0000
     0.0000   0.0000   0.0000   0.0000

          k = 0.3500 0.0444 0.0457 ( 18743 PWs)   bands (ev):

   -41.4206 -41.4206 -41.4186 -41.4186 -26.6549 -26.6548 -26.6536 -26.6535
   -19.4985 -19.4985 -19.4904 -19.4903 -19.4620 -19.4620 -19.4592 -19.4592
   -19.4162 -19.4162 -19.4066 -19.4066  -8.9041  -8.9036  -8.8680  -8.8673
    -8.7015  -8.7013  -8.6953  -8.6911  -8.6752  -8.6700  -8.6266  -8.6257
    -4.2270  -4.1414  -3.9464  -3.9392  -3.8520  -3.8244  -3.6485  -3.6483
    -3.4012  -3.3827  -3.3598  -3.2852   3.5961   3.7498   3.8811   3.9681
     4.0455   4.1573   4.2808   4.4017   4.5417   4.6069   4.6537   4.7072
     4.7529   4.8270   4.9468   5.1571   5.3140   5.4317   5.4703   5.5398
     5.6502   5.6757   5.7026   5.7853   5.9852   6.0492   6.1598   6.2380
     6.3953   6.4298   6.4941   6.5822   6.6586   6.6888   6.9106   6.9425
     9.4745   9.5887   9.6124   9.6830  10.0263  10.0521  10.2443  10.3116
    10.4085  10.5108  10.6033  10.6726  11.7275  11.8611  12.1164  12.1262
    12.2314  12.2710  12.4492  12.5398  12.6433  12.6477  12.8688  13.0085
    13.0668  13.1054  13.2074  13.3271

     occupation numbers 
     1.0000   1.0000   1.0000   1.0000   1.0000   1.0000   1.0000   1.0000
     1.0000   1.0000   1.0000   1.0000   1.0000   1.0000   1.0000   1.0000
     1.0000   1.0000   1.0000   1.0000   1.0000   1.0000   1.0000   1.0000
     1.0000   1.0000   1.0000   1.0000   1.0000   1.0000   1.0000   1.0000
     1.0000   1.0000   1.0000   1.0000   1.0000   1.0000   1.0000   1.0000
     1.0000   1.0000   1.0000   1.0000   1.0000   1.0000   1.0000   1.0000
     1.0000   1.0000   1.0000   1.0000   1.0000   1.0000   1.0000   1.0000
     1.0000   1.0000   1.0000   1.0000   1.0000   1.0000   1.0000   1.0000
     1.0000   1.0000   1.0000   1.0000   1.0000   1.0000   1.0000   1.0000
     1.0000   1.0000   1.0000   1.0000   1.0000   1.0000   1.0000   1.0000
     0.0000   0.0000   0.0000   0.0000   0.0000   0.0000   0.0000   0.0000
     0.0000   0.0000   0.0000   0.0000   0.0000   0.0000   0.0000   0.0000
     0.0000   0.0000   0.0000   0.0000   0.0000   0.0000   0.0000   0.0000
     0.0000   0.0000   0.0000   0.0000

          k = 0.3500 0.0444 0.0914 ( 18727 PWs)   bands (ev):

   -41.4206 -41.4206 -41.4186 -41.4186 -26.6549 -26.6548 -26.6536 -26.6535
   -19.4985 -19.4985 -19.4904 -19.4904 -19.4620 -19.4620 -19.4592 -19.4592
   -19.4162 -19.4162 -19.4066 -19.4066  -8.9040  -8.9037  -8.8678  -8.8675
    -8.7012  -8.7011  -8.6948  -8.6924  -8.6740  -8.6710  -8.6264  -8.6259
    -4.2104  -4.1610  -3.9470  -3.9415  -3.8439  -3.8289  -3.6479  -3.6477
    -3.4009  -3.3892  -3.3394  -3.2982   3.6336   3.7479   3.8218   3.9053
     4.0916   4.1393   4.3068   4.3866   4.6068   4.6219   4.6680   4.7097
     4.7324   4.8184   4.9976   5.1372   5.3119   5.3771   5.5066   5.5610
     5.6683   5.7179   5.7406   5.7717   5.8925   5.9895   6.0764   6.1625
     6.3982   6.4645   6.5299   6.6600   6.6709   6.6998   6.9191   6.9461
     9.5018   9.5733   9.6081   9.6498  10.0235  10.0414  10.2793  10.3307
    10.3984  10.4690  10.6093  10.6515  11.7372  11.8036  12.1153  12.1469
    12.2960  12.3210  12.4643  12.5216  12.6877  12.7596  12.8444  12.9552
    13.0758  13.0925  13.1393  13.2720

     occupation numbers 
     1.0000   1.0000   1.0000   1.0000   1.0000   1.0000   1.0000   1.0000
     1.0000   1.0000   1.0000   1.0000   1.0000   1.0000   1.0000   1.0000
     1.0000   1.0000   1.0000   1.0000   1.0000   1.0000   1.0000   1.0000
     1.0000   1.0000   1.0000   1.0000   1.0000   1.0000   1.0000   1.0000
     1.0000   1.0000   1.0000   1.0000   1.0000   1.0000   1.0000   1.0000
     1.0000   1.0000   1.0000   1.0000   1.0000   1.0000   1.0000   1.0000
     1.0000   1.0000   1.0000   1.0000   1.0000   1.0000   1.0000   1.0000
     1.0000   1.0000   1.0000   1.0000   1.0000   1.0000   1.0000   1.0000
     1.0000   1.0000   1.0000   1.0000   1.0000   1.0000   1.0000   1.0000
     1.0000   1.0000   1.0000   1.0000   1.0000   1.0000   1.0000   1.0000
     0.0000   0.0000   0.0000   0.0000   0.0000   0.0000   0.0000   0.0000
     0.0000   0.0000   0.0000   0.0000   0.0000   0.0000   0.0000   0.0000
     0.0000   0.0000   0.0000   0.0000   0.0000   0.0000   0.0000   0.0000
     0.0000   0.0000   0.0000   0.0000

          k = 0.3500 0.0444-0.1371 ( 18726 PWs)   bands (ev):

   -41.4206 -41.4206 -41.4186 -41.4186 -26.6549 -26.6549 -26.6536 -26.6536
   -19.4985 -19.4985 -19.4904 -19.4904 -19.4620 -19.4620 -19.4592 -19.4592
   -19.4162 -19.4162 -19.4066 -19.4066  -8.9038  -8.9038  -8.8676  -8.8676
    -8.7010  -8.7010  -8.6938  -8.6938  -8.6724  -8.6724  -8.6262  -8.6262
    -4.1864  -4.1864  -3.9449  -3.9449  -3.8356  -3.8356  -3.6475  -3.6475
    -3.3962  -3.3962  -3.3174  -3.3174   3.6911   3.6911   3.8466   3.8466
     4.1177   4.1177   4.3492   4.3492   4.6358   4.6358   4.6884   4.6884
     4.7678   4.7678   5.0787   5.0787   5.3324   5.3324   5.5421   5.5421
     5.7171   5.7171   5.7804   5.7804   5.8645   5.8645   6.1044   6.1044
     6.4255   6.4255   6.6124   6.6124   6.7060   6.7060   6.9372   6.9372
     9.5392   9.5392   9.6212   9.6212  10.0283  10.0283  10.3203  10.3203
    10.4187  10.4187  10.6276  10.6276  11.7618  11.7618  12.1230  12.1230
    12.3592  12.3592  12.4778  12.4778  12.7841  12.7841  12.8819  12.8819
    13.0276  13.0276  13.2092  13.2092

     occupation numbers 
     1.0000   1.0000   1.0000   1.0000   1.0000   1.0000   1.0000   1.0000
     1.0000   1.0000   1.0000   1.0000   1.0000   1.0000   1.0000   1.0000
     1.0000   1.0000   1.0000   1.0000   1.0000   1.0000   1.0000   1.0000
     1.0000   1.0000   1.0000   1.0000   1.0000   1.0000   1.0000   1.0000
     1.0000   1.0000   1.0000   1.0000   1.0000   1.0000   1.0000   1.0000
     1.0000   1.0000   1.0000   1.0000   1.0000   1.0000   1.0000   1.0000
     1.0000   1.0000   1.0000   1.0000   1.0000   1.0000   1.0000   1.0000
     1.0000   1.0000   1.0000   1.0000   1.0000   1.0000   1.0000   1.0000
     1.0000   1.0000   1.0000   1.0000   1.0000   1.0000   1.0000   1.0000
     1.0000   1.0000   1.0000   1.0000   1.0000   1.0000   1.0000   1.0000
     0.0000   0.0000   0.0000   0.0000   0.0000   0.0000   0.0000   0.0000
     0.0000   0.0000   0.0000   0.0000   0.0000   0.0000   0.0000   0.0000
     0.0000   0.0000   0.0000   0.0000   0.0000   0.0000   0.0000   0.0000
     0.0000   0.0000   0.0000   0.0000

          k = 0.3500 0.0888 0.0000 ( 18755 PWs)   bands (ev):

   -41.4206 -41.4206 -41.4186 -41.4186 -26.6548 -26.6547 -26.6537 -26.6536
   -19.4986 -19.4986 -19.4904 -19.4904 -19.4620 -19.4620 -19.4592 -19.4592
   -19.4162 -19.4162 -19.4066 -19.4066  -8.9015  -8.9009  -8.8709  -8.8700
    -8.7034  -8.7023  -8.6953  -8.6912  -8.6708  -8.6653  -8.6298  -8.6284
    -4.2239  -4.1378  -3.9561  -3.9447  -3.8421  -3.8186  -3.6505  -3.6502
    -3.4038  -3.3763  -3.3660  -3.2865   3.6037   3.7099   3.9264   3.9402
     4.1159   4.1883   4.2909   4.4086   4.4898   4.5321   4.6306   4.6904
     4.7134   4.8384   5.0055   5.2406   5.2872   5.3738   5.4173   5.4636
     5.6622   5.6738   5.7055   5.8442   5.9759   6.0657   6.2021   6.2818
     6.3713   6.4034   6.5164   6.5499   6.7286   6.7792   6.8847   6.9324
     9.4258   9.6051   9.6387   9.6391  10.0096  10.1068  10.2407  10.3550
    10.3971  10.5233  10.5722  10.6546  11.6692  11.9391  12.0275  12.0623
    12.1537  12.3075  12.4544  12.5483  12.5891  12.6124  12.8249  13.0419
    13.0698  13.0863  13.3284  13.3290

     occupation numbers 
     1.0000   1.0000   1.0000   1.0000   1.0000   1.0000   1.0000   1.0000
     1.0000   1.0000   1.0000   1.0000   1.0000   1.0000   1.0000   1.0000
     1.0000   1.0000   1.0000   1.0000   1.0000   1.0000   1.0000   1.0000
     1.0000   1.0000   1.0000   1.0000   1.0000   1.0000   1.0000   1.0000
     1.0000   1.0000   1.0000   1.0000   1.0000   1.0000   1.0000   1.0000
     1.0000   1.0000   1.0000   1.0000   1.0000   1.0000   1.0000   1.0000
     1.0000   1.0000   1.0000   1.0000   1.0000   1.0000   1.0000   1.0000
     1.0000   1.0000   1.0000   1.0000   1.0000   1.0000   1.0000   1.0000
     1.0000   1.0000   1.0000   1.0000   1.0000   1.0000   1.0000   1.0000
     1.0000   1.0000   1.0000   1.0000   1.0000   1.0000   1.0000   1.0000
     0.0000   0.0000   0.0000   0.0000   0.0000   0.0000   0.0000   0.0000
     0.0000   0.0000   0.0000   0.0000   0.0000   0.0000   0.0000   0.0000
     0.0000   0.0000   0.0000   0.0000   0.0000   0.0000   0.0000   0.0000
     0.0000   0.0000   0.0000   0.0000

          k = 0.3500 0.0888 0.0457 ( 18730 PWs)   bands (ev):

   -41.4206 -41.4206 -41.4186 -41.4186 -26.6548 -26.6547 -26.6537 -26.6536
   -19.4986 -19.4986 -19.4904 -19.4904 -19.4620 -19.4620 -19.4592 -19.4592
   -19.4162 -19.4162 -19.4066 -19.4066  -8.9015  -8.9009  -8.8708  -8.8701
    -8.7032  -8.7022  -8.6953  -8.6917  -8.6704  -8.6657  -8.6297  -8.6285
    -4.2184  -4.1435  -3.9582  -3.9458  -3.8390  -3.8193  -3.6503  -3.6499
    -3.4035  -3.3784  -3.3590  -3.2909   3.6122   3.7148   3.8681   3.9582
     4.1090   4.1951   4.2974   4.4078   4.5057   4.5451   4.6247   4.6964
     4.7321   4.8424   5.0078   5.2219   5.2886   5.3844   5.4124   5.4686
     5.6503   5.6786   5.7203   5.8173   5.9844   6.0312   6.1879   6.2335
     6.3734   6.4501   6.4745   6.6195   6.7364   6.7821   6.8790   6.9371
     9.4382   9.6008   9.6224   9.6335  10.0145  10.0968  10.2517  10.3589
    10.3957  10.5070  10.5765  10.6474  11.6823  11.9110  12.0451  12.1127
    12.1595  12.2779  12.4684  12.5538  12.5981  12.6391  12.8317  13.0296
    13.0679  13.1004  13.2828  13.3152

     occupation numbers 
     1.0000   1.0000   1.0000   1.0000   1.0000   1.0000   1.0000   1.0000
     1.0000   1.0000   1.0000   1.0000   1.0000   1.0000   1.0000   1.0000
     1.0000   1.0000   1.0000   1.0000   1.0000   1.0000   1.0000   1.0000
     1.0000   1.0000   1.0000   1.0000   1.0000   1.0000   1.0000   1.0000
     1.0000   1.0000   1.0000   1.0000   1.0000   1.0000   1.0000   1.0000
     1.0000   1.0000   1.0000   1.0000   1.0000   1.0000   1.0000   1.0000
     1.0000   1.0000   1.0000   1.0000   1.0000   1.0000   1.0000   1.0000
     1.0000   1.0000   1.0000   1.0000   1.0000   1.0000   1.0000   1.0000
     1.0000   1.0000   1.0000   1.0000   1.0000   1.0000   1.0000   1.0000
     1.0000   1.0000   1.0000   1.0000   1.0000   1.0000   1.0000   1.0000
     0.0000   0.0000   0.0000   0.0000   0.0000   0.0000   0.0000   0.0000
     0.0000   0.0000   0.0000   0.0000   0.0000   0.0000   0.0000   0.0000
     0.0000   0.0000   0.0000   0.0000   0.0000   0.0000   0.0000   0.0000
     0.0000   0.0000   0.0000   0.0000

          k = 0.3500 0.0888 0.0914 ( 18730 PWs)   bands (ev):

   -41.4206 -41.4206 -41.4186 -41.4186 -26.6548 -26.6547 -26.6537 -26.6536
   -19.4986 -19.4986 -19.4904 -19.4904 -19.4620 -19.4620 -19.4592 -19.4592
   -19.4162 -19.4162 -19.4066 -19.4066  -8.9014  -8.9011  -8.8707  -8.8702
    -8.7027  -8.7020  -8.6950  -8.6929  -8.6692  -8.6666  -8.6294  -8.6288
    -4.2031  -4.1596  -3.9597  -3.9503  -3.8323  -3.8215  -3.6498  -3.6495
    -3.4003  -3.3848  -3.3420  -3.3034   3.6377   3.7131   3.8261   3.9090
     4.1356   4.1896   4.3145   4.3818   4.5476   4.5688   4.6318   4.7257
     4.7416   4.8333   5.0416   5.1768   5.3058   5.3676   5.4292   5.4709
     5.6381   5.6829   5.7116   5.8466   5.8701   6.0752   6.1235   6.1653
     6.3941   6.4699   6.5203   6.6559   6.7334   6.7805   6.8958   6.9468
     9.4719   9.5691   9.6070   9.6202  10.0262  10.0721  10.2846  10.3557
    10.4017  10.4677  10.5888  10.6292  11.7219  11.8557  12.0571  12.1558
    12.2364  12.2794  12.4553  12.4941  12.6898  12.7207  12.8354  12.9968
    13.0180  13.1518  13.1912  13.2752

     occupation numbers 
     1.0000   1.0000   1.0000   1.0000   1.0000   1.0000   1.0000   1.0000
     1.0000   1.0000   1.0000   1.0000   1.0000   1.0000   1.0000   1.0000
     1.0000   1.0000   1.0000   1.0000   1.0000   1.0000   1.0000   1.0000
     1.0000   1.0000   1.0000   1.0000   1.0000   1.0000   1.0000   1.0000
     1.0000   1.0000   1.0000   1.0000   1.0000   1.0000   1.0000   1.0000
     1.0000   1.0000   1.0000   1.0000   1.0000   1.0000   1.0000   1.0000
     1.0000   1.0000   1.0000   1.0000   1.0000   1.0000   1.0000   1.0000
     1.0000   1.0000   1.0000   1.0000   1.0000   1.0000   1.0000   1.0000
     1.0000   1.0000   1.0000   1.0000   1.0000   1.0000   1.0000   1.0000
     1.0000   1.0000   1.0000   1.0000   1.0000   1.0000   1.0000   1.0000
     0.0000   0.0000   0.0000   0.0000   0.0000   0.0000   0.0000   0.0000
     0.0000   0.0000   0.0000   0.0000   0.0000   0.0000   0.0000   0.0000
     0.0000   0.0000   0.0000   0.0000   0.0000   0.0000   0.0000   0.0000
     0.0000   0.0000   0.0000   0.0000

          k = 0.3500 0.0888-0.1371 ( 18720 PWs)   bands (ev):

   -41.4206 -41.4206 -41.4186 -41.4186 -26.6548 -26.6548 -26.6536 -26.6536
   -19.4986 -19.4986 -19.4904 -19.4904 -19.4620 -19.4620 -19.4592 -19.4592
   -19.4162 -19.4162 -19.4066 -19.4066  -8.9012  -8.9012  -8.8705  -8.8705
    -8.7022  -8.7022  -8.6942  -8.6942  -8.6678  -8.6678  -8.6291  -8.6291
    -4.1816  -4.1816  -3.9564  -3.9564  -3.8258  -3.8258  -3.6494  -3.6494
    -3.3932  -3.3932  -3.3217  -3.3217   3.6774   3.6774   3.8496   3.8496
     4.1684   4.1684   4.3443   4.3443   4.5690   4.5690   4.6853   4.6853
     4.7919   4.7919   5.1133   5.1133   5.3321   5.3321   5.4585   5.4585
     5.6486   5.6486   5.7572   5.7572   5.9665   5.9665   6.1410   6.1410
     6.4326   6.4326   6.6077   6.6077   6.7526   6.7526   6.9355   6.9355
     9.5186   9.5186   9.6090   9.6090  10.0454  10.0454  10.3271  10.3271
    10.4273  10.4273  10.6076  10.6076  11.7844  11.7844  12.1013  12.1013
    12.3214  12.3214  12.4354  12.4354  12.7782  12.7782  12.8596  12.8596
    13.0716  13.0716  13.2306  13.2306

     occupation numbers 
     1.0000   1.0000   1.0000   1.0000   1.0000   1.0000   1.0000   1.0000
     1.0000   1.0000   1.0000   1.0000   1.0000   1.0000   1.0000   1.0000
     1.0000   1.0000   1.0000   1.0000   1.0000   1.0000   1.0000   1.0000
     1.0000   1.0000   1.0000   1.0000   1.0000   1.0000   1.0000   1.0000
     1.0000   1.0000   1.0000   1.0000   1.0000   1.0000   1.0000   1.0000
     1.0000   1.0000   1.0000   1.0000   1.0000   1.0000   1.0000   1.0000
     1.0000   1.0000   1.0000   1.0000   1.0000   1.0000   1.0000   1.0000
     1.0000   1.0000   1.0000   1.0000   1.0000   1.0000   1.0000   1.0000
     1.0000   1.0000   1.0000   1.0000   1.0000   1.0000   1.0000   1.0000
     1.0000   1.0000   1.0000   1.0000   1.0000   1.0000   1.0000   1.0000
     0.0000   0.0000   0.0000   0.0000   0.0000   0.0000   0.0000   0.0000
     0.0000   0.0000   0.0000   0.0000   0.0000   0.0000   0.0000   0.0000
     0.0000   0.0000   0.0000   0.0000   0.0000   0.0000   0.0000   0.0000
     0.0000   0.0000   0.0000   0.0000

          k = 0.3500 0.1333 0.0000 ( 18735 PWs)   bands (ev):

   -41.4206 -41.4206 -41.4186 -41.4186 -26.6546 -26.6546 -26.6538 -26.6538
   -19.4986 -19.4986 -19.4904 -19.4904 -19.4619 -19.4619 -19.4592 -19.4592
   -19.4162 -19.4162 -19.4066 -19.4066  -8.8975  -8.8967  -8.8753  -8.8743
    -8.7048  -8.7033  -8.6953  -8.6922  -8.6639  -8.6593  -8.6347  -8.6329
    -4.2100  -4.1455  -3.9654  -3.9528  -3.8279  -3.8138  -3.6527  -3.6521
    -3.4052  -3.3835  -3.3521  -3.2959   3.6384   3.6992   3.8736   3.8871
     4.2237   4.2415   4.3307   4.3955   4.4616   4.4731   4.6069   4.6495
     4.7110   4.8717   5.0765   5.2483   5.2562   5.2585   5.3783   5.4444
     5.6390   5.6776   5.7479   5.8956   5.9921   6.0119   6.2146   6.2605
     6.3322   6.3813   6.6239   6.6345   6.7892   6.8072   6.8573   6.9428
     9.4109   9.5520   9.6193   9.6605  10.0038  10.1417  10.2733  10.3705
    10.4057  10.5209  10.5370  10.6136  11.6298  11.9110  11.9625  12.0243
    12.1033  12.3063  12.4184  12.5740  12.6238  12.6587  12.8444  13.0362
    13.0979  13.1475  13.2636  13.2784

     occupation numbers 
     1.0000   1.0000   1.0000   1.0000   1.0000   1.0000   1.0000   1.0000
     1.0000   1.0000   1.0000   1.0000   1.0000   1.0000   1.0000   1.0000
     1.0000   1.0000   1.0000   1.0000   1.0000   1.0000   1.0000   1.0000
     1.0000   1.0000   1.0000   1.0000   1.0000   1.0000   1.0000   1.0000
     1.0000   1.0000   1.0000   1.0000   1.0000   1.0000   1.0000   1.0000
     1.0000   1.0000   1.0000   1.0000   1.0000   1.0000   1.0000   1.0000
     1.0000   1.0000   1.0000   1.0000   1.0000   1.0000   1.0000   1.0000
     1.0000   1.0000   1.0000   1.0000   1.0000   1.0000   1.0000   1.0000
     1.0000   1.0000   1.0000   1.0000   1.0000   1.0000   1.0000   1.0000
     1.0000   1.0000   1.0000   1.0000   1.0000   1.0000   1.0000   1.0000
     0.0000   0.0000   0.0000   0.0000   0.0000   0.0000   0.0000   0.0000
     0.0000   0.0000   0.0000   0.0000   0.0000   0.0000   0.0000   0.0000
     0.0000   0.0000   0.0000   0.0000   0.0000   0.0000   0.0000   0.0000
     0.0000   0.0000   0.0000   0.0000

          k = 0.3500 0.1333 0.0457 ( 18730 PWs)   bands (ev):

   -41.4206 -41.4206 -41.4186 -41.4186 -26.6546 -26.6546 -26.6538 -26.6538
   -19.4986 -19.4986 -19.4904 -19.4904 -19.4619 -19.4619 -19.4592 -19.4592
   -19.4162 -19.4162 -19.4066 -19.4066  -8.8975  -8.8968  -8.8752  -8.8744
    -8.7045  -8.7032  -8.6954  -8.6926  -8.6636  -8.6596  -8.6345  -8.6330
    -4.2053  -4.1489  -3.9685  -3.9552  -3.8254  -3.8134  -3.6526  -3.6520
    -3.4035  -3.3812  -3.3511  -3.3000   3.6417   3.7028   3.8386   3.8950
     4.1979   4.2549   4.3438   4.3971   4.4638   4.4960   4.5865   4.6893
     4.7243   4.8676   5.0721   5.2424   5.2490   5.2878   5.3560   5.4353
     5.6350   5.6792   5.7238   5.8682   5.9590   6.0616   6.1839   6.2626
     6.3709   6.4234   6.5365   6.6701   6.7781   6.8369   6.8543   6.9513
     9.4225   9.5520   9.6034   9.6499  10.0125  10.1291  10.2818  10.3667
    10.4088  10.4973  10.5513  10.6097  11.6522  11.9292  11.9716  12.0713
    12.0876  12.2981  12.4043  12.5521  12.6341  12.6926  12.8567  13.0434
    13.0723  13.1515  13.2312  13.2752

     occupation numbers 
     1.0000   1.0000   1.0000   1.0000   1.0000   1.0000   1.0000   1.0000
     1.0000   1.0000   1.0000   1.0000   1.0000   1.0000   1.0000   1.0000
     1.0000   1.0000   1.0000   1.0000   1.0000   1.0000   1.0000   1.0000
     1.0000   1.0000   1.0000   1.0000   1.0000   1.0000   1.0000   1.0000
     1.0000   1.0000   1.0000   1.0000   1.0000   1.0000   1.0000   1.0000
     1.0000   1.0000   1.0000   1.0000   1.0000   1.0000   1.0000   1.0000
     1.0000   1.0000   1.0000   1.0000   1.0000   1.0000   1.0000   1.0000
     1.0000   1.0000   1.0000   1.0000   1.0000   1.0000   1.0000   1.0000
     1.0000   1.0000   1.0000   1.0000   1.0000   1.0000   1.0000   1.0000
     1.0000   1.0000   1.0000   1.0000   1.0000   1.0000   1.0000   1.0000
     0.0000   0.0000   0.0000   0.0000   0.0000   0.0000   0.0000   0.0000
     0.0000   0.0000   0.0000   0.0000   0.0000   0.0000   0.0000   0.0000
     0.0000   0.0000   0.0000   0.0000   0.0000   0.0000   0.0000   0.0000
     0.0000   0.0000   0.0000   0.0000

          k = 0.3500 0.1333 0.0914 ( 18722 PWs)   bands (ev):

   -41.4206 -41.4206 -41.4186 -41.4186 -26.6546 -26.6546 -26.6538 -26.6538
   -19.4986 -19.4986 -19.4904 -19.4904 -19.4619 -19.4619 -19.4592 -19.4592
   -19.4162 -19.4162 -19.4066 -19.4066  -8.8973  -8.8969  -8.8750  -8.8745
    -8.7039  -8.7030  -8.6953  -8.6937  -8.6627  -8.6604  -8.6342  -8.6333
    -4.1924  -4.1592  -3.9719  -3.9621  -3.8199  -3.8132  -3.6523  -3.6518
    -3.3977  -3.3815  -3.3432  -3.3115   3.6545   3.7011   3.8114   3.8673
     4.2003   4.2473   4.3557   4.3865   4.4792   4.5150   4.6146   4.7164
     4.7669   4.8525   5.0899   5.2117   5.2597   5.3124   5.3359   5.4003
     5.6244   5.6554   5.6928   5.8109   5.9573   6.1365   6.1685   6.2295
     6.4063   6.4710   6.5136   6.6396   6.7674   6.8095   6.9197   6.9633
     9.4544   9.5431   9.5778   9.6225  10.0352  10.0994  10.3048  10.3556
    10.4163  10.4613  10.5677  10.5989  11.7139  11.8953  12.0231  12.1027
    12.1871  12.2645  12.3796  12.4774  12.6858  12.7606  12.8650  12.9807
    13.0587  13.1556  13.2197  13.2539

     occupation numbers 
     1.0000   1.0000   1.0000   1.0000   1.0000   1.0000   1.0000   1.0000
     1.0000   1.0000   1.0000   1.0000   1.0000   1.0000   1.0000   1.0000
     1.0000   1.0000   1.0000   1.0000   1.0000   1.0000   1.0000   1.0000
     1.0000   1.0000   1.0000   1.0000   1.0000   1.0000   1.0000   1.0000
     1.0000   1.0000   1.0000   1.0000   1.0000   1.0000   1.0000   1.0000
     1.0000   1.0000   1.0000   1.0000   1.0000   1.0000   1.0000   1.0000
     1.0000   1.0000   1.0000   1.0000   1.0000   1.0000   1.0000   1.0000
     1.0000   1.0000   1.0000   1.0000   1.0000   1.0000   1.0000   1.0000
     1.0000   1.0000   1.0000   1.0000   1.0000   1.0000   1.0000   1.0000
     1.0000   1.0000   1.0000   1.0000   1.0000   1.0000   1.0000   1.0000
     0.0000   0.0000   0.0000   0.0000   0.0000   0.0000   0.0000   0.0000
     0.0000   0.0000   0.0000   0.0000   0.0000   0.0000   0.0000   0.0000
     0.0000   0.0000   0.0000   0.0000   0.0000   0.0000   0.0000   0.0000
     0.0000   0.0000   0.0000   0.0000

          k = 0.3500 0.1333-0.1371 ( 18716 PWs)   bands (ev):

   -41.4206 -41.4206 -41.4186 -41.4186 -26.6546 -26.6546 -26.6538 -26.6538
   -19.4986 -19.4986 -19.4904 -19.4904 -19.4619 -19.4619 -19.4592 -19.4592
   -19.4162 -19.4162 -19.4066 -19.4066  -8.8971  -8.8971  -8.8748  -8.8748
    -8.7032  -8.7032  -8.6948  -8.6948  -8.6615  -8.6615  -8.6337  -8.6337
    -4.1753  -4.1753  -3.9694  -3.9694  -3.8152  -3.8152  -3.6519  -3.6519
    -3.3889  -3.3889  -3.3276  -3.3276   3.6784   3.6784   3.8275   3.8275
     4.2256   4.2256   4.3672   4.3672   4.5012   4.5012   4.6805   4.6805
     4.8199   4.8199   5.1514   5.1514   5.2835   5.2835   5.3643   5.3643
     5.6199   5.6199   5.7312   5.7312   6.0595   6.0595   6.2008   6.2008
     6.4497   6.4497   6.5729   6.5729   6.7826   6.7826   6.9581   6.9581
     9.4996   9.4996   9.5918   9.5918  10.0657  10.0657  10.3339  10.3339
    10.4317  10.4317  10.5840  10.5840  11.8025  11.8025  12.0960  12.0960
    12.2581  12.2581  12.3886  12.3886  12.7630  12.7630  12.8799  12.8799
    13.1122  13.1122  13.2462  13.2462

     occupation numbers 
     1.0000   1.0000   1.0000   1.0000   1.0000   1.0000   1.0000   1.0000
     1.0000   1.0000   1.0000   1.0000   1.0000   1.0000   1.0000   1.0000
     1.0000   1.0000   1.0000   1.0000   1.0000   1.0000   1.0000   1.0000
     1.0000   1.0000   1.0000   1.0000   1.0000   1.0000   1.0000   1.0000
     1.0000   1.0000   1.0000   1.0000   1.0000   1.0000   1.0000   1.0000
     1.0000   1.0000   1.0000   1.0000   1.0000   1.0000   1.0000   1.0000
     1.0000   1.0000   1.0000   1.0000   1.0000   1.0000   1.0000   1.0000
     1.0000   1.0000   1.0000   1.0000   1.0000   1.0000   1.0000   1.0000
     1.0000   1.0000   1.0000   1.0000   1.0000   1.0000   1.0000   1.0000
     1.0000   1.0000   1.0000   1.0000   1.0000   1.0000   1.0000   1.0000
     0.0000   0.0000   0.0000   0.0000   0.0000   0.0000   0.0000   0.0000
     0.0000   0.0000   0.0000   0.0000   0.0000   0.0000   0.0000   0.0000
     0.0000   0.0000   0.0000   0.0000   0.0000   0.0000   0.0000   0.0000
     0.0000   0.0000   0.0000   0.0000

          k = 0.3500 0.1777 0.0000 ( 18725 PWs)   bands (ev):

   -41.4206 -41.4206 -41.4186 -41.4186 -26.6545 -26.6544 -26.6540 -26.6539
   -19.4986 -19.4986 -19.4905 -19.4905 -19.4619 -19.4619 -19.4592 -19.4592
   -19.4162 -19.4162 -19.4066 -19.4066  -8.8924  -8.8915  -8.8807  -8.8797
    -8.7054  -8.7043  -8.6950  -8.6933  -8.6562  -8.6524  -8.6410  -8.6386
    -4.1928  -4.1581  -3.9693  -3.9611  -3.8171  -3.8107  -3.6544  -3.6539
    -3.4034  -3.3915  -3.3371  -3.3081   3.6858   3.7152   3.8132   3.8230
     4.2652   4.3311   4.3701   4.3716   4.4544   4.4579   4.5666   4.5940
     4.7700   4.8929   5.1358   5.1482   5.1735   5.2146   5.4090   5.4305
     5.6263   5.6593   5.7895   5.8894   6.0256   6.0350   6.1979   6.2116
     6.3455   6.3822   6.6969   6.7149   6.7832   6.8123   6.8602   6.9540
     9.4197   9.4923   9.6254   9.6575  10.0232  10.1251  10.3190  10.3580
    10.4462  10.5072  10.5198  10.5666  11.6307  11.7820  11.9796  11.9948
    12.0934  12.1876  12.4924  12.5629  12.7209  12.7239  12.8992  12.9363
    13.1230  13.2312  13.2314  13.2879

     occupation numbers 
     1.0000   1.0000   1.0000   1.0000   1.0000   1.0000   1.0000   1.0000
     1.0000   1.0000   1.0000   1.0000   1.0000   1.0000   1.0000   1.0000
     1.0000   1.0000   1.0000   1.0000   1.0000   1.0000   1.0000   1.0000
     1.0000   1.0000   1.0000   1.0000   1.0000   1.0000   1.0000   1.0000
     1.0000   1.0000   1.0000   1.0000   1.0000   1.0000   1.0000   1.0000
     1.0000   1.0000   1.0000   1.0000   1.0000   1.0000   1.0000   1.0000
     1.0000   1.0000   1.0000   1.0000   1.0000   1.0000   1.0000   1.0000
     1.0000   1.0000   1.0000   1.0000   1.0000   1.0000   1.0000   1.0000
     1.0000   1.0000   1.0000   1.0000   1.0000   1.0000   1.0000   1.0000
     1.0000   1.0000   1.0000   1.0000   1.0000   1.0000   1.0000   1.0000
     0.0000   0.0000   0.0000   0.0000   0.0000   0.0000   0.0000   0.0000
     0.0000   0.0000   0.0000   0.0000   0.0000   0.0000   0.0000   0.0000
     0.0000   0.0000   0.0000   0.0000   0.0000   0.0000   0.0000   0.0000
     0.0000   0.0000   0.0000   0.0000

          k = 0.3500 0.1777 0.0457 ( 18708 PWs)   bands (ev):

   -41.4206 -41.4206 -41.4186 -41.4186 -26.6545 -26.6544 -26.6540 -26.6540
   -19.4986 -19.4986 -19.4905 -19.4905 -19.4619 -19.4619 -19.4592 -19.4592
   -19.4162 -19.4162 -19.4066 -19.4066  -8.8923  -8.8915  -8.8806  -8.8797
    -8.7051  -8.7042  -8.6952  -8.6937  -8.6559  -8.6526  -8.6408  -8.6388
    -4.1893  -4.1588  -3.9731  -3.9646  -3.8149  -3.8094  -3.6544  -3.6539
    -3.4006  -3.3880  -3.3386  -3.3117   3.6850   3.7158   3.7971   3.8231
     4.2515   4.3073   4.3744   4.4009   4.4394   4.4993   4.5551   4.6358
     4.7794   4.8878   5.1224   5.1478   5.1775   5.2358   5.3722   5.4169
     5.6279   5.6625   5.7491   5.8485   5.9943   6.0924   6.1862   6.2767
     6.3777   6.3998   6.6212   6.7014   6.7688   6.7900   6.9148   6.9734
     9.4287   9.4955   9.6100   9.6444  10.0327  10.1206  10.3180  10.3535
    10.4425  10.4826  10.5374  10.5691  11.6597  11.8156  11.9909  12.0444
    12.0680  12.1917  12.4717  12.5413  12.7047  12.7632  12.8999  12.9510
    13.1164  13.1579  13.2337  13.3024

     occupation numbers 
     1.0000   1.0000   1.0000   1.0000   1.0000   1.0000   1.0000   1.0000
     1.0000   1.0000   1.0000   1.0000   1.0000   1.0000   1.0000   1.0000
     1.0000   1.0000   1.0000   1.0000   1.0000   1.0000   1.0000   1.0000
     1.0000   1.0000   1.0000   1.0000   1.0000   1.0000   1.0000   1.0000
     1.0000   1.0000   1.0000   1.0000   1.0000   1.0000   1.0000   1.0000
     1.0000   1.0000   1.0000   1.0000   1.0000   1.0000   1.0000   1.0000
     1.0000   1.0000   1.0000   1.0000   1.0000   1.0000   1.0000   1.0000
     1.0000   1.0000   1.0000   1.0000   1.0000   1.0000   1.0000   1.0000
     1.0000   1.0000   1.0000   1.0000   1.0000   1.0000   1.0000   1.0000
     1.0000   1.0000   1.0000   1.0000   1.0000   1.0000   1.0000   1.0000
     0.0000   0.0000   0.0000   0.0000   0.0000   0.0000   0.0000   0.0000
     0.0000   0.0000   0.0000   0.0000   0.0000   0.0000   0.0000   0.0000
     0.0000   0.0000   0.0000   0.0000   0.0000   0.0000   0.0000   0.0000
     0.0000   0.0000   0.0000   0.0000

          k = 0.3500 0.1777 0.0914 ( 18711 PWs)   bands (ev):

   -41.4206 -41.4206 -41.4186 -41.4186 -26.6544 -26.6544 -26.6540 -26.6540
   -19.4986 -19.4986 -19.4905 -19.4905 -19.4619 -19.4619 -19.4592 -19.4592
   -19.4162 -19.4162 -19.4066 -19.4066  -8.8921  -8.8917  -8.8804  -8.8799
    -8.7044  -8.7038  -8.6954  -8.6945  -8.6552  -8.6533  -8.6404  -8.6392
    -4.1803  -4.1620  -3.9793  -3.9729  -3.8104  -3.8073  -3.6543  -3.6540
    -3.3931  -3.3826  -3.3397  -3.3214   3.6873   3.7113   3.7819   3.8078
     4.2419   4.2779   4.3851   4.4182   4.4483   4.5042   4.6081   4.6818
     4.8123   4.8804   5.1090   5.1440   5.1902   5.2721   5.3001   5.3679
     5.6288   5.6644   5.6807   5.7635   6.0402   6.1447   6.2305   6.2860
     6.4248   6.4549   6.5379   6.6183   6.7629   6.7809   6.9729   6.9937
     9.4551   9.5042   9.5767   9.6100  10.0567  10.1073  10.3191  10.3417
    10.4366  10.4541  10.5538  10.5705  11.7338  11.8667  12.0333  12.0468
    12.1424  12.1894  12.4136  12.4720  12.7288  12.8071  12.8982  12.9464
    13.0893  13.1096  13.1969  13.2721

     occupation numbers 
     1.0000   1.0000   1.0000   1.0000   1.0000   1.0000   1.0000   1.0000
     1.0000   1.0000   1.0000   1.0000   1.0000   1.0000   1.0000   1.0000
     1.0000   1.0000   1.0000   1.0000   1.0000   1.0000   1.0000   1.0000
     1.0000   1.0000   1.0000   1.0000   1.0000   1.0000   1.0000   1.0000
     1.0000   1.0000   1.0000   1.0000   1.0000   1.0000   1.0000   1.0000
     1.0000   1.0000   1.0000   1.0000   1.0000   1.0000   1.0000   1.0000
     1.0000   1.0000   1.0000   1.0000   1.0000   1.0000   1.0000   1.0000
     1.0000   1.0000   1.0000   1.0000   1.0000   1.0000   1.0000   1.0000
     1.0000   1.0000   1.0000   1.0000   1.0000   1.0000   1.0000   1.0000
     1.0000   1.0000   1.0000   1.0000   1.0000   1.0000   1.0000   1.0000
     0.0000   0.0000   0.0000   0.0000   0.0000   0.0000   0.0000   0.0000
     0.0000   0.0000   0.0000   0.0000   0.0000   0.0000   0.0000   0.0000
     0.0000   0.0000   0.0000   0.0000   0.0000   0.0000   0.0000   0.0000
     0.0000   0.0000   0.0000   0.0000

          k = 0.3500 0.1777-0.1371 ( 18696 PWs)   bands (ev):

   -41.4206 -41.4206 -41.4186 -41.4186 -26.6544 -26.6544 -26.6540 -26.6540
   -19.4986 -19.4986 -19.4905 -19.4905 -19.4619 -19.4619 -19.4592 -19.4592
   -19.4162 -19.4162 -19.4066 -19.4066  -8.8919  -8.8919  -8.8802  -8.8802
    -8.7038  -8.7038  -8.6953  -8.6953  -8.6542  -8.6542  -8.6397  -8.6397
    -4.1697  -4.1697  -3.9796  -3.9796  -3.8073  -3.8073  -3.6541  -3.6541
    -3.3846  -3.3846  -3.3332  -3.3332   3.6978   3.6978   3.7882   3.7882
     4.2532   4.2532   4.4026   4.4026   4.4800   4.4800   4.6685   4.6685
     4.8607   4.8607   5.1234   5.1234   5.2266   5.2266   5.3152   5.3152
     5.6319   5.6319   5.7024   5.7024   6.1253   6.1253   6.2603   6.2603
     6.4626   6.4626   6.5413   6.5413   6.7729   6.7729   6.9961   6.9961
     9.4913   9.4913   9.5734   9.5734  10.0849  10.0849  10.3278  10.3278
    10.4380  10.4380  10.5653  10.5653  11.8226  11.8226  12.0645  12.0645
    12.2001  12.2001  12.3899  12.3899  12.7917  12.7917  12.8965  12.8965
    13.1166  13.1166  13.1861  13.1861

     occupation numbers 
     1.0000   1.0000   1.0000   1.0000   1.0000   1.0000   1.0000   1.0000
     1.0000   1.0000   1.0000   1.0000   1.0000   1.0000   1.0000   1.0000
     1.0000   1.0000   1.0000   1.0000   1.0000   1.0000   1.0000   1.0000
     1.0000   1.0000   1.0000   1.0000   1.0000   1.0000   1.0000   1.0000
     1.0000   1.0000   1.0000   1.0000   1.0000   1.0000   1.0000   1.0000
     1.0000   1.0000   1.0000   1.0000   1.0000   1.0000   1.0000   1.0000
     1.0000   1.0000   1.0000   1.0000   1.0000   1.0000   1.0000   1.0000
     1.0000   1.0000   1.0000   1.0000   1.0000   1.0000   1.0000   1.0000
     1.0000   1.0000   1.0000   1.0000   1.0000   1.0000   1.0000   1.0000
     1.0000   1.0000   1.0000   1.0000   1.0000   1.0000   1.0000   1.0000
     0.0000   0.0000   0.0000   0.0000   0.0000   0.0000   0.0000   0.0000
     0.0000   0.0000   0.0000   0.0000   0.0000   0.0000   0.0000   0.0000
     0.0000   0.0000   0.0000   0.0000   0.0000   0.0000   0.0000   0.0000
     0.0000   0.0000   0.0000   0.0000

          k = 0.3500-0.2221 0.0000 ( 18730 PWs)   bands (ev):

   -41.4206 -41.4206 -41.4186 -41.4186 -26.6543 -26.6543 -26.6542 -26.6541
   -19.4986 -19.4986 -19.4905 -19.4905 -19.4619 -19.4618 -19.4592 -19.4592
   -19.4162 -19.4162 -19.4066 -19.4066  -8.8866  -8.8865  -8.8856  -8.8856
    -8.7051  -8.7051  -8.6943  -8.6943  -8.6484  -8.6483  -8.6453  -8.6453
    -4.1746  -4.1746  -3.9673  -3.9673  -3.8113  -3.8113  -3.6548  -3.6548
    -3.3985  -3.3985  -3.3222  -3.3221   3.7352   3.7352   3.7722   3.7722
     4.3102   4.3102   4.3710   4.3710   4.5067   4.5067   4.5234   4.5234
     4.8546   4.8546   5.1141   5.1141   5.1809   5.1809   5.4240   5.4241
     5.6356   5.6356   5.8381   5.8381   6.0647   6.0647   6.1741   6.1741
     6.3743   6.3743   6.7524   6.7524   6.7615   6.7615   6.9241   6.9241
     9.4476   9.4476   9.6412   9.6413  10.0705  10.0705  10.3516  10.3516
    10.4781  10.4781  10.5314  10.5314  11.6825  11.6825  11.9888  11.9888
    12.1120  12.1120  12.5419  12.5420  12.7877  12.7878  12.8732  12.8732
    13.1644  13.1645  13.3175  13.3175

     occupation numbers 
     1.0000   1.0000   1.0000   1.0000   1.0000   1.0000   1.0000   1.0000
     1.0000   1.0000   1.0000   1.0000   1.0000   1.0000   1.0000   1.0000
     1.0000   1.0000   1.0000   1.0000   1.0000   1.0000   1.0000   1.0000
     1.0000   1.0000   1.0000   1.0000   1.0000   1.0000   1.0000   1.0000
     1.0000   1.0000   1.0000   1.0000   1.0000   1.0000   1.0000   1.0000
     1.0000   1.0000   1.0000   1.0000   1.0000   1.0000   1.0000   1.0000
     1.0000   1.0000   1.0000   1.0000   1.0000   1.0000   1.0000   1.0000
     1.0000   1.0000   1.0000   1.0000   1.0000   1.0000   1.0000   1.0000
     1.0000   1.0000   1.0000   1.0000   1.0000   1.0000   1.0000   1.0000
     1.0000   1.0000   1.0000   1.0000   1.0000   1.0000   1.0000   1.0000
     0.0000   0.0000   0.0000   0.0000   0.0000   0.0000   0.0000   0.0000
     0.0000   0.0000   0.0000   0.0000   0.0000   0.0000   0.0000   0.0000
     0.0000   0.0000   0.0000   0.0000   0.0000   0.0000   0.0000   0.0000
     0.0000   0.0000   0.0000   0.0000

          k = 0.3500-0.2221 0.0457 ( 18692 PWs)   bands (ev):

   -41.4206 -41.4206 -41.4186 -41.4186 -26.6543 -26.6543 -26.6542 -26.6541
   -19.4986 -19.4986 -19.4905 -19.4905 -19.4618 -19.4618 -19.4592 -19.4592
   -19.4162 -19.4162 -19.4066 -19.4066  -8.8865  -8.8865  -8.8857  -8.8856
    -8.7049  -8.7049  -8.6946  -8.6946  -8.6482  -8.6481  -8.6455  -8.6454
    -4.1729  -4.1729  -3.9714  -3.9714  -3.8095  -3.8095  -3.6549  -3.6549
    -3.3952  -3.3951  -3.3250  -3.3249   3.7315   3.7315   3.7684   3.7684
     4.2931   4.2931   4.3795   4.3795   4.4982   4.4982   4.5695   4.5695
     4.8561   4.8561   5.1044   5.1044   5.1918   5.1918   5.3971   5.3971
     5.6400   5.6400   5.7955   5.7955   6.0563   6.0563   6.2369   6.2370
     6.3910   6.3911   6.6914   6.6914   6.7558   6.7558   6.9618   6.9618
     9.4538   9.4538   9.6266   9.6266  10.0757  10.0758  10.3446  10.3446
    10.4658  10.4658  10.5411  10.5411  11.7157  11.7157  12.0148  12.0148
    12.1073  12.1073  12.5218  12.5219  12.7962  12.7962  12.8775  12.8776
    13.1451  13.1451  13.2763  13.2763

     occupation numbers 
     1.0000   1.0000   1.0000   1.0000   1.0000   1.0000   1.0000   1.0000
     1.0000   1.0000   1.0000   1.0000   1.0000   1.0000   1.0000   1.0000
     1.0000   1.0000   1.0000   1.0000   1.0000   1.0000   1.0000   1.0000
     1.0000   1.0000   1.0000   1.0000   1.0000   1.0000   1.0000   1.0000
     1.0000   1.0000   1.0000   1.0000   1.0000   1.0000   1.0000   1.0000
     1.0000   1.0000   1.0000   1.0000   1.0000   1.0000   1.0000   1.0000
     1.0000   1.0000   1.0000   1.0000   1.0000   1.0000   1.0000   1.0000
     1.0000   1.0000   1.0000   1.0000   1.0000   1.0000   1.0000   1.0000
     1.0000   1.0000   1.0000   1.0000   1.0000   1.0000   1.0000   1.0000
     1.0000   1.0000   1.0000   1.0000   1.0000   1.0000   1.0000   1.0000
     0.0000   0.0000   0.0000   0.0000   0.0000   0.0000   0.0000   0.0000
     0.0000   0.0000   0.0000   0.0000   0.0000   0.0000   0.0000   0.0000
     0.0000   0.0000   0.0000   0.0000   0.0000   0.0000   0.0000   0.0000
     0.0000   0.0000   0.0000   0.0000

          k = 0.3500-0.2221 0.0914 ( 18720 PWs)   bands (ev):

   -41.4206 -41.4206 -41.4186 -41.4186 -26.6543 -26.6543 -26.6542 -26.6542
   -19.4986 -19.4986 -19.4905 -19.4905 -19.4619 -19.4618 -19.4592 -19.4592
   -19.4162 -19.4162 -19.4066 -19.4066  -8.8864  -8.8864  -8.8858  -8.8858
    -8.7043  -8.7043  -8.6952  -8.6952  -8.6477  -8.6477  -8.6459  -8.6458
    -4.1694  -4.1693  -3.9794  -3.9794  -3.8060  -3.8060  -3.6550  -3.6550
    -3.3874  -3.3874  -3.3315  -3.3315   3.7242   3.7243   3.7610   3.7610
     4.2700   4.2700   4.3908   4.3909   4.5032   4.5032   4.6329   4.6329
     4.8729   4.8729   5.0777   5.0777   5.2176   5.2176   5.3354   5.3354
     5.6467   5.6467   5.7164   5.7164   6.1065   6.1065   6.2839   6.2840
     6.4370   6.4370   6.5849   6.5849   6.7591   6.7591   7.0010   7.0010
     9.4729   9.4730   9.5905   9.5905  10.0875  10.0875  10.3287  10.3287
    10.4495  10.4495  10.5533  10.5533  11.7915  11.7915  12.0434  12.0434
    12.1319  12.1319  12.4571  12.4571  12.8229  12.8229  12.8818  12.8818
    13.1142  13.1142  13.1939  13.1939

     occupation numbers 
     1.0000   1.0000   1.0000   1.0000   1.0000   1.0000   1.0000   1.0000
     1.0000   1.0000   1.0000   1.0000   1.0000   1.0000   1.0000   1.0000
     1.0000   1.0000   1.0000   1.0000   1.0000   1.0000   1.0000   1.0000
     1.0000   1.0000   1.0000   1.0000   1.0000   1.0000   1.0000   1.0000
     1.0000   1.0000   1.0000   1.0000   1.0000   1.0000   1.0000   1.0000
     1.0000   1.0000   1.0000   1.0000   1.0000   1.0000   1.0000   1.0000
     1.0000   1.0000   1.0000   1.0000   1.0000   1.0000   1.0000   1.0000
     1.0000   1.0000   1.0000   1.0000   1.0000   1.0000   1.0000   1.0000
     1.0000   1.0000   1.0000   1.0000   1.0000   1.0000   1.0000   1.0000
     1.0000   1.0000   1.0000   1.0000   1.0000   1.0000   1.0000   1.0000
     0.0000   0.0000   0.0000   0.0000   0.0000   0.0000   0.0000   0.0000
     0.0000   0.0000   0.0000   0.0000   0.0000   0.0000   0.0000   0.0000
     0.0000   0.0000   0.0000   0.0000   0.0000   0.0000   0.0000   0.0000
     0.0000   0.0000   0.0000   0.0000

          k = 0.3500-0.2221-0.1371 ( 18732 PWs)   bands (ev):

   -41.4206 -41.4206 -41.4186 -41.4186 -26.6543 -26.6543 -26.6542 -26.6542
   -19.4986 -19.4986 -19.4905 -19.4905 -19.4619 -19.4619 -19.4592 -19.4592
   -19.4162 -19.4162 -19.4066 -19.4066  -8.8863  -8.8863  -8.8859  -8.8859
    -8.7040  -8.7040  -8.6955  -8.6955  -8.6474  -8.6474  -8.6461  -8.6461
    -4.1675  -4.1675  -3.9834  -3.9834  -3.8044  -3.8044  -3.6550  -3.6550
    -3.3827  -3.3827  -3.3356  -3.3356   3.7207   3.7207   3.7574   3.7574
     4.2612   4.2612   4.3952   4.3952   4.5080   4.5080   4.6577   4.6577
     4.8970   4.8970   5.0538   5.0538   5.2414   5.2414   5.2916   5.2916
     5.6481   5.6481   5.6832   5.6832   6.1516   6.1516   6.2835   6.2835
     6.4640   6.4640   6.5327   6.5327   6.7627   6.7627   7.0128   7.0128
     9.4906   9.4906   9.5644   9.5644  10.0941  10.0941  10.3198  10.3198
    10.4435  10.4435  10.5577  10.5577  11.8390  11.8390  12.0275  12.0275
    12.1892  12.1892  12.3979  12.3979  12.8519  12.8519  12.8694  12.8694
    13.1247  13.1247  13.1300  13.1300

     occupation numbers 
     1.0000   1.0000   1.0000   1.0000   1.0000   1.0000   1.0000   1.0000
     1.0000   1.0000   1.0000   1.0000   1.0000   1.0000   1.0000   1.0000
     1.0000   1.0000   1.0000   1.0000   1.0000   1.0000   1.0000   1.0000
     1.0000   1.0000   1.0000   1.0000   1.0000   1.0000   1.0000   1.0000
     1.0000   1.0000   1.0000   1.0000   1.0000   1.0000   1.0000   1.0000
     1.0000   1.0000   1.0000   1.0000   1.0000   1.0000   1.0000   1.0000
     1.0000   1.0000   1.0000   1.0000   1.0000   1.0000   1.0000   1.0000
     1.0000   1.0000   1.0000   1.0000   1.0000   1.0000   1.0000   1.0000
     1.0000   1.0000   1.0000   1.0000   1.0000   1.0000   1.0000   1.0000
     1.0000   1.0000   1.0000   1.0000   1.0000   1.0000   1.0000   1.0000
     0.0000   0.0000   0.0000   0.0000   0.0000   0.0000   0.0000   0.0000
     0.0000   0.0000   0.0000   0.0000   0.0000   0.0000   0.0000   0.0000
     0.0000   0.0000   0.0000   0.0000   0.0000   0.0000   0.0000   0.0000
     0.0000   0.0000   0.0000   0.0000

          k = 0.4000 0.0000 0.0000 ( 18764 PWs)   bands (ev):

   -41.4197 -41.4197 -41.4184 -41.4184 -26.6526 -26.6526 -26.6513 -26.6513
   -19.5042 -19.5042 -19.5019 -19.5019 -19.4640 -19.4640 -19.4587 -19.4587
   -19.4148 -19.4147 -19.4084 -19.4083  -8.9442  -8.9437  -8.9025  -8.9020
    -8.6916  -8.6911  -8.6870  -8.6839  -8.6659  -8.6627  -8.6199  -8.6193
    -4.1223  -4.0639  -3.9599  -3.9522  -3.8200  -3.8095  -3.6411  -3.6378
    -3.3948  -3.3894  -3.3344  -3.2645   3.4889   3.7424   3.8257   3.8350
     3.9758   4.2198   4.2721   4.2738   4.4620   4.5509   4.5797   4.7119
     4.8774   4.9666   5.0131   5.0986   5.2093   5.4476   5.4489   5.4827
     5.5330   5.5527   5.7575   5.8020   5.9979   6.0609   6.1395   6.2543
     6.3163   6.4329   6.5685   6.6137   6.6459   6.6531   6.8309   6.8470
     9.4209   9.4327   9.5911   9.6607  10.0118  10.1595  10.1639  10.3442
    10.4233  10.5273  10.6149  10.6703  11.7503  11.8519  12.0294  12.1359
    12.3177  12.4962  12.5376  12.6543  12.7795  12.8112  12.8490  12.9450
    12.9827  13.0422  13.2684  13.2835

     occupation numbers 
     1.0000   1.0000   1.0000   1.0000   1.0000   1.0000   1.0000   1.0000
     1.0000   1.0000   1.0000   1.0000   1.0000   1.0000   1.0000   1.0000
     1.0000   1.0000   1.0000   1.0000   1.0000   1.0000   1.0000   1.0000
     1.0000   1.0000   1.0000   1.0000   1.0000   1.0000   1.0000   1.0000
     1.0000   1.0000   1.0000   1.0000   1.0000   1.0000   1.0000   1.0000
     1.0000   1.0000   1.0000   1.0000   1.0000   1.0000   1.0000   1.0000
     1.0000   1.0000   1.0000   1.0000   1.0000   1.0000   1.0000   1.0000
     1.0000   1.0000   1.0000   1.0000   1.0000   1.0000   1.0000   1.0000
     1.0000   1.0000   1.0000   1.0000   1.0000   1.0000   1.0000   1.0000
     1.0000   1.0000   1.0000   1.0000   1.0000   1.0000   1.0000   1.0000
     0.0000   0.0000   0.0000   0.0000   0.0000   0.0000   0.0000   0.0000
     0.0000   0.0000   0.0000   0.0000   0.0000   0.0000   0.0000   0.0000
     0.0000   0.0000   0.0000   0.0000   0.0000   0.0000   0.0000   0.0000
     0.0000   0.0000   0.0000   0.0000

          k = 0.4000 0.0000 0.0457 ( 18743 PWs)   bands (ev):

   -41.4197 -41.4197 -41.4184 -41.4184 -26.6526 -26.6526 -26.6513 -26.6513
   -19.5042 -19.5042 -19.5019 -19.5019 -19.4640 -19.4640 -19.4587 -19.4587
   -19.4148 -19.4147 -19.4084 -19.4083  -8.9441  -8.9437  -8.9024  -8.9020
    -8.6915  -8.6911  -8.6868  -8.6842  -8.6656  -8.6629  -8.6199  -8.6193
    -4.1185  -4.0677  -3.9596  -3.9533  -3.8193  -3.8104  -3.6406  -3.6378
    -3.3957  -3.3903  -3.3282  -3.2683   3.5015   3.7487   3.7502   3.8635
     4.0084   4.2025   4.2570   4.2683   4.4945   4.5744   4.5908   4.6985
     4.8571   4.9326   5.0396   5.1194   5.2085   5.3979   5.4834   5.4908
     5.5599   5.5724   5.7660   5.7892   5.9601   6.0059   6.0913   6.3496
     6.3638   6.3910   6.5518   6.5998   6.6468   6.6647   6.8389   6.8508
     9.4310   9.4402   9.5775   9.6339  10.0311  10.1492  10.1854  10.3423
    10.4188  10.5228  10.6052  10.6609  11.7625  11.8298  12.0806  12.1372
    12.3359  12.4662  12.5477  12.6818  12.7533  12.8148  12.8162  12.9840
    13.0056  13.0240  13.2618  13.2982

     occupation numbers 
     1.0000   1.0000   1.0000   1.0000   1.0000   1.0000   1.0000   1.0000
     1.0000   1.0000   1.0000   1.0000   1.0000   1.0000   1.0000   1.0000
     1.0000   1.0000   1.0000   1.0000   1.0000   1.0000   1.0000   1.0000
     1.0000   1.0000   1.0000   1.0000   1.0000   1.0000   1.0000   1.0000
     1.0000   1.0000   1.0000   1.0000   1.0000   1.0000   1.0000   1.0000
     1.0000   1.0000   1.0000   1.0000   1.0000   1.0000   1.0000   1.0000
     1.0000   1.0000   1.0000   1.0000   1.0000   1.0000   1.0000   1.0000
     1.0000   1.0000   1.0000   1.0000   1.0000   1.0000   1.0000   1.0000
     1.0000   1.0000   1.0000   1.0000   1.0000   1.0000   1.0000   1.0000
     1.0000   1.0000   1.0000   1.0000   1.0000   1.0000   1.0000   1.0000
     0.0000   0.0000   0.0000   0.0000   0.0000   0.0000   0.0000   0.0000
     0.0000   0.0000   0.0000   0.0000   0.0000   0.0000   0.0000   0.0000
     0.0000   0.0000   0.0000   0.0000   0.0000   0.0000   0.0000   0.0000
     0.0000   0.0000   0.0000   0.0000

          k = 0.4000 0.0000 0.0914 ( 18758 PWs)   bands (ev):

   -41.4197 -41.4197 -41.4184 -41.4184 -26.6526 -26.6526 -26.6513 -26.6513
   -19.5042 -19.5042 -19.5019 -19.5019 -19.4640 -19.4640 -19.4587 -19.4587
   -19.4148 -19.4147 -19.4084 -19.4083  -8.9440  -8.9438  -8.9024  -8.9021
    -8.6913  -8.6911  -8.6864  -8.6849  -8.6650  -8.6635  -8.6198  -8.6194
    -4.1078  -4.0783  -3.9589  -3.9556  -3.8176  -3.8126  -3.6395  -3.6380
    -3.3964  -3.3926  -3.3131  -3.2792   3.5382   3.6678   3.7671   3.8363
     4.0824   4.1744   4.2313   4.2492   4.5530   4.6172   4.6253   4.6652
     4.8265   4.8756   5.0813   5.1387   5.2214   5.3266   5.5105   5.5340
     5.6076   5.6263   5.7580   5.7891   5.8206   5.9497   6.0929   6.2898
     6.4424   6.4710   6.5319   6.5801   6.6260   6.6747   6.8506   6.8592
     9.4611   9.4631   9.5429   9.5741  10.0696  10.1310  10.2309  10.3276
    10.4202  10.4963  10.5992  10.6388  11.7831  11.8050  12.1506  12.1601
    12.4022  12.4338  12.5347  12.6369  12.7416  12.7789  12.8617  12.9481
    13.0473  13.0976  13.2297  13.2992

     occupation numbers 
     1.0000   1.0000   1.0000   1.0000   1.0000   1.0000   1.0000   1.0000
     1.0000   1.0000   1.0000   1.0000   1.0000   1.0000   1.0000   1.0000
     1.0000   1.0000   1.0000   1.0000   1.0000   1.0000   1.0000   1.0000
     1.0000   1.0000   1.0000   1.0000   1.0000   1.0000   1.0000   1.0000
     1.0000   1.0000   1.0000   1.0000   1.0000   1.0000   1.0000   1.0000
     1.0000   1.0000   1.0000   1.0000   1.0000   1.0000   1.0000   1.0000
     1.0000   1.0000   1.0000   1.0000   1.0000   1.0000   1.0000   1.0000
     1.0000   1.0000   1.0000   1.0000   1.0000   1.0000   1.0000   1.0000
     1.0000   1.0000   1.0000   1.0000   1.0000   1.0000   1.0000   1.0000
     1.0000   1.0000   1.0000   1.0000   1.0000   1.0000   1.0000   1.0000
     0.0000   0.0000   0.0000   0.0000   0.0000   0.0000   0.0000   0.0000
     0.0000   0.0000   0.0000   0.0000   0.0000   0.0000   0.0000   0.0000
     0.0000   0.0000   0.0000   0.0000   0.0000   0.0000   0.0000   0.0000
     0.0000   0.0000   0.0000   0.0000

          k = 0.4000 0.0000-0.1371 ( 18724 PWs)   bands (ev):

   -41.4197 -41.4197 -41.4184 -41.4184 -26.6526 -26.6526 -26.6513 -26.6513
   -19.5042 -19.5042 -19.5019 -19.5019 -19.4640 -19.4640 -19.4587 -19.4587
   -19.4148 -19.4148 -19.4083 -19.4083  -8.9439  -8.9439  -8.9022  -8.9022
    -8.6911  -8.6911  -8.6857  -8.6857  -8.6642  -8.6642  -8.6196  -8.6196
    -4.0931  -4.0931  -3.9576  -3.9576  -3.8153  -3.8153  -3.6385  -3.6385
    -3.3951  -3.3951  -3.2952  -3.2952   3.5953   3.5953   3.7975   3.7975
     4.1432   4.1432   4.2262   4.2262   4.6032   4.6032   4.6545   4.6545
     4.8281   4.8281   5.1203   5.1203   5.2644   5.2644   5.5312   5.5312
     5.6960   5.6960   5.7069   5.7069   5.8496   5.8496   6.1799   6.1799
     6.4960   6.4960   6.5507   6.5507   6.6436   6.6436   6.8597   6.8597
     9.4978   9.4978   9.5133   9.5133  10.1046  10.1046  10.2855  10.2855
    10.4513  10.4513  10.6145  10.6145  11.7941  11.7941  12.1763  12.1763
    12.4664  12.4664  12.5200  12.5200  12.7598  12.7598  12.9020  12.9020
    13.1185  13.1185  13.2421  13.2421

     occupation numbers 
     1.0000   1.0000   1.0000   1.0000   1.0000   1.0000   1.0000   1.0000
     1.0000   1.0000   1.0000   1.0000   1.0000   1.0000   1.0000   1.0000
     1.0000   1.0000   1.0000   1.0000   1.0000   1.0000   1.0000   1.0000
     1.0000   1.0000   1.0000   1.0000   1.0000   1.0000   1.0000   1.0000
     1.0000   1.0000   1.0000   1.0000   1.0000   1.0000   1.0000   1.0000
     1.0000   1.0000   1.0000   1.0000   1.0000   1.0000   1.0000   1.0000
     1.0000   1.0000   1.0000   1.0000   1.0000   1.0000   1.0000   1.0000
     1.0000   1.0000   1.0000   1.0000   1.0000   1.0000   1.0000   1.0000
     1.0000   1.0000   1.0000   1.0000   1.0000   1.0000   1.0000   1.0000
     1.0000   1.0000   1.0000   1.0000   1.0000   1.0000   1.0000   1.0000
     0.0000   0.0000   0.0000   0.0000   0.0000   0.0000   0.0000   0.0000
     0.0000   0.0000   0.0000   0.0000   0.0000   0.0000   0.0000   0.0000
     0.0000   0.0000   0.0000   0.0000   0.0000   0.0000   0.0000   0.0000
     0.0000   0.0000   0.0000   0.0000

          k = 0.4000 0.0444 0.0000 ( 18769 PWs)   bands (ev):

   -41.4197 -41.4197 -41.4184 -41.4184 -26.6526 -26.6526 -26.6513 -26.6513
   -19.5042 -19.5042 -19.5019 -19.5019 -19.4640 -19.4640 -19.4587 -19.4587
   -19.4148 -19.4147 -19.4084 -19.4083  -8.9432  -8.9427  -8.9035  -8.9030
    -8.6918  -8.6918  -8.6871  -8.6841  -8.6643  -8.6612  -8.6209  -8.6202
    -4.1210  -4.0654  -3.9617  -3.9542  -3.8149  -3.8047  -3.6439  -3.6407
    -3.3975  -3.3822  -3.3367  -3.2668   3.4900   3.6949   3.8082   3.8337
     4.0294   4.2304   4.2805   4.2883   4.4577   4.5605   4.5632   4.7221
     4.8635   4.9085   5.0320   5.1618   5.1977   5.3945   5.4540   5.4715
     5.5459   5.6123   5.7114   5.8403   5.9899   6.0266   6.1868   6.2726
     6.3080   6.4161   6.5206   6.5550   6.6554   6.7410   6.8313   6.8354
     9.3833   9.4860   9.5900   9.6498  10.0143  10.1674  10.1675  10.3593
    10.4238  10.5273  10.6045  10.6605  11.7353  11.8801  12.0317  12.1153
    12.3341  12.4777  12.5827  12.5858  12.7522  12.7697  12.8142  12.9126
    13.0449  13.1827  13.1935  13.3678

     occupation numbers 
     1.0000   1.0000   1.0000   1.0000   1.0000   1.0000   1.0000   1.0000
     1.0000   1.0000   1.0000   1.0000   1.0000   1.0000   1.0000   1.0000
     1.0000   1.0000   1.0000   1.0000   1.0000   1.0000   1.0000   1.0000
     1.0000   1.0000   1.0000   1.0000   1.0000   1.0000   1.0000   1.0000
     1.0000   1.0000   1.0000   1.0000   1.0000   1.0000   1.0000   1.0000
     1.0000   1.0000   1.0000   1.0000   1.0000   1.0000   1.0000   1.0000
     1.0000   1.0000   1.0000   1.0000   1.0000   1.0000   1.0000   1.0000
     1.0000   1.0000   1.0000   1.0000   1.0000   1.0000   1.0000   1.0000
     1.0000   1.0000   1.0000   1.0000   1.0000   1.0000   1.0000   1.0000
     1.0000   1.0000   1.0000   1.0000   1.0000   1.0000   1.0000   1.0000
     0.0000   0.0000   0.0000   0.0000   0.0000   0.0000   0.0000   0.0000
     0.0000   0.0000   0.0000   0.0000   0.0000   0.0000   0.0000   0.0000
     0.0000   0.0000   0.0000   0.0000   0.0000   0.0000   0.0000   0.0000
     0.0000   0.0000   0.0000   0.0000

          k = 0.4000 0.0444 0.0457 ( 18745 PWs)   bands (ev):

   -41.4197 -41.4197 -41.4184 -41.4184 -26.6526 -26.6526 -26.6513 -26.6513
   -19.5042 -19.5042 -19.5019 -19.5019 -19.4640 -19.4640 -19.4587 -19.4587
   -19.4148 -19.4147 -19.4084 -19.4083  -8.9431  -8.9427  -8.9035  -8.9031
    -8.6917  -8.6917  -8.6870  -8.6844  -8.6641  -8.6614  -8.6208  -8.6202
    -4.1172  -4.0688  -3.9619  -3.9553  -3.8142  -3.8055  -3.6435  -3.6407
    -3.3974  -3.3843  -3.3303  -3.2706   3.5009   3.6893   3.7604   3.8605
     4.0444   4.2200   4.2607   4.2871   4.4894   4.5633   4.5911   4.7062
     4.8313   4.9219   5.0484   5.1586   5.2045   5.3972   5.4211   5.5004
     5.5636   5.6302   5.7186   5.8156   5.9502   6.0182   6.1149   6.3314
     6.3328   6.4027   6.5084   6.5939   6.6531   6.7231   6.8309   6.8484
     9.3948   9.4902   9.5742   9.6275  10.0320  10.1583  10.1859  10.3578
    10.4199  10.5224  10.5960  10.6519  11.7463  11.8587  12.0828  12.1189
    12.3458  12.4523  12.5870  12.6420  12.7107  12.7573  12.8103  12.9654
    13.0457  13.1551  13.1704  13.3814

     occupation numbers 
     1.0000   1.0000   1.0000   1.0000   1.0000   1.0000   1.0000   1.0000
     1.0000   1.0000   1.0000   1.0000   1.0000   1.0000   1.0000   1.0000
     1.0000   1.0000   1.0000   1.0000   1.0000   1.0000   1.0000   1.0000
     1.0000   1.0000   1.0000   1.0000   1.0000   1.0000   1.0000   1.0000
     1.0000   1.0000   1.0000   1.0000   1.0000   1.0000   1.0000   1.0000
     1.0000   1.0000   1.0000   1.0000   1.0000   1.0000   1.0000   1.0000
     1.0000   1.0000   1.0000   1.0000   1.0000   1.0000   1.0000   1.0000
     1.0000   1.0000   1.0000   1.0000   1.0000   1.0000   1.0000   1.0000
     1.0000   1.0000   1.0000   1.0000   1.0000   1.0000   1.0000   1.0000
     1.0000   1.0000   1.0000   1.0000   1.0000   1.0000   1.0000   1.0000
     0.0000   0.0000   0.0000   0.0000   0.0000   0.0000   0.0000   0.0000
     0.0000   0.0000   0.0000   0.0000   0.0000   0.0000   0.0000   0.0000
     0.0000   0.0000   0.0000   0.0000   0.0000   0.0000   0.0000   0.0000
     0.0000   0.0000   0.0000   0.0000

          k = 0.4000 0.0444 0.0914 ( 18735 PWs)   bands (ev):

   -41.4197 -41.4197 -41.4184 -41.4184 -26.6526 -26.6526 -26.6513 -26.6513
   -19.5042 -19.5042 -19.5019 -19.5019 -19.4640 -19.4640 -19.4587 -19.4587
   -19.4148 -19.4147 -19.4084 -19.4083  -8.9431  -8.9428  -8.9034  -8.9032
    -8.6916  -8.6915  -8.6866  -8.6851  -8.6635  -8.6619  -8.6207  -8.6203
    -4.1069  -4.0786  -3.9618  -3.9578  -3.8124  -3.8075  -3.6424  -3.6409
    -3.3962  -3.3887  -3.3150  -3.2814   3.5325   3.6428   3.7561   3.8372
     4.0966   4.1959   4.2402   4.2693   4.5509   4.5894   4.6248   4.6677
     4.8116   4.8934   5.0907   5.1512   5.2328   5.3376   5.4563   5.5144
     5.6062   5.6775   5.7266   5.7848   5.8352   5.9785   6.0970   6.2513
     6.4088   6.4634   6.5146   6.6215   6.6605   6.6733   6.8456   6.8596
     9.4273   9.5061   9.5306   9.5819  10.0675  10.1357  10.2336  10.3409
    10.4235  10.4954  10.5925  10.6312  11.7701  11.8275  12.1418  12.1659
    12.3626  12.4535  12.5546  12.6442  12.7308  12.7668  12.8223  12.9713
    13.0283  13.1232  13.1893  13.3496

     occupation numbers 
     1.0000   1.0000   1.0000   1.0000   1.0000   1.0000   1.0000   1.0000
     1.0000   1.0000   1.0000   1.0000   1.0000   1.0000   1.0000   1.0000
     1.0000   1.0000   1.0000   1.0000   1.0000   1.0000   1.0000   1.0000
     1.0000   1.0000   1.0000   1.0000   1.0000   1.0000   1.0000   1.0000
     1.0000   1.0000   1.0000   1.0000   1.0000   1.0000   1.0000   1.0000
     1.0000   1.0000   1.0000   1.0000   1.0000   1.0000   1.0000   1.0000
     1.0000   1.0000   1.0000   1.0000   1.0000   1.0000   1.0000   1.0000
     1.0000   1.0000   1.0000   1.0000   1.0000   1.0000   1.0000   1.0000
     1.0000   1.0000   1.0000   1.0000   1.0000   1.0000   1.0000   1.0000
     1.0000   1.0000   1.0000   1.0000   1.0000   1.0000   1.0000   1.0000
     0.0000   0.0000   0.0000   0.0000   0.0000   0.0000   0.0000   0.0000
     0.0000   0.0000   0.0000   0.0000   0.0000   0.0000   0.0000   0.0000
     0.0000   0.0000   0.0000   0.0000   0.0000   0.0000   0.0000   0.0000
     0.0000   0.0000   0.0000   0.0000

          k = 0.4000 0.0444-0.1371 ( 18750 PWs)   bands (ev):

   -41.4197 -41.4197 -41.4184 -41.4184 -26.6526 -26.6526 -26.6513 -26.6513
   -19.5042 -19.5042 -19.5019 -19.5019 -19.4640 -19.4640 -19.4587 -19.4587
   -19.4148 -19.4148 -19.4083 -19.4083  -8.9429  -8.9429  -8.9033  -8.9033
    -8.6915  -8.6915  -8.6859  -8.6859  -8.6627  -8.6627  -8.6205  -8.6205
    -4.0927  -4.0927  -3.9603  -3.9603  -3.8100  -3.8100  -3.6414  -3.6414
    -3.3931  -3.3931  -3.2972  -3.2972   3.5820   3.5820   3.7914   3.7914
     4.1547   4.1547   4.2461   4.2461   4.6026   4.6026   4.6318   4.6318
     4.8409   4.8409   5.1304   5.1304   5.2785   5.2785   5.4965   5.4965
     5.6711   5.6711   5.7382   5.7382   5.8626   5.8626   6.1688   6.1688
     6.4554   6.4554   6.5760   6.5760   6.6639   6.6639   6.8582   6.8582
     9.4754   9.4754   9.5380   9.5380  10.1035  10.1035  10.2939  10.2939
    10.4532  10.4532  10.6082  10.6082  11.7977  11.7977  12.1804  12.1804
    12.4092  12.4092  12.5891  12.5891  12.7527  12.7527  12.8906  12.8906
    13.0767  13.0767  13.2722  13.2722

     occupation numbers 
     1.0000   1.0000   1.0000   1.0000   1.0000   1.0000   1.0000   1.0000
     1.0000   1.0000   1.0000   1.0000   1.0000   1.0000   1.0000   1.0000
     1.0000   1.0000   1.0000   1.0000   1.0000   1.0000   1.0000   1.0000
     1.0000   1.0000   1.0000   1.0000   1.0000   1.0000   1.0000   1.0000
     1.0000   1.0000   1.0000   1.0000   1.0000   1.0000   1.0000   1.0000
     1.0000   1.0000   1.0000   1.0000   1.0000   1.0000   1.0000   1.0000
     1.0000   1.0000   1.0000   1.0000   1.0000   1.0000   1.0000   1.0000
     1.0000   1.0000   1.0000   1.0000   1.0000   1.0000   1.0000   1.0000
     1.0000   1.0000   1.0000   1.0000   1.0000   1.0000   1.0000   1.0000
     1.0000   1.0000   1.0000   1.0000   1.0000   1.0000   1.0000   1.0000
     0.0000   0.0000   0.0000   0.0000   0.0000   0.0000   0.0000   0.0000
     0.0000   0.0000   0.0000   0.0000   0.0000   0.0000   0.0000   0.0000
     0.0000   0.0000   0.0000   0.0000   0.0000   0.0000   0.0000   0.0000
     0.0000   0.0000   0.0000   0.0000

          k = 0.4000 0.0888 0.0000 ( 18742 PWs)   bands (ev):

   -41.4197 -41.4197 -41.4184 -41.4184 -26.6525 -26.6525 -26.6514 -26.6514
   -19.5042 -19.5042 -19.5019 -19.5019 -19.4640 -19.4639 -19.4587 -19.4587
   -19.4148 -19.4147 -19.4084 -19.4083  -8.9403  -8.9398  -8.9066  -8.9060
    -8.6931  -8.6923  -8.6874  -8.6847  -8.6601  -8.6571  -8.6236  -8.6227
    -4.1171  -4.0697  -3.9659  -3.9593  -3.8011  -3.7921  -3.6520  -3.6489
    -3.3976  -3.3690  -3.3431  -3.2737   3.4959   3.6314   3.7622   3.7916
     4.1543   4.2557   4.2954   4.3286   4.4458   4.5259   4.5934   4.7516
     4.8271   4.8300   5.0766   5.1713   5.2478   5.3200   5.4193   5.4550
     5.6259   5.6453   5.6666   5.8900   5.9808   5.9816   6.2623   6.2710
     6.3232   6.3652   6.4941   6.4971   6.6811   6.7786   6.8263   6.8274
     9.3676   9.5451   9.5887   9.6204  10.0249  10.1810  10.1846  10.3989
    10.4225  10.5258  10.5776  10.6320  11.7069  11.9508  12.0389  12.0612
    12.3169  12.4647  12.5091  12.6068  12.7041  12.7468  12.7602  12.9659
    13.0956  13.1746  13.3530  13.4090

     occupation numbers 
     1.0000   1.0000   1.0000   1.0000   1.0000   1.0000   1.0000   1.0000
     1.0000   1.0000   1.0000   1.0000   1.0000   1.0000   1.0000   1.0000
     1.0000   1.0000   1.0000   1.0000   1.0000   1.0000   1.0000   1.0000
     1.0000   1.0000   1.0000   1.0000   1.0000   1.0000   1.0000   1.0000
     1.0000   1.0000   1.0000   1.0000   1.0000   1.0000   1.0000   1.0000
     1.0000   1.0000   1.0000   1.0000   1.0000   1.0000   1.0000   1.0000
     1.0000   1.0000   1.0000   1.0000   1.0000   1.0000   1.0000   1.0000
     1.0000   1.0000   1.0000   1.0000   1.0000   1.0000   1.0000   1.0000
     1.0000   1.0000   1.0000   1.0000   1.0000   1.0000   1.0000   1.0000
     1.0000   1.0000   1.0000   1.0000   1.0000   1.0000   1.0000   1.0000
     0.0000   0.0000   0.0000   0.0000   0.0000   0.0000   0.0000   0.0000
     0.0000   0.0000   0.0000   0.0000   0.0000   0.0000   0.0000   0.0000
     0.0000   0.0000   0.0000   0.0000   0.0000   0.0000   0.0000   0.0000
     0.0000   0.0000   0.0000   0.0000

          k = 0.4000 0.0888 0.0457 ( 18740 PWs)   bands (ev):

   -41.4197 -41.4197 -41.4184 -41.4184 -26.6525 -26.6525 -26.6514 -26.6514
   -19.5042 -19.5042 -19.5019 -19.5019 -19.4640 -19.4639 -19.4587 -19.4587
   -19.4148 -19.4147 -19.4084 -19.4083  -8.9403  -8.9398  -8.9066  -8.9061
    -8.6930  -8.6923  -8.6873  -8.6850  -8.6599  -8.6573  -8.6236  -8.6228
    -4.1136  -4.0721  -3.9670  -3.9604  -3.8003  -3.7926  -3.6516  -3.6489
    -3.3965  -3.3731  -3.3358  -3.2773   3.5028   3.6272   3.7334   3.8089
     4.1510   4.2551   4.2819   4.3245   4.4758   4.5349   4.6035   4.7272
     4.7912   4.8875   5.0836   5.1828   5.2349   5.3382   5.4070   5.4498
     5.6254   5.6554   5.6820   5.8349   5.9424   6.0378   6.1831   6.2436
     6.3089   6.4223   6.4872   6.5719   6.6679   6.7805   6.7981   6.8568
     9.3793   9.5435   9.5691   9.6088  10.0382  10.1712  10.2000  10.3939
    10.4228  10.5188  10.5732  10.6258  11.7194  11.9214  12.0774  12.0890
    12.3425  12.4087  12.5742  12.6131  12.6622  12.7578  12.7807  12.9953
    13.0782  13.1570  13.3058  13.3854

     occupation numbers 
     1.0000   1.0000   1.0000   1.0000   1.0000   1.0000   1.0000   1.0000
     1.0000   1.0000   1.0000   1.0000   1.0000   1.0000   1.0000   1.0000
     1.0000   1.0000   1.0000   1.0000   1.0000   1.0000   1.0000   1.0000
     1.0000   1.0000   1.0000   1.0000   1.0000   1.0000   1.0000   1.0000
     1.0000   1.0000   1.0000   1.0000   1.0000   1.0000   1.0000   1.0000
     1.0000   1.0000   1.0000   1.0000   1.0000   1.0000   1.0000   1.0000
     1.0000   1.0000   1.0000   1.0000   1.0000   1.0000   1.0000   1.0000
     1.0000   1.0000   1.0000   1.0000   1.0000   1.0000   1.0000   1.0000
     1.0000   1.0000   1.0000   1.0000   1.0000   1.0000   1.0000   1.0000
     1.0000   1.0000   1.0000   1.0000   1.0000   1.0000   1.0000   1.0000
     0.0000   0.0000   0.0000   0.0000   0.0000   0.0000   0.0000   0.0000
     0.0000   0.0000   0.0000   0.0000   0.0000   0.0000   0.0000   0.0000
     0.0000   0.0000   0.0000   0.0000   0.0000   0.0000   0.0000   0.0000
     0.0000   0.0000   0.0000   0.0000

          k = 0.4000 0.0888 0.0914 ( 18730 PWs)   bands (ev):

   -41.4197 -41.4197 -41.4184 -41.4184 -26.6525 -26.6525 -26.6514 -26.6514
   -19.5042 -19.5042 -19.5019 -19.5019 -19.4640 -19.4639 -19.4587 -19.4587
   -19.4148 -19.4147 -19.4084 -19.4083  -8.9402  -8.9399  -8.9065  -8.9062
    -8.6927  -8.6922  -8.6871  -8.6857  -8.6593  -8.6578  -8.6234  -8.6230
    -4.1041  -4.0797  -3.9683  -3.9635  -3.7985  -3.7940  -3.6507  -3.6491
    -3.3931  -3.3804  -3.3202  -3.2877   3.5237   3.6000   3.7285   3.7968
     4.1645   4.2353   4.2756   4.3084   4.5390   4.5576   4.6026   4.6803
     4.8077   4.9025   5.1151   5.1825   5.2521   5.3586   5.3816   5.4460
     5.6273   5.6704   5.6965   5.8063   5.8544   6.0346   6.1205   6.1913
     6.3627   6.4585   6.4975   6.6123   6.6713   6.7482   6.8231   6.8736
     9.4119   9.5163   9.5475   9.5848  10.0671  10.1405  10.2490  10.3664
    10.4345  10.4913  10.5765  10.6102  11.7539  11.8651  12.1326  12.1760
    12.3532  12.3954  12.5689  12.6214  12.6776  12.7820  12.8144  12.9994
    13.0566  13.1071  13.2566  13.3366

     occupation numbers 
     1.0000   1.0000   1.0000   1.0000   1.0000   1.0000   1.0000   1.0000
     1.0000   1.0000   1.0000   1.0000   1.0000   1.0000   1.0000   1.0000
     1.0000   1.0000   1.0000   1.0000   1.0000   1.0000   1.0000   1.0000
     1.0000   1.0000   1.0000   1.0000   1.0000   1.0000   1.0000   1.0000
     1.0000   1.0000   1.0000   1.0000   1.0000   1.0000   1.0000   1.0000
     1.0000   1.0000   1.0000   1.0000   1.0000   1.0000   1.0000   1.0000
     1.0000   1.0000   1.0000   1.0000   1.0000   1.0000   1.0000   1.0000
     1.0000   1.0000   1.0000   1.0000   1.0000   1.0000   1.0000   1.0000
     1.0000   1.0000   1.0000   1.0000   1.0000   1.0000   1.0000   1.0000
     1.0000   1.0000   1.0000   1.0000   1.0000   1.0000   1.0000   1.0000
     0.0000   0.0000   0.0000   0.0000   0.0000   0.0000   0.0000   0.0000
     0.0000   0.0000   0.0000   0.0000   0.0000   0.0000   0.0000   0.0000
     0.0000   0.0000   0.0000   0.0000   0.0000   0.0000   0.0000   0.0000
     0.0000   0.0000   0.0000   0.0000

          k = 0.4000 0.0888-0.1371 ( 18732 PWs)   bands (ev):

   -41.4197 -41.4197 -41.4184 -41.4184 -26.6525 -26.6525 -26.6514 -26.6514
   -19.5042 -19.5042 -19.5019 -19.5019 -19.4639 -19.4639 -19.4587 -19.4587
   -19.4147 -19.4147 -19.4083 -19.4083  -8.9400  -8.9400  -8.9063  -8.9063
    -8.6924  -8.6924  -8.6865  -8.6865  -8.6586  -8.6586  -8.6232  -8.6232
    -4.0915  -4.0915  -3.9669  -3.9669  -3.7962  -3.7962  -3.6497  -3.6497
    -3.3874  -3.3874  -3.3029  -3.3029   3.5582   3.5582   3.7594   3.7594
     4.1992   4.1992   4.2881   4.2881   4.5771   4.5771   4.6186   4.6186
     4.8621   4.8621   5.1551   5.1551   5.3067   5.3067   5.4221   5.4221
     5.6460   5.6460   5.7397   5.7397   5.9078   5.9078   6.1648   6.1648
     6.4186   6.4186   6.5556   6.5556   6.7157   6.7157   6.8607   6.8607
     9.4601   9.4601   9.5606   9.5606  10.1025  10.1025  10.3129  10.3129
    10.4585  10.4585  10.5915  10.5915  11.8047  11.8047  12.1960  12.1960
    12.3659  12.3659  12.5873  12.5873  12.7533  12.7533  12.8907  12.8907
    13.0811  13.0811  13.2777  13.2777

     occupation numbers 
     1.0000   1.0000   1.0000   1.0000   1.0000   1.0000   1.0000   1.0000
     1.0000   1.0000   1.0000   1.0000   1.0000   1.0000   1.0000   1.0000
     1.0000   1.0000   1.0000   1.0000   1.0000   1.0000   1.0000   1.0000
     1.0000   1.0000   1.0000   1.0000   1.0000   1.0000   1.0000   1.0000
     1.0000   1.0000   1.0000   1.0000   1.0000   1.0000   1.0000   1.0000
     1.0000   1.0000   1.0000   1.0000   1.0000   1.0000   1.0000   1.0000
     1.0000   1.0000   1.0000   1.0000   1.0000   1.0000   1.0000   1.0000
     1.0000   1.0000   1.0000   1.0000   1.0000   1.0000   1.0000   1.0000
     1.0000   1.0000   1.0000   1.0000   1.0000   1.0000   1.0000   1.0000
     1.0000   1.0000   1.0000   1.0000   1.0000   1.0000   1.0000   1.0000
     0.0000   0.0000   0.0000   0.0000   0.0000   0.0000   0.0000   0.0000
     0.0000   0.0000   0.0000   0.0000   0.0000   0.0000   0.0000   0.0000
     0.0000   0.0000   0.0000   0.0000   0.0000   0.0000   0.0000   0.0000
     0.0000   0.0000   0.0000   0.0000

          k = 0.4000 0.1333 0.0000 ( 18724 PWs)   bands (ev):

   -41.4197 -41.4197 -41.4184 -41.4184 -26.6524 -26.6523 -26.6516 -26.6515
   -19.5043 -19.5043 -19.5019 -19.5019 -19.4639 -19.4639 -19.4587 -19.4587
   -19.4148 -19.4147 -19.4084 -19.4083  -8.9358  -8.9352  -8.9113  -8.9107
    -8.6942  -8.6931  -8.6877  -8.6855  -8.6542  -8.6515  -8.6280  -8.6269
    -4.1110  -4.0765  -3.9701  -3.9650  -3.7825  -3.7753  -3.6640  -3.6611
    -3.3935  -3.3528  -3.3527  -3.2848   3.5120   3.5907   3.7035   3.7282
     4.2779   4.2917   4.3074   4.3864   4.4313   4.4903   4.6502   4.7740
     4.7771   4.7994   5.1217   5.1492   5.2312   5.2752   5.3922   5.4414
     5.6030   5.6677   5.7143   5.8859   5.9968   6.0008   6.2348   6.2698
     6.3489   6.3593   6.4949   6.5337   6.6766   6.7316   6.8027   6.8477
     9.3823   9.5711   9.5904   9.5992  10.0473  10.1921  10.2143  10.4156
    10.4484  10.5199  10.5422  10.5920  11.6899  11.9790  12.0364  12.0537
    12.2111  12.4630  12.4691  12.5808  12.6775  12.7298  12.8622  13.0612
    13.1558  13.2268  13.2865  13.3967

     occupation numbers 
     1.0000   1.0000   1.0000   1.0000   1.0000   1.0000   1.0000   1.0000
     1.0000   1.0000   1.0000   1.0000   1.0000   1.0000   1.0000   1.0000
     1.0000   1.0000   1.0000   1.0000   1.0000   1.0000   1.0000   1.0000
     1.0000   1.0000   1.0000   1.0000   1.0000   1.0000   1.0000   1.0000
     1.0000   1.0000   1.0000   1.0000   1.0000   1.0000   1.0000   1.0000
     1.0000   1.0000   1.0000   1.0000   1.0000   1.0000   1.0000   1.0000
     1.0000   1.0000   1.0000   1.0000   1.0000   1.0000   1.0000   1.0000
     1.0000   1.0000   1.0000   1.0000   1.0000   1.0000   1.0000   1.0000
     1.0000   1.0000   1.0000   1.0000   1.0000   1.0000   1.0000   1.0000
     1.0000   1.0000   1.0000   1.0000   1.0000   1.0000   1.0000   1.0000
     0.0000   0.0000   0.0000   0.0000   0.0000   0.0000   0.0000   0.0000
     0.0000   0.0000   0.0000   0.0000   0.0000   0.0000   0.0000   0.0000
     0.0000   0.0000   0.0000   0.0000   0.0000   0.0000   0.0000   0.0000
     0.0000   0.0000   0.0000   0.0000

          k = 0.4000 0.1333 0.0457 ( 18732 PWs)   bands (ev):

   -41.4197 -41.4197 -41.4184 -41.4184 -26.6524 -26.6523 -26.6516 -26.6515
   -19.5043 -19.5043 -19.5019 -19.5019 -19.4639 -19.4639 -19.4587 -19.4587
   -19.4148 -19.4147 -19.4084 -19.4083  -8.9358  -8.9352  -8.9113  -8.9107
    -8.6941  -8.6931  -8.6877  -8.6858  -8.6540  -8.6517  -8.6280  -8.6269
    -4.1080  -4.0776  -3.9720  -3.9665  -3.7818  -3.7755  -3.6637  -3.6611
    -3.3917  -3.3620  -3.3412  -3.2881   3.5147   3.5880   3.6886   3.7349
     4.2539   4.2977   4.3065   4.3713   4.4616   4.5169   4.6286   4.7499
     4.7877   4.8435   5.1197   5.1767   5.2342   5.2768   5.3819   5.4262
     5.6050   5.6683   5.7117   5.8509   5.9318   6.0845   6.1650   6.2633
     6.3053   6.4299   6.4746   6.5784   6.6637   6.7438   6.7970   6.8737
     9.3919   9.5547   9.5847   9.5916  10.0551  10.1744  10.2329  10.4056
    10.4519  10.5076  10.5475  10.5891  11.7062  11.9506  12.0621  12.0998
    12.2359  12.4337  12.4625  12.6016  12.6586  12.7697  12.8769  13.0728
    13.1308  13.1950  13.2858  13.3527

     occupation numbers 
     1.0000   1.0000   1.0000   1.0000   1.0000   1.0000   1.0000   1.0000
     1.0000   1.0000   1.0000   1.0000   1.0000   1.0000   1.0000   1.0000
     1.0000   1.0000   1.0000   1.0000   1.0000   1.0000   1.0000   1.0000
     1.0000   1.0000   1.0000   1.0000   1.0000   1.0000   1.0000   1.0000
     1.0000   1.0000   1.0000   1.0000   1.0000   1.0000   1.0000   1.0000
     1.0000   1.0000   1.0000   1.0000   1.0000   1.0000   1.0000   1.0000
     1.0000   1.0000   1.0000   1.0000   1.0000   1.0000   1.0000   1.0000
     1.0000   1.0000   1.0000   1.0000   1.0000   1.0000   1.0000   1.0000
     1.0000   1.0000   1.0000   1.0000   1.0000   1.0000   1.0000   1.0000
     1.0000   1.0000   1.0000   1.0000   1.0000   1.0000   1.0000   1.0000
     0.0000   0.0000   0.0000   0.0000   0.0000   0.0000   0.0000   0.0000
     0.0000   0.0000   0.0000   0.0000   0.0000   0.0000   0.0000   0.0000
     0.0000   0.0000   0.0000   0.0000   0.0000   0.0000   0.0000   0.0000
     0.0000   0.0000   0.0000   0.0000

          k = 0.4000 0.1333 0.0914 ( 18741 PWs)   bands (ev):

   -41.4197 -41.4197 -41.4184 -41.4184 -26.6524 -26.6523 -26.6516 -26.6515
   -19.5043 -19.5043 -19.5019 -19.5019 -19.4639 -19.4639 -19.4587 -19.4587
   -19.4148 -19.4147 -19.4083 -19.4083  -8.9356  -8.9354  -8.9112  -8.9108
    -8.6936  -8.6930  -8.6876  -8.6864  -8.6535  -8.6521  -8.6277  -8.6272
    -4.0999  -4.0818  -3.9748  -3.9705  -3.7799  -3.7763  -3.6629  -3.6614
    -3.3866  -3.3706  -3.3268  -3.2975   3.5249   3.5716   3.6852   3.7269
     4.2409   4.2758   4.3177   4.3525   4.5087   4.5701   4.5888   4.7112
     4.8237   4.8932   5.1402   5.2057   5.2456   5.2971   5.3581   5.3865
     5.6100   5.6650   5.6826   5.8119   5.8899   6.0532   6.1767   6.2114
     6.3277   6.4561   6.4886   6.5473   6.6907   6.7537   6.8335   6.8962
     9.4200   9.5127   9.5736   9.5767  10.0753  10.1409  10.2737  10.3756
    10.4590  10.4850  10.5578  10.5811  11.7507  11.8877  12.1371  12.1801
    12.3003  12.3827  12.4567  12.5772  12.6753  12.8185  12.9164  13.0298
    13.1175  13.1559  13.2660  13.2844

     occupation numbers 
     1.0000   1.0000   1.0000   1.0000   1.0000   1.0000   1.0000   1.0000
     1.0000   1.0000   1.0000   1.0000   1.0000   1.0000   1.0000   1.0000
     1.0000   1.0000   1.0000   1.0000   1.0000   1.0000   1.0000   1.0000
     1.0000   1.0000   1.0000   1.0000   1.0000   1.0000   1.0000   1.0000
     1.0000   1.0000   1.0000   1.0000   1.0000   1.0000   1.0000   1.0000
     1.0000   1.0000   1.0000   1.0000   1.0000   1.0000   1.0000   1.0000
     1.0000   1.0000   1.0000   1.0000   1.0000   1.0000   1.0000   1.0000
     1.0000   1.0000   1.0000   1.0000   1.0000   1.0000   1.0000   1.0000
     1.0000   1.0000   1.0000   1.0000   1.0000   1.0000   1.0000   1.0000
     1.0000   1.0000   1.0000   1.0000   1.0000   1.0000   1.0000   1.0000
     0.0000   0.0000   0.0000   0.0000   0.0000   0.0000   0.0000   0.0000
     0.0000   0.0000   0.0000   0.0000   0.0000   0.0000   0.0000   0.0000
     0.0000   0.0000   0.0000   0.0000   0.0000   0.0000   0.0000   0.0000
     0.0000   0.0000   0.0000   0.0000

          k = 0.4000 0.1333-0.1371 ( 18728 PWs)   bands (ev):

   -41.4197 -41.4197 -41.4184 -41.4184 -26.6523 -26.6523 -26.6516 -26.6516
   -19.5043 -19.5043 -19.5019 -19.5019 -19.4639 -19.4639 -19.4587 -19.4587
   -19.4147 -19.4147 -19.4083 -19.4083  -8.9355  -8.9355  -8.9110  -8.9110
    -8.6932  -8.6932  -8.6871  -8.6871  -8.6528  -8.6528  -8.6274  -8.6274
    -4.0899  -4.0899  -3.9743  -3.9743  -3.7778  -3.7778  -3.6620  -3.6620
    -3.3790  -3.3790  -3.3113  -3.3113   3.5455   3.5455   3.7041   3.7041
     4.2522   4.2522   4.3335   4.3335   4.5466   4.5466   4.6438   4.6438
     4.8813   4.8813   5.1756   5.1756   5.3132   5.3132   5.3353   5.3353
     5.6241   5.6241   5.7262   5.7262   5.9582   5.9582   6.2033   6.2033
     6.3846   6.3846   6.5237   6.5237   6.7278   6.7278   6.8838   6.8838
     9.4630   9.4630   9.5686   9.5686  10.1050  10.1050  10.3268  10.3268
    10.4688  10.4688  10.5698  10.5698  11.8149  11.8149  12.2067  12.2067
    12.3421  12.3421  12.4995  12.4995  12.7590  12.7590  12.9715  12.9715
    13.1319  13.1319  13.2518  13.2518

     occupation numbers 
     1.0000   1.0000   1.0000   1.0000   1.0000   1.0000   1.0000   1.0000
     1.0000   1.0000   1.0000   1.0000   1.0000   1.0000   1.0000   1.0000
     1.0000   1.0000   1.0000   1.0000   1.0000   1.0000   1.0000   1.0000
     1.0000   1.0000   1.0000   1.0000   1.0000   1.0000   1.0000   1.0000
     1.0000   1.0000   1.0000   1.0000   1.0000   1.0000   1.0000   1.0000
     1.0000   1.0000   1.0000   1.0000   1.0000   1.0000   1.0000   1.0000
     1.0000   1.0000   1.0000   1.0000   1.0000   1.0000   1.0000   1.0000
     1.0000   1.0000   1.0000   1.0000   1.0000   1.0000   1.0000   1.0000
     1.0000   1.0000   1.0000   1.0000   1.0000   1.0000   1.0000   1.0000
     1.0000   1.0000   1.0000   1.0000   1.0000   1.0000   1.0000   1.0000
     0.0000   0.0000   0.0000   0.0000   0.0000   0.0000   0.0000   0.0000
     0.0000   0.0000   0.0000   0.0000   0.0000   0.0000   0.0000   0.0000
     0.0000   0.0000   0.0000   0.0000   0.0000   0.0000   0.0000   0.0000
     0.0000   0.0000   0.0000   0.0000

          k = 0.4000 0.1777 0.0000 ( 18731 PWs)   bands (ev):

   -41.4197 -41.4197 -41.4184 -41.4184 -26.6522 -26.6521 -26.6518 -26.6517
   -19.5043 -19.5043 -19.5020 -19.5020 -19.4638 -19.4638 -19.4587 -19.4587
   -19.4147 -19.4147 -19.4083 -19.4083  -8.9301  -8.9294  -8.9172  -8.9165
    -8.6947  -8.6940  -8.6876  -8.6864  -8.6473  -8.6451  -8.6337  -8.6322
    -4.1031  -4.0849  -3.9725  -3.9698  -3.7643  -3.7598  -3.6764  -3.6741
    -3.3858  -3.3640  -3.3347  -3.2993   3.5414   3.5772   3.6495   3.6633
     4.2912   4.3027   4.4012   4.4170   4.4407   4.4911   4.6831   4.7215
     4.7853   4.8539   5.1368   5.1381   5.1519   5.2118   5.3930   5.4336
     5.6043   5.6594   5.7551   5.8360   6.0461   6.0754   6.1959   6.2014
     6.3826   6.3856   6.5444   6.5898   6.6655   6.6773   6.7671   6.8309
     9.4203   9.5221   9.6082   9.6140  10.0819  10.1712  10.2729  10.3971
    10.4931  10.5066  10.5090  10.5567  11.7060  11.8686  12.0767  12.0946
    12.1723  12.3167  12.4864  12.5722  12.7566  12.7754  12.9997  13.0541
    13.2250  13.2405  13.2867  13.3335

     occupation numbers 
     1.0000   1.0000   1.0000   1.0000   1.0000   1.0000   1.0000   1.0000
     1.0000   1.0000   1.0000   1.0000   1.0000   1.0000   1.0000   1.0000
     1.0000   1.0000   1.0000   1.0000   1.0000   1.0000   1.0000   1.0000
     1.0000   1.0000   1.0000   1.0000   1.0000   1.0000   1.0000   1.0000
     1.0000   1.0000   1.0000   1.0000   1.0000   1.0000   1.0000   1.0000
     1.0000   1.0000   1.0000   1.0000   1.0000   1.0000   1.0000   1.0000
     1.0000   1.0000   1.0000   1.0000   1.0000   1.0000   1.0000   1.0000
     1.0000   1.0000   1.0000   1.0000   1.0000   1.0000   1.0000   1.0000
     1.0000   1.0000   1.0000   1.0000   1.0000   1.0000   1.0000   1.0000
     1.0000   1.0000   1.0000   1.0000   1.0000   1.0000   1.0000   1.0000
     0.0000   0.0000   0.0000   0.0000   0.0000   0.0000   0.0000   0.0000
     0.0000   0.0000   0.0000   0.0000   0.0000   0.0000   0.0000   0.0000
     0.0000   0.0000   0.0000   0.0000   0.0000   0.0000   0.0000   0.0000
     0.0000   0.0000   0.0000   0.0000

          k = 0.4000 0.1777 0.0457 ( 18721 PWs)   bands (ev):

   -41.4197 -41.4197 -41.4184 -41.4184 -26.6522 -26.6521 -26.6518 -26.6517
   -19.5043 -19.5043 -19.5020 -19.5020 -19.4638 -19.4638 -19.4587 -19.4587
   -19.4147 -19.4147 -19.4083 -19.4083  -8.9300  -8.9295  -8.9172  -8.9166
    -8.6945  -8.6939  -8.6877  -8.6866  -8.6472  -8.6452  -8.6336  -8.6323
    -4.1008  -4.0847  -3.9748  -3.9717  -3.7636  -3.7597  -3.6762  -3.6743
    -3.3836  -3.3635  -3.3339  -3.3021   3.5410   3.5751   3.6426   3.6638
     4.2859   4.3045   4.3700   4.3944   4.4741   4.5259   4.6601   4.7718
     4.7920   4.8467   5.1381   5.1510   5.1627   5.2176   5.3746   5.4186
     5.6075   5.6606   5.7433   5.8306   5.9565   6.0721   6.1868   6.2763
     6.3714   6.4325   6.4734   6.5570   6.6662   6.6928   6.8019   6.8710
     9.4265   9.5186   9.5932   9.6065  10.0847  10.1600  10.2793  10.3860
    10.4914  10.4966  10.5234  10.5554  11.7258  11.8787  12.0964  12.1154
    12.1863  12.3180  12.4715  12.5649  12.7373  12.8305  13.0012  13.0711
    13.2025  13.2109  13.2441  13.3402

     occupation numbers 
     1.0000   1.0000   1.0000   1.0000   1.0000   1.0000   1.0000   1.0000
     1.0000   1.0000   1.0000   1.0000   1.0000   1.0000   1.0000   1.0000
     1.0000   1.0000   1.0000   1.0000   1.0000   1.0000   1.0000   1.0000
     1.0000   1.0000   1.0000   1.0000   1.0000   1.0000   1.0000   1.0000
     1.0000   1.0000   1.0000   1.0000   1.0000   1.0000   1.0000   1.0000
     1.0000   1.0000   1.0000   1.0000   1.0000   1.0000   1.0000   1.0000
     1.0000   1.0000   1.0000   1.0000   1.0000   1.0000   1.0000   1.0000
     1.0000   1.0000   1.0000   1.0000   1.0000   1.0000   1.0000   1.0000
     1.0000   1.0000   1.0000   1.0000   1.0000   1.0000   1.0000   1.0000
     1.0000   1.0000   1.0000   1.0000   1.0000   1.0000   1.0000   1.0000
     0.0000   0.0000   0.0000   0.0000   0.0000   0.0000   0.0000   0.0000
     0.0000   0.0000   0.0000   0.0000   0.0000   0.0000   0.0000   0.0000
     0.0000   0.0000   0.0000   0.0000   0.0000   0.0000   0.0000   0.0000
     0.0000   0.0000   0.0000   0.0000

          k = 0.4000 0.1777 0.0914 ( 18711 PWs)   bands (ev):

   -41.4197 -41.4197 -41.4184 -41.4184 -26.6522 -26.6521 -26.6518 -26.6517
   -19.5043 -19.5043 -19.5020 -19.5020 -19.4638 -19.4638 -19.4587 -19.4587
   -19.4147 -19.4147 -19.4083 -19.4083  -8.9299  -8.9296  -8.9170  -8.9167
    -8.6941  -8.6937  -8.6878  -8.6871  -8.6467  -8.6456  -8.6333  -8.6326
    -4.0949  -4.0851  -3.9789  -3.9763  -3.7620  -3.7597  -3.6757  -3.6746
    -3.3777  -3.3647  -3.3293  -3.3098   3.5433   3.5657   3.6387   3.6573
     4.2801   4.2996   4.3459   4.3723   4.5121   4.5570   4.6619   4.7576
     4.8471   4.8841   5.1439   5.1488   5.2053   5.2438   5.3271   5.3729
     5.6172   5.6694   5.6872   5.7779   5.9416   6.0381   6.2451   6.2794
     6.3210   6.4328   6.4821   6.4970   6.6817   6.7102   6.8721   6.9108
     9.4468   9.5077   9.5662   9.5836  10.0941  10.1357  10.2970  10.3580
    10.4877  10.4933  10.5366  10.5520  11.7753  11.8772  12.1241  12.1661
    12.2535  12.3401  12.4273  12.5234  12.7587  12.8799  13.0011  13.0763
    13.1170  13.1900  13.2335  13.2966

     occupation numbers 
     1.0000   1.0000   1.0000   1.0000   1.0000   1.0000   1.0000   1.0000
     1.0000   1.0000   1.0000   1.0000   1.0000   1.0000   1.0000   1.0000
     1.0000   1.0000   1.0000   1.0000   1.0000   1.0000   1.0000   1.0000
     1.0000   1.0000   1.0000   1.0000   1.0000   1.0000   1.0000   1.0000
     1.0000   1.0000   1.0000   1.0000   1.0000   1.0000   1.0000   1.0000
     1.0000   1.0000   1.0000   1.0000   1.0000   1.0000   1.0000   1.0000
     1.0000   1.0000   1.0000   1.0000   1.0000   1.0000   1.0000   1.0000
     1.0000   1.0000   1.0000   1.0000   1.0000   1.0000   1.0000   1.0000
     1.0000   1.0000   1.0000   1.0000   1.0000   1.0000   1.0000   1.0000
     1.0000   1.0000   1.0000   1.0000   1.0000   1.0000   1.0000   1.0000
     0.0000   0.0000   0.0000   0.0000   0.0000   0.0000   0.0000   0.0000
     0.0000   0.0000   0.0000   0.0000   0.0000   0.0000   0.0000   0.0000
     0.0000   0.0000   0.0000   0.0000   0.0000   0.0000   0.0000   0.0000
     0.0000   0.0000   0.0000   0.0000

          k = 0.4000 0.1777-0.1371 ( 18718 PWs)   bands (ev):

   -41.4197 -41.4197 -41.4184 -41.4184 -26.6522 -26.6522 -26.6517 -26.6517
   -19.5043 -19.5043 -19.5020 -19.5020 -19.4638 -19.4638 -19.4587 -19.4587
   -19.4147 -19.4147 -19.4083 -19.4083  -8.9298  -8.9298  -8.9169  -8.9169
    -8.6937  -8.6937  -8.6877  -8.6877  -8.6462  -8.6462  -8.6330  -8.6330
    -4.0886  -4.0886  -3.9798  -3.9798  -3.7604  -3.7604  -3.6751  -3.6751
    -3.3703  -3.3703  -3.3201  -3.3201   3.5522   3.5522   3.6459   3.6459
     4.2854   4.2854   4.3533   4.3533   4.5447   4.5447   4.7028   4.7028
     4.9012   4.9012   5.1431   5.1431   5.2612   5.2612   5.3062   5.3062
     5.6376   5.6376   5.7045   5.7045   6.0040   6.0040   6.2566   6.2566
     6.3443   6.3443   6.5072   6.5072   6.7059   6.7059   6.9124   6.9124
     9.4798   9.4798   9.5622   9.5622  10.1116  10.1116  10.3248  10.3248
    10.4894  10.4894  10.5460  10.5460  11.8346  11.8346  12.1629  12.1629
    12.3483  12.3483  12.4301  12.4301  12.8313  12.8313  13.0091  13.0091
    13.1842  13.1842  13.2286  13.2286

     occupation numbers 
     1.0000   1.0000   1.0000   1.0000   1.0000   1.0000   1.0000   1.0000
     1.0000   1.0000   1.0000   1.0000   1.0000   1.0000   1.0000   1.0000
     1.0000   1.0000   1.0000   1.0000   1.0000   1.0000   1.0000   1.0000
     1.0000   1.0000   1.0000   1.0000   1.0000   1.0000   1.0000   1.0000
     1.0000   1.0000   1.0000   1.0000   1.0000   1.0000   1.0000   1.0000
     1.0000   1.0000   1.0000   1.0000   1.0000   1.0000   1.0000   1.0000
     1.0000   1.0000   1.0000   1.0000   1.0000   1.0000   1.0000   1.0000
     1.0000   1.0000   1.0000   1.0000   1.0000   1.0000   1.0000   1.0000
     1.0000   1.0000   1.0000   1.0000   1.0000   1.0000   1.0000   1.0000
     1.0000   1.0000   1.0000   1.0000   1.0000   1.0000   1.0000   1.0000
     0.0000   0.0000   0.0000   0.0000   0.0000   0.0000   0.0000   0.0000
     0.0000   0.0000   0.0000   0.0000   0.0000   0.0000   0.0000   0.0000
     0.0000   0.0000   0.0000   0.0000   0.0000   0.0000   0.0000   0.0000
     0.0000   0.0000   0.0000   0.0000

          k = 0.4000-0.2221 0.0000 ( 18708 PWs)   bands (ev):

   -41.4197 -41.4197 -41.4184 -41.4184 -26.6520 -26.6520 -26.6519 -26.6519
   -19.5043 -19.5043 -19.5020 -19.5020 -19.4638 -19.4638 -19.4587 -19.4587
   -19.4147 -19.4147 -19.4083 -19.4083  -8.9237  -8.9237  -8.9230  -8.9230
    -8.6946  -8.6946  -8.6872  -8.6872  -8.6403  -8.6403  -8.6385  -8.6384
    -4.0942  -4.0942  -3.9724  -3.9724  -3.7544  -3.7544  -3.6815  -3.6815
    -3.3756  -3.3755  -3.3165  -3.3164   3.5743   3.5743   3.6230   3.6230
     4.2989   4.2989   4.4106   4.4106   4.4998   4.4998   4.6819   4.6820
     4.8551   4.8551   5.1190   5.1191   5.1541   5.1541   5.4148   5.4148
     5.6314   5.6315   5.7907   5.7907   6.1114   6.1115   6.1551   6.1551
     6.3992   6.3992   6.5908   6.5908   6.6570   6.6570   6.7835   6.7836
     9.4698   9.4698   9.6172   9.6173  10.1271  10.1272  10.3443  10.3443
    10.4979  10.4981  10.5277  10.5278  11.7673  11.7673  12.1005  12.1006
    12.2128  12.2128  12.5238  12.5238  12.8363  12.8364  13.0138  13.0138
    13.2087  13.2087  13.3582  13.3582

     occupation numbers 
     1.0000   1.0000   1.0000   1.0000   1.0000   1.0000   1.0000   1.0000
     1.0000   1.0000   1.0000   1.0000   1.0000   1.0000   1.0000   1.0000
     1.0000   1.0000   1.0000   1.0000   1.0000   1.0000   1.0000   1.0000
     1.0000   1.0000   1.0000   1.0000   1.0000   1.0000   1.0000   1.0000
     1.0000   1.0000   1.0000   1.0000   1.0000   1.0000   1.0000   1.0000
     1.0000   1.0000   1.0000   1.0000   1.0000   1.0000   1.0000   1.0000
     1.0000   1.0000   1.0000   1.0000   1.0000   1.0000   1.0000   1.0000
     1.0000   1.0000   1.0000   1.0000   1.0000   1.0000   1.0000   1.0000
     1.0000   1.0000   1.0000   1.0000   1.0000   1.0000   1.0000   1.0000
     1.0000   1.0000   1.0000   1.0000   1.0000   1.0000   1.0000   1.0000
     0.0000   0.0000   0.0000   0.0000   0.0000   0.0000   0.0000   0.0000
     0.0000   0.0000   0.0000   0.0000   0.0000   0.0000   0.0000   0.0000
     0.0000   0.0000   0.0000   0.0000   0.0000   0.0000   0.0000   0.0000
     0.0000   0.0000   0.0000   0.0000

          k = 0.4000-0.2221 0.0457 ( 18724 PWs)   bands (ev):

   -41.4197 -41.4197 -41.4184 -41.4184 -26.6520 -26.6520 -26.6519 -26.6519
   -19.5043 -19.5043 -19.5020 -19.5020 -19.4638 -19.4638 -19.4587 -19.4587
   -19.4147 -19.4147 -19.4083 -19.4083  -8.9237  -8.9236  -8.9230  -8.9230
    -8.6944  -8.6944  -8.6873  -8.6873  -8.6402  -8.6402  -8.6386  -8.6385
    -4.0927  -4.0927  -3.9747  -3.9747  -3.7539  -3.7539  -3.6815  -3.6815
    -3.3734  -3.3734  -3.3182  -3.3181   3.5725   3.5726   3.6202   3.6202
     4.2989   4.2989   4.3900   4.3900   4.5140   4.5141   4.7132   4.7132
     4.8518   4.8518   5.1147   5.1147   5.1704   5.1704   5.3975   5.3975
     5.6343   5.6344   5.7845   5.7845   6.0128   6.0128   6.2484   6.2484
     6.4188   6.4188   6.5118   6.5119   6.6628   6.6628   6.8390   6.8390
     9.4719   9.4720   9.6050   9.6050  10.1240  10.1240  10.3378  10.3378
    10.5012  10.5013  10.5274  10.5275  11.7871  11.7871  12.1189  12.1190
    12.2174  12.2175  12.5143  12.5144  12.8523  12.8523  13.0178  13.0178
    13.1902  13.1902  13.3241  13.3241

     occupation numbers 
     1.0000   1.0000   1.0000   1.0000   1.0000   1.0000   1.0000   1.0000
     1.0000   1.0000   1.0000   1.0000   1.0000   1.0000   1.0000   1.0000
     1.0000   1.0000   1.0000   1.0000   1.0000   1.0000   1.0000   1.0000
     1.0000   1.0000   1.0000   1.0000   1.0000   1.0000   1.0000   1.0000
     1.0000   1.0000   1.0000   1.0000   1.0000   1.0000   1.0000   1.0000
     1.0000   1.0000   1.0000   1.0000   1.0000   1.0000   1.0000   1.0000
     1.0000   1.0000   1.0000   1.0000   1.0000   1.0000   1.0000   1.0000
     1.0000   1.0000   1.0000   1.0000   1.0000   1.0000   1.0000   1.0000
     1.0000   1.0000   1.0000   1.0000   1.0000   1.0000   1.0000   1.0000
     1.0000   1.0000   1.0000   1.0000   1.0000   1.0000   1.0000   1.0000
     0.0000   0.0000   0.0000   0.0000   0.0000   0.0000   0.0000   0.0000
     0.0000   0.0000   0.0000   0.0000   0.0000   0.0000   0.0000   0.0000
     0.0000   0.0000   0.0000   0.0000   0.0000   0.0000   0.0000   0.0000
     0.0000   0.0000   0.0000   0.0000

          k = 0.4000-0.2221 0.0914 ( 18706 PWs)   bands (ev):

   -41.4197 -41.4197 -41.4184 -41.4184 -26.6520 -26.6520 -26.6519 -26.6519
   -19.5043 -19.5043 -19.5020 -19.5020 -19.4638 -19.4638 -19.4587 -19.4587
   -19.4147 -19.4147 -19.4083 -19.4083  -8.9236  -8.9236  -8.9231  -8.9231
    -8.6941  -8.6941  -8.6877  -8.6877  -8.6399  -8.6399  -8.6389  -8.6388
    -4.0897  -4.0897  -3.9794  -3.9794  -3.7529  -3.7529  -3.6816  -3.6816
    -3.3687  -3.3686  -3.3221  -3.3221   3.5690   3.5690   3.6147   3.6147
     4.2985   4.2985   4.3621   4.3621   4.5373   4.5373   4.7468   4.7468
     4.8792   4.8792   5.0994   5.0994   5.2116   5.2116   5.3476   5.3476
     5.6448   5.6448   5.7307   5.7307   5.9967   5.9967   6.2928   6.2928
     6.3680   6.3680   6.4852   6.4852   6.6792   6.6793   6.9018   6.9019
     9.4814   9.4814   9.5751   9.5752  10.1183  10.1183  10.3254  10.3254
    10.5081  10.5083  10.5257  10.5258  11.8277  11.8277  12.1316  12.1316
    12.2730  12.2730  12.4731  12.4731  12.8875  12.8875  13.0088  13.0088
    13.1770  13.1770  13.2597  13.2597

     occupation numbers 
     1.0000   1.0000   1.0000   1.0000   1.0000   1.0000   1.0000   1.0000
     1.0000   1.0000   1.0000   1.0000   1.0000   1.0000   1.0000   1.0000
     1.0000   1.0000   1.0000   1.0000   1.0000   1.0000   1.0000   1.0000
     1.0000   1.0000   1.0000   1.0000   1.0000   1.0000   1.0000   1.0000
     1.0000   1.0000   1.0000   1.0000   1.0000   1.0000   1.0000   1.0000
     1.0000   1.0000   1.0000   1.0000   1.0000   1.0000   1.0000   1.0000
     1.0000   1.0000   1.0000   1.0000   1.0000   1.0000   1.0000   1.0000
     1.0000   1.0000   1.0000   1.0000   1.0000   1.0000   1.0000   1.0000
     1.0000   1.0000   1.0000   1.0000   1.0000   1.0000   1.0000   1.0000
     1.0000   1.0000   1.0000   1.0000   1.0000   1.0000   1.0000   1.0000
     0.0000   0.0000   0.0000   0.0000   0.0000   0.0000   0.0000   0.0000
     0.0000   0.0000   0.0000   0.0000   0.0000   0.0000   0.0000   0.0000
     0.0000   0.0000   0.0000   0.0000   0.0000   0.0000   0.0000   0.0000
     0.0000   0.0000   0.0000   0.0000

          k = 0.4000-0.2221-0.1371 ( 18688 PWs)   bands (ev):

   -41.4197 -41.4197 -41.4184 -41.4184 -26.6520 -26.6520 -26.6519 -26.6519
   -19.5043 -19.5043 -19.5020 -19.5020 -19.4638 -19.4638 -19.4587 -19.4587
   -19.4147 -19.4147 -19.4083 -19.4083  -8.9235  -8.9235  -8.9232  -8.9232
    -8.6939  -8.6939  -8.6879  -8.6879  -8.6397  -8.6397  -8.6391  -8.6391
    -4.0881  -4.0881  -3.9818  -3.9818  -3.7524  -3.7524  -3.6816  -3.6816
    -3.3660  -3.3660  -3.3244  -3.3244   3.5672   3.5672   3.6120   3.6120
     4.2980   4.2980   4.3517   4.3517   4.5489   4.5489   4.7464   4.7464
     4.9184   4.9184   5.0841   5.0841   5.2558   5.2558   5.2944   5.2944
     5.6697   5.6697   5.6744   5.6744   6.0271   6.0271   6.2729   6.2729
     6.3309   6.3309   6.5028   6.5028   6.6919   6.6919   6.9237   6.9237
     9.4918   9.4918   9.5544   9.5544  10.1158  10.1158  10.3195  10.3195
    10.5126  10.5126  10.5237  10.5237  11.8490  11.8490  12.1262  12.1262
    12.3674  12.3674  12.3966  12.3966  12.9096  12.9096  12.9913  12.9913
    13.2039  13.2039  13.2067  13.2067

     occupation numbers 
     1.0000   1.0000   1.0000   1.0000   1.0000   1.0000   1.0000   1.0000
     1.0000   1.0000   1.0000   1.0000   1.0000   1.0000   1.0000   1.0000
     1.0000   1.0000   1.0000   1.0000   1.0000   1.0000   1.0000   1.0000
     1.0000   1.0000   1.0000   1.0000   1.0000   1.0000   1.0000   1.0000
     1.0000   1.0000   1.0000   1.0000   1.0000   1.0000   1.0000   1.0000
     1.0000   1.0000   1.0000   1.0000   1.0000   1.0000   1.0000   1.0000
     1.0000   1.0000   1.0000   1.0000   1.0000   1.0000   1.0000   1.0000
     1.0000   1.0000   1.0000   1.0000   1.0000   1.0000   1.0000   1.0000
     1.0000   1.0000   1.0000   1.0000   1.0000   1.0000   1.0000   1.0000
     1.0000   1.0000   1.0000   1.0000   1.0000   1.0000   1.0000   1.0000
     0.0000   0.0000   0.0000   0.0000   0.0000   0.0000   0.0000   0.0000
     0.0000   0.0000   0.0000   0.0000   0.0000   0.0000   0.0000   0.0000
     0.0000   0.0000   0.0000   0.0000   0.0000   0.0000   0.0000   0.0000
     0.0000   0.0000   0.0000   0.0000

          k = 0.4500 0.0000 0.0000 ( 18738 PWs)   bands (ev):

   -41.4190 -41.4190 -41.4183 -41.4183 -26.6512 -26.6511 -26.6499 -26.6498
   -19.5099 -19.5099 -19.5095 -19.5094 -19.4624 -19.4624 -19.4589 -19.4589
   -19.4133 -19.4132 -19.4101 -19.4100  -8.9690  -8.9687  -8.9250  -8.9248
    -8.6847  -8.6845  -8.6823  -8.6805  -8.6582  -8.6569  -8.6162  -8.6158
    -4.0450  -4.0256  -3.9812  -3.9736  -3.7668  -3.7566  -3.6613  -3.6531
    -3.3940  -3.3922  -3.3031  -3.2644   3.4718   3.6567   3.7236   3.7551
     3.9875   4.1249   4.2751   4.2895   4.4706   4.5302   4.5689   4.6239
     5.0531   5.0688   5.0880   5.1285   5.1475   5.3480   5.3645   5.3932
     5.4826   5.4999   5.7978   5.8747   5.9873   5.9921   6.0211   6.1218
     6.4427   6.5305   6.6123   6.6537   6.6659   6.7355   6.7485   6.7714
     9.3403   9.3575   9.5627   9.5995  10.0245  10.1027  10.3137  10.3925
    10.4509  10.4853  10.5676  10.5904  11.7729  11.8367  12.0038  12.0722
    12.4048  12.6059  12.6283  12.6428  12.7791  12.7801  12.9059  12.9614
    12.9813  12.9952  13.3490  13.3717

     occupation numbers 
     1.0000   1.0000   1.0000   1.0000   1.0000   1.0000   1.0000   1.0000
     1.0000   1.0000   1.0000   1.0000   1.0000   1.0000   1.0000   1.0000
     1.0000   1.0000   1.0000   1.0000   1.0000   1.0000   1.0000   1.0000
     1.0000   1.0000   1.0000   1.0000   1.0000   1.0000   1.0000   1.0000
     1.0000   1.0000   1.0000   1.0000   1.0000   1.0000   1.0000   1.0000
     1.0000   1.0000   1.0000   1.0000   1.0000   1.0000   1.0000   1.0000
     1.0000   1.0000   1.0000   1.0000   1.0000   1.0000   1.0000   1.0000
     1.0000   1.0000   1.0000   1.0000   1.0000   1.0000   1.0000   1.0000
     1.0000   1.0000   1.0000   1.0000   1.0000   1.0000   1.0000   1.0000
     1.0000   1.0000   1.0000   1.0000   1.0000   1.0000   1.0000   1.0000
     0.0000   0.0000   0.0000   0.0000   0.0000   0.0000   0.0000   0.0000
     0.0000   0.0000   0.0000   0.0000   0.0000   0.0000   0.0000   0.0000
     0.0000   0.0000   0.0000   0.0000   0.0000   0.0000   0.0000   0.0000
     0.0000   0.0000   0.0000   0.0000

          k = 0.4500 0.0000 0.0457 ( 18761 PWs)   bands (ev):

   -41.4190 -41.4190 -41.4183 -41.4183 -26.6512 -26.6511 -26.6499 -26.6498
   -19.5099 -19.5099 -19.5095 -19.5094 -19.4624 -19.4624 -19.4589 -19.4589
   -19.4132 -19.4132 -19.4101 -19.4100  -8.9689  -8.9687  -8.9250  -8.9248
    -8.6846  -8.6844  -8.6822  -8.6807  -8.6581  -8.6570  -8.6162  -8.6159
    -4.0435  -4.0267  -3.9808  -3.9743  -3.7665  -3.7577  -3.6606  -3.6535
    -3.3941  -3.3924  -3.3001  -3.2667   3.4793   3.6274   3.7286   3.7721
     3.9945   4.1188   4.2580   4.2691   4.4924   4.5539   4.5882   4.6229
     4.9894   5.0591   5.1008   5.1211   5.1692   5.3116   5.3752   5.4229
     5.5049   5.5367   5.8065   5.8287   5.8961   5.9778   6.0756   6.2264
     6.4351   6.4893   6.6082   6.6307   6.6584   6.7113   6.7714   6.7928
     9.3513   9.3670   9.5426   9.5706  10.0545  10.1287  10.3019  10.3860
    10.4446  10.4885  10.5540  10.5815  11.7869  11.8297  12.0444  12.0892
    12.3917  12.5851  12.5986  12.6477  12.7612  12.7715  12.9469  12.9654
    13.0114  13.0199  13.3417  13.3839

     occupation numbers 
     1.0000   1.0000   1.0000   1.0000   1.0000   1.0000   1.0000   1.0000
     1.0000   1.0000   1.0000   1.0000   1.0000   1.0000   1.0000   1.0000
     1.0000   1.0000   1.0000   1.0000   1.0000   1.0000   1.0000   1.0000
     1.0000   1.0000   1.0000   1.0000   1.0000   1.0000   1.0000   1.0000
     1.0000   1.0000   1.0000   1.0000   1.0000   1.0000   1.0000   1.0000
     1.0000   1.0000   1.0000   1.0000   1.0000   1.0000   1.0000   1.0000
     1.0000   1.0000   1.0000   1.0000   1.0000   1.0000   1.0000   1.0000
     1.0000   1.0000   1.0000   1.0000   1.0000   1.0000   1.0000   1.0000
     1.0000   1.0000   1.0000   1.0000   1.0000   1.0000   1.0000   1.0000
     1.0000   1.0000   1.0000   1.0000   1.0000   1.0000   1.0000   1.0000
     0.0000   0.0000   0.0000   0.0000   0.0000   0.0000   0.0000   0.0000
     0.0000   0.0000   0.0000   0.0000   0.0000   0.0000   0.0000   0.0000
     0.0000   0.0000   0.0000   0.0000   0.0000   0.0000   0.0000   0.0000
     0.0000   0.0000   0.0000   0.0000

          k = 0.4500 0.0000 0.0914 ( 18739 PWs)   bands (ev):

   -41.4190 -41.4190 -41.4183 -41.4183 -26.6512 -26.6512 -26.6499 -26.6498
   -19.5099 -19.5099 -19.5094 -19.5094 -19.4624 -19.4624 -19.4589 -19.4589
   -19.4132 -19.4132 -19.4100 -19.4100  -8.9689  -8.9688  -8.9250  -8.9248
    -8.6846  -8.6845  -8.6819  -8.6810  -8.6578  -8.6572  -8.6161  -8.6159
    -4.0396  -4.0298  -3.9797  -3.9761  -3.7655  -3.7604  -3.6587  -3.6546
    -3.3941  -3.3930  -3.2922  -3.2731   3.5009   3.5787   3.7426   3.7784
     4.0242   4.1011   4.2293   4.2364   4.5238   4.5709   4.6389   4.6440
     4.9365   4.9857   5.0930   5.1332   5.1979   5.2638   5.4024   5.4428
     5.5836   5.6028   5.7522   5.7715   5.8415   5.9476   6.1742   6.3533
     6.4115   6.4300   6.5711   6.6052   6.6427   6.6524   6.8095   6.8252
     9.3840   9.3950   9.4949   9.5064  10.1225  10.1907  10.2694  10.3517
    10.4424  10.4846  10.5353  10.5624  11.8125  11.8251  12.1243  12.1328
    12.3919  12.5167  12.5422  12.5983  12.7611  12.7641  12.9656  12.9869
    13.0994  13.1161  13.3248  13.3817

     occupation numbers 
     1.0000   1.0000   1.0000   1.0000   1.0000   1.0000   1.0000   1.0000
     1.0000   1.0000   1.0000   1.0000   1.0000   1.0000   1.0000   1.0000
     1.0000   1.0000   1.0000   1.0000   1.0000   1.0000   1.0000   1.0000
     1.0000   1.0000   1.0000   1.0000   1.0000   1.0000   1.0000   1.0000
     1.0000   1.0000   1.0000   1.0000   1.0000   1.0000   1.0000   1.0000
     1.0000   1.0000   1.0000   1.0000   1.0000   1.0000   1.0000   1.0000
     1.0000   1.0000   1.0000   1.0000   1.0000   1.0000   1.0000   1.0000
     1.0000   1.0000   1.0000   1.0000   1.0000   1.0000   1.0000   1.0000
     1.0000   1.0000   1.0000   1.0000   1.0000   1.0000   1.0000   1.0000
     1.0000   1.0000   1.0000   1.0000   1.0000   1.0000   1.0000   1.0000
     0.0000   0.0000   0.0000   0.0000   0.0000   0.0000   0.0000   0.0000
     0.0000   0.0000   0.0000   0.0000   0.0000   0.0000   0.0000   0.0000
     0.0000   0.0000   0.0000   0.0000   0.0000   0.0000   0.0000   0.0000
     0.0000   0.0000   0.0000   0.0000

          k = 0.4500 0.0000-0.1371 ( 18754 PWs)   bands (ev):

   -41.4190 -41.4190 -41.4183 -41.4183 -26.6512 -26.6512 -26.6499 -26.6499
   -19.5099 -19.5099 -19.5094 -19.5094 -19.4624 -19.4624 -19.4589 -19.4589
   -19.4132 -19.4132 -19.4100 -19.4100  -8.9688  -8.9688  -8.9249  -8.9249
    -8.6845  -8.6845  -8.6815  -8.6815  -8.6575  -8.6575  -8.6160  -8.6160
    -4.0345  -4.0345  -3.9781  -3.9781  -3.7634  -3.7634  -3.6565  -3.6565
    -3.3937  -3.3937  -3.2823  -3.2823   3.5349   3.5349   3.7623   3.7623
     4.0680   4.0680   4.2191   4.2191   4.5510   4.5510   4.6692   4.6692
     4.9310   4.9310   5.1081   5.1081   5.2307   5.2307   5.4308   5.4308
     5.6722   5.6722   5.6801   5.6801   5.8924   5.8924   6.2807   6.2807
     6.4514   6.4514   6.5560   6.5560   6.6267   6.6267   6.8333   6.8333
     9.4302   9.4302   9.4481   9.4481  10.1936  10.1936  10.2865  10.2865
    10.4597  10.4597  10.5436  10.5436  11.8247  11.8247  12.1648  12.1648
    12.4448  12.4448  12.5244  12.5244  12.7592  12.7592  12.9978  12.9978
    13.1599  13.1599  13.3407  13.3407

     occupation numbers 
     1.0000   1.0000   1.0000   1.0000   1.0000   1.0000   1.0000   1.0000
     1.0000   1.0000   1.0000   1.0000   1.0000   1.0000   1.0000   1.0000
     1.0000   1.0000   1.0000   1.0000   1.0000   1.0000   1.0000   1.0000
     1.0000   1.0000   1.0000   1.0000   1.0000   1.0000   1.0000   1.0000
     1.0000   1.0000   1.0000   1.0000   1.0000   1.0000   1.0000   1.0000
     1.0000   1.0000   1.0000   1.0000   1.0000   1.0000   1.0000   1.0000
     1.0000   1.0000   1.0000   1.0000   1.0000   1.0000   1.0000   1.0000
     1.0000   1.0000   1.0000   1.0000   1.0000   1.0000   1.0000   1.0000
     1.0000   1.0000   1.0000   1.0000   1.0000   1.0000   1.0000   1.0000
     1.0000   1.0000   1.0000   1.0000   1.0000   1.0000   1.0000   1.0000
     0.0000   0.0000   0.0000   0.0000   0.0000   0.0000   0.0000   0.0000
     0.0000   0.0000   0.0000   0.0000   0.0000   0.0000   0.0000   0.0000
     0.0000   0.0000   0.0000   0.0000   0.0000   0.0000   0.0000   0.0000
     0.0000   0.0000   0.0000   0.0000

          k = 0.4500 0.0444 0.0000 ( 18760 PWs)   bands (ev):

   -41.4190 -41.4190 -41.4183 -41.4183 -26.6511 -26.6511 -26.6499 -26.6499
   -19.5099 -19.5099 -19.5095 -19.5094 -19.4624 -19.4624 -19.4589 -19.4589
   -19.4133 -19.4132 -19.4101 -19.4100  -8.9679  -8.9676  -8.9261  -8.9259
    -8.6851  -8.6846  -8.6825  -8.6807  -8.6568  -8.6555  -8.6171  -8.6167
    -4.0445  -4.0263  -3.9812  -3.9745  -3.7636  -3.7546  -3.6635  -3.6556
    -3.3942  -3.3861  -3.3056  -3.2669   3.4666   3.6400   3.6694   3.7405
     4.0408   4.1488   4.2889   4.3092   4.4738   4.5438   4.5605   4.6311
     5.0009   5.0338   5.1011   5.1359   5.1934   5.3069   5.3686   5.3768
     5.5110   5.5624   5.7676   5.9037   5.9370   6.0179   6.0571   6.1400
     6.4271   6.4886   6.6096   6.6211   6.6275   6.7441   6.7684   6.7725
     9.3331   9.3935   9.5652   9.6011  10.0320  10.1079  10.3075  10.4018
    10.4555  10.4892  10.5496  10.5932  11.7731  11.8604  12.0057  12.0640
    12.4260  12.6034  12.6241  12.6565  12.7568  12.7676  12.7767  12.9077
    13.0454  13.1493  13.3077  13.4094

     occupation numbers 
     1.0000   1.0000   1.0000   1.0000   1.0000   1.0000   1.0000   1.0000
     1.0000   1.0000   1.0000   1.0000   1.0000   1.0000   1.0000   1.0000
     1.0000   1.0000   1.0000   1.0000   1.0000   1.0000   1.0000   1.0000
     1.0000   1.0000   1.0000   1.0000   1.0000   1.0000   1.0000   1.0000
     1.0000   1.0000   1.0000   1.0000   1.0000   1.0000   1.0000   1.0000
     1.0000   1.0000   1.0000   1.0000   1.0000   1.0000   1.0000   1.0000
     1.0000   1.0000   1.0000   1.0000   1.0000   1.0000   1.0000   1.0000
     1.0000   1.0000   1.0000   1.0000   1.0000   1.0000   1.0000   1.0000
     1.0000   1.0000   1.0000   1.0000   1.0000   1.0000   1.0000   1.0000
     1.0000   1.0000   1.0000   1.0000   1.0000   1.0000   1.0000   1.0000
     0.0000   0.0000   0.0000   0.0000   0.0000   0.0000   0.0000   0.0000
     0.0000   0.0000   0.0000   0.0000   0.0000   0.0000   0.0000   0.0000
     0.0000   0.0000   0.0000   0.0000   0.0000   0.0000   0.0000   0.0000
     0.0000   0.0000   0.0000   0.0000

          k = 0.4500 0.0444 0.0457 ( 18752 PWs)   bands (ev):

   -41.4190 -41.4190 -41.4183 -41.4183 -26.6511 -26.6511 -26.6499 -26.6499
   -19.5099 -19.5099 -19.5095 -19.5094 -19.4624 -19.4624 -19.4589 -19.4589
   -19.4132 -19.4132 -19.4101 -19.4100  -8.9679  -8.9676  -8.9261  -8.9259
    -8.6851  -8.6846  -8.6824  -8.6808  -8.6567  -8.6556  -8.6170  -8.6167
    -4.0431  -4.0272  -3.9810  -3.9752  -3.7633  -3.7556  -3.6628  -3.6560
    -3.3938  -3.3868  -3.3025  -3.2692   3.4725   3.6078   3.6853   3.7523
     4.0417   4.1404   4.2778   4.2937   4.4932   4.5531   4.5894   4.6280
     4.9517   5.0449   5.1094   5.1448   5.1817   5.3181   5.3332   5.4100
     5.5364   5.5807   5.7721   5.8487   5.8947   5.9997   6.0786   6.2364
     6.4241   6.4497   6.5778   6.6104   6.6476   6.7324   6.7744   6.7919
     9.3443   9.4009   9.5439   9.5764  10.0595  10.1325  10.2946  10.3966
    10.4479  10.4918  10.5389  10.5843  11.7828  11.8500  12.0486  12.0843
    12.4114  12.5748  12.6040  12.6673  12.7392  12.7537  12.8503  12.9450
    13.0456  13.1246  13.2911  13.4142

     occupation numbers 
     1.0000   1.0000   1.0000   1.0000   1.0000   1.0000   1.0000   1.0000
     1.0000   1.0000   1.0000   1.0000   1.0000   1.0000   1.0000   1.0000
     1.0000   1.0000   1.0000   1.0000   1.0000   1.0000   1.0000   1.0000
     1.0000   1.0000   1.0000   1.0000   1.0000   1.0000   1.0000   1.0000
     1.0000   1.0000   1.0000   1.0000   1.0000   1.0000   1.0000   1.0000
     1.0000   1.0000   1.0000   1.0000   1.0000   1.0000   1.0000   1.0000
     1.0000   1.0000   1.0000   1.0000   1.0000   1.0000   1.0000   1.0000
     1.0000   1.0000   1.0000   1.0000   1.0000   1.0000   1.0000   1.0000
     1.0000   1.0000   1.0000   1.0000   1.0000   1.0000   1.0000   1.0000
     1.0000   1.0000   1.0000   1.0000   1.0000   1.0000   1.0000   1.0000
     0.0000   0.0000   0.0000   0.0000   0.0000   0.0000   0.0000   0.0000
     0.0000   0.0000   0.0000   0.0000   0.0000   0.0000   0.0000   0.0000
     0.0000   0.0000   0.0000   0.0000   0.0000   0.0000   0.0000   0.0000
     0.0000   0.0000   0.0000   0.0000

          k = 0.4500 0.0444 0.0914 ( 18747 PWs)   bands (ev):

   -41.4190 -41.4190 -41.4183 -41.4183 -26.6511 -26.6511 -26.6499 -26.6499
   -19.5099 -19.5099 -19.5095 -19.5095 -19.4624 -19.4624 -19.4589 -19.4589
   -19.4132 -19.4132 -19.4100 -19.4100  -8.9678  -8.9677  -8.9261  -8.9259
    -8.6850  -8.6847  -8.6821  -8.6812  -8.6565  -8.6558  -8.6170  -8.6168
    -4.0392  -4.0299  -3.9803  -3.9770  -3.7625  -3.7580  -3.6610  -3.6571
    -3.3927  -3.3887  -3.2946  -3.2755   3.4904   3.5609   3.7088   3.7562
     4.0558   4.1182   4.2600   4.2691   4.5233   4.5695   4.6273   4.6428
     4.9176   5.0021   5.0980   5.1544   5.2046   5.2745   5.3718   5.4242
     5.5936   5.6308   5.7393   5.7763   5.8506   5.9631   6.1681   6.2985
     6.4062   6.4376   6.5315   6.6062   6.6421   6.6838   6.8085   6.8164
     9.3764   9.4242   9.4912   9.5235  10.1210  10.1914  10.2629  10.3620
    10.4444  10.4832  10.5310  10.5648  11.8031  11.8367  12.1279  12.1377
    12.4053  12.4966  12.5714  12.6466  12.7475  12.7609  12.9149  12.9667
    13.0978  13.1290  13.2810  13.4213

     occupation numbers 
     1.0000   1.0000   1.0000   1.0000   1.0000   1.0000   1.0000   1.0000
     1.0000   1.0000   1.0000   1.0000   1.0000   1.0000   1.0000   1.0000
     1.0000   1.0000   1.0000   1.0000   1.0000   1.0000   1.0000   1.0000
     1.0000   1.0000   1.0000   1.0000   1.0000   1.0000   1.0000   1.0000
     1.0000   1.0000   1.0000   1.0000   1.0000   1.0000   1.0000   1.0000
     1.0000   1.0000   1.0000   1.0000   1.0000   1.0000   1.0000   1.0000
     1.0000   1.0000   1.0000   1.0000   1.0000   1.0000   1.0000   1.0000
     1.0000   1.0000   1.0000   1.0000   1.0000   1.0000   1.0000   1.0000
     1.0000   1.0000   1.0000   1.0000   1.0000   1.0000   1.0000   1.0000
     1.0000   1.0000   1.0000   1.0000   1.0000   1.0000   1.0000   1.0000
     0.0000   0.0000   0.0000   0.0000   0.0000   0.0000   0.0000   0.0000
     0.0000   0.0000   0.0000   0.0000   0.0000   0.0000   0.0000   0.0000
     0.0000   0.0000   0.0000   0.0000   0.0000   0.0000   0.0000   0.0000
     0.0000   0.0000   0.0000   0.0000

          k = 0.4500 0.0444-0.1371 ( 18756 PWs)   bands (ev):

   -41.4190 -41.4190 -41.4183 -41.4183 -26.6511 -26.6511 -26.6499 -26.6499
   -19.5099 -19.5099 -19.5095 -19.5095 -19.4624 -19.4624 -19.4589 -19.4589
   -19.4132 -19.4132 -19.4100 -19.4100  -8.9678  -8.9678  -8.9260  -8.9260
    -8.6848  -8.6848  -8.6817  -8.6817  -8.6561  -8.6561  -8.6169  -8.6169
    -4.0343  -4.0343  -3.9789  -3.9789  -3.7606  -3.7606  -3.6589  -3.6589
    -3.3908  -3.3908  -3.2847  -3.2847   3.5203   3.5203   3.7362   3.7362
     4.0868   4.0868   4.2554   4.2554   4.5516   4.5516   4.6529   4.6529
     4.9403   4.9403   5.1211   5.1211   5.2413   5.2413   5.4094   5.4094
     5.6613   5.6613   5.7002   5.7002   5.9041   5.9041   6.2454   6.2454
     6.4321   6.4321   6.5593   6.5593   6.6469   6.6469   6.8256   6.8256
     9.4249   9.4249   9.4712   9.4712  10.1856  10.1856  10.2933  10.2933
    10.4598  10.4598  10.5447  10.5447  11.8224  11.8224  12.1711  12.1711
    12.4359  12.4359  12.5779  12.5779  12.7544  12.7544  12.9612  12.9612
    13.1469  13.1469  13.3360  13.3360

     occupation numbers 
     1.0000   1.0000   1.0000   1.0000   1.0000   1.0000   1.0000   1.0000
     1.0000   1.0000   1.0000   1.0000   1.0000   1.0000   1.0000   1.0000
     1.0000   1.0000   1.0000   1.0000   1.0000   1.0000   1.0000   1.0000
     1.0000   1.0000   1.0000   1.0000   1.0000   1.0000   1.0000   1.0000
     1.0000   1.0000   1.0000   1.0000   1.0000   1.0000   1.0000   1.0000
     1.0000   1.0000   1.0000   1.0000   1.0000   1.0000   1.0000   1.0000
     1.0000   1.0000   1.0000   1.0000   1.0000   1.0000   1.0000   1.0000
     1.0000   1.0000   1.0000   1.0000   1.0000   1.0000   1.0000   1.0000
     1.0000   1.0000   1.0000   1.0000   1.0000   1.0000   1.0000   1.0000
     1.0000   1.0000   1.0000   1.0000   1.0000   1.0000   1.0000   1.0000
     0.0000   0.0000   0.0000   0.0000   0.0000   0.0000   0.0000   0.0000
     0.0000   0.0000   0.0000   0.0000   0.0000   0.0000   0.0000   0.0000
     0.0000   0.0000   0.0000   0.0000   0.0000   0.0000   0.0000   0.0000
     0.0000   0.0000   0.0000   0.0000

          k = 0.4500 0.0888 0.0000 ( 18754 PWs)   bands (ev):

   -41.4190 -41.4190 -41.4183 -41.4183 -26.6511 -26.6510 -26.6500 -26.6500
   -19.5100 -19.5100 -19.5095 -19.5095 -19.4624 -19.4623 -19.4589 -19.4589
   -19.4132 -19.4132 -19.4101 -19.4100  -8.9648  -8.9645  -8.9293  -8.9290
    -8.6861  -8.6851  -8.6831  -8.6812  -8.6530  -8.6517  -8.6196  -8.6192
    -4.0432  -4.0281  -3.9813  -3.9768  -3.7546  -3.7486  -3.6699  -3.6628
    -3.3894  -3.3738  -3.3128  -3.2743   3.4561   3.5921   3.5992   3.6801
     4.1497   4.1970   4.3166   4.3566   4.4849   4.5420   4.5853   4.6574
     4.9314   4.9863   5.0780   5.1506   5.2478   5.2657   5.3284   5.4002
     5.6008   5.6307   5.7124   5.8814   5.9705   6.0211   6.1376   6.1879
     6.3789   6.4119   6.5488   6.5553   6.6275   6.7061   6.7712   6.7831
     9.3522   9.4540   9.5736   9.6016  10.0547  10.1254  10.2908  10.4278
    10.4630  10.4975  10.5131  10.5879  11.7738  11.9212  12.0074  12.0352
    12.4892  12.5444  12.6029  12.6906  12.7039  12.7066  12.7364  12.8627
    13.1505  13.2968  13.3369  13.4533

     occupation numbers 
     1.0000   1.0000   1.0000   1.0000   1.0000   1.0000   1.0000   1.0000
     1.0000   1.0000   1.0000   1.0000   1.0000   1.0000   1.0000   1.0000
     1.0000   1.0000   1.0000   1.0000   1.0000   1.0000   1.0000   1.0000
     1.0000   1.0000   1.0000   1.0000   1.0000   1.0000   1.0000   1.0000
     1.0000   1.0000   1.0000   1.0000   1.0000   1.0000   1.0000   1.0000
     1.0000   1.0000   1.0000   1.0000   1.0000   1.0000   1.0000   1.0000
     1.0000   1.0000   1.0000   1.0000   1.0000   1.0000   1.0000   1.0000
     1.0000   1.0000   1.0000   1.0000   1.0000   1.0000   1.0000   1.0000
     1.0000   1.0000   1.0000   1.0000   1.0000   1.0000   1.0000   1.0000
     1.0000   1.0000   1.0000   1.0000   1.0000   1.0000   1.0000   1.0000
     0.0000   0.0000   0.0000   0.0000   0.0000   0.0000   0.0000   0.0000
     0.0000   0.0000   0.0000   0.0000   0.0000   0.0000   0.0000   0.0000
     0.0000   0.0000   0.0000   0.0000   0.0000   0.0000   0.0000   0.0000
     0.0000   0.0000   0.0000   0.0000

          k = 0.4500 0.0888 0.0457 ( 18742 PWs)   bands (ev):

   -41.4190 -41.4190 -41.4183 -41.4183 -26.6510 -26.6510 -26.6500 -26.6500
   -19.5100 -19.5100 -19.5095 -19.5095 -19.4624 -19.4624 -19.4589 -19.4589
   -19.4132 -19.4132 -19.4101 -19.4100  -8.9648  -8.9646  -8.9293  -8.9290
    -8.6860  -8.6852  -8.6830  -8.6814  -8.6529  -8.6518  -8.6196  -8.6192
    -4.0419  -4.0286  -3.9816  -3.9775  -3.7545  -3.7493  -3.6692  -3.6632
    -3.3886  -3.3753  -3.3096  -3.2765   3.4589   3.5613   3.6202   3.6868
     4.1430   4.1873   4.3170   4.3489   4.4973   4.5484   4.6045   4.6494
     4.9025   5.0072   5.1127   5.1512   5.2262   5.2859   5.3222   5.3958
     5.6083   5.6374   5.7230   5.8484   5.9082   6.0497   6.1010   6.2482
     6.3696   6.3987   6.5473   6.5568   6.6170   6.7315   6.7531   6.8081
     9.3619   9.4567   9.5521   9.5848  10.0753  10.1458  10.2774  10.4217
    10.4524  10.4931  10.5159  10.5810  11.7776  11.8941  12.0540  12.0699
    12.4685  12.5395  12.5810  12.6851  12.7106  12.7463  12.7763  12.9082
    13.1081  13.2522  13.2933  13.4475

     occupation numbers 
     1.0000   1.0000   1.0000   1.0000   1.0000   1.0000   1.0000   1.0000
     1.0000   1.0000   1.0000   1.0000   1.0000   1.0000   1.0000   1.0000
     1.0000   1.0000   1.0000   1.0000   1.0000   1.0000   1.0000   1.0000
     1.0000   1.0000   1.0000   1.0000   1.0000   1.0000   1.0000   1.0000
     1.0000   1.0000   1.0000   1.0000   1.0000   1.0000   1.0000   1.0000
     1.0000   1.0000   1.0000   1.0000   1.0000   1.0000   1.0000   1.0000
     1.0000   1.0000   1.0000   1.0000   1.0000   1.0000   1.0000   1.0000
     1.0000   1.0000   1.0000   1.0000   1.0000   1.0000   1.0000   1.0000
     1.0000   1.0000   1.0000   1.0000   1.0000   1.0000   1.0000   1.0000
     1.0000   1.0000   1.0000   1.0000   1.0000   1.0000   1.0000   1.0000
     0.0000   0.0000   0.0000   0.0000   0.0000   0.0000   0.0000   0.0000
     0.0000   0.0000   0.0000   0.0000   0.0000   0.0000   0.0000   0.0000
     0.0000   0.0000   0.0000   0.0000   0.0000   0.0000   0.0000   0.0000
     0.0000   0.0000   0.0000   0.0000

          k = 0.4500 0.0888 0.0914 ( 18742 PWs)   bands (ev):

   -41.4190 -41.4190 -41.4183 -41.4183 -26.6510 -26.6510 -26.6500 -26.6500
   -19.5100 -19.5100 -19.5095 -19.5095 -19.4624 -19.4624 -19.4589 -19.4589
   -19.4132 -19.4132 -19.4100 -19.4100  -8.9648  -8.9646  -8.9292  -8.9291
    -8.6858  -8.6853  -8.6827  -8.6817  -8.6527  -8.6520  -8.6195  -8.6193
    -4.0382  -4.0303  -3.9819  -3.9794  -3.7540  -3.7510  -3.6677  -3.6642
    -3.3862  -3.3787  -3.3015  -3.2826   3.4692   3.5227   3.6452   3.6880
     4.1374   4.1666   4.3174   4.3336   4.5278   4.5644   4.6176   4.6369
     4.9065   5.0044   5.1290   5.1907   5.2087   5.2999   5.3218   5.3862
     5.6248   5.6624   5.7169   5.7883   5.8670   5.9986   6.1546   6.2063
     6.3833   6.4189   6.5115   6.5605   6.6438   6.7276   6.7752   6.8246
     9.3906   9.4655   9.5042   9.5466  10.1208  10.1912  10.2531  10.3757
    10.4520  10.4792  10.5285  10.5648  11.7926  11.8548  12.1331  12.1441
    12.4417  12.4816  12.6152  12.7045  12.7184  12.7644  12.8466  12.9430
    13.0773  13.1595  13.2881  13.4033

     occupation numbers 
     1.0000   1.0000   1.0000   1.0000   1.0000   1.0000   1.0000   1.0000
     1.0000   1.0000   1.0000   1.0000   1.0000   1.0000   1.0000   1.0000
     1.0000   1.0000   1.0000   1.0000   1.0000   1.0000   1.0000   1.0000
     1.0000   1.0000   1.0000   1.0000   1.0000   1.0000   1.0000   1.0000
     1.0000   1.0000   1.0000   1.0000   1.0000   1.0000   1.0000   1.0000
     1.0000   1.0000   1.0000   1.0000   1.0000   1.0000   1.0000   1.0000
     1.0000   1.0000   1.0000   1.0000   1.0000   1.0000   1.0000   1.0000
     1.0000   1.0000   1.0000   1.0000   1.0000   1.0000   1.0000   1.0000
     1.0000   1.0000   1.0000   1.0000   1.0000   1.0000   1.0000   1.0000
     1.0000   1.0000   1.0000   1.0000   1.0000   1.0000   1.0000   1.0000
     0.0000   0.0000   0.0000   0.0000   0.0000   0.0000   0.0000   0.0000
     0.0000   0.0000   0.0000   0.0000   0.0000   0.0000   0.0000   0.0000
     0.0000   0.0000   0.0000   0.0000   0.0000   0.0000   0.0000   0.0000
     0.0000   0.0000   0.0000   0.0000

          k = 0.4500 0.0888-0.1371 ( 18766 PWs)   bands (ev):

   -41.4190 -41.4190 -41.4183 -41.4183 -26.6510 -26.6510 -26.6500 -26.6500
   -19.5100 -19.5100 -19.5095 -19.5095 -19.4624 -19.4624 -19.4589 -19.4589
   -19.4132 -19.4132 -19.4100 -19.4100  -8.9647  -8.9647  -8.9292  -8.9292
    -8.6855  -8.6855  -8.6822  -8.6822  -8.6524  -8.6524  -8.6194  -8.6194
    -4.0338  -4.0338  -3.9812  -3.9812  -3.7528  -3.7528  -3.6658  -3.6658
    -3.3826  -3.3826  -3.2916  -3.2916   3.4904   3.4904   3.6712   3.6712
     4.1468   4.1468   4.3218   4.3218   4.5590   4.5590   4.6225   4.6225
     4.9591   4.9591   5.1514   5.1514   5.2665   5.2665   5.3611   5.3611
     5.6571   5.6571   5.7232   5.7232   5.9250   5.9250   6.1767   6.1767
     6.4009   6.4009   6.5373   6.5373   6.6888   6.6888   6.8118   6.8118
     9.4351   9.4351   9.5068   9.5068  10.1712  10.1712  10.3017  10.3017
    10.4640  10.4640  10.5459  10.5459  11.8196  11.8196  12.1800  12.1800
    12.4445  12.4445  12.6554  12.6554  12.7619  12.7619  12.8884  12.8884
    13.1357  13.1357  13.3116  13.3116

     occupation numbers 
     1.0000   1.0000   1.0000   1.0000   1.0000   1.0000   1.0000   1.0000
     1.0000   1.0000   1.0000   1.0000   1.0000   1.0000   1.0000   1.0000
     1.0000   1.0000   1.0000   1.0000   1.0000   1.0000   1.0000   1.0000
     1.0000   1.0000   1.0000   1.0000   1.0000   1.0000   1.0000   1.0000
     1.0000   1.0000   1.0000   1.0000   1.0000   1.0000   1.0000   1.0000
     1.0000   1.0000   1.0000   1.0000   1.0000   1.0000   1.0000   1.0000
     1.0000   1.0000   1.0000   1.0000   1.0000   1.0000   1.0000   1.0000
     1.0000   1.0000   1.0000   1.0000   1.0000   1.0000   1.0000   1.0000
     1.0000   1.0000   1.0000   1.0000   1.0000   1.0000   1.0000   1.0000
     1.0000   1.0000   1.0000   1.0000   1.0000   1.0000   1.0000   1.0000
     0.0000   0.0000   0.0000   0.0000   0.0000   0.0000   0.0000   0.0000
     0.0000   0.0000   0.0000   0.0000   0.0000   0.0000   0.0000   0.0000
     0.0000   0.0000   0.0000   0.0000   0.0000   0.0000   0.0000   0.0000
     0.0000   0.0000   0.0000   0.0000

          k = 0.4500 0.1333 0.0000 ( 18710 PWs)   bands (ev):

   -41.4190 -41.4190 -41.4183 -41.4183 -26.6509 -26.6509 -26.6501 -26.6501
   -19.5100 -19.5100 -19.5095 -19.5095 -19.4623 -19.4623 -19.4589 -19.4589
   -19.4132 -19.4132 -19.4100 -19.4100  -8.9600  -8.9597  -8.9342  -8.9339
    -8.6869  -8.6859  -8.6836  -8.6820  -8.6476  -8.6464  -8.6236  -8.6231
    -4.0413  -4.0306  -3.9817  -3.9793  -3.7416  -3.7392  -3.6796  -3.6737
    -3.3799  -3.3575  -3.3239  -3.2861   3.4507   3.5314   3.5525   3.6080
     4.2376   4.2604   4.3306   4.4012   4.5083   4.5334   4.6525   4.7087
     4.8799   4.9296   5.0580   5.1426   5.2045   5.3035   5.3236   5.4152
     5.6605   5.6645   5.6862   5.8314   6.0460   6.0516   6.2203   6.2567
     6.3118   6.3354   6.4992   6.5202   6.5970   6.6482   6.7344   6.7655
     9.3984   9.5175   9.5814   9.5971  10.0917  10.1605  10.2645  10.4427
    10.4631  10.4880  10.5042  10.5739  11.7779  11.9781  11.9902  12.0130
    12.4050  12.5424  12.6022  12.6429  12.6731  12.7126  12.8318  12.9097
    13.2854  13.3304  13.3545  13.4911

     occupation numbers 
     1.0000   1.0000   1.0000   1.0000   1.0000   1.0000   1.0000   1.0000
     1.0000   1.0000   1.0000   1.0000   1.0000   1.0000   1.0000   1.0000
     1.0000   1.0000   1.0000   1.0000   1.0000   1.0000   1.0000   1.0000
     1.0000   1.0000   1.0000   1.0000   1.0000   1.0000   1.0000   1.0000
     1.0000   1.0000   1.0000   1.0000   1.0000   1.0000   1.0000   1.0000
     1.0000   1.0000   1.0000   1.0000   1.0000   1.0000   1.0000   1.0000
     1.0000   1.0000   1.0000   1.0000   1.0000   1.0000   1.0000   1.0000
     1.0000   1.0000   1.0000   1.0000   1.0000   1.0000   1.0000   1.0000
     1.0000   1.0000   1.0000   1.0000   1.0000   1.0000   1.0000   1.0000
     1.0000   1.0000   1.0000   1.0000   1.0000   1.0000   1.0000   1.0000
     0.0000   0.0000   0.0000   0.0000   0.0000   0.0000   0.0000   0.0000
     0.0000   0.0000   0.0000   0.0000   0.0000   0.0000   0.0000   0.0000
     0.0000   0.0000   0.0000   0.0000   0.0000   0.0000   0.0000   0.0000
     0.0000   0.0000   0.0000   0.0000

          k = 0.4500 0.1333 0.0457 ( 18728 PWs)   bands (ev):

   -41.4190 -41.4190 -41.4183 -41.4183 -26.6509 -26.6509 -26.6501 -26.6501
   -19.5100 -19.5100 -19.5095 -19.5095 -19.4623 -19.4623 -19.4589 -19.4589
   -19.4132 -19.4132 -19.4100 -19.4100  -8.9600  -8.9598  -8.9342  -8.9339
    -8.6868  -8.6859  -8.6835  -8.6821  -8.6475  -8.6465  -8.6236  -8.6231
    -4.0400  -4.0306  -3.9825  -3.9802  -3.7417  -3.7395  -3.6791  -3.6740
    -3.3787  -3.3598  -3.3203  -3.2881   3.4507   3.5157   3.5622   3.6103
     4.2321   4.2502   4.3374   4.3948   4.5094   4.5526   4.6445   4.6956
     4.8734   4.9665   5.0941   5.1515   5.2083   5.2954   5.3227   5.4047
     5.6456   5.6688   5.7048   5.8310   5.9315   6.1200   6.1540   6.2042
     6.3243   6.3874   6.5020   6.5222   6.5864   6.6751   6.7356   6.8042
     9.4049   9.5138   9.5640   9.5861  10.1022  10.1740  10.2536  10.4180
    10.4657  10.4863  10.5137  10.5695  11.7809  11.9243  12.0480  12.0559
    12.4324  12.5110  12.5547  12.6857  12.6887  12.7651  12.8415  12.9446
    13.1984  13.3085  13.3481  13.4105

     occupation numbers 
     1.0000   1.0000   1.0000   1.0000   1.0000   1.0000   1.0000   1.0000
     1.0000   1.0000   1.0000   1.0000   1.0000   1.0000   1.0000   1.0000
     1.0000   1.0000   1.0000   1.0000   1.0000   1.0000   1.0000   1.0000
     1.0000   1.0000   1.0000   1.0000   1.0000   1.0000   1.0000   1.0000
     1.0000   1.0000   1.0000   1.0000   1.0000   1.0000   1.0000   1.0000
     1.0000   1.0000   1.0000   1.0000   1.0000   1.0000   1.0000   1.0000
     1.0000   1.0000   1.0000   1.0000   1.0000   1.0000   1.0000   1.0000
     1.0000   1.0000   1.0000   1.0000   1.0000   1.0000   1.0000   1.0000
     1.0000   1.0000   1.0000   1.0000   1.0000   1.0000   1.0000   1.0000
     1.0000   1.0000   1.0000   1.0000   1.0000   1.0000   1.0000   1.0000
     0.0000   0.0000   0.0000   0.0000   0.0000   0.0000   0.0000   0.0000
     0.0000   0.0000   0.0000   0.0000   0.0000   0.0000   0.0000   0.0000
     0.0000   0.0000   0.0000   0.0000   0.0000   0.0000   0.0000   0.0000
     0.0000   0.0000   0.0000   0.0000

          k = 0.4500 0.1333 0.0914 ( 18729 PWs)   bands (ev):

   -41.4190 -41.4190 -41.4183 -41.4183 -26.6509 -26.6509 -26.6501 -26.6501
   -19.5100 -19.5100 -19.5095 -19.5095 -19.4623 -19.4623 -19.4589 -19.4589
   -19.4132 -19.4132 -19.4100 -19.4100  -8.9600  -8.9598  -8.9342  -8.9340
    -8.6865  -8.6860  -8.6833  -8.6824  -8.6473  -8.6467  -8.6235  -8.6232
    -4.0367  -4.0310  -3.9838  -3.9822  -3.7416  -3.7403  -3.6778  -3.6749
    -3.3753  -3.3649  -3.3120  -3.2938   3.4545   3.4892   3.5790   3.6083
     4.2239   4.2345   4.3487   4.3780   4.5400   4.5671   4.6226   4.6637
     4.9159   4.9993   5.1540   5.1943   5.2046   5.2908   5.3153   5.3722
     5.6428   5.6774   5.7068   5.8100   5.8758   6.0347   6.0859   6.1967
     6.3440   6.3916   6.4875   6.5139   6.6455   6.7258   6.7581   6.8330
     9.4260   9.5007   9.5325   9.5601  10.1279  10.1901  10.2488  10.3642
    10.4707  10.4825  10.5290  10.5585  11.7963  11.8725  12.1212  12.1259
    12.4580  12.4823  12.5602  12.6867  12.7327  12.8363  12.8784  13.0049
    13.0791  13.1954  13.3101  13.3403

     occupation numbers 
     1.0000   1.0000   1.0000   1.0000   1.0000   1.0000   1.0000   1.0000
     1.0000   1.0000   1.0000   1.0000   1.0000   1.0000   1.0000   1.0000
     1.0000   1.0000   1.0000   1.0000   1.0000   1.0000   1.0000   1.0000
     1.0000   1.0000   1.0000   1.0000   1.0000   1.0000   1.0000   1.0000
     1.0000   1.0000   1.0000   1.0000   1.0000   1.0000   1.0000   1.0000
     1.0000   1.0000   1.0000   1.0000   1.0000   1.0000   1.0000   1.0000
     1.0000   1.0000   1.0000   1.0000   1.0000   1.0000   1.0000   1.0000
     1.0000   1.0000   1.0000   1.0000   1.0000   1.0000   1.0000   1.0000
     1.0000   1.0000   1.0000   1.0000   1.0000   1.0000   1.0000   1.0000
     1.0000   1.0000   1.0000   1.0000   1.0000   1.0000   1.0000   1.0000
     0.0000   0.0000   0.0000   0.0000   0.0000   0.0000   0.0000   0.0000
     0.0000   0.0000   0.0000   0.0000   0.0000   0.0000   0.0000   0.0000
     0.0000   0.0000   0.0000   0.0000   0.0000   0.0000   0.0000   0.0000
     0.0000   0.0000   0.0000   0.0000

          k = 0.4500 0.1333-0.1371 ( 18740 PWs)   bands (ev):

   -41.4190 -41.4190 -41.4183 -41.4183 -26.6509 -26.6509 -26.6501 -26.6501
   -19.5100 -19.5100 -19.5095 -19.5095 -19.4623 -19.4623 -19.4589 -19.4589
   -19.4132 -19.4132 -19.4100 -19.4100  -8.9599  -8.9599  -8.9341  -8.9341
    -8.6862  -8.6862  -8.6829  -8.6829  -8.6470  -8.6470  -8.6234  -8.6234
    -4.0331  -4.0331  -3.9838  -3.9838  -3.7411  -3.7411  -3.6763  -3.6763
    -3.3704  -3.3704  -3.3023  -3.3023   3.4670   3.4670   3.5964   3.5964
     4.2245   4.2245   4.3615   4.3615   4.5681   4.5681   4.6248   4.6248
     4.9805   4.9805   5.1747   5.1747   5.2796   5.2796   5.3229   5.3229
     5.6577   5.6577   5.7434   5.7434   5.9262   5.9262   6.1329   6.1329
     6.3624   6.3624   6.5062   6.5062   6.7037   6.7037   6.8144   6.8144
     9.4621   9.4621   9.5354   9.5354  10.1617  10.1617  10.3000  10.3000
    10.4769  10.4769  10.5443  10.5443  11.8282  11.8282  12.1585  12.1585
    12.4632  12.4632  12.6343  12.6343  12.8037  12.8037  12.9461  12.9461
    13.1124  13.1124  13.2944  13.2944

     occupation numbers 
     1.0000   1.0000   1.0000   1.0000   1.0000   1.0000   1.0000   1.0000
     1.0000   1.0000   1.0000   1.0000   1.0000   1.0000   1.0000   1.0000
     1.0000   1.0000   1.0000   1.0000   1.0000   1.0000   1.0000   1.0000
     1.0000   1.0000   1.0000   1.0000   1.0000   1.0000   1.0000   1.0000
     1.0000   1.0000   1.0000   1.0000   1.0000   1.0000   1.0000   1.0000
     1.0000   1.0000   1.0000   1.0000   1.0000   1.0000   1.0000   1.0000
     1.0000   1.0000   1.0000   1.0000   1.0000   1.0000   1.0000   1.0000
     1.0000   1.0000   1.0000   1.0000   1.0000   1.0000   1.0000   1.0000
     1.0000   1.0000   1.0000   1.0000   1.0000   1.0000   1.0000   1.0000
     1.0000   1.0000   1.0000   1.0000   1.0000   1.0000   1.0000   1.0000
     0.0000   0.0000   0.0000   0.0000   0.0000   0.0000   0.0000   0.0000
     0.0000   0.0000   0.0000   0.0000   0.0000   0.0000   0.0000   0.0000
     0.0000   0.0000   0.0000   0.0000   0.0000   0.0000   0.0000   0.0000
     0.0000   0.0000   0.0000   0.0000

          k = 0.4500 0.1777 0.0000 ( 18714 PWs)   bands (ev):

   -41.4190 -41.4190 -41.4183 -41.4183 -26.6507 -26.6507 -26.6503 -26.6503
   -19.5100 -19.5100 -19.5095 -19.5095 -19.4623 -19.4623 -19.4589 -19.4589
   -19.4132 -19.4132 -19.4100 -19.4100  -8.9540  -8.9536  -8.9404  -8.9401
    -8.6873  -8.6866  -8.6837  -8.6827  -8.6414  -8.6404  -8.6289  -8.6282
    -4.0389  -4.0334  -3.9821  -3.9813  -3.7279  -3.7275  -3.6908  -3.6865
    -3.3672  -3.3388  -3.3376  -3.3016   3.4584   3.4953   3.5164   3.5450
     4.2743   4.3234   4.3344   4.4052   4.5417   4.5515   4.7298   4.7673
     4.8500   4.8777   5.0533   5.1011   5.1987   5.2801   5.3499   5.4113
     5.6423   5.6718   5.7295   5.7859   6.1132   6.1242   6.2451   6.2467
     6.3184   6.3463   6.4453   6.5110   6.5642   6.5969   6.6791   6.7199
     9.4582   9.5598   9.5684   9.6020  10.1365  10.2194  10.2276  10.3774
    10.4900  10.4923  10.5118  10.5562  11.7966  11.9087  12.0191  12.0301
    12.3439  12.4338  12.5630  12.6059  12.7848  12.8216  12.9779  13.0486
    13.2254  13.3074  13.3448  13.4515

     occupation numbers 
     1.0000   1.0000   1.0000   1.0000   1.0000   1.0000   1.0000   1.0000
     1.0000   1.0000   1.0000   1.0000   1.0000   1.0000   1.0000   1.0000
     1.0000   1.0000   1.0000   1.0000   1.0000   1.0000   1.0000   1.0000
     1.0000   1.0000   1.0000   1.0000   1.0000   1.0000   1.0000   1.0000
     1.0000   1.0000   1.0000   1.0000   1.0000   1.0000   1.0000   1.0000
     1.0000   1.0000   1.0000   1.0000   1.0000   1.0000   1.0000   1.0000
     1.0000   1.0000   1.0000   1.0000   1.0000   1.0000   1.0000   1.0000
     1.0000   1.0000   1.0000   1.0000   1.0000   1.0000   1.0000   1.0000
     1.0000   1.0000   1.0000   1.0000   1.0000   1.0000   1.0000   1.0000
     1.0000   1.0000   1.0000   1.0000   1.0000   1.0000   1.0000   1.0000
     0.0000   0.0000   0.0000   0.0000   0.0000   0.0000   0.0000   0.0000
     0.0000   0.0000   0.0000   0.0000   0.0000   0.0000   0.0000   0.0000
     0.0000   0.0000   0.0000   0.0000   0.0000   0.0000   0.0000   0.0000
     0.0000   0.0000   0.0000   0.0000

          k = 0.4500 0.1777 0.0457 ( 18714 PWs)   bands (ev):

   -41.4190 -41.4190 -41.4183 -41.4183 -26.6507 -26.6507 -26.6503 -26.6503
   -19.5100 -19.5100 -19.5095 -19.5095 -19.4623 -19.4623 -19.4589 -19.4589
   -19.4132 -19.4132 -19.4100 -19.4100  -8.9540  -8.9537  -8.9404  -8.9401
    -8.6872  -8.6865  -8.6837  -8.6828  -8.6413  -8.6404  -8.6288  -8.6282
    -4.0378  -4.0329  -3.9832  -3.9822  -3.7280  -3.7274  -3.6905  -3.6868
    -3.3658  -3.3446  -3.3311  -3.3033   3.4571   3.4886   3.5187   3.5444
     4.2750   4.3203   4.3351   4.3984   4.5326   4.5653   4.7089   4.7494
     4.8688   4.9239   5.0868   5.1207   5.1978   5.2781   5.3431   5.4013
     5.6426   5.6738   5.7328   5.8000   5.9773   6.1150   6.2094   6.2304
     6.3060   6.3929   6.4350   6.4817   6.5954   6.6300   6.7059   6.7750
     9.4601   9.5497   9.5621   9.5899  10.1378  10.2076  10.2367  10.3631
    10.4898  10.4943  10.5169  10.5538  11.8040  11.9050  12.0393  12.0450
    12.3714  12.4342  12.5513  12.6172  12.7909  12.8687  12.9877  13.0670
    13.1980  13.2637  13.2962  13.4177

     occupation numbers 
     1.0000   1.0000   1.0000   1.0000   1.0000   1.0000   1.0000   1.0000
     1.0000   1.0000   1.0000   1.0000   1.0000   1.0000   1.0000   1.0000
     1.0000   1.0000   1.0000   1.0000   1.0000   1.0000   1.0000   1.0000
     1.0000   1.0000   1.0000   1.0000   1.0000   1.0000   1.0000   1.0000
     1.0000   1.0000   1.0000   1.0000   1.0000   1.0000   1.0000   1.0000
     1.0000   1.0000   1.0000   1.0000   1.0000   1.0000   1.0000   1.0000
     1.0000   1.0000   1.0000   1.0000   1.0000   1.0000   1.0000   1.0000
     1.0000   1.0000   1.0000   1.0000   1.0000   1.0000   1.0000   1.0000
     1.0000   1.0000   1.0000   1.0000   1.0000   1.0000   1.0000   1.0000
     1.0000   1.0000   1.0000   1.0000   1.0000   1.0000   1.0000   1.0000
     0.0000   0.0000   0.0000   0.0000   0.0000   0.0000   0.0000   0.0000
     0.0000   0.0000   0.0000   0.0000   0.0000   0.0000   0.0000   0.0000
     0.0000   0.0000   0.0000   0.0000   0.0000   0.0000   0.0000   0.0000
     0.0000   0.0000   0.0000   0.0000

          k = 0.4500 0.1777 0.0914 ( 18723 PWs)   bands (ev):

   -41.4190 -41.4190 -41.4183 -41.4183 -26.6507 -26.6507 -26.6503 -26.6503
   -19.5100 -19.5100 -19.5095 -19.5095 -19.4623 -19.4623 -19.4589 -19.4589
   -19.4132 -19.4132 -19.4100 -19.4100  -8.9539  -8.9537  -8.9403  -8.9402
    -8.6869  -8.6865  -8.6836  -8.6831  -8.6411  -8.6406  -8.6287  -8.6284
    -4.0350  -4.0320  -3.9853  -3.9844  -3.7281  -3.7275  -3.6897  -3.6876
    -3.3619  -3.3506  -3.3232  -3.3080   3.4566   3.4744   3.5248   3.5403
     4.2796   4.3073   4.3439   4.3811   4.5446   4.5674   4.6785   4.7112
     4.9385   4.9887   5.1495   5.1627   5.2045   5.2726   5.3244   5.3680
     5.6514   5.6869   5.7213   5.8074   5.8948   5.9965   6.0954   6.2109
     6.3239   6.3458   6.4670   6.4790   6.6476   6.6921   6.7767   6.8285
     9.4705   9.5251   9.5496   9.5636  10.1443  10.1836  10.2586  10.3295
    10.4915  10.4954  10.5278  10.5474  11.8255  11.8872  12.0714  12.0834
    12.4292  12.4638  12.5343  12.6180  12.8370  12.9258  13.0166  13.0984
    13.1178  13.1678  13.2609  13.3391

     occupation numbers 
     1.0000   1.0000   1.0000   1.0000   1.0000   1.0000   1.0000   1.0000
     1.0000   1.0000   1.0000   1.0000   1.0000   1.0000   1.0000   1.0000
     1.0000   1.0000   1.0000   1.0000   1.0000   1.0000   1.0000   1.0000
     1.0000   1.0000   1.0000   1.0000   1.0000   1.0000   1.0000   1.0000
     1.0000   1.0000   1.0000   1.0000   1.0000   1.0000   1.0000   1.0000
     1.0000   1.0000   1.0000   1.0000   1.0000   1.0000   1.0000   1.0000
     1.0000   1.0000   1.0000   1.0000   1.0000   1.0000   1.0000   1.0000
     1.0000   1.0000   1.0000   1.0000   1.0000   1.0000   1.0000   1.0000
     1.0000   1.0000   1.0000   1.0000   1.0000   1.0000   1.0000   1.0000
     1.0000   1.0000   1.0000   1.0000   1.0000   1.0000   1.0000   1.0000
     0.0000   0.0000   0.0000   0.0000   0.0000   0.0000   0.0000   0.0000
     0.0000   0.0000   0.0000   0.0000   0.0000   0.0000   0.0000   0.0000
     0.0000   0.0000   0.0000   0.0000   0.0000   0.0000   0.0000   0.0000
     0.0000   0.0000   0.0000   0.0000

          k = 0.4500 0.1777-0.1371 ( 18712 PWs)   bands (ev):

   -41.4190 -41.4190 -41.4183 -41.4183 -26.6507 -26.6507 -26.6503 -26.6503
   -19.5100 -19.5100 -19.5095 -19.5095 -19.4623 -19.4623 -19.4589 -19.4589
   -19.4132 -19.4132 -19.4100 -19.4100  -8.9538  -8.9538  -8.9402  -8.9402
    -8.6867  -8.6867  -8.6834  -8.6834  -8.6409  -8.6409  -8.6285  -8.6285
    -4.0326  -4.0326  -3.9860  -3.9860  -3.7279  -3.7279  -3.6886  -3.6886
    -3.3565  -3.3565  -3.3151  -3.3151   3.4621   3.4621   3.5328   3.5328
     4.2910   4.2910   4.3609   4.3609   4.5610   4.5610   4.6783   4.6783
     5.0008   5.0008   5.1695   5.1695   5.2608   5.2608   5.3195   5.3195
     5.6753   5.6753   5.7434   5.7434   5.9267   5.9267   6.1052   6.1052
     6.3366   6.3366   6.4791   6.4791   6.6964   6.6964   6.8291   6.8291
     9.4945   9.4945   9.5466   9.5466  10.1598  10.1598  10.2914  10.2914
    10.4940  10.4940  10.5385  10.5385  11.8567  11.8567  12.0944  12.0944
    12.4736  12.4736  12.5712  12.5712  12.9066  12.9066  13.0433  13.0433
    13.1278  13.1278  13.2758  13.2758

     occupation numbers 
     1.0000   1.0000   1.0000   1.0000   1.0000   1.0000   1.0000   1.0000
     1.0000   1.0000   1.0000   1.0000   1.0000   1.0000   1.0000   1.0000
     1.0000   1.0000   1.0000   1.0000   1.0000   1.0000   1.0000   1.0000
     1.0000   1.0000   1.0000   1.0000   1.0000   1.0000   1.0000   1.0000
     1.0000   1.0000   1.0000   1.0000   1.0000   1.0000   1.0000   1.0000
     1.0000   1.0000   1.0000   1.0000   1.0000   1.0000   1.0000   1.0000
     1.0000   1.0000   1.0000   1.0000   1.0000   1.0000   1.0000   1.0000
     1.0000   1.0000   1.0000   1.0000   1.0000   1.0000   1.0000   1.0000
     1.0000   1.0000   1.0000   1.0000   1.0000   1.0000   1.0000   1.0000
     1.0000   1.0000   1.0000   1.0000   1.0000   1.0000   1.0000   1.0000
     0.0000   0.0000   0.0000   0.0000   0.0000   0.0000   0.0000   0.0000
     0.0000   0.0000   0.0000   0.0000   0.0000   0.0000   0.0000   0.0000
     0.0000   0.0000   0.0000   0.0000   0.0000   0.0000   0.0000   0.0000
     0.0000   0.0000   0.0000   0.0000

          k = 0.4500-0.2221 0.0000 ( 18682 PWs)   bands (ev):

   -41.4190 -41.4190 -41.4183 -41.4183 -26.6505 -26.6505 -26.6505 -26.6505
   -19.5100 -19.5100 -19.5095 -19.5095 -19.4623 -19.4623 -19.4589 -19.4589
   -19.4132 -19.4132 -19.4100 -19.4100  -8.9472  -8.9472  -8.9469  -8.9468
    -8.6871  -8.6871  -8.6834  -8.6833  -8.6350  -8.6349  -8.6341  -8.6341
    -4.0363  -4.0363  -3.9821  -3.9821  -3.7199  -3.7199  -3.6961  -3.6961
    -3.3526  -3.3525  -3.3197  -3.3196   3.4776   3.4776   3.5075   3.5075
     4.3025   4.3025   4.3794   4.3794   4.5624   4.5624   4.7821   4.7821
     4.8466   4.8467   5.0677   5.0677   5.2256   5.2257   5.3864   5.3864
     5.6561   5.6561   5.7542   5.7542   6.1718   6.1718   6.2048   6.2048
     6.3792   6.3792   6.4401   6.4401   6.5786   6.5786   6.6687   6.6687
     9.5157   9.5157   9.5967   9.5968  10.1830  10.1830  10.2973  10.2974
    10.4946  10.4947  10.5348  10.5350  11.8410  11.8411  12.0316  12.0316
    12.3578  12.3578  12.5637  12.5637  12.8992  12.8992  13.0951  13.0951
    13.1909  13.1909  13.3320  13.3320

     occupation numbers 
     1.0000   1.0000   1.0000   1.0000   1.0000   1.0000   1.0000   1.0000
     1.0000   1.0000   1.0000   1.0000   1.0000   1.0000   1.0000   1.0000
     1.0000   1.0000   1.0000   1.0000   1.0000   1.0000   1.0000   1.0000
     1.0000   1.0000   1.0000   1.0000   1.0000   1.0000   1.0000   1.0000
     1.0000   1.0000   1.0000   1.0000   1.0000   1.0000   1.0000   1.0000
     1.0000   1.0000   1.0000   1.0000   1.0000   1.0000   1.0000   1.0000
     1.0000   1.0000   1.0000   1.0000   1.0000   1.0000   1.0000   1.0000
     1.0000   1.0000   1.0000   1.0000   1.0000   1.0000   1.0000   1.0000
     1.0000   1.0000   1.0000   1.0000   1.0000   1.0000   1.0000   1.0000
     1.0000   1.0000   1.0000   1.0000   1.0000   1.0000   1.0000   1.0000
     0.0000   0.0000   0.0000   0.0000   0.0000   0.0000   0.0000   0.0000
     0.0000   0.0000   0.0000   0.0000   0.0000   0.0000   0.0000   0.0000
     0.0000   0.0000   0.0000   0.0000   0.0000   0.0000   0.0000   0.0000
     0.0000   0.0000   0.0000   0.0000

          k = 0.4500-0.2221 0.0457 ( 18710 PWs)   bands (ev):

   -41.4190 -41.4190 -41.4183 -41.4183 -26.6505 -26.6505 -26.6505 -26.6505
   -19.5100 -19.5100 -19.5095 -19.5095 -19.4623 -19.4623 -19.4589 -19.4589
   -19.4132 -19.4132 -19.4100 -19.4100  -8.9472  -8.9472  -8.9469  -8.9469
    -8.6870  -8.6870  -8.6834  -8.6834  -8.6349  -8.6349  -8.6342  -8.6341
    -4.0353  -4.0353  -3.9832  -3.9832  -3.7199  -3.7199  -3.6962  -3.6962
    -3.3515  -3.3515  -3.3205  -3.3204   3.4761   3.4761   3.5054   3.5054
     4.3064   4.3064   4.3735   4.3735   4.5574   4.5574   4.7613   4.7613
     4.8864   4.8864   5.0944   5.0944   5.2252   5.2253   5.3776   5.3776
     5.6592   5.6593   5.7633   5.7633   6.0415   6.0415   6.2730   6.2730
     6.3223   6.3223   6.4426   6.4427   6.6046   6.6047   6.7287   6.7287
     9.5128   9.5129   9.5859   9.5859  10.1770  10.1770  10.2946  10.2947
    10.4970  10.4972  10.5345  10.5346  11.8511  11.8511  12.0386  12.0386
    12.3745  12.3745  12.5674  12.5674  12.9207  12.9207  13.0894  13.0894
    13.1848  13.1848  13.3164  13.3164

     occupation numbers 
     1.0000   1.0000   1.0000   1.0000   1.0000   1.0000   1.0000   1.0000
     1.0000   1.0000   1.0000   1.0000   1.0000   1.0000   1.0000   1.0000
     1.0000   1.0000   1.0000   1.0000   1.0000   1.0000   1.0000   1.0000
     1.0000   1.0000   1.0000   1.0000   1.0000   1.0000   1.0000   1.0000
     1.0000   1.0000   1.0000   1.0000   1.0000   1.0000   1.0000   1.0000
     1.0000   1.0000   1.0000   1.0000   1.0000   1.0000   1.0000   1.0000
     1.0000   1.0000   1.0000   1.0000   1.0000   1.0000   1.0000   1.0000
     1.0000   1.0000   1.0000   1.0000   1.0000   1.0000   1.0000   1.0000
     1.0000   1.0000   1.0000   1.0000   1.0000   1.0000   1.0000   1.0000
     1.0000   1.0000   1.0000   1.0000   1.0000   1.0000   1.0000   1.0000
     0.0000   0.0000   0.0000   0.0000   0.0000   0.0000   0.0000   0.0000
     0.0000   0.0000   0.0000   0.0000   0.0000   0.0000   0.0000   0.0000
     0.0000   0.0000   0.0000   0.0000   0.0000   0.0000   0.0000   0.0000
     0.0000   0.0000   0.0000   0.0000

          k = 0.4500-0.2221 0.0914 ( 18722 PWs)   bands (ev):

   -41.4190 -41.4190 -41.4183 -41.4183 -26.6505 -26.6505 -26.6505 -26.6505
   -19.5100 -19.5100 -19.5095 -19.5095 -19.4623 -19.4623 -19.4589 -19.4589
   -19.4132 -19.4132 -19.4100 -19.4100  -8.9472  -8.9472  -8.9469  -8.9469
    -8.6869  -8.6869  -8.6836  -8.6836  -8.6348  -8.6348  -8.6343  -8.6343
    -4.0334  -4.0334  -3.9856  -3.9856  -3.7197  -3.7197  -3.6964  -3.6964
    -3.3492  -3.3492  -3.3222  -3.3222   3.4731   3.4731   3.5011   3.5011
     4.3178   4.3178   4.3568   4.3568   4.5559   4.5559   4.7257   4.7257
     4.9658   4.9658   5.1418   5.1418   5.2314   5.2314   5.3490   5.3490
     5.6736   5.6736   5.7641   5.7641   5.9382   5.9382   6.1633   6.1633
     6.3270   6.3270   6.4610   6.4610   6.6622   6.6622   6.8063   6.8063
     9.5104   9.5104   9.5609   9.5610  10.1658  10.1658  10.2892  10.2892
    10.5016  10.5017  10.5338  10.5339  11.8714  11.8714  12.0476  12.0476
    12.4285  12.4285  12.5632  12.5632  12.9638  12.9638  13.0639  13.0639
    13.1866  13.1866  13.2753  13.2753

     occupation numbers 
     1.0000   1.0000   1.0000   1.0000   1.0000   1.0000   1.0000   1.0000
     1.0000   1.0000   1.0000   1.0000   1.0000   1.0000   1.0000   1.0000
     1.0000   1.0000   1.0000   1.0000   1.0000   1.0000   1.0000   1.0000
     1.0000   1.0000   1.0000   1.0000   1.0000   1.0000   1.0000   1.0000
     1.0000   1.0000   1.0000   1.0000   1.0000   1.0000   1.0000   1.0000
     1.0000   1.0000   1.0000   1.0000   1.0000   1.0000   1.0000   1.0000
     1.0000   1.0000   1.0000   1.0000   1.0000   1.0000   1.0000   1.0000
     1.0000   1.0000   1.0000   1.0000   1.0000   1.0000   1.0000   1.0000
     1.0000   1.0000   1.0000   1.0000   1.0000   1.0000   1.0000   1.0000
     1.0000   1.0000   1.0000   1.0000   1.0000   1.0000   1.0000   1.0000
     0.0000   0.0000   0.0000   0.0000   0.0000   0.0000   0.0000   0.0000
     0.0000   0.0000   0.0000   0.0000   0.0000   0.0000   0.0000   0.0000
     0.0000   0.0000   0.0000   0.0000   0.0000   0.0000   0.0000   0.0000
     0.0000   0.0000   0.0000   0.0000

          k = 0.4500-0.2221-0.1371 ( 18724 PWs)   bands (ev):

   -41.4190 -41.4190 -41.4183 -41.4183 -26.6505 -26.6505 -26.6505 -26.6505
   -19.5100 -19.5100 -19.5095 -19.5095 -19.4623 -19.4623 -19.4589 -19.4589
   -19.4132 -19.4132 -19.4100 -19.4100  -8.9472  -8.9472  -8.9469  -8.9469
    -8.6868  -8.6868  -8.6837  -8.6837  -8.6347  -8.6347  -8.6344  -8.6344
    -4.0324  -4.0324  -3.9868  -3.9868  -3.7197  -3.7197  -3.6965  -3.6965
    -3.3479  -3.3479  -3.3232  -3.3232   3.4716   3.4716   3.4989   3.4989
     4.3345   4.3345   4.3370   4.3370   4.5586   4.5586   4.7087   4.7087
     5.0100   5.0100   5.1569   5.1569   5.2537   5.2537   5.3174   5.3174
     5.7097   5.7097   5.7151   5.7151   5.9388   5.9388   6.0834   6.0834
     6.3335   6.3335   6.4660   6.4660   6.6920   6.6920   6.8357   6.8357
     9.5128   9.5128   9.5447   9.5447  10.1606  10.1606  10.2864  10.2864
    10.5037  10.5037  10.5335  10.5335  11.8818  11.8818  12.0495  12.0495
    12.4802  12.4802  12.5410  12.5410  12.9861  12.9861  13.0438  13.0438
    13.2002  13.2002  13.2427  13.2427

     occupation numbers 
     1.0000   1.0000   1.0000   1.0000   1.0000   1.0000   1.0000   1.0000
     1.0000   1.0000   1.0000   1.0000   1.0000   1.0000   1.0000   1.0000
     1.0000   1.0000   1.0000   1.0000   1.0000   1.0000   1.0000   1.0000
     1.0000   1.0000   1.0000   1.0000   1.0000   1.0000   1.0000   1.0000
     1.0000   1.0000   1.0000   1.0000   1.0000   1.0000   1.0000   1.0000
     1.0000   1.0000   1.0000   1.0000   1.0000   1.0000   1.0000   1.0000
     1.0000   1.0000   1.0000   1.0000   1.0000   1.0000   1.0000   1.0000
     1.0000   1.0000   1.0000   1.0000   1.0000   1.0000   1.0000   1.0000
     1.0000   1.0000   1.0000   1.0000   1.0000   1.0000   1.0000   1.0000
     1.0000   1.0000   1.0000   1.0000   1.0000   1.0000   1.0000   1.0000
     0.0000   0.0000   0.0000   0.0000   0.0000   0.0000   0.0000   0.0000
     0.0000   0.0000   0.0000   0.0000   0.0000   0.0000   0.0000   0.0000
     0.0000   0.0000   0.0000   0.0000   0.0000   0.0000   0.0000   0.0000
     0.0000   0.0000   0.0000   0.0000

          k =-0.5000 0.0000 0.0000 ( 18752 PWs)   bands (ev):

   -41.4187 -41.4187 -41.4185 -41.4185 -26.6507 -26.6507 -26.6494 -26.6494
   -19.5122 -19.5122 -19.5120 -19.5120 -19.4604 -19.4604 -19.4602 -19.4602
   -19.4118 -19.4118 -19.4116 -19.4116  -8.9774  -8.9774  -8.9327  -8.9327
    -8.6816  -8.6816  -8.6807  -8.6807  -8.6551  -8.6551  -8.6148  -8.6148
    -4.0020  -4.0020  -4.0011  -4.0011  -3.7087  -3.7087  -3.6951  -3.6951
    -3.3933  -3.3933  -3.2783  -3.2783   3.5301   3.5301   3.7232   3.7232
     4.0277   4.0277   4.2994   4.2994   4.5066   4.5066   4.5784   4.5784
     5.0602   5.0602   5.2079   5.2079   5.2597   5.2597   5.2630   5.2630
     5.4769   5.4769   5.8739   5.8739   5.9365   5.9365   6.0552   6.0552
     6.5700   6.5700   6.5972   6.5972   6.6937   6.6937   6.7677   6.7677
     9.3197   9.3197   9.5638   9.5638  10.0568  10.0568  10.4349  10.4349
    10.4637  10.4637  10.5043  10.5043  11.8099  11.8099  12.0198  12.0198
    12.4943  12.4943  12.6930  12.6930  12.7423  12.7423  12.9214  12.9214
    13.0391  13.0391  13.3967  13.3967

     occupation numbers 
     1.0000   1.0000   1.0000   1.0000   1.0000   1.0000   1.0000   1.0000
     1.0000   1.0000   1.0000   1.0000   1.0000   1.0000   1.0000   1.0000
     1.0000   1.0000   1.0000   1.0000   1.0000   1.0000   1.0000   1.0000
     1.0000   1.0000   1.0000   1.0000   1.0000   1.0000   1.0000   1.0000
     1.0000   1.0000   1.0000   1.0000   1.0000   1.0000   1.0000   1.0000
     1.0000   1.0000   1.0000   1.0000   1.0000   1.0000   1.0000   1.0000
     1.0000   1.0000   1.0000   1.0000   1.0000   1.0000   1.0000   1.0000
     1.0000   1.0000   1.0000   1.0000   1.0000   1.0000   1.0000   1.0000
     1.0000   1.0000   1.0000   1.0000   1.0000   1.0000   1.0000   1.0000
     1.0000   1.0000   1.0000   1.0000   1.0000   1.0000   1.0000   1.0000
     0.0000   0.0000   0.0000   0.0000   0.0000   0.0000   0.0000   0.0000
     0.0000   0.0000   0.0000   0.0000   0.0000   0.0000   0.0000   0.0000
     0.0000   0.0000   0.0000   0.0000   0.0000   0.0000   0.0000   0.0000
     0.0000   0.0000   0.0000   0.0000

          k =-0.5000 0.0000 0.0457 ( 18764 PWs)   bands (ev):

   -41.4187 -41.4187 -41.4185 -41.4185 -26.6507 -26.6507 -26.6494 -26.6494
   -19.5122 -19.5122 -19.5120 -19.5120 -19.4604 -19.4604 -19.4602 -19.4602
   -19.4118 -19.4118 -19.4116 -19.4116  -8.9774  -8.9774  -8.9327  -8.9327
    -8.6816  -8.6816  -8.6807  -8.6807  -8.6551  -8.6551  -8.6148  -8.6148
    -4.0031  -4.0031  -3.9999  -3.9999  -3.7089  -3.7089  -3.6951  -3.6951
    -3.3933  -3.3933  -3.2782  -3.2782   3.5263   3.5263   3.7300   3.7300
     4.0247   4.0247   4.2812   4.2812   4.5206   4.5206   4.5976   4.5976
     5.0430   5.0430   5.1722   5.1722   5.2156   5.2156   5.3317   5.3317
     5.5101   5.5101   5.8539   5.8539   5.8872   5.8872   6.1420   6.1420
     6.5166   6.5166   6.6117   6.6117   6.6781   6.6781   6.7825   6.7825
     9.3304   9.3304   9.5381   9.5381  10.0879  10.0879  10.4242  10.4242
    10.4607  10.4607  10.4952  10.4952  11.8166  11.8166  12.0472  12.0472
    12.4665  12.4665  12.6719  12.6719  12.7480  12.7480  12.9712  12.9712
    13.0375  13.0375  13.4013  13.4013

     occupation numbers 
     1.0000   1.0000   1.0000   1.0000   1.0000   1.0000   1.0000   1.0000
     1.0000   1.0000   1.0000   1.0000   1.0000   1.0000   1.0000   1.0000
     1.0000   1.0000   1.0000   1.0000   1.0000   1.0000   1.0000   1.0000
     1.0000   1.0000   1.0000   1.0000   1.0000   1.0000   1.0000   1.0000
     1.0000   1.0000   1.0000   1.0000   1.0000   1.0000   1.0000   1.0000
     1.0000   1.0000   1.0000   1.0000   1.0000   1.0000   1.0000   1.0000
     1.0000   1.0000   1.0000   1.0000   1.0000   1.0000   1.0000   1.0000
     1.0000   1.0000   1.0000   1.0000   1.0000   1.0000   1.0000   1.0000
     1.0000   1.0000   1.0000   1.0000   1.0000   1.0000   1.0000   1.0000
     1.0000   1.0000   1.0000   1.0000   1.0000   1.0000   1.0000   1.0000
     0.0000   0.0000   0.0000   0.0000   0.0000   0.0000   0.0000   0.0000
     0.0000   0.0000   0.0000   0.0000   0.0000   0.0000   0.0000   0.0000
     0.0000   0.0000   0.0000   0.0000   0.0000   0.0000   0.0000   0.0000
     0.0000   0.0000   0.0000   0.0000

          k =-0.5000 0.0000 0.0914 ( 18754 PWs)   bands (ev):

   -41.4187 -41.4187 -41.4185 -41.4185 -26.6507 -26.6507 -26.6494 -26.6494
   -19.5122 -19.5122 -19.5120 -19.5120 -19.4604 -19.4604 -19.4602 -19.4602
   -19.4118 -19.4118 -19.4116 -19.4116  -8.9774  -8.9774  -8.9327  -8.9327
    -8.6816  -8.6816  -8.6807  -8.6807  -8.6551  -8.6551  -8.6148  -8.6148
    -4.0042  -4.0042  -3.9988  -3.9988  -3.7093  -3.7093  -3.6951  -3.6951
    -3.3931  -3.3931  -3.2780  -3.2780   3.5198   3.5198   3.7422   3.7422
     4.0202   4.0202   4.2522   4.2522   4.5315   4.5315   4.6498   4.6498
     5.0110   5.0110   5.0971   5.0971   5.2236   5.2236   5.3711   5.3711
     5.5865   5.5865   5.7572   5.7572   5.9015   5.9015   6.2692   6.2692
     6.4500   6.4500   6.5641   6.5641   6.6583   6.6583   6.8156   6.8156
     9.3616   9.3616   9.4796   9.4796  10.1605  10.1605  10.3765  10.3765
    10.4594  10.4594  10.4856  10.4856  11.8313  11.8313  12.1085  12.1085
    12.4249  12.4249  12.6026  12.6026  12.7586  12.7586  13.0280  13.0280
    13.0991  13.0991  13.4170  13.4170

     occupation numbers 
     1.0000   1.0000   1.0000   1.0000   1.0000   1.0000   1.0000   1.0000
     1.0000   1.0000   1.0000   1.0000   1.0000   1.0000   1.0000   1.0000
     1.0000   1.0000   1.0000   1.0000   1.0000   1.0000   1.0000   1.0000
     1.0000   1.0000   1.0000   1.0000   1.0000   1.0000   1.0000   1.0000
     1.0000   1.0000   1.0000   1.0000   1.0000   1.0000   1.0000   1.0000
     1.0000   1.0000   1.0000   1.0000   1.0000   1.0000   1.0000   1.0000
     1.0000   1.0000   1.0000   1.0000   1.0000   1.0000   1.0000   1.0000
     1.0000   1.0000   1.0000   1.0000   1.0000   1.0000   1.0000   1.0000
     1.0000   1.0000   1.0000   1.0000   1.0000   1.0000   1.0000   1.0000
     1.0000   1.0000   1.0000   1.0000   1.0000   1.0000   1.0000   1.0000
     0.0000   0.0000   0.0000   0.0000   0.0000   0.0000   0.0000   0.0000
     0.0000   0.0000   0.0000   0.0000   0.0000   0.0000   0.0000   0.0000
     0.0000   0.0000   0.0000   0.0000   0.0000   0.0000   0.0000   0.0000
     0.0000   0.0000   0.0000   0.0000

          k =-0.5000 0.0000-0.1371 ( 18764 PWs)   bands (ev):

   -41.4187 -41.4187 -41.4185 -41.4185 -26.6507 -26.6507 -26.6494 -26.6494
   -19.5122 -19.5122 -19.5120 -19.5120 -19.4604 -19.4604 -19.4602 -19.4602
   -19.4118 -19.4118 -19.4116 -19.4116  -8.9774  -8.9774  -8.9327  -8.9327
    -8.6816  -8.6816  -8.6807  -8.6807  -8.6551  -8.6551  -8.6148  -8.6148
    -4.0046  -4.0046  -3.9984  -3.9984  -3.7095  -3.7095  -3.6951  -3.6951
    -3.3931  -3.3931  -3.2779  -3.2779   3.5168   3.5168   3.7475   3.7475
     4.0188   4.0188   4.2397   4.2397   4.5336   4.5336   4.6806   4.6806
     4.9936   4.9936   5.0661   5.0661   5.2277   5.2277   5.3828   5.3828
     5.6609   5.6609   5.6800   5.6800   5.9116   5.9116   6.3429   6.3429
     6.4397   6.4397   6.4896   6.4896   6.6546   6.6546   6.8318   6.8318
     9.4002   9.4002   9.4285   9.4285  10.2156  10.2156  10.3292  10.3292
    10.4603  10.4603  10.4829  10.4829  11.8394  11.8394  12.1437  12.1437
    12.4182  12.4182  12.5443  12.5443  12.7633  12.7633  13.0490  13.0490
    13.1506  13.1506  13.4347  13.4347

     occupation numbers 
     1.0000   1.0000   1.0000   1.0000   1.0000   1.0000   1.0000   1.0000
     1.0000   1.0000   1.0000   1.0000   1.0000   1.0000   1.0000   1.0000
     1.0000   1.0000   1.0000   1.0000   1.0000   1.0000   1.0000   1.0000
     1.0000   1.0000   1.0000   1.0000   1.0000   1.0000   1.0000   1.0000
     1.0000   1.0000   1.0000   1.0000   1.0000   1.0000   1.0000   1.0000
     1.0000   1.0000   1.0000   1.0000   1.0000   1.0000   1.0000   1.0000
     1.0000   1.0000   1.0000   1.0000   1.0000   1.0000   1.0000   1.0000
     1.0000   1.0000   1.0000   1.0000   1.0000   1.0000   1.0000   1.0000
     1.0000   1.0000   1.0000   1.0000   1.0000   1.0000   1.0000   1.0000
     1.0000   1.0000   1.0000   1.0000   1.0000   1.0000   1.0000   1.0000
     0.0000   0.0000   0.0000   0.0000   0.0000   0.0000   0.0000   0.0000
     0.0000   0.0000   0.0000   0.0000   0.0000   0.0000   0.0000   0.0000
     0.0000   0.0000   0.0000   0.0000   0.0000   0.0000   0.0000   0.0000
     0.0000   0.0000   0.0000   0.0000

          k =-0.5000 0.0444 0.0000 ( 18746 PWs)   bands (ev):

   -41.4187 -41.4187 -41.4185 -41.4185 -26.6506 -26.6506 -26.6494 -26.6494
   -19.5122 -19.5122 -19.5121 -19.5121 -19.4604 -19.4604 -19.4602 -19.4602
   -19.4118 -19.4118 -19.4116 -19.4116  -8.9763  -8.9763  -8.9338  -8.9338
    -8.6820  -8.6820  -8.6809  -8.6809  -8.6538  -8.6538  -8.6156  -8.6156
    -4.0018  -4.0018  -4.0011  -4.0011  -3.7085  -3.7085  -3.6959  -3.6959
    -3.3901  -3.3901  -3.2809  -3.2809   3.5186   3.5186   3.6843   3.6843
     4.0698   4.0698   4.3176   4.3176   4.5172   4.5172   4.5778   4.5778
     5.0404   5.0404   5.1988   5.1988   5.2332   5.2332   5.2814   5.2814
     5.5231   5.5231   5.8447   5.8447   5.9743   5.9743   6.0623   6.0623
     6.5516   6.5516   6.5564   6.5564   6.7039   6.7039   6.7567   6.7567
     9.3371   9.3371   9.5690   9.5690  10.0637  10.0637  10.4419  10.4419
    10.4437  10.4437  10.5153  10.5153  11.8232  11.8232  12.0182  12.0182
    12.5128  12.5128  12.6884  12.6884  12.7330  12.7330  12.8490  12.8490
    13.1138  13.1138  13.3958  13.3958

     occupation numbers 
     1.0000   1.0000   1.0000   1.0000   1.0000   1.0000   1.0000   1.0000
     1.0000   1.0000   1.0000   1.0000   1.0000   1.0000   1.0000   1.0000
     1.0000   1.0000   1.0000   1.0000   1.0000   1.0000   1.0000   1.0000
     1.0000   1.0000   1.0000   1.0000   1.0000   1.0000   1.0000   1.0000
     1.0000   1.0000   1.0000   1.0000   1.0000   1.0000   1.0000   1.0000
     1.0000   1.0000   1.0000   1.0000   1.0000   1.0000   1.0000   1.0000
     1.0000   1.0000   1.0000   1.0000   1.0000   1.0000   1.0000   1.0000
     1.0000   1.0000   1.0000   1.0000   1.0000   1.0000   1.0000   1.0000
     1.0000   1.0000   1.0000   1.0000   1.0000   1.0000   1.0000   1.0000
     1.0000   1.0000   1.0000   1.0000   1.0000   1.0000   1.0000   1.0000
     0.0000   0.0000   0.0000   0.0000   0.0000   0.0000   0.0000   0.0000
     0.0000   0.0000   0.0000   0.0000   0.0000   0.0000   0.0000   0.0000
     0.0000   0.0000   0.0000   0.0000   0.0000   0.0000   0.0000   0.0000
     0.0000   0.0000   0.0000   0.0000

          k =-0.5000 0.0444 0.0457 ( 18746 PWs)   bands (ev):

   -41.4187 -41.4187 -41.4185 -41.4185 -26.6506 -26.6506 -26.6494 -26.6494
   -19.5122 -19.5122 -19.5121 -19.5121 -19.4604 -19.4604 -19.4602 -19.4602
   -19.4118 -19.4118 -19.4116 -19.4116  -8.9763  -8.9763  -8.9338  -8.9338
    -8.6819  -8.6819  -8.6809  -8.6809  -8.6538  -8.6538  -8.6156  -8.6156
    -4.0030  -4.0030  -4.0000  -4.0000  -3.7087  -3.7087  -3.6958  -3.6958
    -3.3900  -3.3900  -3.2808  -3.2808   3.5139   3.5139   3.6917   3.6917
     4.0640   4.0640   4.3050   4.3050   4.5245   4.5246   4.5986   4.5986
     5.0221   5.0221   5.1796   5.1797   5.2225   5.2225   5.3129   5.3129
     5.5463   5.5463   5.8310   5.8311   5.9129   5.9129   6.1510   6.1510
     6.4999   6.5000   6.5638   6.5638   6.6991   6.6991   6.7715   6.7715
     9.3468   9.3468   9.5448   9.5448  10.0926  10.0926  10.4154  10.4155
    10.4562  10.4563  10.5067  10.5067  11.8248  11.8248  12.0495  12.0495
    12.4818  12.4818  12.6762  12.6762  12.7376  12.7376  12.9110  12.9110
    13.0900  13.0900  13.3895  13.3895

     occupation numbers 
     1.0000   1.0000   1.0000   1.0000   1.0000   1.0000   1.0000   1.0000
     1.0000   1.0000   1.0000   1.0000   1.0000   1.0000   1.0000   1.0000
     1.0000   1.0000   1.0000   1.0000   1.0000   1.0000   1.0000   1.0000
     1.0000   1.0000   1.0000   1.0000   1.0000   1.0000   1.0000   1.0000
     1.0000   1.0000   1.0000   1.0000   1.0000   1.0000   1.0000   1.0000
     1.0000   1.0000   1.0000   1.0000   1.0000   1.0000   1.0000   1.0000
     1.0000   1.0000   1.0000   1.0000   1.0000   1.0000   1.0000   1.0000
     1.0000   1.0000   1.0000   1.0000   1.0000   1.0000   1.0000   1.0000
     1.0000   1.0000   1.0000   1.0000   1.0000   1.0000   1.0000   1.0000
     1.0000   1.0000   1.0000   1.0000   1.0000   1.0000   1.0000   1.0000
     0.0000   0.0000   0.0000   0.0000   0.0000   0.0000   0.0000   0.0000
     0.0000   0.0000   0.0000   0.0000   0.0000   0.0000   0.0000   0.0000
     0.0000   0.0000   0.0000   0.0000   0.0000   0.0000   0.0000   0.0000
     0.0000   0.0000   0.0000   0.0000

          k =-0.5000 0.0444 0.0914 ( 18774 PWs)   bands (ev):

   -41.4187 -41.4187 -41.4185 -41.4185 -26.6506 -26.6506 -26.6494 -26.6494
   -19.5122 -19.5122 -19.5121 -19.5121 -19.4603 -19.4603 -19.4602 -19.4602
   -19.4118 -19.4118 -19.4116 -19.4116  -8.9763  -8.9763  -8.9338  -8.9338
    -8.6819  -8.6819  -8.6809  -8.6809  -8.6538  -8.6538  -8.6156  -8.6156
    -4.0040  -4.0040  -3.9989  -3.9989  -3.7092  -3.7092  -3.6956  -3.6956
    -3.3899  -3.3899  -3.2805  -3.2805   3.5058   3.5058   3.7051   3.7051
     4.0534   4.0534   4.2849   4.2850   4.5316   4.5316   4.6439   4.6439
     5.0003   5.0003   5.1198   5.1198   5.2310   5.2310   5.3518   5.3519
     5.6028   5.6028   5.7562   5.7562   5.9105   5.9105   6.2511   6.2512
     6.4433   6.4433   6.5336   6.5336   6.6813   6.6813   6.8014   6.8014
     9.3756   9.3756   9.4894   9.4895  10.1605  10.1605  10.3631  10.3631
    10.4653  10.4653  10.4929  10.4929  11.8305  11.8305  12.1166  12.1166
    12.4387  12.4387  12.6262  12.6262  12.7547  12.7547  12.9900  12.9900
    13.1026  13.1026  13.3916  13.3916

     occupation numbers 
     1.0000   1.0000   1.0000   1.0000   1.0000   1.0000   1.0000   1.0000
     1.0000   1.0000   1.0000   1.0000   1.0000   1.0000   1.0000   1.0000
     1.0000   1.0000   1.0000   1.0000   1.0000   1.0000   1.0000   1.0000
     1.0000   1.0000   1.0000   1.0000   1.0000   1.0000   1.0000   1.0000
     1.0000   1.0000   1.0000   1.0000   1.0000   1.0000   1.0000   1.0000
     1.0000   1.0000   1.0000   1.0000   1.0000   1.0000   1.0000   1.0000
     1.0000   1.0000   1.0000   1.0000   1.0000   1.0000   1.0000   1.0000
     1.0000   1.0000   1.0000   1.0000   1.0000   1.0000   1.0000   1.0000
     1.0000   1.0000   1.0000   1.0000   1.0000   1.0000   1.0000   1.0000
     1.0000   1.0000   1.0000   1.0000   1.0000   1.0000   1.0000   1.0000
     0.0000   0.0000   0.0000   0.0000   0.0000   0.0000   0.0000   0.0000
     0.0000   0.0000   0.0000   0.0000   0.0000   0.0000   0.0000   0.0000
     0.0000   0.0000   0.0000   0.0000   0.0000   0.0000   0.0000   0.0000
     0.0000   0.0000   0.0000   0.0000

          k =-0.5000 0.0444-0.1371 ( 18764 PWs)   bands (ev):

   -41.4187 -41.4187 -41.4185 -41.4185 -26.6506 -26.6506 -26.6494 -26.6494
   -19.5122 -19.5122 -19.5121 -19.5121 -19.4603 -19.4603 -19.4602 -19.4602
   -19.4118 -19.4118 -19.4116 -19.4116  -8.9763  -8.9763  -8.9338  -8.9338
    -8.6819  -8.6819  -8.6809  -8.6809  -8.6538  -8.6538  -8.6156  -8.6156
    -4.0043  -4.0043  -3.9985  -3.9985  -3.7095  -3.7095  -3.6956  -3.6956
    -3.3898  -3.3898  -3.2804  -3.2804   3.5022   3.5022   3.7112   3.7112
     4.0487   4.0487   4.2764   4.2764   4.5337   4.5337   4.6671   4.6671
     4.9986   4.9986   5.0844   5.0844   5.2354   5.2354   5.3663   5.3663
     5.6609   5.6609   5.6890   5.6890   5.9234   5.9234   6.2794   6.2794
     6.4629   6.4629   6.4805   6.4805   6.6707   6.6707   6.8158   6.8158
     9.4102   9.4102   9.4426   9.4426  10.2127  10.2127  10.3173  10.3173
    10.4701  10.4701  10.4864  10.4864  11.8343  11.8343  12.1534  12.1534
    12.4330  12.4330  12.5764  12.5764  12.7617  12.7617  13.0093  13.0093
    13.1523  13.1523  13.4092  13.4092

     occupation numbers 
     1.0000   1.0000   1.0000   1.0000   1.0000   1.0000   1.0000   1.0000
     1.0000   1.0000   1.0000   1.0000   1.0000   1.0000   1.0000   1.0000
     1.0000   1.0000   1.0000   1.0000   1.0000   1.0000   1.0000   1.0000
     1.0000   1.0000   1.0000   1.0000   1.0000   1.0000   1.0000   1.0000
     1.0000   1.0000   1.0000   1.0000   1.0000   1.0000   1.0000   1.0000
     1.0000   1.0000   1.0000   1.0000   1.0000   1.0000   1.0000   1.0000
     1.0000   1.0000   1.0000   1.0000   1.0000   1.0000   1.0000   1.0000
     1.0000   1.0000   1.0000   1.0000   1.0000   1.0000   1.0000   1.0000
     1.0000   1.0000   1.0000   1.0000   1.0000   1.0000   1.0000   1.0000
     1.0000   1.0000   1.0000   1.0000   1.0000   1.0000   1.0000   1.0000
     0.0000   0.0000   0.0000   0.0000   0.0000   0.0000   0.0000   0.0000
     0.0000   0.0000   0.0000   0.0000   0.0000   0.0000   0.0000   0.0000
     0.0000   0.0000   0.0000   0.0000   0.0000   0.0000   0.0000   0.0000
     0.0000   0.0000   0.0000   0.0000

          k =-0.5000 0.0888 0.0000 ( 18740 PWs)   bands (ev):

   -41.4187 -41.4187 -41.4185 -41.4185 -26.6505 -26.6505 -26.6495 -26.6495
   -19.5122 -19.5122 -19.5121 -19.5121 -19.4603 -19.4603 -19.4602 -19.4602
   -19.4117 -19.4117 -19.4116 -19.4116  -8.9731  -8.9731  -8.9370  -8.9370
    -8.6827  -8.6827  -8.6813  -8.6813  -8.6502  -8.6502  -8.6181  -8.6181
    -4.0016  -4.0016  -4.0012  -4.0012  -3.7079  -3.7079  -3.6978  -3.6978
    -3.3809  -3.3809  -3.2884  -3.2884   3.4916   3.4916   3.6089   3.6089
     4.1515   4.1515   4.3554   4.3554   4.5491   4.5491   4.5838   4.5838
     5.0036   5.0036   5.1356   5.1356   5.2315   5.2315   5.3221   5.3221
     5.6041   5.6041   5.7989   5.7989   6.0431   6.0431   6.0877   6.0877
     6.4830   6.4830   6.4998   6.4998   6.6960   6.6960   6.7259   6.7259
     9.3847   9.3847   9.5813   9.5813  10.0857  10.0857  10.4042  10.4042
    10.4594  10.4594  10.5275  10.5275  11.8548  11.8548  12.0070  12.0070
    12.5737  12.5737  12.6805  12.6805  12.7072  12.7072  12.7372  12.7372
    13.2491  13.2491  13.4108  13.4108

     occupation numbers 
     1.0000   1.0000   1.0000   1.0000   1.0000   1.0000   1.0000   1.0000
     1.0000   1.0000   1.0000   1.0000   1.0000   1.0000   1.0000   1.0000
     1.0000   1.0000   1.0000   1.0000   1.0000   1.0000   1.0000   1.0000
     1.0000   1.0000   1.0000   1.0000   1.0000   1.0000   1.0000   1.0000
     1.0000   1.0000   1.0000   1.0000   1.0000   1.0000   1.0000   1.0000
     1.0000   1.0000   1.0000   1.0000   1.0000   1.0000   1.0000   1.0000
     1.0000   1.0000   1.0000   1.0000   1.0000   1.0000   1.0000   1.0000
     1.0000   1.0000   1.0000   1.0000   1.0000   1.0000   1.0000   1.0000
     1.0000   1.0000   1.0000   1.0000   1.0000   1.0000   1.0000   1.0000
     1.0000   1.0000   1.0000   1.0000   1.0000   1.0000   1.0000   1.0000
     0.0000   0.0000   0.0000   0.0000   0.0000   0.0000   0.0000   0.0000
     0.0000   0.0000   0.0000   0.0000   0.0000   0.0000   0.0000   0.0000
     0.0000   0.0000   0.0000   0.0000   0.0000   0.0000   0.0000   0.0000
     0.0000   0.0000   0.0000   0.0000

          k =-0.5000 0.0888 0.0457 ( 18752 PWs)   bands (ev):

   -41.4187 -41.4187 -41.4185 -41.4185 -26.6505 -26.6505 -26.6495 -26.6495
   -19.5122 -19.5122 -19.5121 -19.5121 -19.4603 -19.4603 -19.4602 -19.4602
   -19.4117 -19.4117 -19.4116 -19.4116  -8.9731  -8.9731  -8.9370  -8.9370
    -8.6827  -8.6827  -8.6813  -8.6813  -8.6502  -8.6502  -8.6181  -8.6181
    -4.0026  -4.0026  -4.0001  -4.0001  -3.7083  -3.7083  -3.6976  -3.6976
    -3.3808  -3.3808  -3.2883  -3.2883   3.4856   3.4856   3.6159   3.6159
     4.1434   4.1434   4.3531   4.3531   4.5401   4.5401   4.6072   4.6073
     4.9902   4.9902   5.1592   5.1592   5.2304   5.2304   5.3188   5.3189
     5.6112   5.6112   5.7984   5.7984   5.9518   5.9518   6.1788   6.1788
     6.4502   6.4502   6.4965   6.4965   6.6850   6.6851   6.7568   6.7568
     9.3914   9.3914   9.5609   9.5610  10.1085  10.1085  10.3829  10.3829
    10.4667  10.4668  10.5209  10.5209  11.8435  11.8435  12.0483  12.0483
    12.5270  12.5271  12.6795  12.6795  12.7172  12.7172  12.8222  12.8222
    13.1831  13.1831  13.3992  13.3992

     occupation numbers 
     1.0000   1.0000   1.0000   1.0000   1.0000   1.0000   1.0000   1.0000
     1.0000   1.0000   1.0000   1.0000   1.0000   1.0000   1.0000   1.0000
     1.0000   1.0000   1.0000   1.0000   1.0000   1.0000   1.0000   1.0000
     1.0000   1.0000   1.0000   1.0000   1.0000   1.0000   1.0000   1.0000
     1.0000   1.0000   1.0000   1.0000   1.0000   1.0000   1.0000   1.0000
     1.0000   1.0000   1.0000   1.0000   1.0000   1.0000   1.0000   1.0000
     1.0000   1.0000   1.0000   1.0000   1.0000   1.0000   1.0000   1.0000
     1.0000   1.0000   1.0000   1.0000   1.0000   1.0000   1.0000   1.0000
     1.0000   1.0000   1.0000   1.0000   1.0000   1.0000   1.0000   1.0000
     1.0000   1.0000   1.0000   1.0000   1.0000   1.0000   1.0000   1.0000
     0.0000   0.0000   0.0000   0.0000   0.0000   0.0000   0.0000   0.0000
     0.0000   0.0000   0.0000   0.0000   0.0000   0.0000   0.0000   0.0000
     0.0000   0.0000   0.0000   0.0000   0.0000   0.0000   0.0000   0.0000
     0.0000   0.0000   0.0000   0.0000

          k =-0.5000 0.0888 0.0914 ( 18744 PWs)   bands (ev):

   -41.4187 -41.4187 -41.4185 -41.4185 -26.6505 -26.6505 -26.6495 -26.6495
   -19.5122 -19.5122 -19.5121 -19.5121 -19.4603 -19.4603 -19.4602 -19.4602
   -19.4117 -19.4117 -19.4116 -19.4116  -8.9731  -8.9731  -8.9370  -8.9370
    -8.6826  -8.6826  -8.6813  -8.6813  -8.6502  -8.6502  -8.6181  -8.6181
    -4.0034  -4.0034  -3.9992  -3.9992  -3.7090  -3.7090  -3.6972  -3.6972
    -3.3807  -3.3807  -3.2880  -3.2880   3.4753   3.4753   3.6279   3.6279
     4.1290   4.1290   4.3472   4.3472   4.5393   4.5393   4.6325   4.6326
     4.9946   4.9947   5.1517   5.1517   5.2456   5.2456   5.3218   5.3219
     5.6347   5.6347   5.7585   5.7585   5.9252   5.9253   6.2041   6.2041
     6.4271   6.4272   6.4854   6.4854   6.6962   6.6962   6.7785   6.7785
     9.4127   9.4127   9.5140   9.5140  10.1633  10.1633  10.3329  10.3330
    10.4790  10.4791  10.5070  10.5070  11.8311  11.8311  12.1253  12.1253
    12.4765  12.4765  12.6752  12.6752  12.7557  12.7557  12.9141  12.9141
    13.1085  13.1085  13.3818  13.3818

     occupation numbers 
     1.0000   1.0000   1.0000   1.0000   1.0000   1.0000   1.0000   1.0000
     1.0000   1.0000   1.0000   1.0000   1.0000   1.0000   1.0000   1.0000
     1.0000   1.0000   1.0000   1.0000   1.0000   1.0000   1.0000   1.0000
     1.0000   1.0000   1.0000   1.0000   1.0000   1.0000   1.0000   1.0000
     1.0000   1.0000   1.0000   1.0000   1.0000   1.0000   1.0000   1.0000
     1.0000   1.0000   1.0000   1.0000   1.0000   1.0000   1.0000   1.0000
     1.0000   1.0000   1.0000   1.0000   1.0000   1.0000   1.0000   1.0000
     1.0000   1.0000   1.0000   1.0000   1.0000   1.0000   1.0000   1.0000
     1.0000   1.0000   1.0000   1.0000   1.0000   1.0000   1.0000   1.0000
     1.0000   1.0000   1.0000   1.0000   1.0000   1.0000   1.0000   1.0000
     0.0000   0.0000   0.0000   0.0000   0.0000   0.0000   0.0000   0.0000
     0.0000   0.0000   0.0000   0.0000   0.0000   0.0000   0.0000   0.0000
     0.0000   0.0000   0.0000   0.0000   0.0000   0.0000   0.0000   0.0000
     0.0000   0.0000   0.0000   0.0000

          k =-0.5000 0.0888-0.1371 ( 18772 PWs)   bands (ev):

   -41.4187 -41.4187 -41.4185 -41.4185 -26.6505 -26.6505 -26.6495 -26.6495
   -19.5122 -19.5122 -19.5121 -19.5121 -19.4603 -19.4603 -19.4602 -19.4602
   -19.4117 -19.4117 -19.4116 -19.4116  -8.9731  -8.9731  -8.9370  -8.9370
    -8.6826  -8.6826  -8.6813  -8.6813  -8.6502  -8.6502  -8.6181  -8.6181
    -4.0037  -4.0037  -3.9989  -3.9989  -3.7094  -3.7094  -3.6971  -3.6971
    -3.3806  -3.3806  -3.2879  -3.2879   3.4709   3.4709   3.6331   3.6331
     4.1225   4.1225   4.3438   4.3438   4.5422   4.5422   4.6393   4.6393
     5.0153   5.0153   5.1235   5.1235   5.2557   5.2557   5.3286   5.3286
     5.6618   5.6618   5.7133   5.7133   5.9465   5.9465   6.1712   6.1712
     6.4519   6.4519   6.4686   6.4686   6.7064   6.7064   6.7813   6.7813
     9.4374   9.4374   9.4772   9.4772  10.2067  10.2067  10.2918  10.2918
    10.4895  10.4895  10.4953  10.4953  11.8274  11.8274  12.1633  12.1633
    12.4689  12.4689  12.6542  12.6542  12.7767  12.7767  12.9248  12.9248
    13.1343  13.1343  13.3626  13.3626

     occupation numbers 
     1.0000   1.0000   1.0000   1.0000   1.0000   1.0000   1.0000   1.0000
     1.0000   1.0000   1.0000   1.0000   1.0000   1.0000   1.0000   1.0000
     1.0000   1.0000   1.0000   1.0000   1.0000   1.0000   1.0000   1.0000
     1.0000   1.0000   1.0000   1.0000   1.0000   1.0000   1.0000   1.0000
     1.0000   1.0000   1.0000   1.0000   1.0000   1.0000   1.0000   1.0000
     1.0000   1.0000   1.0000   1.0000   1.0000   1.0000   1.0000   1.0000
     1.0000   1.0000   1.0000   1.0000   1.0000   1.0000   1.0000   1.0000
     1.0000   1.0000   1.0000   1.0000   1.0000   1.0000   1.0000   1.0000
     1.0000   1.0000   1.0000   1.0000   1.0000   1.0000   1.0000   1.0000
     1.0000   1.0000   1.0000   1.0000   1.0000   1.0000   1.0000   1.0000
     0.0000   0.0000   0.0000   0.0000   0.0000   0.0000   0.0000   0.0000
     0.0000   0.0000   0.0000   0.0000   0.0000   0.0000   0.0000   0.0000
     0.0000   0.0000   0.0000   0.0000   0.0000   0.0000   0.0000   0.0000
     0.0000   0.0000   0.0000   0.0000

          k =-0.5000 0.1333 0.0000 ( 18714 PWs)   bands (ev):

   -41.4187 -41.4187 -41.4185 -41.4185 -26.6504 -26.6504 -26.6496 -26.6496
   -19.5123 -19.5123 -19.5121 -19.5121 -19.4603 -19.4603 -19.4602 -19.4602
   -19.4117 -19.4117 -19.4116 -19.4116  -8.9683  -8.9683  -8.9420  -8.9420
    -8.6833  -8.6833  -8.6820  -8.6820  -8.6450  -8.6450  -8.6220  -8.6220
    -4.0012  -4.0012  -4.0011  -4.0011  -3.7071  -3.7071  -3.7003  -3.7003
    -3.3670  -3.3670  -3.3002  -3.3002   3.4643   3.4643   3.5376   3.5376
     4.2279   4.2279   4.3755   4.3755   4.5984   4.5984   4.6127   4.6127
     4.9743   4.9743   5.0662   5.0662   5.2494   5.2494   5.3517   5.3517
     5.6677   5.6677   5.7526   5.7526   6.1213   6.1213   6.1405   6.1405
     6.4196   6.4196   6.4268   6.4268   6.6555   6.6555   6.6805   6.6805
     9.4496   9.4496   9.5920   9.5920  10.1241  10.1241  10.3551  10.3551
    10.4808  10.4808  10.5316  10.5316  11.8862  11.8862  11.9818  11.9818
    12.5797  12.5797  12.6045  12.6045  12.7508  12.7508  12.7675  12.7675
    13.3804  13.3804  13.4438  13.4438

     occupation numbers 
     1.0000   1.0000   1.0000   1.0000   1.0000   1.0000   1.0000   1.0000
     1.0000   1.0000   1.0000   1.0000   1.0000   1.0000   1.0000   1.0000
     1.0000   1.0000   1.0000   1.0000   1.0000   1.0000   1.0000   1.0000
     1.0000   1.0000   1.0000   1.0000   1.0000   1.0000   1.0000   1.0000
     1.0000   1.0000   1.0000   1.0000   1.0000   1.0000   1.0000   1.0000
     1.0000   1.0000   1.0000   1.0000   1.0000   1.0000   1.0000   1.0000
     1.0000   1.0000   1.0000   1.0000   1.0000   1.0000   1.0000   1.0000
     1.0000   1.0000   1.0000   1.0000   1.0000   1.0000   1.0000   1.0000
     1.0000   1.0000   1.0000   1.0000   1.0000   1.0000   1.0000   1.0000
     1.0000   1.0000   1.0000   1.0000   1.0000   1.0000   1.0000   1.0000
     0.0000   0.0000   0.0000   0.0000   0.0000   0.0000   0.0000   0.0000
     0.0000   0.0000   0.0000   0.0000   0.0000   0.0000   0.0000   0.0000
     0.0000   0.0000   0.0000   0.0000   0.0000   0.0000   0.0000   0.0000
     0.0000   0.0000   0.0000   0.0000

          k =-0.5000 0.1333 0.0457 ( 18730 PWs)   bands (ev):

   -41.4187 -41.4187 -41.4185 -41.4185 -26.6504 -26.6504 -26.6496 -26.6496
   -19.5123 -19.5123 -19.5121 -19.5121 -19.4603 -19.4603 -19.4602 -19.4602
   -19.4117 -19.4117 -19.4116 -19.4116  -8.9683  -8.9683  -8.9420  -8.9420
    -8.6833  -8.6833  -8.6820  -8.6820  -8.6450  -8.6450  -8.6220  -8.6220
    -4.0020  -4.0020  -4.0003  -4.0003  -3.7075  -3.7075  -3.7000  -3.7000
    -3.3669  -3.3669  -3.3001  -3.3001   3.4583   3.4583   3.5423   3.5423
     4.2228   4.2228   4.3777   4.3777   4.5764   4.5765   4.6311   4.6311
     4.9744   4.9744   5.1057   5.1057   5.2474   5.2474   5.3445   5.3445
     5.6628   5.6628   5.7661   5.7661   5.9995   5.9995   6.2146   6.2147
     6.3845   6.3846   6.4441   6.4441   6.6397   6.6398   6.7348   6.7348
     9.4515   9.4515   9.5763   9.5763  10.1384  10.1384  10.3380  10.3380
    10.4853  10.4853  10.5275  10.5275  11.8647  11.8647  12.0277  12.0277
    12.5456  12.5456  12.6254  12.6254  12.7760  12.7761  12.8154  12.8154
    13.2806  13.2806  13.4206  13.4206

     occupation numbers 
     1.0000   1.0000   1.0000   1.0000   1.0000   1.0000   1.0000   1.0000
     1.0000   1.0000   1.0000   1.0000   1.0000   1.0000   1.0000   1.0000
     1.0000   1.0000   1.0000   1.0000   1.0000   1.0000   1.0000   1.0000
     1.0000   1.0000   1.0000   1.0000   1.0000   1.0000   1.0000   1.0000
     1.0000   1.0000   1.0000   1.0000   1.0000   1.0000   1.0000   1.0000
     1.0000   1.0000   1.0000   1.0000   1.0000   1.0000   1.0000   1.0000
     1.0000   1.0000   1.0000   1.0000   1.0000   1.0000   1.0000   1.0000
     1.0000   1.0000   1.0000   1.0000   1.0000   1.0000   1.0000   1.0000
     1.0000   1.0000   1.0000   1.0000   1.0000   1.0000   1.0000   1.0000
     1.0000   1.0000   1.0000   1.0000   1.0000   1.0000   1.0000   1.0000
     0.0000   0.0000   0.0000   0.0000   0.0000   0.0000   0.0000   0.0000
     0.0000   0.0000   0.0000   0.0000   0.0000   0.0000   0.0000   0.0000
     0.0000   0.0000   0.0000   0.0000   0.0000   0.0000   0.0000   0.0000
     0.0000   0.0000   0.0000   0.0000

          k =-0.5000 0.1333 0.0914 ( 18730 PWs)   bands (ev):

   -41.4187 -41.4187 -41.4185 -41.4185 -26.6504 -26.6504 -26.6496 -26.6496
   -19.5123 -19.5123 -19.5121 -19.5121 -19.4603 -19.4603 -19.4602 -19.4602
   -19.4117 -19.4117 -19.4116 -19.4116  -8.9683  -8.9683  -8.9420  -8.9420
    -8.6833  -8.6833  -8.6820  -8.6820  -8.6450  -8.6450  -8.6220  -8.6220
    -4.0026  -4.0026  -3.9997  -3.9997  -3.7083  -3.7083  -3.6995  -3.6995
    -3.3668  -3.3668  -3.2998  -3.2998   3.4482   3.4482   3.5497   3.5497
     4.2142   4.2143   4.3788   4.3788   4.5688   4.5688   4.6286   4.6286
     5.0096   5.0096   5.1529   5.1529   5.2529   5.2529   5.3231   5.3231
     5.6627   5.6627   5.7701   5.7701   5.9301   5.9301   6.1463   6.1463
     6.3973   6.3973   6.4478   6.4478   6.6856   6.6857   6.7688   6.7689
     9.4610   9.4610   9.5401   9.5401  10.1741  10.1741  10.2972  10.2973
    10.4951  10.4951  10.5179  10.5179  11.8430  11.8430  12.0992  12.0992
    12.5099  12.5099  12.6718  12.6718  12.8122  12.8122  12.8999  12.8999
    13.1349  13.1349  13.3558  13.3558

     occupation numbers 
     1.0000   1.0000   1.0000   1.0000   1.0000   1.0000   1.0000   1.0000
     1.0000   1.0000   1.0000   1.0000   1.0000   1.0000   1.0000   1.0000
     1.0000   1.0000   1.0000   1.0000   1.0000   1.0000   1.0000   1.0000
     1.0000   1.0000   1.0000   1.0000   1.0000   1.0000   1.0000   1.0000
     1.0000   1.0000   1.0000   1.0000   1.0000   1.0000   1.0000   1.0000
     1.0000   1.0000   1.0000   1.0000   1.0000   1.0000   1.0000   1.0000
     1.0000   1.0000   1.0000   1.0000   1.0000   1.0000   1.0000   1.0000
     1.0000   1.0000   1.0000   1.0000   1.0000   1.0000   1.0000   1.0000
     1.0000   1.0000   1.0000   1.0000   1.0000   1.0000   1.0000   1.0000
     1.0000   1.0000   1.0000   1.0000   1.0000   1.0000   1.0000   1.0000
     0.0000   0.0000   0.0000   0.0000   0.0000   0.0000   0.0000   0.0000
     0.0000   0.0000   0.0000   0.0000   0.0000   0.0000   0.0000   0.0000
     0.0000   0.0000   0.0000   0.0000   0.0000   0.0000   0.0000   0.0000
     0.0000   0.0000   0.0000   0.0000

          k =-0.5000 0.1333-0.1371 ( 18712 PWs)   bands (ev):

   -41.4187 -41.4187 -41.4185 -41.4185 -26.6504 -26.6504 -26.6496 -26.6496
   -19.5123 -19.5123 -19.5121 -19.5121 -19.4603 -19.4603 -19.4602 -19.4602
   -19.4117 -19.4117 -19.4116 -19.4116  -8.9683  -8.9683  -8.9420  -8.9420
    -8.6833  -8.6833  -8.6820  -8.6820  -8.6450  -8.6450  -8.6220  -8.6220
    -4.0028  -4.0028  -3.9995  -3.9995  -3.7087  -3.7087  -3.6993  -3.6993
    -3.3667  -3.3667  -3.2997  -3.2997   3.4437   3.4437   3.5527   3.5527
     4.2107   4.2107   4.3779   4.3779   4.5737   4.5737   4.6181   4.6181
     5.0445   5.0445   5.1522   5.1522   5.2810   5.2810   5.2954   5.2954
     5.6700   5.6700   5.7473   5.7473   5.9538   5.9538   6.0668   6.0668
     6.4103   6.4103   6.4480   6.4480   6.7382   6.7382   6.7558   6.7558
     9.4739   9.4739   9.5142   9.5142  10.2036  10.2036  10.2652  10.2652
    10.5061  10.5061  10.5067  10.5067  11.8361  11.8361  12.1311  12.1311
    12.5042  12.5042  12.6899  12.6899  12.8546  12.8546  12.9042  12.9042
    13.0912  13.0912  13.3169  13.3169

     occupation numbers 
     1.0000   1.0000   1.0000   1.0000   1.0000   1.0000   1.0000   1.0000
     1.0000   1.0000   1.0000   1.0000   1.0000   1.0000   1.0000   1.0000
     1.0000   1.0000   1.0000   1.0000   1.0000   1.0000   1.0000   1.0000
     1.0000   1.0000   1.0000   1.0000   1.0000   1.0000   1.0000   1.0000
     1.0000   1.0000   1.0000   1.0000   1.0000   1.0000   1.0000   1.0000
     1.0000   1.0000   1.0000   1.0000   1.0000   1.0000   1.0000   1.0000
     1.0000   1.0000   1.0000   1.0000   1.0000   1.0000   1.0000   1.0000
     1.0000   1.0000   1.0000   1.0000   1.0000   1.0000   1.0000   1.0000
     1.0000   1.0000   1.0000   1.0000   1.0000   1.0000   1.0000   1.0000
     1.0000   1.0000   1.0000   1.0000   1.0000   1.0000   1.0000   1.0000
     0.0000   0.0000   0.0000   0.0000   0.0000   0.0000   0.0000   0.0000
     0.0000   0.0000   0.0000   0.0000   0.0000   0.0000   0.0000   0.0000
     0.0000   0.0000   0.0000   0.0000   0.0000   0.0000   0.0000   0.0000
     0.0000   0.0000   0.0000   0.0000

          k =-0.5000 0.1777 0.0000 ( 18680 PWs)   bands (ev):

   -41.4187 -41.4187 -41.4185 -41.4185 -26.6502 -26.6502 -26.6498 -26.6498
   -19.5123 -19.5123 -19.5121 -19.5121 -19.4603 -19.4603 -19.4601 -19.4601
   -19.4117 -19.4117 -19.4116 -19.4116  -8.9621  -8.9621  -8.9483  -8.9483
    -8.6835  -8.6835  -8.6827  -8.6827  -8.6390  -8.6390  -8.6270  -8.6270
    -4.0011  -4.0011  -4.0011  -4.0011  -3.7060  -3.7060  -3.7026  -3.7026
    -3.3503  -3.3503  -3.3153  -3.3153   3.4496   3.4496   3.4847   3.4847
     4.2869   4.2869   4.3634   4.3634   4.6480   4.6480   4.6540   4.6540
     4.9629   4.9629   5.0105   5.0105   5.2800   5.2800   5.3514   5.3514
     5.6976   5.6976   5.7187   5.7187   6.1950   6.1950   6.2172   6.2172
     6.3525   6.3525   6.3766   6.3766   6.6052   6.6052   6.6290   6.6290
     9.5146   9.5146   9.5894   9.5894  10.1768  10.1768  10.2985  10.2985
    10.5007  10.5007  10.5274  10.5274  11.9078  11.9078  11.9513  11.9513
    12.5135  12.5135  12.5298  12.5298  12.8890  12.8890  12.9258  12.9258
    13.2934  13.2934  13.4065  13.4065

     occupation numbers 
     1.0000   1.0000   1.0000   1.0000   1.0000   1.0000   1.0000   1.0000
     1.0000   1.0000   1.0000   1.0000   1.0000   1.0000   1.0000   1.0000
     1.0000   1.0000   1.0000   1.0000   1.0000   1.0000   1.0000   1.0000
     1.0000   1.0000   1.0000   1.0000   1.0000   1.0000   1.0000   1.0000
     1.0000   1.0000   1.0000   1.0000   1.0000   1.0000   1.0000   1.0000
     1.0000   1.0000   1.0000   1.0000   1.0000   1.0000   1.0000   1.0000
     1.0000   1.0000   1.0000   1.0000   1.0000   1.0000   1.0000   1.0000
     1.0000   1.0000   1.0000   1.0000   1.0000   1.0000   1.0000   1.0000
     1.0000   1.0000   1.0000   1.0000   1.0000   1.0000   1.0000   1.0000
     1.0000   1.0000   1.0000   1.0000   1.0000   1.0000   1.0000   1.0000
     0.0000   0.0000   0.0000   0.0000   0.0000   0.0000   0.0000   0.0000
     0.0000   0.0000   0.0000   0.0000   0.0000   0.0000   0.0000   0.0000
     0.0000   0.0000   0.0000   0.0000   0.0000   0.0000   0.0000   0.0000
     0.0000   0.0000   0.0000   0.0000

          k =-0.5000 0.1777 0.0457 ( 18714 PWs)   bands (ev):

   -41.4187 -41.4187 -41.4185 -41.4185 -26.6502 -26.6502 -26.6498 -26.6498
   -19.5123 -19.5123 -19.5121 -19.5121 -19.4603 -19.4603 -19.4601 -19.4601
   -19.4117 -19.4117 -19.4116 -19.4116  -8.9621  -8.9621  -8.9483  -8.9483
    -8.6835  -8.6835  -8.6827  -8.6827  -8.6390  -8.6390  -8.6270  -8.6270
    -4.0015  -4.0015  -4.0006  -4.0006  -3.7063  -3.7063  -3.7025  -3.7025
    -3.3502  -3.3502  -3.3152  -3.3152   3.4452   3.4452   3.4863   3.4863
     4.2865   4.2865   4.3659   4.3659   4.6233   4.6234   4.6563   4.6563
     4.9817   4.9817   5.0520   5.0520   5.2777   5.2777   5.3458   5.3458
     5.6903   5.6904   5.7379   5.7379   6.0665   6.0665   6.2129   6.2129
     6.3467   6.3467   6.4062   6.4062   6.6168   6.6168   6.6923   6.6924
     9.5113   9.5113   9.5779   9.5779  10.1818  10.1818  10.2871  10.2871
    10.5033  10.5033  10.5259  10.5259  11.8916  11.8916  11.9840  11.9840
    12.5133  12.5133  12.5540  12.5540  12.9004  12.9004  12.9542  12.9542
    13.2417  13.2417  13.3713  13.3713

     occupation numbers 
     1.0000   1.0000   1.0000   1.0000   1.0000   1.0000   1.0000   1.0000
     1.0000   1.0000   1.0000   1.0000   1.0000   1.0000   1.0000   1.0000
     1.0000   1.0000   1.0000   1.0000   1.0000   1.0000   1.0000   1.0000
     1.0000   1.0000   1.0000   1.0000   1.0000   1.0000   1.0000   1.0000
     1.0000   1.0000   1.0000   1.0000   1.0000   1.0000   1.0000   1.0000
     1.0000   1.0000   1.0000   1.0000   1.0000   1.0000   1.0000   1.0000
     1.0000   1.0000   1.0000   1.0000   1.0000   1.0000   1.0000   1.0000
     1.0000   1.0000   1.0000   1.0000   1.0000   1.0000   1.0000   1.0000
     1.0000   1.0000   1.0000   1.0000   1.0000   1.0000   1.0000   1.0000
     1.0000   1.0000   1.0000   1.0000   1.0000   1.0000   1.0000   1.0000
     0.0000   0.0000   0.0000   0.0000   0.0000   0.0000   0.0000   0.0000
     0.0000   0.0000   0.0000   0.0000   0.0000   0.0000   0.0000   0.0000
     0.0000   0.0000   0.0000   0.0000   0.0000   0.0000   0.0000   0.0000
     0.0000   0.0000   0.0000   0.0000

          k =-0.5000 0.1777 0.0914 ( 18714 PWs)   bands (ev):

   -41.4187 -41.4187 -41.4185 -41.4185 -26.6502 -26.6502 -26.6498 -26.6498
   -19.5123 -19.5123 -19.5121 -19.5121 -19.4603 -19.4603 -19.4601 -19.4601
   -19.4117 -19.4117 -19.4116 -19.4116  -8.9621  -8.9621  -8.9483  -8.9483
    -8.6835  -8.6835  -8.6827  -8.6827  -8.6390  -8.6390  -8.6270  -8.6270
    -4.0018  -4.0018  -4.0003  -4.0003  -3.7069  -3.7069  -3.7022  -3.7022
    -3.3500  -3.3500  -3.3150  -3.3150   3.4375   3.4375   3.4881   3.4881
     4.2868   4.2868   4.3695   4.3695   4.6051   4.6051   4.6343   4.6343
     5.0407   5.0407   5.1194   5.1194   5.2754   5.2754   5.3266   5.3266
     5.6919   5.6919   5.7684   5.7684   5.9476   5.9476   6.0793   6.0793
     6.3747   6.3747   6.4152   6.4152   6.6930   6.6930   6.7516   6.7516
     9.5075   9.5076   9.5521   9.5521  10.1956  10.1956  10.2609  10.2609
    10.5092  10.5093  10.5218  10.5219  11.8787  11.8787  12.0285  12.0285
    12.5218  12.5218  12.6032  12.6032  12.9389  12.9389  13.0026  13.0026
    13.1395  13.1395  13.3011  13.3011

     occupation numbers 
     1.0000   1.0000   1.0000   1.0000   1.0000   1.0000   1.0000   1.0000
     1.0000   1.0000   1.0000   1.0000   1.0000   1.0000   1.0000   1.0000
     1.0000   1.0000   1.0000   1.0000   1.0000   1.0000   1.0000   1.0000
     1.0000   1.0000   1.0000   1.0000   1.0000   1.0000   1.0000   1.0000
     1.0000   1.0000   1.0000   1.0000   1.0000   1.0000   1.0000   1.0000
     1.0000   1.0000   1.0000   1.0000   1.0000   1.0000   1.0000   1.0000
     1.0000   1.0000   1.0000   1.0000   1.0000   1.0000   1.0000   1.0000
     1.0000   1.0000   1.0000   1.0000   1.0000   1.0000   1.0000   1.0000
     1.0000   1.0000   1.0000   1.0000   1.0000   1.0000   1.0000   1.0000
     1.0000   1.0000   1.0000   1.0000   1.0000   1.0000   1.0000   1.0000
     0.0000   0.0000   0.0000   0.0000   0.0000   0.0000   0.0000   0.0000
     0.0000   0.0000   0.0000   0.0000   0.0000   0.0000   0.0000   0.0000
     0.0000   0.0000   0.0000   0.0000   0.0000   0.0000   0.0000   0.0000
     0.0000   0.0000   0.0000   0.0000

          k =-0.5000 0.1777-0.1371 ( 18716 PWs)   bands (ev):

   -41.4187 -41.4187 -41.4185 -41.4185 -26.6502 -26.6502 -26.6498 -26.6498
   -19.5123 -19.5123 -19.5121 -19.5121 -19.4603 -19.4603 -19.4601 -19.4601
   -19.4117 -19.4117 -19.4116 -19.4116  -8.9621  -8.9621  -8.9483  -8.9483
    -8.6835  -8.6835  -8.6827  -8.6827  -8.6390  -8.6390  -8.6270  -8.6270
    -4.0019  -4.0019  -4.0002  -4.0002  -3.7072  -3.7072  -3.7021  -3.7021
    -3.3500  -3.3500  -3.3148  -3.3148   3.4341   3.4341   3.4886   3.4886
     4.2874   4.2874   4.3705   4.3705   4.6078   4.6078   4.6139   4.6139
     5.0806   5.0806   5.1460   5.1460   5.2896   5.2896   5.2986   5.2986
     5.7005   5.7005   5.7745   5.7745   5.9329   5.9329   5.9844   5.9844
     6.3828   6.3828   6.4158   6.4158   6.7505   6.7505   6.7540   6.7540
     9.5094   9.5094   9.5356   9.5356  10.2087  10.2087  10.2419  10.2419
    10.5151  10.5151  10.5168  10.5168  11.8751  11.8751  12.0470  12.0470
    12.5304  12.5304  12.6289  12.6289  12.9903  12.9903  13.0056  13.0056
    13.0770  13.0770  13.2705  13.2705

     occupation numbers 
     1.0000   1.0000   1.0000   1.0000   1.0000   1.0000   1.0000   1.0000
     1.0000   1.0000   1.0000   1.0000   1.0000   1.0000   1.0000   1.0000
     1.0000   1.0000   1.0000   1.0000   1.0000   1.0000   1.0000   1.0000
     1.0000   1.0000   1.0000   1.0000   1.0000   1.0000   1.0000   1.0000
     1.0000   1.0000   1.0000   1.0000   1.0000   1.0000   1.0000   1.0000
     1.0000   1.0000   1.0000   1.0000   1.0000   1.0000   1.0000   1.0000
     1.0000   1.0000   1.0000   1.0000   1.0000   1.0000   1.0000   1.0000
     1.0000   1.0000   1.0000   1.0000   1.0000   1.0000   1.0000   1.0000
     1.0000   1.0000   1.0000   1.0000   1.0000   1.0000   1.0000   1.0000
     1.0000   1.0000   1.0000   1.0000   1.0000   1.0000   1.0000   1.0000
     0.0000   0.0000   0.0000   0.0000   0.0000   0.0000   0.0000   0.0000
     0.0000   0.0000   0.0000   0.0000   0.0000   0.0000   0.0000   0.0000
     0.0000   0.0000   0.0000   0.0000   0.0000   0.0000   0.0000   0.0000
     0.0000   0.0000   0.0000   0.0000

          k =-0.5000-0.2221 0.0000 ( 18692 PWs)   bands (ev):

   -41.4187 -41.4187 -41.4185 -41.4185 -26.6500 -26.6500 -26.6500 -26.6500
   -19.5123 -19.5123 -19.5121 -19.5121 -19.4603 -19.4603 -19.4601 -19.4601
   -19.4117 -19.4117 -19.4116 -19.4116  -8.9552  -8.9552  -8.9551  -8.9551
    -8.6833  -8.6833  -8.6833  -8.6833  -8.6329  -8.6329  -8.6328  -8.6328
    -4.0010  -4.0010  -4.0010  -4.0010  -3.7046  -3.7046  -3.7045  -3.7045
    -3.3325  -3.3325  -3.3324  -3.3324   3.4553   3.4553   3.4553   3.4553
     4.3314   4.3314   4.3314   4.3314   4.6714   4.6714   4.6715   4.6715
     4.9746   4.9746   4.9746   4.9746   5.3201   5.3201   5.3201   5.3201
     5.7057   5.7057   5.7058   5.7058   6.2515   6.2515   6.2515   6.2515
     6.3313   6.3313   6.3314   6.3314   6.5926   6.5926   6.5927   6.5927
     9.5640   9.5640   9.5641   9.5641  10.2373  10.2373  10.2374  10.2374
    10.5165  10.5165  10.5167  10.5167  11.9262  11.9262  11.9262  11.9262
    12.4941  12.4941  12.4941  12.4941  13.0237  13.0237  13.0238  13.0238
    13.2437  13.2437  13.2437  13.2437

     occupation numbers 
     1.0000   1.0000   1.0000   1.0000   1.0000   1.0000   1.0000   1.0000
     1.0000   1.0000   1.0000   1.0000   1.0000   1.0000   1.0000   1.0000
     1.0000   1.0000   1.0000   1.0000   1.0000   1.0000   1.0000   1.0000
     1.0000   1.0000   1.0000   1.0000   1.0000   1.0000   1.0000   1.0000
     1.0000   1.0000   1.0000   1.0000   1.0000   1.0000   1.0000   1.0000
     1.0000   1.0000   1.0000   1.0000   1.0000   1.0000   1.0000   1.0000
     1.0000   1.0000   1.0000   1.0000   1.0000   1.0000   1.0000   1.0000
     1.0000   1.0000   1.0000   1.0000   1.0000   1.0000   1.0000   1.0000
     1.0000   1.0000   1.0000   1.0000   1.0000   1.0000   1.0000   1.0000
     1.0000   1.0000   1.0000   1.0000   1.0000   1.0000   1.0000   1.0000
     0.0000   0.0000   0.0000   0.0000   0.0000   0.0000   0.0000   0.0000
     0.0000   0.0000   0.0000   0.0000   0.0000   0.0000   0.0000   0.0000
     0.0000   0.0000   0.0000   0.0000   0.0000   0.0000   0.0000   0.0000
     0.0000   0.0000   0.0000   0.0000

          k =-0.5000-0.2221 0.0457 ( 18696 PWs)   bands (ev):

   -41.4187 -41.4187 -41.4185 -41.4185 -26.6500 -26.6500 -26.6500 -26.6500
   -19.5123 -19.5123 -19.5121 -19.5121 -19.4603 -19.4603 -19.4601 -19.4601
   -19.4117 -19.4117 -19.4116 -19.4116  -8.9552  -8.9552  -8.9552  -8.9552
    -8.6833  -8.6833  -8.6833  -8.6833  -8.6329  -8.6329  -8.6328  -8.6328
    -4.0010  -4.0010  -4.0010  -4.0010  -3.7047  -3.7047  -3.7046  -3.7046
    -3.3324  -3.3324  -3.3323  -3.3323   3.4536   3.4536   3.4536   3.4536
     4.3334   4.3334   4.3335   4.3335   4.6556   4.6556   4.6556   4.6556
     5.0093   5.0093   5.0093   5.0093   5.3166   5.3166   5.3167   5.3167
     5.7124   5.7124   5.7124   5.7124   6.1466   6.1466   6.1467   6.1467
     6.3680   6.3680   6.3681   6.3681   6.6426   6.6426   6.6427   6.6427
     9.5563   9.5563   9.5564   9.5564  10.2334  10.2334  10.2335  10.2335
    10.5172  10.5172  10.5174  10.5174  11.9325  11.9325  11.9325  11.9325
    12.5105  12.5105  12.5106  12.5106  13.0325  13.0325  13.0326  13.0326
    13.2289  13.2289  13.2290  13.2290

     occupation numbers 
     1.0000   1.0000   1.0000   1.0000   1.0000   1.0000   1.0000   1.0000
     1.0000   1.0000   1.0000   1.0000   1.0000   1.0000   1.0000   1.0000
     1.0000   1.0000   1.0000   1.0000   1.0000   1.0000   1.0000   1.0000
     1.0000   1.0000   1.0000   1.0000   1.0000   1.0000   1.0000   1.0000
     1.0000   1.0000   1.0000   1.0000   1.0000   1.0000   1.0000   1.0000
     1.0000   1.0000   1.0000   1.0000   1.0000   1.0000   1.0000   1.0000
     1.0000   1.0000   1.0000   1.0000   1.0000   1.0000   1.0000   1.0000
     1.0000   1.0000   1.0000   1.0000   1.0000   1.0000   1.0000   1.0000
     1.0000   1.0000   1.0000   1.0000   1.0000   1.0000   1.0000   1.0000
     1.0000   1.0000   1.0000   1.0000   1.0000   1.0000   1.0000   1.0000
     0.0000   0.0000   0.0000   0.0000   0.0000   0.0000   0.0000   0.0000
     0.0000   0.0000   0.0000   0.0000   0.0000   0.0000   0.0000   0.0000
     0.0000   0.0000   0.0000   0.0000   0.0000   0.0000   0.0000   0.0000
     0.0000   0.0000   0.0000   0.0000

          k =-0.5000-0.2221 0.0914 ( 18732 PWs)   bands (ev):

   -41.4187 -41.4187 -41.4185 -41.4185 -26.6500 -26.6500 -26.6500 -26.6500
   -19.5123 -19.5123 -19.5121 -19.5121 -19.4603 -19.4603 -19.4601 -19.4601
   -19.4117 -19.4117 -19.4116 -19.4116  -8.9552  -8.9552  -8.9552  -8.9552
    -8.6833  -8.6833  -8.6833  -8.6833  -8.6329  -8.6329  -8.6328  -8.6328
    -4.0010  -4.0010  -4.0010  -4.0010  -3.7049  -3.7049  -3.7047  -3.7047
    -3.3322  -3.3322  -3.3321  -3.3321   3.4501   3.4501   3.4502   3.4502
     4.3377   4.3377   4.3378   4.3378   4.6295   4.6295   4.6295   4.6295
     5.0787   5.0787   5.0788   5.0788   5.3067   5.3067   5.3067   5.3067
     5.7333   5.7333   5.7334   5.7334   6.0044   6.0044   6.0045   6.0045
     6.3845   6.3845   6.3846   6.3846   6.7217   6.7217   6.7218   6.7218
     9.5407   9.5407   9.5408   9.5408  10.2260  10.2260  10.2260  10.2260
    10.5186  10.5186  10.5187  10.5187  11.9442  11.9442  11.9442  11.9442
    12.5472  12.5472  12.5472  12.5472  13.0459  13.0459  13.0459  13.0459
    13.1989  13.1989  13.1989  13.1989

     occupation numbers 
     1.0000   1.0000   1.0000   1.0000   1.0000   1.0000   1.0000   1.0000
     1.0000   1.0000   1.0000   1.0000   1.0000   1.0000   1.0000   1.0000
     1.0000   1.0000   1.0000   1.0000   1.0000   1.0000   1.0000   1.0000
     1.0000   1.0000   1.0000   1.0000   1.0000   1.0000   1.0000   1.0000
     1.0000   1.0000   1.0000   1.0000   1.0000   1.0000   1.0000   1.0000
     1.0000   1.0000   1.0000   1.0000   1.0000   1.0000   1.0000   1.0000
     1.0000   1.0000   1.0000   1.0000   1.0000   1.0000   1.0000   1.0000
     1.0000   1.0000   1.0000   1.0000   1.0000   1.0000   1.0000   1.0000
     1.0000   1.0000   1.0000   1.0000   1.0000   1.0000   1.0000   1.0000
     1.0000   1.0000   1.0000   1.0000   1.0000   1.0000   1.0000   1.0000
     0.0000   0.0000   0.0000   0.0000   0.0000   0.0000   0.0000   0.0000
     0.0000   0.0000   0.0000   0.0000   0.0000   0.0000   0.0000   0.0000
     0.0000   0.0000   0.0000   0.0000   0.0000   0.0000   0.0000   0.0000
     0.0000   0.0000   0.0000   0.0000

          k =-0.5000-0.2221-0.1371 ( 18720 PWs)   bands (ev):

   -41.4187 -41.4187 -41.4185 -41.4185 -26.6500 -26.6500 -26.6500 -26.6500
   -19.5123 -19.5123 -19.5121 -19.5121 -19.4603 -19.4603 -19.4601 -19.4601
   -19.4117 -19.4117 -19.4116 -19.4116  -8.9552  -8.9552  -8.9552  -8.9552
    -8.6833  -8.6833  -8.6833  -8.6833  -8.6329  -8.6329  -8.6328  -8.6328
    -4.0010  -4.0010  -4.0010  -4.0010  -3.7050  -3.7050  -3.7048  -3.7048
    -3.3321  -3.3321  -3.3320  -3.3320   3.4485   3.4485   3.4485   3.4485
     4.3400   4.3400   4.3400   4.3400   4.6182   4.6182   4.6183   4.6183
     5.1162   5.1162   5.1163   5.1163   5.2987   5.2987   5.2988   5.2988
     5.7533   5.7533   5.7534   5.7534   5.9333   5.9333   5.9333   5.9333
     6.3880   6.3880   6.3880   6.3880   6.7549   6.7549   6.7549   6.7549
     9.5329   9.5329   9.5330   9.5330  10.2224  10.2224  10.2224  10.2224
    10.5192  10.5192  10.5194  10.5194  11.9497  11.9497  11.9497  11.9497
    12.5677  12.5677  12.5678  12.5678  13.0498  13.0498  13.0498  13.0498
    13.1837  13.1837  13.1837  13.1837

     occupation numbers 
     1.0000   1.0000   1.0000   1.0000   1.0000   1.0000   1.0000   1.0000
     1.0000   1.0000   1.0000   1.0000   1.0000   1.0000   1.0000   1.0000
     1.0000   1.0000   1.0000   1.0000   1.0000   1.0000   1.0000   1.0000
     1.0000   1.0000   1.0000   1.0000   1.0000   1.0000   1.0000   1.0000
     1.0000   1.0000   1.0000   1.0000   1.0000   1.0000   1.0000   1.0000
     1.0000   1.0000   1.0000   1.0000   1.0000   1.0000   1.0000   1.0000
     1.0000   1.0000   1.0000   1.0000   1.0000   1.0000   1.0000   1.0000
     1.0000   1.0000   1.0000   1.0000   1.0000   1.0000   1.0000   1.0000
     1.0000   1.0000   1.0000   1.0000   1.0000   1.0000   1.0000   1.0000
     1.0000   1.0000   1.0000   1.0000   1.0000   1.0000   1.0000   1.0000
     0.0000   0.0000   0.0000   0.0000   0.0000   0.0000   0.0000   0.0000
     0.0000   0.0000   0.0000   0.0000   0.0000   0.0000   0.0000   0.0000
     0.0000   0.0000   0.0000   0.0000   0.0000   0.0000   0.0000   0.0000
     0.0000   0.0000   0.0000   0.0000

     highest occupied, lowest unoccupied level (ev):     7.8437    8.4534

     Writing all to output data dir ./tmp/final/SrZrS3.save/ :
     XML data file
     init_run     :      0.56s CPU      0.58s WALL (       1 calls)
     electrons    :   1708.99s CPU   4532.48s WALL (       1 calls)

     Called by init_run:
     wfcinit      :      0.00s CPU      0.00s WALL (       1 calls)
     wfcinit:atom :      0.15s CPU      0.15s WALL (      66 calls)
     wfcinit:wfcr :     45.26s CPU     45.71s WALL (      66 calls)
     potinit      :      0.11s CPU      0.12s WALL (       1 calls)
     hinit0       :      0.18s CPU      0.18s WALL (       1 calls)

     Called by electrons:
     c_bands      :   1708.99s CPU   4532.46s WALL (       1 calls)
     v_of_rho     :      0.10s CPU      0.10s WALL (       1 calls)
     v_h          :      0.01s CPU      0.01s WALL (       1 calls)
     v_xc         :      0.09s CPU      0.10s WALL (       1 calls)
     newd         :      0.17s CPU      0.18s WALL (       1 calls)

     Called by c_bands:
     init_us_2    :      0.31s CPU      0.34s WALL (      66 calls)
     cegterg      :   1533.43s CPU   4354.19s WALL (     281 calls)

     Called by sum_band:

     Called by *egterg:
     cdiaghg      :     44.16s CPU     44.61s WALL (    5023 calls)
     cegterg:over :    180.98s CPU    182.71s WALL (    4957 calls)
     cegterg:upda :    101.36s CPU    102.24s WALL (    4957 calls)
     cegterg:last :    262.15s CPU   2061.23s WALL (    2122 calls)
     h_psi        :    773.10s CPU   1779.53s WALL (    5304 calls)
     s_psi        :    188.97s CPU    201.31s WALL (    5304 calls)
     g_psi        :      1.78s CPU      1.80s WALL (    4957 calls)

     Called by h_psi:
     h_psi:calbec :    188.86s CPU   1188.73s WALL (    5304 calls)
     vloc_psi     :    391.34s CPU    396.22s WALL (    5304 calls)
                                        0.00s GPU  (    5304 calls)
     add_vuspsi   :    191.73s CPU    193.39s WALL (    5304 calls)

     General routines
     calbec       :    188.85s CPU   1188.72s WALL (    5304 calls)
     fft          :      0.07s CPU      0.07s WALL (      13 calls)
     ffts         :      0.00s CPU      0.00s WALL (       1 calls)
     fftw         :    357.07s CPU    361.38s WALL (  497806 calls)
     interpolate  :      0.01s CPU      0.01s WALL (       1 calls)

     Parallel routines

     PWSCF        :  28m29.74s CPU      1h15m WALL


   This run was terminated on:   4:37: 4   2Jul2026            

=------------------------------------------------------------------------------=
   JOB DONE.
=------------------------------------------------------------------------------=
