
     Program PWSCF v.7.5 starts on  2Jul2026 at  2:38:18 
        Git branch: develop
        Last git commit: ea9b1b3d7915154c244e4a71786faaa0fdafa55c
        Last git commit date: Mon Mar 16 14:03:30 2026 +0000
        Last git commit subject: Merge branch 'dev_td_porting' into 'develop'

     This program is part of the open-source Quantum ESPRESSO suite
     for quantum simulation of materials; please cite
         "P. Giannozzi et al., J. Phys.:Condens. Matter 21 395502 (2009);
         "P. Giannozzi et al., J. Phys.:Condens. Matter 29 465901 (2017);
         "P. Giannozzi et al., J. Chem. Phys. 152 154105 (2020);
          URL http://www.quantum-espresso.org", 
     in publications or presentations arising from this work. More details at
     http://www.quantum-espresso.org/quote

     Parallel version (MPI), running on     8 processors

     MPI processes distributed on     1 nodes
     0 MiB available memory on the printing compute node when the environment starts

     Reading input from /Users/kaede/research/Waterloo Holger thermoelectric materials/thermo_candidates/SrZrS3/qe/00_relax/SrZrS3.relax.in

     Current dimensions of program PWSCF are:
     Max number of different atomic species (ntypx) = 10
     Max number of k-points (npk) =  40000
     Max angular momentum in pseudopotentials (lmaxx) =  4

     Exact exchange band parallelism type set to band_pairs

     Message from routine setup:
     using ibrav=0 with symmetry is DISCOURAGED, use correct ibrav instead

     K-points division:     npool     =       2
     R & G space division:  proc/nbgrp/npool/nimage =       4
     Subspace diagonalization in iterative solution of the eigenvalue problem:
     a serial algorithm will be used


     Parallelization info
     --------------------
     sticks:   dense  smooth     PW     G-vecs:    dense   smooth      PW
     Min         937     467    132               105173    37183    5623
     Max         938     468    133               105182    37188    5627
     Sum        3749    1869    531               420701   148739   22501

     Using Slab Decomposition



     bravais-lattice index     =            0
     lattice parameter (alat)  =       7.2569  a.u.
     unit-cell volume          =    3114.5940 (a.u.)^3
     number of atoms/cell      =           20
     number of atomic types    =            3
     number of electrons       =       160.00
     number of Kohn-Sham states=           80
     kinetic-energy cutoff     =      50.0000  Ry
     charge density cutoff     =     400.0000  Ry
     scf convergence threshold =      1.0E-08
     mixing beta               =       0.3000
     number of iterations used =            8  plain     mixing
     energy convergence thresh.=      1.0E-05
     force convergence thresh. =      1.0E-03
     press convergence thresh. =      5.0E-01
     Exchange-correlation= SLA  PW   PBE  PBE
                           (   1   4   3   4   0   0   0)
     nstep                     =          100


     celldm(1)=   7.256926  celldm(2)=   0.000000  celldm(3)=   0.000000
     celldm(4)=   0.000000  celldm(5)=   0.000000  celldm(6)=   0.000000

     crystal axes: (cart. coord. in units of alat)
               a(1) = (   1.000000   0.000000   0.000000 )  
               a(2) = (  -0.000000   2.236035   0.000000 )  
               a(3) = (   0.000000   0.000000   3.644724 )  

     reciprocal axes: (cart. coord. in units 2 pi/alat)
               b(1) = (  1.000000  0.000000 -0.000000 )  
               b(2) = (  0.000000  0.447220  0.000000 )  
               b(3) = (  0.000000 -0.000000  0.274369 )  


     PseudoPot. # 1 for S  read from file:
     /Users/kaede/scientific-tools/pseudopotentials/SSSP/1.3.0/PBE/precision/s_pbe_v1.4.uspp.F.UPF
     MD5 check sum: 88d86576ff6df21479756cfb9bdac1df
     Pseudo is Ultrasoft + core correction, Zval =  6.0
     Generated by new atomic code, or converted to UPF format
     Using radial grid of  907 points,  6 beta functions with: 
                l(1) =   0
                l(2) =   0
                l(3) =   1
                l(4) =   1
                l(5) =   2
                l(6) =   2
     Q(r) pseudized with  8 coefficients,  rinner =    1.300   1.300   1.300
                                                       1.300   1.300

     PseudoPot. # 2 for Sr read from file:
     /Users/kaede/scientific-tools/pseudopotentials/SSSP/1.3.0/PBE/precision/Sr_pbe_v1.uspp.F.UPF
     MD5 check sum: 6b418c05fbe9db5448babca5e47b7a5b
     Pseudo is Ultrasoft + core correction, Zval = 10.0
     Generated by new atomic code, or converted to UPF format
     Using radial grid of  883 points,  6 beta functions with: 
                l(1) =   0
                l(2) =   0
                l(3) =   1
                l(4) =   1
                l(5) =   2
                l(6) =   2
     Q(r) pseudized with  6 coefficients,  rinner =    1.400   1.400   1.400
                                                       1.400   1.400

     PseudoPot. # 3 for Zr read from file:
     /Users/kaede/scientific-tools/pseudopotentials/SSSP/1.3.0/PBE/precision/Zr_pbe_v1.uspp.F.UPF
     MD5 check sum: 5db81b1e868ab7776c4564c113de050b
     Pseudo is Ultrasoft + core correction, Zval = 12.0
     Generated by new atomic code, or converted to UPF format
     Using radial grid of  887 points,  6 beta functions with: 
                l(1) =   0
                l(2) =   0
                l(3) =   1
                l(4) =   1
                l(5) =   2
                l(6) =   2
     Q(r) pseudized with  6 coefficients,  rinner =    1.200   1.200   1.200
                                                       1.200   1.200

     atomic species   valence    mass     pseudopotential
     S                 6.00    32.06500     S ( 1.00)
     Sr               10.00    87.62000     Sr( 1.00)
     Zr               12.00    91.22400     Zr( 1.00)

      8 Sym. Ops., with inversion, found ( 6 have fractional translation)


                                    s                        frac. trans.

      isym =  1     identity                                     

 cryst.   s( 1) = (     1          0          0      )
                  (     0          1          0      )
                  (     0          0          1      )

 cart.    s( 1) = (  1.0000000  0.0000000  0.0000000 )
                  (  0.0000000  1.0000000  0.0000000 )
                  (  0.0000000  0.0000000  1.0000000 )


      isym =  2     180 deg rotation - cart. axis [0,0,1]        

 cryst.   s( 2) = (    -1          0          0      )    f =(  0.0000000 )
                  (     0         -1          0      )       ( -0.5000000 )
                  (     0          0          1      )       (  0.5000000 )

 cart.    s( 2) = ( -1.0000000  0.0000000  0.0000000 )    f =(  0.0000000 )
                  (  0.0000000 -1.0000000  0.0000000 )       ( -1.1180177 )
                  (  0.0000000  0.0000000  1.0000000 )       (  1.8223620 )


      isym =  3     180 deg rotation - cart. axis [0,1,0]        

 cryst.   s( 3) = (    -1          0          0      )    f =(  0.5000000 )
                  (     0          1          0      )       (  0.5000000 )
                  (     0          0         -1      )       (  0.5000000 )

 cart.    s( 3) = ( -1.0000000  0.0000000  0.0000000 )    f =(  0.5000000 )
                  (  0.0000000  1.0000000  0.0000000 )       (  1.1180177 )
                  (  0.0000000  0.0000000 -1.0000000 )       (  1.8223620 )


      isym =  4     180 deg rotation - cart. axis [1,0,0]        

 cryst.   s( 4) = (     1          0          0      )    f =( -0.5000000 )
                  (     0         -1          0      )       (  0.0000000 )
                  (     0          0         -1      )       (  0.0000000 )

 cart.    s( 4) = (  1.0000000  0.0000000  0.0000000 )    f =( -0.5000000 )
                  (  0.0000000 -1.0000000  0.0000000 )       (  0.0000000 )
                  (  0.0000000  0.0000000 -1.0000000 )       (  0.0000000 )


      isym =  5     inversion                                    

 cryst.   s( 5) = (    -1          0          0      )
                  (     0         -1          0      )
                  (     0          0         -1      )

 cart.    s( 5) = ( -1.0000000  0.0000000  0.0000000 )
                  (  0.0000000 -1.0000000  0.0000000 )
                  (  0.0000000  0.0000000 -1.0000000 )


      isym =  6     inv. 180 deg rotation - cart. axis [0,0,1]   

 cryst.   s( 6) = (     1          0          0      )    f =(  0.0000000 )
                  (     0          1          0      )       (  0.5000000 )
                  (     0          0         -1      )       (  0.5000000 )

 cart.    s( 6) = (  1.0000000  0.0000000  0.0000000 )    f =(  0.0000000 )
                  (  0.0000000  1.0000000  0.0000000 )       (  1.1180177 )
                  (  0.0000000  0.0000000 -1.0000000 )       (  1.8223620 )


      isym =  7     inv. 180 deg rotation - cart. axis [0,1,0]   

 cryst.   s( 7) = (     1          0          0      )    f =( -0.5000000 )
                  (     0         -1          0      )       ( -0.5000000 )
                  (     0          0          1      )       (  0.5000000 )

 cart.    s( 7) = (  1.0000000  0.0000000  0.0000000 )    f =( -0.5000000 )
                  (  0.0000000 -1.0000000  0.0000000 )       ( -1.1180177 )
                  (  0.0000000  0.0000000  1.0000000 )       (  1.8223620 )


      isym =  8     inv. 180 deg rotation - cart. axis [1,0,0]   

 cryst.   s( 8) = (    -1          0          0      )    f =(  0.5000000 )
                  (     0          1          0      )       (  0.0000000 )
                  (     0          0          1      )       (  0.0000000 )

 cart.    s( 8) = ( -1.0000000  0.0000000  0.0000000 )    f =(  0.5000000 )
                  (  0.0000000  1.0000000  0.0000000 )       (  0.0000000 )
                  (  0.0000000  0.0000000  1.0000000 )       (  0.0000000 )


   Cartesian axes

     site n.     atom                  positions (alat units)
         1        Sr     tau(   1) = (   0.2500000   0.1482894   2.9910901  )
         2        Sr     tau(   2) = (   0.7500000   2.0877460   0.6536339  )
         3        Sr     tau(   3) = (   0.7500000   0.9697283   1.1687281  )
         4        Sr     tau(   4) = (   0.2500000   1.2663071   2.4759958  )
         5        Zr     tau(   5) = (   0.2500000   0.7327533   0.2079279  )
         6        Zr     tau(   6) = (   0.7500000   1.5032821   3.4367961  )
         7        Zr     tau(   7) = (   0.7500000   0.3852644   2.0302898  )
         8        Zr     tau(   8) = (   0.2500000   1.8507709   1.6144341  )
         9        S      tau(   9) = (   0.2500000   0.4620834   0.7862872  )
        10        S      tau(  10) = (   0.7500000   1.7739519   2.8584367  )
        11        S      tau(  11) = (   0.7500000   0.6559343   2.6086492  )
        12        S      tau(  12) = (   0.2500000   1.5801011   1.0360747  )
        13        S      tau(  13) = (   0.2500000   0.7520860   1.7723564  )
        14        S      tau(  14) = (   0.7500000   1.4839493   1.8723676  )
        15        S      tau(  15) = (   0.7500000   0.3659317   3.5947184  )
        16        S      tau(  16) = (   0.2500000   1.8701037   0.0500056  )
        17        S      tau(  17) = (   0.2500000   1.0839137   3.2590575  )
        18        S      tau(  18) = (   0.7500000   1.1521217   0.3856665  )
        19        S      tau(  19) = (   0.7500000   0.0341040   1.4366955  )
        20        S      tau(  20) = (   0.2500000   2.2019314   2.2080285  )

   Crystallographic axes

     site n.     atom                  positions (cryst. coord.)
         1        Sr     tau(   1) = (  0.2500000  0.0663180  0.8206630  )
         2        Sr     tau(   2) = (  0.7500000  0.9336820  0.1793370  )
         3        Sr     tau(   3) = (  0.7500000  0.4336820  0.3206630  )
         4        Sr     tau(   4) = (  0.2500000  0.5663180  0.6793370  )
         5        Zr     tau(   5) = (  0.2500000  0.3277020  0.0570490  )
         6        Zr     tau(   6) = (  0.7500000  0.6722980  0.9429510  )
         7        Zr     tau(   7) = (  0.7500000  0.1722980  0.5570490  )
         8        Zr     tau(   8) = (  0.2500000  0.8277020  0.4429510  )
         9        S      tau(   9) = (  0.2500000  0.2066530  0.2157330  )
        10        S      tau(  10) = (  0.7500000  0.7933470  0.7842670  )
        11        S      tau(  11) = (  0.7500000  0.2933470  0.7157330  )
        12        S      tau(  12) = (  0.2500000  0.7066530  0.2842670  )
        13        S      tau(  13) = (  0.2500000  0.3363480  0.4862800  )
        14        S      tau(  14) = (  0.7500000  0.6636520  0.5137200  )
        15        S      tau(  15) = (  0.7500000  0.1636520  0.9862800  )
        16        S      tau(  16) = (  0.2500000  0.8363480  0.0137200  )
        17        S      tau(  17) = (  0.2500000  0.4847480  0.8941850  )
        18        S      tau(  18) = (  0.7500000  0.5152520  0.1058150  )
        19        S      tau(  19) = (  0.7500000  0.0152520  0.3941850  )
        20        S      tau(  20) = (  0.2500000  0.9847480  0.6058150  )

     number of k points=    16
                       cart. coord. in units 2pi/alat
        k(    1) = (   0.0000000   0.0000000   0.0000000), wk =   0.0555556
        k(    2) = (   0.0000000   0.0000000  -0.1371846), wk =   0.0555556
        k(    3) = (   0.0000000   0.1490734   0.0000000), wk =   0.1111111
        k(    4) = (   0.0000000   0.1490734  -0.1371846), wk =   0.1111111
        k(    5) = (   0.1666667   0.0000000   0.0000000), wk =   0.1111111
        k(    6) = (   0.1666667   0.0000000  -0.1371846), wk =   0.1111111
        k(    7) = (   0.1666667   0.1490734   0.0000000), wk =   0.2222222
        k(    8) = (   0.1666667   0.1490734  -0.1371846), wk =   0.2222222
        k(    9) = (   0.3333333   0.0000000   0.0000000), wk =   0.1111111
        k(   10) = (   0.3333333   0.0000000  -0.1371846), wk =   0.1111111
        k(   11) = (   0.3333333   0.1490734   0.0000000), wk =   0.2222222
        k(   12) = (   0.3333333   0.1490734  -0.1371846), wk =   0.2222222
        k(   13) = (  -0.5000000   0.0000000   0.0000000), wk =   0.0555556
        k(   14) = (  -0.5000000   0.0000000  -0.1371846), wk =   0.0555556
        k(   15) = (  -0.5000000   0.1490734   0.0000000), wk =   0.1111111
        k(   16) = (  -0.5000000   0.1490734  -0.1371846), wk =   0.1111111

                       cryst. coord.
        k(    1) = (   0.0000000   0.0000000   0.0000000), wk =   0.0555556
        k(    2) = (   0.0000000   0.0000000  -0.5000000), wk =   0.0555556
        k(    3) = (   0.0000000   0.3333333   0.0000000), wk =   0.1111111
        k(    4) = (   0.0000000   0.3333333  -0.5000000), wk =   0.1111111
        k(    5) = (   0.1666667   0.0000000   0.0000000), wk =   0.1111111
        k(    6) = (   0.1666667   0.0000000  -0.5000000), wk =   0.1111111
        k(    7) = (   0.1666667   0.3333333   0.0000000), wk =   0.2222222
        k(    8) = (   0.1666667   0.3333333  -0.5000000), wk =   0.2222222
        k(    9) = (   0.3333333   0.0000000   0.0000000), wk =   0.1111111
        k(   10) = (   0.3333333   0.0000000  -0.5000000), wk =   0.1111111
        k(   11) = (   0.3333333   0.3333333   0.0000000), wk =   0.2222222
        k(   12) = (   0.3333333   0.3333333  -0.5000000), wk =   0.2222222
        k(   13) = (  -0.5000000   0.0000000   0.0000000), wk =   0.0555556
        k(   14) = (  -0.5000000   0.0000000  -0.5000000), wk =   0.0555556
        k(   15) = (  -0.5000000   0.3333333   0.0000000), wk =   0.1111111
        k(   16) = (  -0.5000000   0.3333333  -0.5000000), wk =   0.1111111

     Dense  grid:   420701 G-vectors     FFT dimensions: (  48, 108, 180)

     Smooth grid:   148739 G-vectors     FFT dimensions: (  36,  80, 120)

     Dynamical RAM for                 wfc:       5.67 MB

     Dynamical RAM for     wfc (w. buffer):       5.67 MB

     Dynamical RAM for           str. fact:       4.81 MB

     Dynamical RAM for           local pot:       0.00 MB

     Dynamical RAM for          nlocal pot:      25.53 MB

     Dynamical RAM for                qrad:       9.63 MB

     Dynamical RAM for          rho,v,vnew:      10.15 MB

     Dynamical RAM for               rhoin:       3.38 MB

     Dynamical RAM for            rho*nmix:      25.68 MB

     Dynamical RAM for           G-vectors:       6.30 MB

     Dynamical RAM for          h,s,v(r/c):       1.17 MB

     Dynamical RAM for          <psi|beta>:       0.44 MB

     Dynamical RAM for                 psi:      11.35 MB

     Dynamical RAM for                hpsi:      11.35 MB

     Dynamical RAM for                spsi:      11.35 MB

     Dynamical RAM for      wfcinit/wfcrot:      11.49 MB

     Dynamical RAM for           addusdens:     159.69 MB

     Dynamical RAM for          addusforce:     177.39 MB

     Dynamical RAM for         addusstress:     161.70 MB

     Estimated static dynamical RAM per process >      80.81 MB

     Estimated max dynamical RAM per process >     283.89 MB

     Estimated total dynamical RAM >       2.12 GB

     Initial potential from superposition of free atoms

     starting charge     159.8564, renormalised to     160.0000

     negative rho (up, down):  4.974E-01 0.000E+00
     Starting wfcs are  152 randomized atomic wfcs

     total cpu time spent up to now is        3.3 secs

     Self-consistent Calculation

     iteration #  1     ecut=    50.00 Ry     beta= 0.30
     Davidson diagonalization with overlap

---- Real-time Memory Report at c_bands before calling an iterative solver
             0 MiB given to the printing process from OS
             0 MiB allocation reported by mallinfo(arena+hblkhd)
             0 MiB available memory on the node where the printing process lives
------------------
     ethr =  1.00E-02,  avg # of iterations =  1.0

     negative rho (up, down):  5.021E-01 0.000E+00

     total cpu time spent up to now is        7.2 secs

     total energy              =    -968.72027947 Ry
     estimated scf accuracy    <       1.80394171 Ry

     iteration #  2     ecut=    50.00 Ry     beta= 0.30
     Davidson diagonalization with overlap

---- Real-time Memory Report at c_bands before calling an iterative solver
             0 MiB given to the printing process from OS
             0 MiB allocation reported by mallinfo(arena+hblkhd)
             0 MiB available memory on the node where the printing process lives
------------------
     ethr =  1.13E-03,  avg # of iterations =  3.2

     negative rho (up, down):  5.077E-01 0.000E+00

     total cpu time spent up to now is       12.5 secs

     total energy              =    -968.97142000 Ry
     estimated scf accuracy    <       0.27825680 Ry

     iteration #  3     ecut=    50.00 Ry     beta= 0.30
     Davidson diagonalization with overlap

---- Real-time Memory Report at c_bands before calling an iterative solver
             0 MiB given to the printing process from OS
             0 MiB allocation reported by mallinfo(arena+hblkhd)
             0 MiB available memory on the node where the printing process lives
------------------
     ethr =  1.74E-04,  avg # of iterations =  4.4

     negative rho (up, down):  5.111E-01 0.000E+00

     total cpu time spent up to now is       18.7 secs

     total energy              =    -969.01954629 Ry
     estimated scf accuracy    <       0.07982984 Ry

     iteration #  4     ecut=    50.00 Ry     beta= 0.30
     Davidson diagonalization with overlap

---- Real-time Memory Report at c_bands before calling an iterative solver
             0 MiB given to the printing process from OS
             0 MiB allocation reported by mallinfo(arena+hblkhd)
             0 MiB available memory on the node where the printing process lives
------------------
     ethr =  4.99E-05,  avg # of iterations =  4.1

     negative rho (up, down):  5.141E-01 0.000E+00

     total cpu time spent up to now is       24.6 secs

     total energy              =    -969.03536923 Ry
     estimated scf accuracy    <       0.02820212 Ry

     iteration #  5     ecut=    50.00 Ry     beta= 0.30
     Davidson diagonalization with overlap

---- Real-time Memory Report at c_bands before calling an iterative solver
             0 MiB given to the printing process from OS
             0 MiB allocation reported by mallinfo(arena+hblkhd)
             0 MiB available memory on the node where the printing process lives
------------------
     ethr =  1.76E-05,  avg # of iterations =  3.2

     negative rho (up, down):  5.168E-01 0.000E+00

     total cpu time spent up to now is       30.2 secs

     total energy              =    -969.03850999 Ry
     estimated scf accuracy    <       0.00531150 Ry

     iteration #  6     ecut=    50.00 Ry     beta= 0.30
     Davidson diagonalization with overlap

---- Real-time Memory Report at c_bands before calling an iterative solver
             0 MiB given to the printing process from OS
             0 MiB allocation reported by mallinfo(arena+hblkhd)
             0 MiB available memory on the node where the printing process lives
------------------
     ethr =  3.32E-06,  avg # of iterations =  5.8

     negative rho (up, down):  5.171E-01 0.000E+00

     total cpu time spent up to now is       38.1 secs

     total energy              =    -969.03473614 Ry
     estimated scf accuracy    <       0.01639781 Ry

     iteration #  7     ecut=    50.00 Ry     beta= 0.30
     Davidson diagonalization with overlap

---- Real-time Memory Report at c_bands before calling an iterative solver
             0 MiB given to the printing process from OS
             0 MiB allocation reported by mallinfo(arena+hblkhd)
             0 MiB available memory on the node where the printing process lives
------------------
     ethr =  3.32E-06,  avg # of iterations =  5.8

     negative rho (up, down):  5.171E-01 0.000E+00

     total cpu time spent up to now is       46.1 secs

     total energy              =    -969.03957307 Ry
     estimated scf accuracy    <       0.00462166 Ry

     iteration #  8     ecut=    50.00 Ry     beta= 0.30
     Davidson diagonalization with overlap

---- Real-time Memory Report at c_bands before calling an iterative solver
             0 MiB given to the printing process from OS
             0 MiB allocation reported by mallinfo(arena+hblkhd)
             0 MiB available memory on the node where the printing process lives
------------------
     ethr =  2.89E-06,  avg # of iterations =  2.0

     negative rho (up, down):  5.170E-01 0.000E+00

     total cpu time spent up to now is       51.1 secs

     total energy              =    -969.03888689 Ry
     estimated scf accuracy    <       0.00159371 Ry

     iteration #  9     ecut=    50.00 Ry     beta= 0.30
     Davidson diagonalization with overlap

---- Real-time Memory Report at c_bands before calling an iterative solver
             0 MiB given to the printing process from OS
             0 MiB allocation reported by mallinfo(arena+hblkhd)
             0 MiB available memory on the node where the printing process lives
------------------
     ethr =  9.96E-07,  avg # of iterations =  5.4

     negative rho (up, down):  5.169E-01 0.000E+00

     total cpu time spent up to now is       58.6 secs

     total energy              =    -969.03952493 Ry
     estimated scf accuracy    <       0.00158190 Ry

     iteration # 10     ecut=    50.00 Ry     beta= 0.30
     Davidson diagonalization with overlap

---- Real-time Memory Report at c_bands before calling an iterative solver
             0 MiB given to the printing process from OS
             0 MiB allocation reported by mallinfo(arena+hblkhd)
             0 MiB available memory on the node where the printing process lives
------------------
     ethr =  9.89E-07,  avg # of iterations =  2.3

     negative rho (up, down):  5.168E-01 0.000E+00

     total cpu time spent up to now is       63.9 secs

     total energy              =    -969.03965638 Ry
     estimated scf accuracy    <       0.00021052 Ry

     iteration # 11     ecut=    50.00 Ry     beta= 0.30
     Davidson diagonalization with overlap

---- Real-time Memory Report at c_bands before calling an iterative solver
             0 MiB given to the printing process from OS
             0 MiB allocation reported by mallinfo(arena+hblkhd)
             0 MiB available memory on the node where the printing process lives
------------------
     ethr =  1.32E-07,  avg # of iterations =  4.5

     negative rho (up, down):  5.167E-01 0.000E+00

     total cpu time spent up to now is       70.3 secs

     total energy              =    -969.03967919 Ry
     estimated scf accuracy    <       0.00002309 Ry

     iteration # 12     ecut=    50.00 Ry     beta= 0.30
     Davidson diagonalization with overlap

---- Real-time Memory Report at c_bands before calling an iterative solver
             0 MiB given to the printing process from OS
             0 MiB allocation reported by mallinfo(arena+hblkhd)
             0 MiB available memory on the node where the printing process lives
------------------
     ethr =  1.44E-08,  avg # of iterations =  5.3

     negative rho (up, down):  5.167E-01 0.000E+00

     total cpu time spent up to now is       78.7 secs

     total energy              =    -969.03968913 Ry
     estimated scf accuracy    <       0.00004401 Ry

     iteration # 13     ecut=    50.00 Ry     beta= 0.30
     Davidson diagonalization with overlap

---- Real-time Memory Report at c_bands before calling an iterative solver
             0 MiB given to the printing process from OS
             0 MiB allocation reported by mallinfo(arena+hblkhd)
             0 MiB available memory on the node where the printing process lives
------------------
     ethr =  1.44E-08,  avg # of iterations =  3.6

     negative rho (up, down):  5.167E-01 0.000E+00

     total cpu time spent up to now is       84.8 secs

     total energy              =    -969.03969574 Ry
     estimated scf accuracy    <       0.00000078 Ry

     iteration # 14     ecut=    50.00 Ry     beta= 0.30
     Davidson diagonalization with overlap

---- Real-time Memory Report at c_bands before calling an iterative solver
             0 MiB given to the printing process from OS
             0 MiB allocation reported by mallinfo(arena+hblkhd)
             0 MiB available memory on the node where the printing process lives
------------------
     ethr =  4.90E-10,  avg # of iterations =  5.4

     negative rho (up, down):  5.167E-01 0.000E+00

     total cpu time spent up to now is       93.4 secs

     total energy              =    -969.03969633 Ry
     estimated scf accuracy    <       0.00000005 Ry

     iteration # 15     ecut=    50.00 Ry     beta= 0.30
     Davidson diagonalization with overlap

---- Real-time Memory Report at c_bands before calling an iterative solver
             0 MiB given to the printing process from OS
             0 MiB allocation reported by mallinfo(arena+hblkhd)
             0 MiB available memory on the node where the printing process lives
------------------
     ethr =  3.10E-11,  avg # of iterations =  5.5

     negative rho (up, down):  5.167E-01 0.000E+00

     total cpu time spent up to now is      102.3 secs

     total energy              =    -969.03969632 Ry
     estimated scf accuracy    <       0.00000009 Ry

     iteration # 16     ecut=    50.00 Ry     beta= 0.30
     Davidson diagonalization with overlap

---- Real-time Memory Report at c_bands before calling an iterative solver
             0 MiB given to the printing process from OS
             0 MiB allocation reported by mallinfo(arena+hblkhd)
             0 MiB available memory on the node where the printing process lives
------------------
     ethr =  3.10E-11,  avg # of iterations =  4.2

     negative rho (up, down):  5.167E-01 0.000E+00

     total cpu time spent up to now is      108.9 secs

     End of self-consistent calculation

          k = 0.0000 0.0000 0.0000 ( 18571 PWs)   bands (ev):

   -41.3262 -41.3262 -41.3216 -41.3216 -26.5844 -26.5842 -26.5828 -26.5826
   -19.4180 -19.4180 -19.3846 -19.3846 -19.3384 -19.3384 -19.3101 -19.3101
   -19.2914 -19.2914 -19.2748 -19.2748  -8.6896  -8.6826  -8.6801  -8.6719
    -8.6584  -8.6336  -8.5791  -8.5786  -8.5199  -8.5190  -8.5133  -8.5123
    -4.8338  -4.5993  -4.0441  -3.9909  -3.7542  -3.6583  -3.6261  -3.6216
    -3.4873  -3.3913  -3.3397  -3.2626   3.6912   3.9257   3.9569   3.9893
     4.0268   4.2204   4.3378   4.5928   4.8034   4.8045   4.8335   4.8792
     4.9241   4.9546   4.9667   5.4833   5.7142   5.7287   5.7735   5.9703
     5.9815   6.0252   6.3384   6.3550   6.5537   6.6132   6.6892   6.7248
     6.8178   6.8876   7.0107   7.1774   7.5087   7.5357   7.7399   7.9446

     occupation numbers 
     1.0000   1.0000   1.0000   1.0000   1.0000   1.0000   1.0000   1.0000
     1.0000   1.0000   1.0000   1.0000   1.0000   1.0000   1.0000   1.0000
     1.0000   1.0000   1.0000   1.0000   1.0000   1.0000   1.0000   1.0000
     1.0000   1.0000   1.0000   1.0000   1.0000   1.0000   1.0000   1.0000
     1.0000   1.0000   1.0000   1.0000   1.0000   1.0000   1.0000   1.0000
     1.0000   1.0000   1.0000   1.0000   1.0000   1.0000   1.0000   1.0000
     1.0000   1.0000   1.0000   1.0000   1.0000   1.0000   1.0000   1.0000
     1.0000   1.0000   1.0000   1.0000   1.0000   1.0000   1.0000   1.0000
     1.0000   1.0000   1.0000   1.0000   1.0000   1.0000   1.0000   1.0000
     1.0000   1.0000   1.0000   1.0000   1.0000   1.0000   1.0000   1.0000

          k = 0.0000 0.0000-0.1372 ( 18560 PWs)   bands (ev):

   -41.3262 -41.3262 -41.3216 -41.3216 -26.5843 -26.5843 -26.5827 -26.5827
   -19.4180 -19.4180 -19.3846 -19.3846 -19.3384 -19.3384 -19.3101 -19.3101
   -19.2914 -19.2914 -19.2748 -19.2748  -8.6860  -8.6860  -8.6777  -8.6777
    -8.6445  -8.6445  -8.5789  -8.5789  -8.5195  -8.5195  -8.5128  -8.5128
    -4.7317  -4.7317  -4.0006  -4.0006  -3.7056  -3.7056  -3.6094  -3.6094
    -3.4697  -3.4697  -3.2879  -3.2879   3.7799   3.7799   3.9854   3.9854
     4.1121   4.1121   4.5638   4.5638   4.8180   4.8180   4.8801   4.8801
     4.9476   4.9476   4.9608   4.9608   5.5949   5.5949   5.9973   5.9973
     6.2224   6.2224   6.3522   6.3522   6.6809   6.6809   6.7451   6.7451
     6.7496   6.7496   7.1076   7.1076   7.3741   7.3741   7.8378   7.8378

     occupation numbers 
     1.0000   1.0000   1.0000   1.0000   1.0000   1.0000   1.0000   1.0000
     1.0000   1.0000   1.0000   1.0000   1.0000   1.0000   1.0000   1.0000
     1.0000   1.0000   1.0000   1.0000   1.0000   1.0000   1.0000   1.0000
     1.0000   1.0000   1.0000   1.0000   1.0000   1.0000   1.0000   1.0000
     1.0000   1.0000   1.0000   1.0000   1.0000   1.0000   1.0000   1.0000
     1.0000   1.0000   1.0000   1.0000   1.0000   1.0000   1.0000   1.0000
     1.0000   1.0000   1.0000   1.0000   1.0000   1.0000   1.0000   1.0000
     1.0000   1.0000   1.0000   1.0000   1.0000   1.0000   1.0000   1.0000
     1.0000   1.0000   1.0000   1.0000   1.0000   1.0000   1.0000   1.0000
     1.0000   1.0000   1.0000   1.0000   1.0000   1.0000   1.0000   1.0000

          k = 0.0000 0.1491 0.0000 ( 18580 PWs)   bands (ev):

   -41.3262 -41.3262 -41.3216 -41.3216 -26.5840 -26.5838 -26.5832 -26.5830
   -19.4178 -19.4178 -19.3849 -19.3848 -19.3383 -19.3383 -19.3102 -19.3101
   -19.2913 -19.2913 -19.2748 -19.2748  -8.6960  -8.6871  -8.6750  -8.6634
    -8.6425  -8.6201  -8.6009  -8.5916  -8.5182  -8.5173  -8.5149  -8.5140
    -4.7120  -4.5584  -4.1586  -4.1131  -3.8837  -3.8623  -3.4966  -3.4482
    -3.4072  -3.3808  -3.2914  -3.2791   3.5037   3.6384   3.7829   3.8090
     4.1443   4.2868   4.4110   4.7925   4.8153   4.9347   4.9462   4.9527
     4.9574   5.1939   5.2913   5.3296   5.5996   5.6846   5.8581   6.0957
     6.1567   6.1631   6.1778   6.3891   6.5492   6.5996   6.7573   6.8496
     6.8514   6.9249   6.9944   7.1369   7.2262   7.2967   7.3786   7.4351

     occupation numbers 
     1.0000   1.0000   1.0000   1.0000   1.0000   1.0000   1.0000   1.0000
     1.0000   1.0000   1.0000   1.0000   1.0000   1.0000   1.0000   1.0000
     1.0000   1.0000   1.0000   1.0000   1.0000   1.0000   1.0000   1.0000
     1.0000   1.0000   1.0000   1.0000   1.0000   1.0000   1.0000   1.0000
     1.0000   1.0000   1.0000   1.0000   1.0000   1.0000   1.0000   1.0000
     1.0000   1.0000   1.0000   1.0000   1.0000   1.0000   1.0000   1.0000
     1.0000   1.0000   1.0000   1.0000   1.0000   1.0000   1.0000   1.0000
     1.0000   1.0000   1.0000   1.0000   1.0000   1.0000   1.0000   1.0000
     1.0000   1.0000   1.0000   1.0000   1.0000   1.0000   1.0000   1.0000
     1.0000   1.0000   1.0000   1.0000   1.0000   1.0000   1.0000   1.0000

          k = 0.0000 0.1491-0.1372 ( 18590 PWs)   bands (ev):

   -41.3262 -41.3262 -41.3216 -41.3216 -26.5839 -26.5839 -26.5831 -26.5831
   -19.4178 -19.4178 -19.3848 -19.3848 -19.3383 -19.3383 -19.3101 -19.3101
   -19.2913 -19.2913 -19.2748 -19.2748  -8.6886  -8.6886  -8.6744  -8.6744
    -8.6301  -8.6301  -8.5953  -8.5953  -8.5178  -8.5178  -8.5144  -8.5144
    -4.6372  -4.6372  -4.1540  -4.1540  -3.8461  -3.8461  -3.4894  -3.4894
    -3.3548  -3.3548  -3.3143  -3.3143   3.5654   3.5654   3.7733   3.7733
     4.2459   4.2459   4.7138   4.7138   4.8047   4.8047   4.8964   4.8964
     4.9423   4.9423   5.4544   5.4544   5.5983   5.5983   5.9891   5.9891
     6.1675   6.1675   6.4003   6.4003   6.5751   6.5751   6.7753   6.7753
     6.7985   6.7985   7.0522   7.0522   7.2207   7.2207   7.4800   7.4800

     occupation numbers 
     1.0000   1.0000   1.0000   1.0000   1.0000   1.0000   1.0000   1.0000
     1.0000   1.0000   1.0000   1.0000   1.0000   1.0000   1.0000   1.0000
     1.0000   1.0000   1.0000   1.0000   1.0000   1.0000   1.0000   1.0000
     1.0000   1.0000   1.0000   1.0000   1.0000   1.0000   1.0000   1.0000
     1.0000   1.0000   1.0000   1.0000   1.0000   1.0000   1.0000   1.0000
     1.0000   1.0000   1.0000   1.0000   1.0000   1.0000   1.0000   1.0000
     1.0000   1.0000   1.0000   1.0000   1.0000   1.0000   1.0000   1.0000
     1.0000   1.0000   1.0000   1.0000   1.0000   1.0000   1.0000   1.0000
     1.0000   1.0000   1.0000   1.0000   1.0000   1.0000   1.0000   1.0000
     1.0000   1.0000   1.0000   1.0000   1.0000   1.0000   1.0000   1.0000

          k = 0.1667 0.0000 0.0000 ( 18537 PWs)   bands (ev):

   -41.3246 -41.3246 -41.3206 -41.3206 -26.5793 -26.5792 -26.5778 -26.5776
   -19.4101 -19.4101 -19.3793 -19.3793 -19.3375 -19.3375 -19.3279 -19.3279
   -19.3041 -19.3041 -19.3030 -19.3030  -8.6643  -8.6611  -8.6605  -8.6499
    -8.6435  -8.6193  -8.6177  -8.6149  -8.5991  -8.5972  -8.5668  -8.5662
    -4.6450  -4.4393  -3.9494  -3.9031  -3.7775  -3.6950  -3.6376  -3.6085
    -3.4489  -3.3381  -3.3283  -3.2823   3.8446   3.9325   4.0935   4.1105
     4.1511   4.2534   4.3356   4.3766   4.4687   4.4718   4.6707   5.0884
     5.1884   5.2940   5.4163   5.4771   5.5232   5.5852   5.6967   5.7730
     5.8087   5.8670   5.9091   6.1813   6.1821   6.3179   6.3640   6.4880
     6.5103   6.7024   6.7065   6.9268   7.0163   7.3244   7.4573   7.5382

     occupation numbers 
     1.0000   1.0000   1.0000   1.0000   1.0000   1.0000   1.0000   1.0000
     1.0000   1.0000   1.0000   1.0000   1.0000   1.0000   1.0000   1.0000
     1.0000   1.0000   1.0000   1.0000   1.0000   1.0000   1.0000   1.0000
     1.0000   1.0000   1.0000   1.0000   1.0000   1.0000   1.0000   1.0000
     1.0000   1.0000   1.0000   1.0000   1.0000   1.0000   1.0000   1.0000
     1.0000   1.0000   1.0000   1.0000   1.0000   1.0000   1.0000   1.0000
     1.0000   1.0000   1.0000   1.0000   1.0000   1.0000   1.0000   1.0000
     1.0000   1.0000   1.0000   1.0000   1.0000   1.0000   1.0000   1.0000
     1.0000   1.0000   1.0000   1.0000   1.0000   1.0000   1.0000   1.0000
     1.0000   1.0000   1.0000   1.0000   1.0000   1.0000   1.0000   1.0000

          k = 0.1667 0.0000-0.1372 ( 18576 PWs)   bands (ev):

   -41.3246 -41.3246 -41.3206 -41.3206 -26.5793 -26.5793 -26.5777 -26.5777
   -19.4101 -19.4101 -19.3793 -19.3793 -19.3375 -19.3375 -19.3279 -19.3279
   -19.3041 -19.3041 -19.3030 -19.3030  -8.6618  -8.6618  -8.6579  -8.6579
    -8.6315  -8.6315  -8.6144  -8.6144  -8.5983  -8.5983  -8.5665  -8.5665
    -4.5550  -4.5550  -3.9136  -3.9136  -3.7328  -3.7328  -3.6224  -3.6224
    -3.4068  -3.4068  -3.2959  -3.2959   3.8794   3.8794   4.0851   4.0851
     4.2000   4.2000   4.3458   4.3458   4.5723   4.5723   4.7949   4.7949
     5.2288   5.2288   5.4257   5.4257   5.5373   5.5373   5.7063   5.7063
     5.8672   5.8672   6.1219   6.1219   6.3088   6.3088   6.4086   6.4086
     6.5636   6.5636   6.7375   6.7375   7.2512   7.2512   7.5012   7.5012

     occupation numbers 
     1.0000   1.0000   1.0000   1.0000   1.0000   1.0000   1.0000   1.0000
     1.0000   1.0000   1.0000   1.0000   1.0000   1.0000   1.0000   1.0000
     1.0000   1.0000   1.0000   1.0000   1.0000   1.0000   1.0000   1.0000
     1.0000   1.0000   1.0000   1.0000   1.0000   1.0000   1.0000   1.0000
     1.0000   1.0000   1.0000   1.0000   1.0000   1.0000   1.0000   1.0000
     1.0000   1.0000   1.0000   1.0000   1.0000   1.0000   1.0000   1.0000
     1.0000   1.0000   1.0000   1.0000   1.0000   1.0000   1.0000   1.0000
     1.0000   1.0000   1.0000   1.0000   1.0000   1.0000   1.0000   1.0000
     1.0000   1.0000   1.0000   1.0000   1.0000   1.0000   1.0000   1.0000
     1.0000   1.0000   1.0000   1.0000   1.0000   1.0000   1.0000   1.0000

          k = 0.1667 0.1491 0.0000 ( 18591 PWs)   bands (ev):

   -41.3246 -41.3246 -41.3206 -41.3206 -26.5790 -26.5788 -26.5782 -26.5780
   -19.4099 -19.4099 -19.3795 -19.3795 -19.3374 -19.3374 -19.3280 -19.3279
   -19.3041 -19.3040 -19.3030 -19.3030  -8.6721  -8.6660  -8.6546  -8.6472
    -8.6297  -8.6172  -8.6121  -8.6101  -8.5985  -8.5964  -8.5810  -8.5773
    -4.5437  -4.4117  -4.0337  -3.9928  -3.8777  -3.8576  -3.4830  -3.4507
    -3.4302  -3.3840  -3.2911  -3.2900   3.7561   3.8568   3.9572   3.9744
     4.1902   4.2720   4.3851   4.5549   4.5864   4.6249   4.8445   4.9948
     5.0719   5.1659   5.3802   5.4089   5.4796   5.6265   5.6277   5.6688
     5.8233   5.9779   6.0561   6.0765   6.1899   6.2392   6.4674   6.5366
     6.6575   6.7048   6.8030   6.9477   7.1549   7.3010   7.4008   7.4354

     occupation numbers 
     1.0000   1.0000   1.0000   1.0000   1.0000   1.0000   1.0000   1.0000
     1.0000   1.0000   1.0000   1.0000   1.0000   1.0000   1.0000   1.0000
     1.0000   1.0000   1.0000   1.0000   1.0000   1.0000   1.0000   1.0000
     1.0000   1.0000   1.0000   1.0000   1.0000   1.0000   1.0000   1.0000
     1.0000   1.0000   1.0000   1.0000   1.0000   1.0000   1.0000   1.0000
     1.0000   1.0000   1.0000   1.0000   1.0000   1.0000   1.0000   1.0000
     1.0000   1.0000   1.0000   1.0000   1.0000   1.0000   1.0000   1.0000
     1.0000   1.0000   1.0000   1.0000   1.0000   1.0000   1.0000   1.0000
     1.0000   1.0000   1.0000   1.0000   1.0000   1.0000   1.0000   1.0000
     1.0000   1.0000   1.0000   1.0000   1.0000   1.0000   1.0000   1.0000

          k = 0.1667 0.1491-0.1372 ( 18560 PWs)   bands (ev):

   -41.3246 -41.3246 -41.3206 -41.3206 -26.5789 -26.5789 -26.5781 -26.5781
   -19.4099 -19.4099 -19.3795 -19.3795 -19.3374 -19.3374 -19.3280 -19.3280
   -19.3041 -19.3041 -19.3030 -19.3030  -8.6665  -8.6665  -8.6551  -8.6551
    -8.6214  -8.6214  -8.6117  -8.6117  -8.5974  -8.5974  -8.5790  -8.5790
    -4.4787  -4.4787  -4.0356  -4.0356  -3.8425  -3.8425  -3.4815  -3.4815
    -3.3647  -3.3647  -3.3200  -3.3200   3.7815   3.7815   3.9353   3.9353
     4.3154   4.3154   4.4833   4.4833   4.6635   4.6635   4.8413   4.8413
     5.0531   5.0531   5.3712   5.3712   5.5671   5.5671   5.6274   5.6274
     5.9463   5.9463   6.0805   6.0805   6.2713   6.2713   6.4613   6.4613
     6.7389   6.7389   6.8395   6.8395   7.2156   7.2156   7.3952   7.3952

     occupation numbers 
     1.0000   1.0000   1.0000   1.0000   1.0000   1.0000   1.0000   1.0000
     1.0000   1.0000   1.0000   1.0000   1.0000   1.0000   1.0000   1.0000
     1.0000   1.0000   1.0000   1.0000   1.0000   1.0000   1.0000   1.0000
     1.0000   1.0000   1.0000   1.0000   1.0000   1.0000   1.0000   1.0000
     1.0000   1.0000   1.0000   1.0000   1.0000   1.0000   1.0000   1.0000
     1.0000   1.0000   1.0000   1.0000   1.0000   1.0000   1.0000   1.0000
     1.0000   1.0000   1.0000   1.0000   1.0000   1.0000   1.0000   1.0000
     1.0000   1.0000   1.0000   1.0000   1.0000   1.0000   1.0000   1.0000
     1.0000   1.0000   1.0000   1.0000   1.0000   1.0000   1.0000   1.0000
     1.0000   1.0000   1.0000   1.0000   1.0000   1.0000   1.0000   1.0000

          k = 0.3333 0.0000 0.0000 ( 18620 PWs)   bands (ev):

   -41.3211 -41.3211 -41.3188 -41.3188 -26.5691 -26.5690 -26.5677 -26.5676
   -19.4004 -19.4003 -19.3890 -19.3890 -19.3634 -19.3633 -19.3631 -19.3630
   -19.3227 -19.3227 -19.3109 -19.3108  -8.8040  -8.8035  -8.7665  -8.7657
    -8.6194  -8.6187  -8.6152  -8.6067  -8.5973  -8.5878  -8.5422  -8.5415
    -4.2073  -4.0842  -3.8598  -3.8578  -3.7966  -3.7519  -3.5814  -3.5768
    -3.3344  -3.3172  -3.3162  -3.2199   3.6793   3.8436   4.0020   4.0830
     4.1031   4.1964   4.3224   4.4597   4.6322   4.7140   4.7382   4.8063
     4.8440   4.8560   4.9897   5.1894   5.4613   5.5134   5.5797   5.6109
     5.7119   5.7676   5.8163   5.8258   6.0504   6.2447   6.2955   6.3477
     6.4844   6.5435   6.5810   6.6030   6.6666   6.6850   7.0357   7.0424

     occupation numbers 
     1.0000   1.0000   1.0000   1.0000   1.0000   1.0000   1.0000   1.0000
     1.0000   1.0000   1.0000   1.0000   1.0000   1.0000   1.0000   1.0000
     1.0000   1.0000   1.0000   1.0000   1.0000   1.0000   1.0000   1.0000
     1.0000   1.0000   1.0000   1.0000   1.0000   1.0000   1.0000   1.0000
     1.0000   1.0000   1.0000   1.0000   1.0000   1.0000   1.0000   1.0000
     1.0000   1.0000   1.0000   1.0000   1.0000   1.0000   1.0000   1.0000
     1.0000   1.0000   1.0000   1.0000   1.0000   1.0000   1.0000   1.0000
     1.0000   1.0000   1.0000   1.0000   1.0000   1.0000   1.0000   1.0000
     1.0000   1.0000   1.0000   1.0000   1.0000   1.0000   1.0000   1.0000
     1.0000   1.0000   1.0000   1.0000   1.0000   1.0000   1.0000   1.0000

          k = 0.3333 0.0000-0.1372 ( 18610 PWs)   bands (ev):

   -41.3211 -41.3211 -41.3188 -41.3188 -26.5691 -26.5691 -26.5676 -26.5676
   -19.4003 -19.4003 -19.3890 -19.3890 -19.3634 -19.3634 -19.3631 -19.3631
   -19.3227 -19.3227 -19.3108 -19.3108  -8.8038  -8.8038  -8.7661  -8.7661
    -8.6187  -8.6187  -8.6122  -8.6122  -8.5917  -8.5917  -8.5418  -8.5418
    -4.1518  -4.1518  -3.8595  -3.8595  -3.7695  -3.7695  -3.5776  -3.5776
    -3.3346  -3.3346  -3.2587  -3.2587   3.8065   3.8065   3.9115   3.9115
     4.1529   4.1529   4.4372   4.4372   4.7074   4.7074   4.8133   4.8133
     4.8653   4.8653   5.1004   5.1004   5.4205   5.4205   5.6335   5.6335
     5.8373   5.8373   5.8599   5.8599   5.9450   5.9450   6.1578   6.1578
     6.4849   6.4849   6.6871   6.6871   6.8029   6.8029   7.0590   7.0590

     occupation numbers 
     1.0000   1.0000   1.0000   1.0000   1.0000   1.0000   1.0000   1.0000
     1.0000   1.0000   1.0000   1.0000   1.0000   1.0000   1.0000   1.0000
     1.0000   1.0000   1.0000   1.0000   1.0000   1.0000   1.0000   1.0000
     1.0000   1.0000   1.0000   1.0000   1.0000   1.0000   1.0000   1.0000
     1.0000   1.0000   1.0000   1.0000   1.0000   1.0000   1.0000   1.0000
     1.0000   1.0000   1.0000   1.0000   1.0000   1.0000   1.0000   1.0000
     1.0000   1.0000   1.0000   1.0000   1.0000   1.0000   1.0000   1.0000
     1.0000   1.0000   1.0000   1.0000   1.0000   1.0000   1.0000   1.0000
     1.0000   1.0000   1.0000   1.0000   1.0000   1.0000   1.0000   1.0000
     1.0000   1.0000   1.0000   1.0000   1.0000   1.0000   1.0000   1.0000

          k = 0.3333 0.1491 0.0000 ( 18628 PWs)   bands (ev):

   -41.3211 -41.3211 -41.3188 -41.3188 -26.5688 -26.5687 -26.5681 -26.5680
   -19.4004 -19.4004 -19.3891 -19.3891 -19.3634 -19.3634 -19.3629 -19.3629
   -19.3227 -19.3227 -19.3108 -19.3108  -8.7951  -8.7942  -8.7764  -8.7753
    -8.6244  -8.6222  -8.6134  -8.6095  -8.5798  -8.5738  -8.5538  -8.5512
    -4.1658  -4.0970  -3.8970  -3.8784  -3.7691  -3.7585  -3.5696  -3.5681
    -3.3467  -3.3327  -3.2828  -3.2394   3.7707   3.8098   3.9721   3.9986
     4.2769   4.3159   4.3816   4.4458   4.5054   4.5468   4.6574   4.6947
     4.7904   4.9620   5.1615   5.2985   5.2991   5.3346   5.4564   5.5205
     5.7209   5.7426   5.8436   5.9857   6.0849   6.0865   6.2983   6.3398
     6.3841   6.4502   6.7866   6.8123   6.9030   6.9220   6.9730   7.0763

     occupation numbers 
     1.0000   1.0000   1.0000   1.0000   1.0000   1.0000   1.0000   1.0000
     1.0000   1.0000   1.0000   1.0000   1.0000   1.0000   1.0000   1.0000
     1.0000   1.0000   1.0000   1.0000   1.0000   1.0000   1.0000   1.0000
     1.0000   1.0000   1.0000   1.0000   1.0000   1.0000   1.0000   1.0000
     1.0000   1.0000   1.0000   1.0000   1.0000   1.0000   1.0000   1.0000
     1.0000   1.0000   1.0000   1.0000   1.0000   1.0000   1.0000   1.0000
     1.0000   1.0000   1.0000   1.0000   1.0000   1.0000   1.0000   1.0000
     1.0000   1.0000   1.0000   1.0000   1.0000   1.0000   1.0000   1.0000
     1.0000   1.0000   1.0000   1.0000   1.0000   1.0000   1.0000   1.0000
     1.0000   1.0000   1.0000   1.0000   1.0000   1.0000   1.0000   1.0000

          k = 0.3333 0.1491-0.1372 ( 18596 PWs)   bands (ev):

   -41.3211 -41.3211 -41.3188 -41.3188 -26.5687 -26.5687 -26.5680 -26.5680
   -19.4004 -19.4004 -19.3891 -19.3891 -19.3634 -19.3634 -19.3629 -19.3629
   -19.3227 -19.3227 -19.3108 -19.3108  -8.7947  -8.7947  -8.7759  -8.7759
    -8.6222  -8.6222  -8.6128  -8.6128  -8.5766  -8.5766  -8.5525  -8.5525
    -4.1284  -4.1284  -3.9019  -3.9019  -3.7548  -3.7548  -3.5686  -3.5686
    -3.3269  -3.3269  -3.2718  -3.2718   3.7990   3.7990   3.9209   3.9209
     4.2938   4.2938   4.4415   4.4415   4.5551   4.5551   4.7435   4.7435
     4.9012   4.9012   5.2043   5.2043   5.3159   5.3159   5.4268   5.4268
     5.7025   5.7025   5.8057   5.8057   6.1929   6.1929   6.2950   6.2950
     6.5318   6.5318   6.7006   6.7006   6.8845   6.8845   7.0968   7.0968

     occupation numbers 
     1.0000   1.0000   1.0000   1.0000   1.0000   1.0000   1.0000   1.0000
     1.0000   1.0000   1.0000   1.0000   1.0000   1.0000   1.0000   1.0000
     1.0000   1.0000   1.0000   1.0000   1.0000   1.0000   1.0000   1.0000
     1.0000   1.0000   1.0000   1.0000   1.0000   1.0000   1.0000   1.0000
     1.0000   1.0000   1.0000   1.0000   1.0000   1.0000   1.0000   1.0000
     1.0000   1.0000   1.0000   1.0000   1.0000   1.0000   1.0000   1.0000
     1.0000   1.0000   1.0000   1.0000   1.0000   1.0000   1.0000   1.0000
     1.0000   1.0000   1.0000   1.0000   1.0000   1.0000   1.0000   1.0000
     1.0000   1.0000   1.0000   1.0000   1.0000   1.0000   1.0000   1.0000
     1.0000   1.0000   1.0000   1.0000   1.0000   1.0000   1.0000   1.0000

          k =-0.5000 0.0000 0.0000 ( 18628 PWs)   bands (ev):

   -41.3187 -41.3187 -41.3187 -41.3187 -26.5640 -26.5640 -26.5626 -26.5626
   -19.4153 -19.4153 -19.4152 -19.4152 -19.3634 -19.3634 -19.3634 -19.3634
   -19.3176 -19.3176 -19.3175 -19.3175  -8.8922  -8.8922  -8.8462  -8.8462
    -8.5964  -8.5964  -8.5943  -8.5943  -8.5696  -8.5696  -8.5294  -8.5294
    -3.9234  -3.9234  -3.9220  -3.9220  -3.6366  -3.6366  -3.6233  -3.6233
    -3.3299  -3.3299  -3.2170  -3.2170   3.5989   3.5989   3.7903   3.7903
     4.0900   4.0900   4.3536   4.3536   4.5703   4.5703   4.6588   4.6588
     5.1335   5.1335   5.2794   5.2794   5.3291   5.3291   5.3346   5.3346
     5.5466   5.5466   5.9424   5.9424   6.0336   6.0336   6.1146   6.1146
     6.6245   6.6245   6.6845   6.6845   6.7939   6.7939   6.8659   6.8659

     occupation numbers 
     1.0000   1.0000   1.0000   1.0000   1.0000   1.0000   1.0000   1.0000
     1.0000   1.0000   1.0000   1.0000   1.0000   1.0000   1.0000   1.0000
     1.0000   1.0000   1.0000   1.0000   1.0000   1.0000   1.0000   1.0000
     1.0000   1.0000   1.0000   1.0000   1.0000   1.0000   1.0000   1.0000
     1.0000   1.0000   1.0000   1.0000   1.0000   1.0000   1.0000   1.0000
     1.0000   1.0000   1.0000   1.0000   1.0000   1.0000   1.0000   1.0000
     1.0000   1.0000   1.0000   1.0000   1.0000   1.0000   1.0000   1.0000
     1.0000   1.0000   1.0000   1.0000   1.0000   1.0000   1.0000   1.0000
     1.0000   1.0000   1.0000   1.0000   1.0000   1.0000   1.0000   1.0000
     1.0000   1.0000   1.0000   1.0000   1.0000   1.0000   1.0000   1.0000

          k =-0.5000 0.0000-0.1372 ( 18652 PWs)   bands (ev):

   -41.3187 -41.3187 -41.3187 -41.3187 -26.5640 -26.5640 -26.5626 -26.5626
   -19.4153 -19.4153 -19.4153 -19.4153 -19.3634 -19.3634 -19.3634 -19.3634
   -19.3175 -19.3175 -19.3175 -19.3175  -8.8922  -8.8922  -8.8462  -8.8462
    -8.5964  -8.5964  -8.5943  -8.5943  -8.5696  -8.5696  -8.5293  -8.5293
    -3.9265  -3.9265  -3.9190  -3.9190  -3.6376  -3.6376  -3.6226  -3.6226
    -3.3299  -3.3299  -3.2165  -3.2165   3.5790   3.5790   3.8250   3.8250
     4.0796   4.0796   4.2956   4.2956   4.6125   4.6125   4.7518   4.7518
     5.0456   5.0456   5.1324   5.1324   5.3011   5.3011   5.4667   5.4667
     5.7379   5.7379   5.7552   5.7552   5.9602   5.9602   6.4446   6.4446
     6.5044   6.5044   6.5832   6.5832   6.7372   6.7372   6.9252   6.9252

     occupation numbers 
     1.0000   1.0000   1.0000   1.0000   1.0000   1.0000   1.0000   1.0000
     1.0000   1.0000   1.0000   1.0000   1.0000   1.0000   1.0000   1.0000
     1.0000   1.0000   1.0000   1.0000   1.0000   1.0000   1.0000   1.0000
     1.0000   1.0000   1.0000   1.0000   1.0000   1.0000   1.0000   1.0000
     1.0000   1.0000   1.0000   1.0000   1.0000   1.0000   1.0000   1.0000
     1.0000   1.0000   1.0000   1.0000   1.0000   1.0000   1.0000   1.0000
     1.0000   1.0000   1.0000   1.0000   1.0000   1.0000   1.0000   1.0000
     1.0000   1.0000   1.0000   1.0000   1.0000   1.0000   1.0000   1.0000
     1.0000   1.0000   1.0000   1.0000   1.0000   1.0000   1.0000   1.0000
     1.0000   1.0000   1.0000   1.0000   1.0000   1.0000   1.0000   1.0000

          k =-0.5000 0.1491 0.0000 ( 18590 PWs)   bands (ev):

   -41.3187 -41.3187 -41.3187 -41.3187 -26.5636 -26.5636 -26.5630 -26.5630
   -19.4153 -19.4153 -19.4153 -19.4153 -19.3633 -19.3633 -19.3633 -19.3633
   -19.3175 -19.3175 -19.3175 -19.3175  -8.8808  -8.8808  -8.8578  -8.8578
    -8.5980  -8.5980  -8.5963  -8.5963  -8.5575  -8.5575  -8.5380  -8.5380
    -3.9232  -3.9232  -3.9221  -3.9221  -3.6344  -3.6344  -3.6289  -3.6289
    -3.2987  -3.2987  -3.2430  -3.2430   3.5239   3.5239   3.5832   3.5832
     4.3088   4.3088   4.4329   4.4329   4.6835   4.6835   4.6976   4.6976
     5.0343   5.0343   5.1127   5.1127   5.3353   5.3353   5.4374   5.4374
     5.7613   5.7613   5.8316   5.8316   6.2217   6.2217   6.2299   6.2299
     6.4672   6.4672   6.4691   6.4691   6.7368   6.7368   6.7492   6.7492

     occupation numbers 
     1.0000   1.0000   1.0000   1.0000   1.0000   1.0000   1.0000   1.0000
     1.0000   1.0000   1.0000   1.0000   1.0000   1.0000   1.0000   1.0000
     1.0000   1.0000   1.0000   1.0000   1.0000   1.0000   1.0000   1.0000
     1.0000   1.0000   1.0000   1.0000   1.0000   1.0000   1.0000   1.0000
     1.0000   1.0000   1.0000   1.0000   1.0000   1.0000   1.0000   1.0000
     1.0000   1.0000   1.0000   1.0000   1.0000   1.0000   1.0000   1.0000
     1.0000   1.0000   1.0000   1.0000   1.0000   1.0000   1.0000   1.0000
     1.0000   1.0000   1.0000   1.0000   1.0000   1.0000   1.0000   1.0000
     1.0000   1.0000   1.0000   1.0000   1.0000   1.0000   1.0000   1.0000
     1.0000   1.0000   1.0000   1.0000   1.0000   1.0000   1.0000   1.0000

          k =-0.5000 0.1491-0.1372 ( 18600 PWs)   bands (ev):

   -41.3187 -41.3187 -41.3187 -41.3187 -26.5636 -26.5636 -26.5630 -26.5630
   -19.4153 -19.4153 -19.4153 -19.4153 -19.3633 -19.3633 -19.3633 -19.3633
   -19.3175 -19.3175 -19.3175 -19.3175  -8.8808  -8.8808  -8.8578  -8.8578
    -8.5979  -8.5979  -8.5963  -8.5963  -8.5576  -8.5576  -8.5380  -8.5380
    -3.9245  -3.9245  -3.9209  -3.9209  -3.6360  -3.6360  -3.6276  -3.6276
    -3.2986  -3.2986  -3.2425  -3.2425   3.5011   3.5011   3.5967   3.5967
     4.2994   4.2994   4.4398   4.4398   4.6595   4.6595   4.6829   4.6829
     5.1198   5.1198   5.2311   5.2311   5.3621   5.3621   5.3639   5.3639
     5.7588   5.7588   5.8329   5.8329   6.0130   6.0130   6.1074   6.1074
     6.4853   6.4853   6.5142   6.5142   6.8346   6.8346   6.8406   6.8406

     occupation numbers 
     1.0000   1.0000   1.0000   1.0000   1.0000   1.0000   1.0000   1.0000
     1.0000   1.0000   1.0000   1.0000   1.0000   1.0000   1.0000   1.0000
     1.0000   1.0000   1.0000   1.0000   1.0000   1.0000   1.0000   1.0000
     1.0000   1.0000   1.0000   1.0000   1.0000   1.0000   1.0000   1.0000
     1.0000   1.0000   1.0000   1.0000   1.0000   1.0000   1.0000   1.0000
     1.0000   1.0000   1.0000   1.0000   1.0000   1.0000   1.0000   1.0000
     1.0000   1.0000   1.0000   1.0000   1.0000   1.0000   1.0000   1.0000
     1.0000   1.0000   1.0000   1.0000   1.0000   1.0000   1.0000   1.0000
     1.0000   1.0000   1.0000   1.0000   1.0000   1.0000   1.0000   1.0000
     1.0000   1.0000   1.0000   1.0000   1.0000   1.0000   1.0000   1.0000

     highest occupied level (ev):     7.9446

!    total energy              =    -969.03969634 Ry
     estimated scf accuracy    <          4.2E-09 Ry

     The total energy is the sum of the following terms:
     one-electron contribution =    -192.67181807 Ry
     hartree contribution      =     157.19052450 Ry
     xc contribution           =    -246.09834784 Ry
     ewald contribution        =    -687.46005493 Ry

     convergence has been achieved in  16 iterations

     negative rho (up, down):  5.167E-01 0.000E+00

     Forces acting on atoms (cartesian axes, Ry/au):

     atom    1 type  2   force =    -0.00000000   -0.00097901   -0.00062579
     atom    2 type  2   force =     0.00000000    0.00097901    0.00062579
     atom    3 type  2   force =     0.00000000    0.00097901   -0.00062579
     atom    4 type  2   force =     0.00000000   -0.00097901    0.00062579
     atom    5 type  3   force =     0.00000000    0.00130444   -0.00087397
     atom    6 type  3   force =     0.00000000   -0.00130444    0.00087397
     atom    7 type  3   force =     0.00000000   -0.00130444   -0.00087397
     atom    8 type  3   force =     0.00000000    0.00130444    0.00087397
     atom    9 type  1   force =     0.00000000   -0.00060078    0.00164902
     atom   10 type  1   force =     0.00000000    0.00060078   -0.00164902
     atom   11 type  1   force =     0.00000000    0.00060078    0.00164902
     atom   12 type  1   force =     0.00000000   -0.00060078   -0.00164902
     atom   13 type  1   force =     0.00000000    0.00165663   -0.00198623
     atom   14 type  1   force =     0.00000000   -0.00165663    0.00198623
     atom   15 type  1   force =     0.00000000   -0.00165663   -0.00198623
     atom   16 type  1   force =     0.00000000    0.00165663    0.00198623
     atom   17 type  1   force =     0.00000000   -0.00037637   -0.00108814
     atom   18 type  1   force =    -0.00000000    0.00037637    0.00108814
     atom   19 type  1   force =     0.00000000    0.00037637   -0.00108814
     atom   20 type  1   force =     0.00000000   -0.00037637    0.00108814
     The non-local contrib.  to forces
     atom    1 type  2   force =     0.00000000   -0.00036539    0.00420758
     atom    2 type  2   force =    -0.00000000    0.00036539   -0.00420758
     atom    3 type  2   force =     0.00000000    0.00036539    0.00420758
     atom    4 type  2   force =     0.00000000   -0.00036539   -0.00420758
     atom    5 type  3   force =     0.00000000    0.02337297   -0.02196248
     atom    6 type  3   force =     0.00000000   -0.02337297    0.02196248
     atom    7 type  3   force =     0.00000000   -0.02337297   -0.02196248
     atom    8 type  3   force =     0.00000000    0.02337297    0.02196248
     atom    9 type  1   force =     0.00000000    0.00304795   -0.00774187
     atom   10 type  1   force =     0.00000000   -0.00304795    0.00774187
     atom   11 type  1   force =     0.00000000   -0.00304795   -0.00774187
     atom   12 type  1   force =     0.00000000    0.00304795    0.00774187
     atom   13 type  1   force =     0.00000000   -0.04228539   -0.00570977
     atom   14 type  1   force =     0.00000000    0.04228539    0.00570977
     atom   15 type  1   force =     0.00000000    0.04228539   -0.00570977
     atom   16 type  1   force =     0.00000000   -0.04228539    0.00570977
     atom   17 type  1   force =    -0.00000000    0.04096080    0.06662412
     atom   18 type  1   force =    -0.00000000   -0.04096080   -0.06662412
     atom   19 type  1   force =     0.00000000   -0.04096080    0.06662412
     atom   20 type  1   force =     0.00000000    0.04096080   -0.06662412
     The ionic contribution  to forces
     atom    1 type  2   force =    -0.00000000    0.34563710    0.02840472
     atom    2 type  2   force =     0.00000000   -0.34563710   -0.02840472
     atom    3 type  2   force =    -0.00000000   -0.34563710    0.02840472
     atom    4 type  2   force =    -0.00000000    0.34563710   -0.02840472
     atom    5 type  3   force =    -0.00000000   -2.62053879    1.15873032
     atom    6 type  3   force =     0.00000000    2.62053879   -1.15873032
     atom    7 type  3   force =     0.00000000    2.62053879    1.15873032
     atom    8 type  3   force =    -0.00000000   -2.62053879   -1.15873032
     atom    9 type  1   force =    -0.00000000   -1.63844055    3.63750726
     atom   10 type  1   force =     0.00000000    1.63844055   -3.63750726
     atom   11 type  1   force =     0.00000000    1.63844055    3.63750726
     atom   12 type  1   force =    -0.00000000   -1.63844055   -3.63750726
     atom   13 type  1   force =    -0.00000000    3.63936199   -2.23887353
     atom   14 type  1   force =     0.00000000   -3.63936199    2.23887353
     atom   15 type  1   force =     0.00000000   -3.63936199   -2.23887353
     atom   16 type  1   force =    -0.00000000    3.63936199    2.23887353
     atom   17 type  1   force =     0.00000000   -2.93228835   -4.81331806
     atom   18 type  1   force =    -0.00000000    2.93228835    4.81331806
     atom   19 type  1   force =    -0.00000000    2.93228835   -4.81331806
     atom   20 type  1   force =     0.00000000   -2.93228835    4.81331806
     The local contribution  to forces
     atom    1 type  2   force =     0.00000000   -0.34638815   -0.03307620
     atom    2 type  2   force =     0.00000000    0.34638815    0.03307620
     atom    3 type  2   force =     0.00000000    0.34638815   -0.03307620
     atom    4 type  2   force =     0.00000000   -0.34638815    0.03307620
     atom    5 type  3   force =    -0.00000000    2.59918563   -1.13734340
     atom    6 type  3   force =     0.00000000   -2.59918563    1.13734340
     atom    7 type  3   force =     0.00000000   -2.59918563   -1.13734340
     atom    8 type  3   force =    -0.00000000    2.59918563    1.13734340
     atom    9 type  1   force =    -0.00000000    1.63464540   -3.62783866
     atom   10 type  1   force =     0.00000000   -1.63464540    3.62783866
     atom   11 type  1   force =     0.00000000   -1.63464540   -3.62783866
     atom   12 type  1   force =    -0.00000000    1.63464540    3.62783866
     atom   13 type  1   force =    -0.00000000   -3.59737012    2.24196901
     atom   14 type  1   force =     0.00000000    3.59737012   -2.24196901
     atom   15 type  1   force =     0.00000000    3.59737012    2.24196901
     atom   16 type  1   force =    -0.00000000   -3.59737012   -2.24196901
     atom   17 type  1   force =    -0.00000000    2.89286692    4.74887673
     atom   18 type  1   force =     0.00000000   -2.89286692   -4.74887673
     atom   19 type  1   force =     0.00000000   -2.89286692    4.74887673
     atom   20 type  1   force =    -0.00000000    2.89286692   -4.74887673
     The core correction contribution to forces
     atom    1 type  2   force =     0.00000000    0.00013588   -0.00016426
     atom    2 type  2   force =     0.00000000   -0.00013588    0.00016426
     atom    3 type  2   force =     0.00000000   -0.00013588   -0.00016426
     atom    4 type  2   force =     0.00000000    0.00013588    0.00016426
     atom    5 type  3   force =     0.00000000   -0.00074144   -0.00029078
     atom    6 type  3   force =    -0.00000000    0.00074144    0.00029078
     atom    7 type  3   force =    -0.00000000    0.00074144   -0.00029078
     atom    8 type  3   force =     0.00000000   -0.00074144    0.00029078
     atom    9 type  1   force =    -0.00000000    0.00013569   -0.00025669
     atom   10 type  1   force =     0.00000000   -0.00013569    0.00025669
     atom   11 type  1   force =     0.00000000   -0.00013569   -0.00025669
     atom   12 type  1   force =    -0.00000000    0.00013569    0.00025669
     atom   13 type  1   force =     0.00000000    0.00197699    0.00061642
     atom   14 type  1   force =    -0.00000000   -0.00197699   -0.00061642
     atom   15 type  1   force =    -0.00000000   -0.00197699    0.00061642
     atom   16 type  1   force =     0.00000000    0.00197699   -0.00061642
     atom   17 type  1   force =    -0.00000000   -0.00193268   -0.00330410
     atom   18 type  1   force =     0.00000000    0.00193268    0.00330410
     atom   19 type  1   force =     0.00000000    0.00193268   -0.00330410
     atom   20 type  1   force =    -0.00000000   -0.00193268    0.00330410
     The Hubbard contrib.    to forces
     atom    1 type  2   force =     0.00000000    0.00000000    0.00000000
     atom    2 type  2   force =     0.00000000    0.00000000    0.00000000
     atom    3 type  2   force =     0.00000000    0.00000000    0.00000000
     atom    4 type  2   force =     0.00000000    0.00000000    0.00000000
     atom    5 type  3   force =     0.00000000    0.00000000    0.00000000
     atom    6 type  3   force =     0.00000000    0.00000000    0.00000000
     atom    7 type  3   force =     0.00000000    0.00000000    0.00000000
     atom    8 type  3   force =     0.00000000    0.00000000    0.00000000
     atom    9 type  1   force =     0.00000000    0.00000000    0.00000000
     atom   10 type  1   force =     0.00000000    0.00000000    0.00000000
     atom   11 type  1   force =     0.00000000    0.00000000    0.00000000
     atom   12 type  1   force =     0.00000000    0.00000000    0.00000000
     atom   13 type  1   force =     0.00000000    0.00000000    0.00000000
     atom   14 type  1   force =     0.00000000    0.00000000    0.00000000
     atom   15 type  1   force =     0.00000000    0.00000000    0.00000000
     atom   16 type  1   force =     0.00000000    0.00000000    0.00000000
     atom   17 type  1   force =     0.00000000    0.00000000    0.00000000
     atom   18 type  1   force =     0.00000000    0.00000000    0.00000000
     atom   19 type  1   force =     0.00000000    0.00000000    0.00000000
     atom   20 type  1   force =     0.00000000    0.00000000    0.00000000
     The SCF correction term to forces
     atom    1 type  2   force =    -0.00000000    0.00000154    0.00000236
     atom    2 type  2   force =     0.00000000   -0.00000154   -0.00000236
     atom    3 type  2   force =     0.00000000   -0.00000154    0.00000236
     atom    4 type  2   force =     0.00000000    0.00000154   -0.00000236
     atom    5 type  3   force =     0.00000000    0.00002607   -0.00000763
     atom    6 type  3   force =     0.00000000   -0.00002607    0.00000763
     atom    7 type  3   force =     0.00000000   -0.00002607   -0.00000763
     atom    8 type  3   force =     0.00000000    0.00002607    0.00000763
     atom    9 type  1   force =     0.00000000    0.00001074   -0.00002101
     atom   10 type  1   force =    -0.00000000   -0.00001074    0.00002101
     atom   11 type  1   force =     0.00000000   -0.00001074   -0.00002101
     atom   12 type  1   force =     0.00000000    0.00001074    0.00002101
     atom   13 type  1   force =     0.00000000   -0.00002683    0.00001164
     atom   14 type  1   force =     0.00000000    0.00002683   -0.00001164
     atom   15 type  1   force =     0.00000000    0.00002683    0.00001164
     atom   16 type  1   force =    -0.00000000   -0.00002683   -0.00001164
     atom   17 type  1   force =     0.00000000    0.00001694    0.00003317
     atom   18 type  1   force =    -0.00000000   -0.00001694   -0.00003317
     atom   19 type  1   force =    -0.00000000   -0.00001694    0.00003317
     atom   20 type  1   force =     0.00000000    0.00001694   -0.00003317

     Total force =     0.007723     Total SCF correction =     0.000119


     Computing stress (Cartesian axis) and pressure


     negative rho (up, down):  5.167E-01 0.000E+00
          total   stress  (Ry/bohr**3)                   (kbar)     P=        3.19
   0.00001482   0.00000000   0.00000000            2.18        0.00        0.00
   0.00000000   0.00002335   0.00000000            0.00        3.44        0.00
   0.00000000   0.00000000   0.00002682            0.00        0.00        3.95

     kinetic stress (kbar)   8980.87      0.00      0.00
                                0.00   9009.50      0.00
                                0.00      0.00   9029.91

     local   stress (kbar)  -7808.31     -0.00     -0.00
                               -0.00  -4280.09     -0.00
                               -0.00     -0.00  -4001.14

     nonloc. stress (kbar)   7415.24      0.00      0.00
                                0.00   7411.67      0.00
                                0.00      0.00   7417.14

     hartree stress (kbar)   3497.11      0.00      0.00
                                0.00   2110.61     -0.00
                                0.00     -0.00   1816.53

     exc-cor stress (kbar)   2585.96     -0.00     -0.00
                               -0.00   2583.78     -0.00
                               -0.00     -0.00   2586.47

     corecor stress (kbar)  -5291.91     -0.00      0.00
                               -0.00  -5291.84      0.00
                                0.00      0.00  -5292.57

     ewald   stress (kbar)  -9376.77      0.00      0.00
                                0.00 -11540.20      0.00
                                0.00      0.00 -11552.39

     hubbard stress (kbar)      0.00      0.00      0.00
                                0.00      0.00      0.00
                                0.00      0.00      0.00

     DFT-D   stress (kbar)      0.00      0.00      0.00
                                0.00      0.00      0.00
                                0.00      0.00      0.00

     XDM     stress (kbar)      0.00      0.00      0.00
                                0.00      0.00      0.00
                                0.00      0.00      0.00

     dft-nl  stress (kbar)      0.00      0.00      0.00
                                0.00      0.00      0.00
                                0.00      0.00      0.00

     TS-vdW  stress (kbar)      0.00      0.00      0.00
                                0.00      0.00      0.00
                                0.00      0.00      0.00

     MDB     stress (kbar)      0.00      0.00      0.00
                                0.00      0.00      0.00
                                0.00      0.00      0.00

     3D-RISM stress (kbar)      0.00      0.00      0.00
                                0.00      0.00      0.00
                                0.00      0.00      0.00


     BFGS Geometry Optimization
     Energy error            =      1.7E-04 Ry
     Gradient error          =      2.0E-03 Ry/Bohr
     Cell gradient error     =      3.9E+00 kbar

     number of scf cycles    =   1
     number of bfgs steps    =   0

     enthalpy           new  =    -969.0396963404 Ry

     new trust radius        =       0.0074838985 bohr
     new conv_thr            =       0.0000000100 Ry

     new unit-cell volume =   3119.65756 a.u.^3 (   462.28556 Ang^3 )
     density =      3.95178 g/cm^3

CELL_PARAMETERS (angstrom)
   3.841623101   0.000000000   0.000000000
  -0.000000000   8.591836171   0.000000000
   0.000000000   0.000000000  14.005853598

ATOMIC_POSITIONS (crystal)
Sr               0.2500000000        0.0662576666        0.8206393400
Sr               0.7500000000        0.9337423334        0.1793606600
Sr               0.7500000000        0.4337423334        0.3206393400
Sr               0.2500000000        0.5662576666        0.6793606600
Zr               0.2500000000        0.3277823886        0.0570159570
Zr               0.7500000000        0.6722176114        0.9429840430
Zr               0.7500000000        0.1722176114        0.5570159570
Zr               0.2500000000        0.8277823886        0.4429840430
S                0.2500000000        0.2066159760        0.2157953460
S                0.7500000000        0.7933840240        0.7842046540
S                0.7500000000        0.2933840240        0.7157953460
S                0.2500000000        0.7066159760        0.2842046540
S                0.2500000000        0.3364500925        0.4862049049
S                0.7500000000        0.6635499075        0.5137950951
S                0.7500000000        0.1635499075        0.9862049049
S                0.2500000000        0.8364500925        0.0137950951
S                0.2500000000        0.4847248059        0.8941438598
S                0.7500000000        0.5152751941        0.1058561402
S                0.7500000000        0.0152751941        0.3941438598
S                0.2500000000        0.9847248059        0.6058561402



     Writing config-only to output data dir ./tmp/relax/SrZrS3_relax.save/ :
     XML data file
     NEW-OLD atomic charge density approx. for the potential
     New effective cutoffs (rho, wfc):  399.64   49.96

     negative rho (up, down):  5.166E-01 0.000E+00

     total cpu time spent up to now is      115.7 secs

     Self-consistent Calculation

     iteration #  1     ecut=    50.00 Ry     beta= 0.30
     Davidson diagonalization with overlap

---- Real-time Memory Report at c_bands before calling an iterative solver
             0 MiB given to the printing process from OS
             0 MiB allocation reported by mallinfo(arena+hblkhd)
             0 MiB available memory on the node where the printing process lives
------------------
     ethr =  1.00E-06,  avg # of iterations =  2.0

     Threshold (ethr) on eigenvalues was too large:
     Diagonalizing with lowered threshold

     Davidson diagonalization with overlap

---- Real-time Memory Report at c_bands before calling an iterative solver
             0 MiB given to the printing process from OS
             0 MiB allocation reported by mallinfo(arena+hblkhd)
             0 MiB available memory on the node where the printing process lives
------------------
     ethr =  5.55E-09,  avg # of iterations =  7.5

     negative rho (up, down):  5.166E-01 0.000E+00

     total cpu time spent up to now is      133.0 secs

     total energy              =    -969.03982012 Ry
     estimated scf accuracy    <       0.00003502 Ry

     iteration #  2     ecut=    50.00 Ry     beta= 0.30
     Davidson diagonalization with overlap

---- Real-time Memory Report at c_bands before calling an iterative solver
             0 MiB given to the printing process from OS
             0 MiB allocation reported by mallinfo(arena+hblkhd)
             0 MiB available memory on the node where the printing process lives
------------------
     ethr =  2.19E-08,  avg # of iterations =  3.5

     negative rho (up, down):  5.166E-01 0.000E+00

     total cpu time spent up to now is      138.9 secs

     total energy              =    -969.03982917 Ry
     estimated scf accuracy    <       0.00000321 Ry

     iteration #  3     ecut=    50.00 Ry     beta= 0.30
     Davidson diagonalization with overlap

---- Real-time Memory Report at c_bands before calling an iterative solver
             0 MiB given to the printing process from OS
             0 MiB allocation reported by mallinfo(arena+hblkhd)
             0 MiB available memory on the node where the printing process lives
------------------
     ethr =  2.01E-09,  avg # of iterations =  3.0

     negative rho (up, down):  5.166E-01 0.000E+00

     total cpu time spent up to now is      144.5 secs

     total energy              =    -969.03982895 Ry
     estimated scf accuracy    <       0.00000116 Ry

     iteration #  4     ecut=    50.00 Ry     beta= 0.30
     Davidson diagonalization with overlap

---- Real-time Memory Report at c_bands before calling an iterative solver
             0 MiB given to the printing process from OS
             0 MiB allocation reported by mallinfo(arena+hblkhd)
             0 MiB available memory on the node where the printing process lives
------------------
     ethr =  7.24E-10,  avg # of iterations =  4.8

     negative rho (up, down):  5.166E-01 0.000E+00

     total cpu time spent up to now is      151.7 secs

     total energy              =    -969.03982908 Ry
     estimated scf accuracy    <       0.00000099 Ry

     iteration #  5     ecut=    50.00 Ry     beta= 0.30
     Davidson diagonalization with overlap

---- Real-time Memory Report at c_bands before calling an iterative solver
             0 MiB given to the printing process from OS
             0 MiB allocation reported by mallinfo(arena+hblkhd)
             0 MiB available memory on the node where the printing process lives
------------------
     ethr =  6.17E-10,  avg # of iterations =  4.9

     negative rho (up, down):  5.166E-01 0.000E+00

     total cpu time spent up to now is      158.8 secs

     total energy              =    -969.03982941 Ry
     estimated scf accuracy    <       0.00000065 Ry

     iteration #  6     ecut=    50.00 Ry     beta= 0.30
     Davidson diagonalization with overlap

---- Real-time Memory Report at c_bands before calling an iterative solver
             0 MiB given to the printing process from OS
             0 MiB allocation reported by mallinfo(arena+hblkhd)
             0 MiB available memory on the node where the printing process lives
------------------
     ethr =  4.08E-10,  avg # of iterations =  2.2

     negative rho (up, down):  5.166E-01 0.000E+00

     total cpu time spent up to now is      164.1 secs

     total energy              =    -969.03982942 Ry
     estimated scf accuracy    <       0.00000011 Ry

     iteration #  7     ecut=    50.00 Ry     beta= 0.30
     Davidson diagonalization with overlap

---- Real-time Memory Report at c_bands before calling an iterative solver
             0 MiB given to the printing process from OS
             0 MiB allocation reported by mallinfo(arena+hblkhd)
             0 MiB available memory on the node where the printing process lives
------------------
     ethr =  6.93E-11,  avg # of iterations =  5.7

     negative rho (up, down):  5.166E-01 0.000E+00

     total cpu time spent up to now is      171.9 secs

     total energy              =    -969.03982950 Ry
     estimated scf accuracy    <       0.00000011 Ry

     iteration #  8     ecut=    50.00 Ry     beta= 0.30
     Davidson diagonalization with overlap

---- Real-time Memory Report at c_bands before calling an iterative solver
             0 MiB given to the printing process from OS
             0 MiB allocation reported by mallinfo(arena+hblkhd)
             0 MiB available memory on the node where the printing process lives
------------------
     ethr =  6.60E-11,  avg # of iterations =  1.0

     negative rho (up, down):  5.166E-01 0.000E+00

     total cpu time spent up to now is      176.3 secs

     total energy              =    -969.03982947 Ry
     estimated scf accuracy    <       0.00000009 Ry

     iteration #  9     ecut=    50.00 Ry     beta= 0.30
     Davidson diagonalization with overlap

---- Real-time Memory Report at c_bands before calling an iterative solver
             0 MiB given to the printing process from OS
             0 MiB allocation reported by mallinfo(arena+hblkhd)
             0 MiB available memory on the node where the printing process lives
------------------
     ethr =  5.37E-11,  avg # of iterations =  3.2

     negative rho (up, down):  5.166E-01 0.000E+00

     total cpu time spent up to now is      182.1 secs

     End of self-consistent calculation

          k = 0.0000 0.0000 0.0000 ( 18571 PWs)   bands (ev):

   -41.3560 -41.3560 -41.3515 -41.3515 -26.6063 -26.6061 -26.6047 -26.6044
   -19.4460 -19.4460 -19.4127 -19.4127 -19.3658 -19.3658 -19.3377 -19.3377
   -19.3197 -19.3197 -19.3032 -19.3032  -8.7100  -8.7032  -8.7009  -8.6925
    -8.6794  -8.6547  -8.6002  -8.5997  -8.5415  -8.5407  -8.5350  -8.5341
    -4.8475  -4.6145  -4.0620  -4.0087  -3.7723  -3.6764  -3.6419  -3.6368
    -3.5025  -3.4068  -3.3546  -3.2787   3.6765   3.9098   3.9447   3.9763
     4.0103   4.2040   4.3232   4.5777   4.7893   4.7904   4.8193   4.8648
     4.9105   4.9403   4.9523   5.4682   5.6973   5.7134   5.7599   5.9537
     5.9618   6.0080   6.3198   6.3383   6.5356   6.5977   6.6758   6.7117
     6.7966   6.8746   6.9915   7.1573   7.4904   7.5140   7.7196   7.9240

     occupation numbers 
     1.0000   1.0000   1.0000   1.0000   1.0000   1.0000   1.0000   1.0000
     1.0000   1.0000   1.0000   1.0000   1.0000   1.0000   1.0000   1.0000
     1.0000   1.0000   1.0000   1.0000   1.0000   1.0000   1.0000   1.0000
     1.0000   1.0000   1.0000   1.0000   1.0000   1.0000   1.0000   1.0000
     1.0000   1.0000   1.0000   1.0000   1.0000   1.0000   1.0000   1.0000
     1.0000   1.0000   1.0000   1.0000   1.0000   1.0000   1.0000   1.0000
     1.0000   1.0000   1.0000   1.0000   1.0000   1.0000   1.0000   1.0000
     1.0000   1.0000   1.0000   1.0000   1.0000   1.0000   1.0000   1.0000
     1.0000   1.0000   1.0000   1.0000   1.0000   1.0000   1.0000   1.0000
     1.0000   1.0000   1.0000   1.0000   1.0000   1.0000   1.0000   1.0000

          k = 0.0000 0.0000-0.1371 ( 18560 PWs)   bands (ev):

   -41.3560 -41.3560 -41.3515 -41.3515 -26.6062 -26.6062 -26.6045 -26.6045
   -19.4460 -19.4460 -19.4127 -19.4127 -19.3658 -19.3658 -19.3377 -19.3377
   -19.3197 -19.3197 -19.3032 -19.3032  -8.7064  -8.7064  -8.6985  -8.6985
    -8.6655  -8.6655  -8.6000  -8.6000  -8.5412  -8.5412  -8.5345  -8.5345
    -4.7460  -4.7460  -4.0187  -4.0187  -3.7235  -3.7235  -3.6255  -3.6255
    -3.4843  -3.4843  -3.3036  -3.3036   3.7647   3.7647   3.9726   3.9726
     4.0964   4.0964   4.5485   4.5485   4.8039   4.8039   4.8645   4.8645
     4.9335   4.9335   4.9465   4.9465   5.5811   5.5811   5.9804   5.9804
     6.2051   6.2051   6.3348   6.3348   6.6662   6.6662   6.7305   6.7305
     6.7316   6.7316   7.0856   7.0856   7.3556   7.3556   7.8175   7.8175

     occupation numbers 
     1.0000   1.0000   1.0000   1.0000   1.0000   1.0000   1.0000   1.0000
     1.0000   1.0000   1.0000   1.0000   1.0000   1.0000   1.0000   1.0000
     1.0000   1.0000   1.0000   1.0000   1.0000   1.0000   1.0000   1.0000
     1.0000   1.0000   1.0000   1.0000   1.0000   1.0000   1.0000   1.0000
     1.0000   1.0000   1.0000   1.0000   1.0000   1.0000   1.0000   1.0000
     1.0000   1.0000   1.0000   1.0000   1.0000   1.0000   1.0000   1.0000
     1.0000   1.0000   1.0000   1.0000   1.0000   1.0000   1.0000   1.0000
     1.0000   1.0000   1.0000   1.0000   1.0000   1.0000   1.0000   1.0000
     1.0000   1.0000   1.0000   1.0000   1.0000   1.0000   1.0000   1.0000
     1.0000   1.0000   1.0000   1.0000   1.0000   1.0000   1.0000   1.0000

          k = 0.0000 0.1490 0.0000 ( 18580 PWs)   bands (ev):

   -41.3560 -41.3560 -41.3515 -41.3515 -26.6059 -26.6057 -26.6051 -26.6049
   -19.4458 -19.4458 -19.4129 -19.4129 -19.3658 -19.3657 -19.3377 -19.3377
   -19.3197 -19.3197 -19.3032 -19.3032  -8.7165  -8.7078  -8.6957  -8.6843
    -8.6633  -8.6412  -8.6218  -8.6127  -8.5399  -8.5390  -8.5367  -8.5357
    -4.7264  -4.5741  -4.1734  -4.1290  -3.9026  -3.8808  -3.5106  -3.4643
    -3.4218  -3.3982  -3.3074  -3.2963   3.4903   3.6252   3.7688   3.7941
     4.1297   4.2722   4.3958   4.7787   4.8016   4.9198   4.9297   4.9378
     4.9418   5.1794   5.2766   5.3160   5.5841   5.6683   5.8423   6.0799
     6.1404   6.1437   6.1613   6.3702   6.5329   6.5842   6.7445   6.8290
     6.8386   6.9055   6.9747   7.1184   7.2048   7.2789   7.3587   7.4150

     occupation numbers 
     1.0000   1.0000   1.0000   1.0000   1.0000   1.0000   1.0000   1.0000
     1.0000   1.0000   1.0000   1.0000   1.0000   1.0000   1.0000   1.0000
     1.0000   1.0000   1.0000   1.0000   1.0000   1.0000   1.0000   1.0000
     1.0000   1.0000   1.0000   1.0000   1.0000   1.0000   1.0000   1.0000
     1.0000   1.0000   1.0000   1.0000   1.0000   1.0000   1.0000   1.0000
     1.0000   1.0000   1.0000   1.0000   1.0000   1.0000   1.0000   1.0000
     1.0000   1.0000   1.0000   1.0000   1.0000   1.0000   1.0000   1.0000
     1.0000   1.0000   1.0000   1.0000   1.0000   1.0000   1.0000   1.0000
     1.0000   1.0000   1.0000   1.0000   1.0000   1.0000   1.0000   1.0000
     1.0000   1.0000   1.0000   1.0000   1.0000   1.0000   1.0000   1.0000

          k = 0.0000 0.1490-0.1371 ( 18590 PWs)   bands (ev):

   -41.3560 -41.3560 -41.3515 -41.3515 -26.6058 -26.6058 -26.6049 -26.6049
   -19.4458 -19.4458 -19.4129 -19.4129 -19.3657 -19.3657 -19.3377 -19.3377
   -19.3197 -19.3197 -19.3032 -19.3032  -8.7092  -8.7092  -8.6951  -8.6951
    -8.6510  -8.6510  -8.6164  -8.6164  -8.5395  -8.5395  -8.5361  -8.5361
    -4.6523  -4.6523  -4.1694  -4.1694  -3.8650  -3.8650  -3.5041  -3.5041
    -3.3707  -3.3707  -3.3311  -3.3311   3.5522   3.5522   3.7590   3.7590
     4.2304   4.2304   4.6982   4.6982   4.7910   4.7910   4.8821   4.8821
     4.9274   4.9274   5.4390   5.4390   5.5832   5.5832   5.9730   5.9730
     6.1510   6.1510   6.3816   6.3816   6.5593   6.5593   6.7548   6.7548
     6.7854   6.7854   7.0329   7.0329   7.2028   7.2028   7.4590   7.4590

     occupation numbers 
     1.0000   1.0000   1.0000   1.0000   1.0000   1.0000   1.0000   1.0000
     1.0000   1.0000   1.0000   1.0000   1.0000   1.0000   1.0000   1.0000
     1.0000   1.0000   1.0000   1.0000   1.0000   1.0000   1.0000   1.0000
     1.0000   1.0000   1.0000   1.0000   1.0000   1.0000   1.0000   1.0000
     1.0000   1.0000   1.0000   1.0000   1.0000   1.0000   1.0000   1.0000
     1.0000   1.0000   1.0000   1.0000   1.0000   1.0000   1.0000   1.0000
     1.0000   1.0000   1.0000   1.0000   1.0000   1.0000   1.0000   1.0000
     1.0000   1.0000   1.0000   1.0000   1.0000   1.0000   1.0000   1.0000
     1.0000   1.0000   1.0000   1.0000   1.0000   1.0000   1.0000   1.0000
     1.0000   1.0000   1.0000   1.0000   1.0000   1.0000   1.0000   1.0000

          k = 0.1666 0.0000 0.0000 ( 18537 PWs)   bands (ev):

   -41.3544 -41.3544 -41.3505 -41.3505 -26.6012 -26.6011 -26.5997 -26.5995
   -19.4381 -19.4381 -19.4074 -19.4074 -19.3650 -19.3649 -19.3559 -19.3558
   -19.3319 -19.3319 -19.3312 -19.3311  -8.6848  -8.6820  -8.6815  -8.6705
    -8.6646  -8.6405  -8.6389  -8.6362  -8.6205  -8.6186  -8.5880  -8.5873
    -4.6596  -4.4552  -3.9685  -3.9223  -3.7949  -3.7126  -3.6526  -3.6238
    -3.4633  -3.3529  -3.3438  -3.2978   3.8295   3.9179   4.0793   4.0977
     4.1344   4.2380   4.3211   4.3620   4.4548   4.4578   4.6550   5.0723
     5.1740   5.2790   5.4029   5.4601   5.5091   5.5699   5.6798   5.7578
     5.7928   5.8509   5.8940   6.1636   6.1692   6.2984   6.3468   6.4701
     6.4925   6.6860   6.6883   6.9081   6.9977   7.3024   7.4368   7.5183

     occupation numbers 
     1.0000   1.0000   1.0000   1.0000   1.0000   1.0000   1.0000   1.0000
     1.0000   1.0000   1.0000   1.0000   1.0000   1.0000   1.0000   1.0000
     1.0000   1.0000   1.0000   1.0000   1.0000   1.0000   1.0000   1.0000
     1.0000   1.0000   1.0000   1.0000   1.0000   1.0000   1.0000   1.0000
     1.0000   1.0000   1.0000   1.0000   1.0000   1.0000   1.0000   1.0000
     1.0000   1.0000   1.0000   1.0000   1.0000   1.0000   1.0000   1.0000
     1.0000   1.0000   1.0000   1.0000   1.0000   1.0000   1.0000   1.0000
     1.0000   1.0000   1.0000   1.0000   1.0000   1.0000   1.0000   1.0000
     1.0000   1.0000   1.0000   1.0000   1.0000   1.0000   1.0000   1.0000
     1.0000   1.0000   1.0000   1.0000   1.0000   1.0000   1.0000   1.0000

          k = 0.1666 0.0000-0.1371 ( 18576 PWs)   bands (ev):

   -41.3544 -41.3544 -41.3505 -41.3505 -26.6011 -26.6011 -26.5996 -26.5996
   -19.4381 -19.4381 -19.4074 -19.4074 -19.3650 -19.3650 -19.3558 -19.3558
   -19.3319 -19.3319 -19.3311 -19.3311  -8.6825  -8.6825  -8.6787  -8.6787
    -8.6525  -8.6525  -8.6356  -8.6356  -8.6196  -8.6196  -8.5877  -8.5877
    -4.5702  -4.5702  -3.9330  -3.9330  -3.7502  -3.7502  -3.6376  -3.6376
    -3.4214  -3.4214  -3.3113  -3.3113   3.8646   3.8646   4.0708   4.0708
     4.1857   4.1857   4.3308   4.3308   4.5572   4.5572   4.7794   4.7794
     5.2148   5.2148   5.4094   5.4094   5.5228   5.5228   5.6914   5.6914
     5.8506   5.8506   6.1052   6.1052   6.2934   6.2934   6.3924   6.3924
     6.5452   6.5452   6.7185   6.7185   7.2304   7.2304   7.4811   7.4811

     occupation numbers 
     1.0000   1.0000   1.0000   1.0000   1.0000   1.0000   1.0000   1.0000
     1.0000   1.0000   1.0000   1.0000   1.0000   1.0000   1.0000   1.0000
     1.0000   1.0000   1.0000   1.0000   1.0000   1.0000   1.0000   1.0000
     1.0000   1.0000   1.0000   1.0000   1.0000   1.0000   1.0000   1.0000
     1.0000   1.0000   1.0000   1.0000   1.0000   1.0000   1.0000   1.0000
     1.0000   1.0000   1.0000   1.0000   1.0000   1.0000   1.0000   1.0000
     1.0000   1.0000   1.0000   1.0000   1.0000   1.0000   1.0000   1.0000
     1.0000   1.0000   1.0000   1.0000   1.0000   1.0000   1.0000   1.0000
     1.0000   1.0000   1.0000   1.0000   1.0000   1.0000   1.0000   1.0000
     1.0000   1.0000   1.0000   1.0000   1.0000   1.0000   1.0000   1.0000

          k = 0.1666 0.1490 0.0000 ( 18591 PWs)   bands (ev):

   -41.3544 -41.3544 -41.3505 -41.3505 -26.6008 -26.6007 -26.6001 -26.5999
   -19.4379 -19.4379 -19.4077 -19.4076 -19.3649 -19.3649 -19.3559 -19.3559
   -19.3319 -19.3319 -19.3312 -19.3311  -8.6928  -8.6869  -8.6754  -8.6682
    -8.6506  -8.6383  -8.6333  -8.6313  -8.6197  -8.6177  -8.6021  -8.5985
    -4.5590  -4.4281  -4.0487  -4.0093  -3.8970  -3.8763  -3.4984  -3.4674
    -3.4449  -3.3984  -3.3066  -3.3062   3.7422   3.8433   3.9419   3.9593
     4.1764   4.2582   4.3690   4.5409   4.5711   4.6097   4.8289   4.9799
     5.0580   5.1510   5.3635   5.3941   5.4648   5.6111   5.6117   5.6534
     5.8049   5.9607   6.0406   6.0599   6.1740   6.2236   6.4502   6.5208
     6.6402   6.6868   6.7849   6.9301   7.1349   7.2791   7.3813   7.4153

     occupation numbers 
     1.0000   1.0000   1.0000   1.0000   1.0000   1.0000   1.0000   1.0000
     1.0000   1.0000   1.0000   1.0000   1.0000   1.0000   1.0000   1.0000
     1.0000   1.0000   1.0000   1.0000   1.0000   1.0000   1.0000   1.0000
     1.0000   1.0000   1.0000   1.0000   1.0000   1.0000   1.0000   1.0000
     1.0000   1.0000   1.0000   1.0000   1.0000   1.0000   1.0000   1.0000
     1.0000   1.0000   1.0000   1.0000   1.0000   1.0000   1.0000   1.0000
     1.0000   1.0000   1.0000   1.0000   1.0000   1.0000   1.0000   1.0000
     1.0000   1.0000   1.0000   1.0000   1.0000   1.0000   1.0000   1.0000
     1.0000   1.0000   1.0000   1.0000   1.0000   1.0000   1.0000   1.0000
     1.0000   1.0000   1.0000   1.0000   1.0000   1.0000   1.0000   1.0000

          k = 0.1666 0.1490-0.1371 ( 18560 PWs)   bands (ev):

   -41.3544 -41.3544 -41.3505 -41.3505 -26.6008 -26.6008 -26.6000 -26.6000
   -19.4379 -19.4379 -19.4076 -19.4076 -19.3649 -19.3649 -19.3559 -19.3559
   -19.3319 -19.3319 -19.3312 -19.3312  -8.6873  -8.6873  -8.6760  -8.6760
    -8.6425  -8.6425  -8.6329  -8.6329  -8.6187  -8.6187  -8.6002  -8.6002
    -4.4946  -4.4946  -4.0514  -4.0514  -3.8615  -3.8615  -3.4971  -3.4971
    -3.3799  -3.3799  -3.3356  -3.3356   3.7678   3.7678   3.9207   3.9207
     4.3005   4.3005   4.4680   4.4680   4.6480   4.6480   4.8263   4.8263
     5.0395   5.0395   5.3557   5.3557   5.5512   5.5512   5.6117   5.6117
     5.9302   5.9302   6.0641   6.0641   6.2550   6.2550   6.4438   6.4438
     6.7219   6.7219   6.8218   6.8218   7.1948   7.1948   7.3751   7.3751

     occupation numbers 
     1.0000   1.0000   1.0000   1.0000   1.0000   1.0000   1.0000   1.0000
     1.0000   1.0000   1.0000   1.0000   1.0000   1.0000   1.0000   1.0000
     1.0000   1.0000   1.0000   1.0000   1.0000   1.0000   1.0000   1.0000
     1.0000   1.0000   1.0000   1.0000   1.0000   1.0000   1.0000   1.0000
     1.0000   1.0000   1.0000   1.0000   1.0000   1.0000   1.0000   1.0000
     1.0000   1.0000   1.0000   1.0000   1.0000   1.0000   1.0000   1.0000
     1.0000   1.0000   1.0000   1.0000   1.0000   1.0000   1.0000   1.0000
     1.0000   1.0000   1.0000   1.0000   1.0000   1.0000   1.0000   1.0000
     1.0000   1.0000   1.0000   1.0000   1.0000   1.0000   1.0000   1.0000
     1.0000   1.0000   1.0000   1.0000   1.0000   1.0000   1.0000   1.0000

          k = 0.3332 0.0000 0.0000 ( 18620 PWs)   bands (ev):

   -41.3510 -41.3510 -41.3487 -41.3487 -26.5911 -26.5910 -26.5897 -26.5895
   -19.4283 -19.4283 -19.4168 -19.4168 -19.3915 -19.3915 -19.3910 -19.3910
   -19.3502 -19.3502 -19.3384 -19.3384  -8.8243  -8.8239  -8.7872  -8.7864
    -8.6407  -8.6398  -8.6363  -8.6280  -8.6182  -8.6090  -8.5635  -8.5628
    -4.2244  -4.1024  -3.8791  -3.8776  -3.8121  -3.7679  -3.5965  -3.5923
    -3.3489  -3.3317  -3.3308  -3.2355   3.6646   3.8296   3.9880   4.0671
     4.0883   4.1817   4.3084   4.4452   4.6174   4.6982   4.7232   4.7898
     4.8298   4.8398   4.9742   5.1738   5.4441   5.4973   5.5646   5.5981
     5.6972   5.7499   5.8010   5.8120   6.0329   6.2286   6.2781   6.3294
     6.4643   6.5257   6.5637   6.5827   6.6473   6.6676   7.0151   7.0249

     occupation numbers 
     1.0000   1.0000   1.0000   1.0000   1.0000   1.0000   1.0000   1.0000
     1.0000   1.0000   1.0000   1.0000   1.0000   1.0000   1.0000   1.0000
     1.0000   1.0000   1.0000   1.0000   1.0000   1.0000   1.0000   1.0000
     1.0000   1.0000   1.0000   1.0000   1.0000   1.0000   1.0000   1.0000
     1.0000   1.0000   1.0000   1.0000   1.0000   1.0000   1.0000   1.0000
     1.0000   1.0000   1.0000   1.0000   1.0000   1.0000   1.0000   1.0000
     1.0000   1.0000   1.0000   1.0000   1.0000   1.0000   1.0000   1.0000
     1.0000   1.0000   1.0000   1.0000   1.0000   1.0000   1.0000   1.0000
     1.0000   1.0000   1.0000   1.0000   1.0000   1.0000   1.0000   1.0000
     1.0000   1.0000   1.0000   1.0000   1.0000   1.0000   1.0000   1.0000

          k = 0.3332 0.0000-0.1371 ( 18610 PWs)   bands (ev):

   -41.3510 -41.3510 -41.3487 -41.3487 -26.5910 -26.5910 -26.5896 -26.5896
   -19.4283 -19.4283 -19.4168 -19.4168 -19.3915 -19.3915 -19.3910 -19.3910
   -19.3502 -19.3502 -19.3384 -19.3384  -8.8241  -8.8241  -8.7868  -8.7868
    -8.6399  -8.6399  -8.6333  -8.6333  -8.6128  -8.6128  -8.5631  -8.5631
    -4.1693  -4.1693  -3.8790  -3.8790  -3.7854  -3.7854  -3.5930  -3.5930
    -3.3489  -3.3489  -3.2740  -3.2740   3.7919   3.7919   3.8971   3.8971
     4.1380   4.1380   4.4228   4.4228   4.6924   4.6924   4.7977   4.7977
     4.8493   4.8493   5.0848   5.0848   5.4057   5.4057   5.6190   5.6190
     5.8219   5.8219   5.8433   5.8433   5.9278   5.9278   6.1401   6.1401
     6.4685   6.4685   6.6677   6.6677   6.7839   6.7839   7.0394   7.0394

     occupation numbers 
     1.0000   1.0000   1.0000   1.0000   1.0000   1.0000   1.0000   1.0000
     1.0000   1.0000   1.0000   1.0000   1.0000   1.0000   1.0000   1.0000
     1.0000   1.0000   1.0000   1.0000   1.0000   1.0000   1.0000   1.0000
     1.0000   1.0000   1.0000   1.0000   1.0000   1.0000   1.0000   1.0000
     1.0000   1.0000   1.0000   1.0000   1.0000   1.0000   1.0000   1.0000
     1.0000   1.0000   1.0000   1.0000   1.0000   1.0000   1.0000   1.0000
     1.0000   1.0000   1.0000   1.0000   1.0000   1.0000   1.0000   1.0000
     1.0000   1.0000   1.0000   1.0000   1.0000   1.0000   1.0000   1.0000
     1.0000   1.0000   1.0000   1.0000   1.0000   1.0000   1.0000   1.0000
     1.0000   1.0000   1.0000   1.0000   1.0000   1.0000   1.0000   1.0000

          k = 0.3332 0.1490 0.0000 ( 18628 PWs)   bands (ev):

   -41.3510 -41.3510 -41.3487 -41.3487 -26.5907 -26.5906 -26.5900 -26.5899
   -19.4283 -19.4283 -19.4169 -19.4169 -19.3916 -19.3915 -19.3909 -19.3909
   -19.3502 -19.3502 -19.3384 -19.3384  -8.8155  -8.8146  -8.7970  -8.7959
    -8.6454  -8.6434  -8.6346  -8.6308  -8.6009  -8.5950  -8.5750  -8.5725
    -4.1832  -4.1153  -3.9145  -3.8970  -3.7864  -3.7755  -3.5849  -3.5835
    -3.3609  -3.3470  -3.2978  -3.2549   3.7559   3.7953   3.9575   3.9832
     4.2621   4.3008   4.3667   4.4319   4.4915   4.5318   4.6429   4.6788
     4.7738   4.9475   5.1450   5.2837   5.2854   5.3187   5.4389   5.5052
     5.7074   5.7274   5.8281   5.9693   6.0670   6.0693   6.2809   6.3216
     6.3667   6.4327   6.7664   6.7938   6.8860   6.9028   6.9527   7.0563

     occupation numbers 
     1.0000   1.0000   1.0000   1.0000   1.0000   1.0000   1.0000   1.0000
     1.0000   1.0000   1.0000   1.0000   1.0000   1.0000   1.0000   1.0000
     1.0000   1.0000   1.0000   1.0000   1.0000   1.0000   1.0000   1.0000
     1.0000   1.0000   1.0000   1.0000   1.0000   1.0000   1.0000   1.0000
     1.0000   1.0000   1.0000   1.0000   1.0000   1.0000   1.0000   1.0000
     1.0000   1.0000   1.0000   1.0000   1.0000   1.0000   1.0000   1.0000
     1.0000   1.0000   1.0000   1.0000   1.0000   1.0000   1.0000   1.0000
     1.0000   1.0000   1.0000   1.0000   1.0000   1.0000   1.0000   1.0000
     1.0000   1.0000   1.0000   1.0000   1.0000   1.0000   1.0000   1.0000
     1.0000   1.0000   1.0000   1.0000   1.0000   1.0000   1.0000   1.0000

          k = 0.3332 0.1490-0.1371 ( 18596 PWs)   bands (ev):

   -41.3510 -41.3510 -41.3487 -41.3487 -26.5907 -26.5907 -26.5899 -26.5899
   -19.4283 -19.4283 -19.4169 -19.4169 -19.3915 -19.3915 -19.3909 -19.3909
   -19.3502 -19.3502 -19.3384 -19.3384  -8.8151  -8.8151  -8.7965  -8.7965
    -8.6433  -8.6433  -8.6340  -8.6340  -8.5977  -8.5977  -8.5737  -8.5737
    -4.1464  -4.1464  -3.9196  -3.9196  -3.7722  -3.7722  -3.5839  -3.5839
    -3.3413  -3.3413  -3.2869  -3.2869   3.7844   3.7844   3.9062   3.9062
     4.2788   4.2788   4.4272   4.4272   4.5399   4.5399   4.7283   4.7283
     4.8851   4.8851   5.1895   5.1895   5.3000   5.3000   5.4115   5.4115
     5.6877   5.6877   5.7898   5.7898   6.1764   6.1764   6.2777   6.2777
     6.5132   6.5132   6.6808   6.6808   6.8673   6.8673   7.0761   7.0761

     occupation numbers 
     1.0000   1.0000   1.0000   1.0000   1.0000   1.0000   1.0000   1.0000
     1.0000   1.0000   1.0000   1.0000   1.0000   1.0000   1.0000   1.0000
     1.0000   1.0000   1.0000   1.0000   1.0000   1.0000   1.0000   1.0000
     1.0000   1.0000   1.0000   1.0000   1.0000   1.0000   1.0000   1.0000
     1.0000   1.0000   1.0000   1.0000   1.0000   1.0000   1.0000   1.0000
     1.0000   1.0000   1.0000   1.0000   1.0000   1.0000   1.0000   1.0000
     1.0000   1.0000   1.0000   1.0000   1.0000   1.0000   1.0000   1.0000
     1.0000   1.0000   1.0000   1.0000   1.0000   1.0000   1.0000   1.0000
     1.0000   1.0000   1.0000   1.0000   1.0000   1.0000   1.0000   1.0000
     1.0000   1.0000   1.0000   1.0000   1.0000   1.0000   1.0000   1.0000

          k =-0.4998 0.0000 0.0000 ( 18628 PWs)   bands (ev):

   -41.3486 -41.3486 -41.3486 -41.3486 -26.5859 -26.5859 -26.5846 -26.5846
   -19.4428 -19.4428 -19.4428 -19.4428 -19.3917 -19.3917 -19.3917 -19.3917
   -19.3450 -19.3450 -19.3450 -19.3450  -8.9121  -8.9121  -8.8665  -8.8665
    -8.6178  -8.6178  -8.6157  -8.6157  -8.5908  -8.5908  -8.5507  -8.5507
    -3.9424  -3.9424  -3.9406  -3.9406  -3.6521  -3.6521  -3.6390  -3.6390
    -3.3443  -3.3443  -3.2321  -3.2321   3.5840   3.5840   3.7765   3.7765
     4.0759   4.0759   4.3387   4.3387   4.5549   4.5549   4.6443   4.6443
     5.1170   5.1170   5.2634   5.2634   5.3115   5.3115   5.3198   5.3198
     5.5314   5.5314   5.9262   5.9262   6.0166   6.0166   6.0976   6.0976
     6.6074   6.6074   6.6650   6.6650   6.7753   6.7753   6.8479   6.8479

     occupation numbers 
     1.0000   1.0000   1.0000   1.0000   1.0000   1.0000   1.0000   1.0000
     1.0000   1.0000   1.0000   1.0000   1.0000   1.0000   1.0000   1.0000
     1.0000   1.0000   1.0000   1.0000   1.0000   1.0000   1.0000   1.0000
     1.0000   1.0000   1.0000   1.0000   1.0000   1.0000   1.0000   1.0000
     1.0000   1.0000   1.0000   1.0000   1.0000   1.0000   1.0000   1.0000
     1.0000   1.0000   1.0000   1.0000   1.0000   1.0000   1.0000   1.0000
     1.0000   1.0000   1.0000   1.0000   1.0000   1.0000   1.0000   1.0000
     1.0000   1.0000   1.0000   1.0000   1.0000   1.0000   1.0000   1.0000
     1.0000   1.0000   1.0000   1.0000   1.0000   1.0000   1.0000   1.0000
     1.0000   1.0000   1.0000   1.0000   1.0000   1.0000   1.0000   1.0000

          k =-0.4998 0.0000-0.1371 ( 18652 PWs)   bands (ev):

   -41.3486 -41.3486 -41.3486 -41.3486 -26.5859 -26.5859 -26.5846 -26.5846
   -19.4428 -19.4428 -19.4428 -19.4428 -19.3917 -19.3917 -19.3917 -19.3917
   -19.3450 -19.3450 -19.3450 -19.3450  -8.9121  -8.9121  -8.8665  -8.8665
    -8.6178  -8.6178  -8.6157  -8.6157  -8.5908  -8.5908  -8.5507  -8.5507
    -3.9454  -3.9454  -3.9377  -3.9377  -3.6531  -3.6531  -3.6384  -3.6384
    -3.3443  -3.3443  -3.2316  -3.2316   3.5649   3.5649   3.8098   3.8098
     4.0660   4.0660   4.2808   4.2808   4.5987   4.5987   4.7356   4.7356
     5.0295   5.0295   5.1161   5.1161   5.2852   5.2852   5.4503   5.4503
     5.7228   5.7228   5.7413   5.7413   5.9420   5.9420   6.4250   6.4250
     6.4865   6.4865   6.5643   6.5643   6.7203   6.7203   6.9071   6.9071

     occupation numbers 
     1.0000   1.0000   1.0000   1.0000   1.0000   1.0000   1.0000   1.0000
     1.0000   1.0000   1.0000   1.0000   1.0000   1.0000   1.0000   1.0000
     1.0000   1.0000   1.0000   1.0000   1.0000   1.0000   1.0000   1.0000
     1.0000   1.0000   1.0000   1.0000   1.0000   1.0000   1.0000   1.0000
     1.0000   1.0000   1.0000   1.0000   1.0000   1.0000   1.0000   1.0000
     1.0000   1.0000   1.0000   1.0000   1.0000   1.0000   1.0000   1.0000
     1.0000   1.0000   1.0000   1.0000   1.0000   1.0000   1.0000   1.0000
     1.0000   1.0000   1.0000   1.0000   1.0000   1.0000   1.0000   1.0000
     1.0000   1.0000   1.0000   1.0000   1.0000   1.0000   1.0000   1.0000
     1.0000   1.0000   1.0000   1.0000   1.0000   1.0000   1.0000   1.0000

          k =-0.4998 0.1490 0.0000 ( 18590 PWs)   bands (ev):

   -41.3486 -41.3486 -41.3486 -41.3486 -26.5856 -26.5856 -26.5849 -26.5849
   -19.4429 -19.4429 -19.4429 -19.4429 -19.3916 -19.3916 -19.3916 -19.3916
   -19.3450 -19.3450 -19.3450 -19.3450  -8.9009  -8.9009  -8.8781  -8.8781
    -8.6193  -8.6193  -8.6176  -8.6176  -8.5788  -8.5788  -8.5594  -8.5594
    -3.9421  -3.9421  -3.9408  -3.9408  -3.6498  -3.6498  -3.6444  -3.6444
    -3.3133  -3.3133  -3.2580  -3.2580   3.5094   3.5094   3.5690   3.5690
     4.2949   4.2949   4.4180   4.4180   4.6679   4.6679   4.6831   4.6831
     5.0185   5.0185   5.0964   5.0964   5.3202   5.3202   5.4235   5.4235
     5.7449   5.7449   5.8139   5.8139   6.2041   6.2041   6.2115   6.2115
     6.4500   6.4500   6.4504   6.4504   6.7183   6.7183   6.7310   6.7310

     occupation numbers 
     1.0000   1.0000   1.0000   1.0000   1.0000   1.0000   1.0000   1.0000
     1.0000   1.0000   1.0000   1.0000   1.0000   1.0000   1.0000   1.0000
     1.0000   1.0000   1.0000   1.0000   1.0000   1.0000   1.0000   1.0000
     1.0000   1.0000   1.0000   1.0000   1.0000   1.0000   1.0000   1.0000
     1.0000   1.0000   1.0000   1.0000   1.0000   1.0000   1.0000   1.0000
     1.0000   1.0000   1.0000   1.0000   1.0000   1.0000   1.0000   1.0000
     1.0000   1.0000   1.0000   1.0000   1.0000   1.0000   1.0000   1.0000
     1.0000   1.0000   1.0000   1.0000   1.0000   1.0000   1.0000   1.0000
     1.0000   1.0000   1.0000   1.0000   1.0000   1.0000   1.0000   1.0000
     1.0000   1.0000   1.0000   1.0000   1.0000   1.0000   1.0000   1.0000

          k =-0.4998 0.1490-0.1371 ( 18600 PWs)   bands (ev):

   -41.3486 -41.3486 -41.3486 -41.3486 -26.5856 -26.5856 -26.5849 -26.5849
   -19.4429 -19.4429 -19.4429 -19.4429 -19.3916 -19.3916 -19.3916 -19.3916
   -19.3450 -19.3450 -19.3450 -19.3450  -8.9009  -8.9009  -8.8781  -8.8781
    -8.6193  -8.6193  -8.6176  -8.6176  -8.5788  -8.5788  -8.5594  -8.5594
    -3.9433  -3.9433  -3.9397  -3.9397  -3.6514  -3.6514  -3.6432  -3.6432
    -3.3132  -3.3132  -3.2575  -3.2575   3.4870   3.4870   3.5822   3.5822
     4.2855   4.2855   4.4251   4.4251   4.6446   4.6446   4.6671   4.6671
     5.1041   5.1041   5.2144   5.2144   5.3474   5.3474   5.3491   5.3491
     5.7419   5.7419   5.8171   5.8171   5.9948   5.9948   6.0898   6.0898
     6.4675   6.4675   6.4966   6.4966   6.8156   6.8156   6.8214   6.8214

     occupation numbers 
     1.0000   1.0000   1.0000   1.0000   1.0000   1.0000   1.0000   1.0000
     1.0000   1.0000   1.0000   1.0000   1.0000   1.0000   1.0000   1.0000
     1.0000   1.0000   1.0000   1.0000   1.0000   1.0000   1.0000   1.0000
     1.0000   1.0000   1.0000   1.0000   1.0000   1.0000   1.0000   1.0000
     1.0000   1.0000   1.0000   1.0000   1.0000   1.0000   1.0000   1.0000
     1.0000   1.0000   1.0000   1.0000   1.0000   1.0000   1.0000   1.0000
     1.0000   1.0000   1.0000   1.0000   1.0000   1.0000   1.0000   1.0000
     1.0000   1.0000   1.0000   1.0000   1.0000   1.0000   1.0000   1.0000
     1.0000   1.0000   1.0000   1.0000   1.0000   1.0000   1.0000   1.0000
     1.0000   1.0000   1.0000   1.0000   1.0000   1.0000   1.0000   1.0000

     highest occupied level (ev):     7.9240

!    total energy              =    -969.03982948 Ry
     estimated scf accuracy    <          1.0E-09 Ry

     The total energy is the sum of the following terms:
     one-electron contribution =    -193.06446658 Ry
     hartree contribution      =     157.25667564 Ry
     xc contribution           =    -246.07610724 Ry
     ewald contribution        =    -687.15593131 Ry

     convergence has been achieved in   9 iterations

     negative rho (up, down):  5.166E-01 0.000E+00

     Forces acting on atoms (cartesian axes, Ry/au):

     atom    1 type  2   force =     0.00000000   -0.00096788   -0.00061523
     atom    2 type  2   force =    -0.00000000    0.00096788    0.00061523
     atom    3 type  2   force =     0.00000000    0.00096788   -0.00061523
     atom    4 type  2   force =     0.00000000   -0.00096788    0.00061523
     atom    5 type  3   force =    -0.00000000    0.00060808   -0.00038146
     atom    6 type  3   force =     0.00000000   -0.00060808    0.00038146
     atom    7 type  3   force =     0.00000000   -0.00060808   -0.00038146
     atom    8 type  3   force =     0.00000000    0.00060808    0.00038146
     atom    9 type  1   force =     0.00000000   -0.00003976    0.00046926
     atom   10 type  1   force =     0.00000000    0.00003976   -0.00046926
     atom   11 type  1   force =     0.00000000    0.00003976    0.00046926
     atom   12 type  1   force =    -0.00000000   -0.00003976   -0.00046926
     atom   13 type  1   force =    -0.00000000    0.00084072   -0.00141076
     atom   14 type  1   force =     0.00000000   -0.00084072    0.00141076
     atom   15 type  1   force =     0.00000000   -0.00084072   -0.00141076
     atom   16 type  1   force =    -0.00000000    0.00084072    0.00141076
     atom   17 type  1   force =     0.00000000    0.00002265   -0.00037284
     atom   18 type  1   force =     0.00000000   -0.00002265    0.00037284
     atom   19 type  1   force =    -0.00000000   -0.00002265   -0.00037284
     atom   20 type  1   force =     0.00000000    0.00002265    0.00037284
     The non-local contrib.  to forces
     atom    1 type  2   force =    -0.00000000   -0.00032042    0.00421170
     atom    2 type  2   force =     0.00000000    0.00032042   -0.00421170
     atom    3 type  2   force =     0.00000000    0.00032042    0.00421170
     atom    4 type  2   force =    -0.00000000   -0.00032042   -0.00421170
     atom    5 type  3   force =     0.00000000    0.02306157   -0.02190094
     atom    6 type  3   force =     0.00000000   -0.02306157    0.02190094
     atom    7 type  3   force =    -0.00000000   -0.02306157   -0.02190094
     atom    8 type  3   force =    -0.00000000    0.02306157    0.02190094
     atom    9 type  1   force =     0.00000000    0.00389161   -0.00954259
     atom   10 type  1   force =    -0.00000000   -0.00389161    0.00954259
     atom   11 type  1   force =     0.00000000   -0.00389161   -0.00954259
     atom   12 type  1   force =     0.00000000    0.00389161    0.00954259
     atom   13 type  1   force =     0.00000000   -0.04358945   -0.00501604
     atom   14 type  1   force =     0.00000000    0.04358945    0.00501604
     atom   15 type  1   force =     0.00000000    0.04358945   -0.00501604
     atom   16 type  1   force =    -0.00000000   -0.04358945    0.00501604
     atom   17 type  1   force =    -0.00000000    0.04148792    0.06761986
     atom   18 type  1   force =     0.00000000   -0.04148792   -0.06761986
     atom   19 type  1   force =     0.00000000   -0.04148792    0.06761986
     atom   20 type  1   force =     0.00000000    0.04148792   -0.06761986
     The ionic contribution  to forces
     atom    1 type  2   force =     0.00000000    0.34458991    0.03142958
     atom    2 type  2   force =    -0.00000000   -0.34458991   -0.03142958
     atom    3 type  2   force =    -0.00000000   -0.34458991    0.03142958
     atom    4 type  2   force =    -0.00000000    0.34458991   -0.03142958
     atom    5 type  3   force =    -0.00000000   -2.63015181    1.16385424
     atom    6 type  3   force =    -0.00000000    2.63015181   -1.16385424
     atom    7 type  3   force =    -0.00000000    2.63015181    1.16385424
     atom    8 type  3   force =    -0.00000000   -2.63015181   -1.16385424
     atom    9 type  1   force =     0.00000000   -1.63025321    3.62022211
     atom   10 type  1   force =    -0.00000000    1.63025321   -3.62022211
     atom   11 type  1   force =    -0.00000000    1.63025321    3.62022211
     atom   12 type  1   force =     0.00000000   -1.63025321   -3.62022211
     atom   13 type  1   force =    -0.00000000    3.63121150   -2.23011187
     atom   14 type  1   force =     0.00000000   -3.63121150    2.23011187
     atom   15 type  1   force =    -0.00000000   -3.63121150   -2.23011187
     atom   16 type  1   force =    -0.00000000    3.63121150    2.23011187
     atom   17 type  1   force =    -0.00000000   -2.92814386   -4.80876063
     atom   18 type  1   force =     0.00000000    2.92814386    4.80876063
     atom   19 type  1   force =     0.00000000    2.92814386   -4.80876063
     atom   20 type  1   force =    -0.00000000   -2.92814386    4.80876063
     The local contribution  to forces
     atom    1 type  2   force =    -0.00000000   -0.34537441   -0.03609563
     atom    2 type  2   force =     0.00000000    0.34537441    0.03609563
     atom    3 type  2   force =     0.00000000    0.34537441   -0.03609563
     atom    4 type  2   force =     0.00000000   -0.34537441    0.03609563
     atom    5 type  3   force =     0.00000000    2.60840663   -1.14203090
     atom    6 type  3   force =     0.00000000   -2.60840663    1.14203090
     atom    7 type  3   force =     0.00000000   -2.60840663   -1.14203090
     atom    8 type  3   force =     0.00000000    2.60840663    1.14203090
     atom    9 type  1   force =    -0.00000000    1.62623113   -3.61005321
     atom   10 type  1   force =     0.00000000   -1.62623113    3.61005321
     atom   11 type  1   force =     0.00000000   -1.62623113   -3.61005321
     atom   12 type  1   force =    -0.00000000    1.62623113    3.61005321
     atom   13 type  1   force =    -0.00000000   -3.58881694    2.23313669
     atom   14 type  1   force =     0.00000000    3.58881694   -2.23313669
     atom   15 type  1   force =     0.00000000    3.58881694    2.23313669
     atom   16 type  1   force =    -0.00000000   -3.58881694   -2.23313669
     atom   17 type  1   force =     0.00000000    2.88863832    4.74410369
     atom   18 type  1   force =    -0.00000000   -2.88863832   -4.74410369
     atom   19 type  1   force =    -0.00000000   -2.88863832    4.74410369
     atom   20 type  1   force =     0.00000000    2.88863832   -4.74410369
     The core correction contribution to forces
     atom    1 type  2   force =     0.00000000    0.00013275   -0.00016483
     atom    2 type  2   force =    -0.00000000   -0.00013275    0.00016483
     atom    3 type  2   force =     0.00000000   -0.00013275   -0.00016483
     atom    4 type  2   force =     0.00000000    0.00013275    0.00016483
     atom    5 type  3   force =     0.00000000   -0.00073354   -0.00028076
     atom    6 type  3   force =     0.00000000    0.00073354    0.00028076
     atom    7 type  3   force =     0.00000000    0.00073354   -0.00028076
     atom    8 type  3   force =     0.00000000   -0.00073354    0.00028076
     atom    9 type  1   force =    -0.00000000    0.00008467   -0.00014789
     atom   10 type  1   force =     0.00000000   -0.00008467    0.00014789
     atom   11 type  1   force =     0.00000000   -0.00008467   -0.00014789
     atom   12 type  1   force =    -0.00000000    0.00008467    0.00014789
     atom   13 type  1   force =     0.00000000    0.00205340    0.00057509
     atom   14 type  1   force =    -0.00000000   -0.00205340   -0.00057509
     atom   15 type  1   force =     0.00000000   -0.00205340    0.00057509
     atom   16 type  1   force =     0.00000000    0.00205340   -0.00057509
     atom   17 type  1   force =     0.00000000   -0.00196346   -0.00336129
     atom   18 type  1   force =    -0.00000000    0.00196346    0.00336129
     atom   19 type  1   force =    -0.00000000    0.00196346   -0.00336129
     atom   20 type  1   force =     0.00000000   -0.00196346    0.00336129
     The Hubbard contrib.    to forces
     atom    1 type  2   force =     0.00000000    0.00000000    0.00000000
     atom    2 type  2   force =     0.00000000    0.00000000    0.00000000
     atom    3 type  2   force =     0.00000000    0.00000000    0.00000000
     atom    4 type  2   force =     0.00000000    0.00000000    0.00000000
     atom    5 type  3   force =     0.00000000    0.00000000    0.00000000
     atom    6 type  3   force =     0.00000000    0.00000000    0.00000000
     atom    7 type  3   force =     0.00000000    0.00000000    0.00000000
     atom    8 type  3   force =     0.00000000    0.00000000    0.00000000
     atom    9 type  1   force =     0.00000000    0.00000000    0.00000000
     atom   10 type  1   force =     0.00000000    0.00000000    0.00000000
     atom   11 type  1   force =     0.00000000    0.00000000    0.00000000
     atom   12 type  1   force =     0.00000000    0.00000000    0.00000000
     atom   13 type  1   force =     0.00000000    0.00000000    0.00000000
     atom   14 type  1   force =     0.00000000    0.00000000    0.00000000
     atom   15 type  1   force =     0.00000000    0.00000000    0.00000000
     atom   16 type  1   force =     0.00000000    0.00000000    0.00000000
     atom   17 type  1   force =     0.00000000    0.00000000    0.00000000
     atom   18 type  1   force =     0.00000000    0.00000000    0.00000000
     atom   19 type  1   force =     0.00000000    0.00000000    0.00000000
     atom   20 type  1   force =     0.00000000    0.00000000    0.00000000
     The SCF correction term to forces
     atom    1 type  2   force =     0.00000000    0.00000428    0.00000395
     atom    2 type  2   force =     0.00000000   -0.00000428   -0.00000395
     atom    3 type  2   force =     0.00000000   -0.00000428    0.00000395
     atom    4 type  2   force =    -0.00000000    0.00000428   -0.00000395
     atom    5 type  3   force =    -0.00000000    0.00002523   -0.00002310
     atom    6 type  3   force =     0.00000000   -0.00002523    0.00002310
     atom    7 type  3   force =    -0.00000000   -0.00002523   -0.00002310
     atom    8 type  3   force =     0.00000000    0.00002523    0.00002310
     atom    9 type  1   force =     0.00000000    0.00000604   -0.00000917
     atom   10 type  1   force =    -0.00000000   -0.00000604    0.00000917
     atom   11 type  1   force =    -0.00000000   -0.00000604   -0.00000917
     atom   12 type  1   force =     0.00000000    0.00000604    0.00000917
     atom   13 type  1   force =     0.00000000   -0.00001779    0.00000536
     atom   14 type  1   force =    -0.00000000    0.00001779   -0.00000536
     atom   15 type  1   force =     0.00000000    0.00001779    0.00000536
     atom   16 type  1   force =    -0.00000000   -0.00001779   -0.00000536
     atom   17 type  1   force =     0.00000000    0.00000373    0.00002552
     atom   18 type  1   force =    -0.00000000   -0.00000373   -0.00002552
     atom   19 type  1   force =    -0.00000000   -0.00000373    0.00002552
     atom   20 type  1   force =     0.00000000    0.00000373   -0.00002552

     Total force =     0.004422     Total SCF correction =     0.000097


     Computing stress (Cartesian axis) and pressure


     negative rho (up, down):  5.166E-01 0.000E+00
          total   stress  (Ry/bohr**3)                   (kbar)     P=        1.60
   0.00000558   0.00000000   0.00000000            0.82        0.00        0.00
   0.00000000   0.00001348   0.00000000            0.00        1.98        0.00
   0.00000000   0.00000000   0.00001359            0.00        0.00        2.00

     kinetic stress (kbar)   8964.80      0.00      0.00
                                0.00   8993.09      0.00
                                0.00      0.00   9012.98

     local   stress (kbar)  -7797.02     -0.00      0.00
                               -0.00  -4281.16     -0.00
                                0.00     -0.00  -4001.27

     nonloc. stress (kbar)   7402.66      0.00      0.00
                                0.00   7399.11      0.00
                                0.00      0.00   7404.54

     hartree stress (kbar)   3490.81     -0.00     -0.00
                               -0.00   2108.80      0.00
                               -0.00      0.00   1815.72

     exc-cor stress (kbar)   2582.05      0.00      0.00
                                0.00   2579.88     -0.00
                                0.00     -0.00   2582.55

     corecor stress (kbar)  -5283.28      0.00     -0.00
                                0.00  -5283.20     -0.00
                               -0.00     -0.00  -5283.93

     ewald   stress (kbar)  -9359.19      0.00     -0.00
                                0.00 -11514.53      0.00
                               -0.00      0.00 -11528.59

     hubbard stress (kbar)      0.00      0.00      0.00
                                0.00      0.00      0.00
                                0.00      0.00      0.00

     DFT-D   stress (kbar)      0.00      0.00      0.00
                                0.00      0.00      0.00
                                0.00      0.00      0.00

     XDM     stress (kbar)      0.00      0.00      0.00
                                0.00      0.00      0.00
                                0.00      0.00      0.00

     dft-nl  stress (kbar)      0.00      0.00      0.00
                                0.00      0.00      0.00
                                0.00      0.00      0.00

     TS-vdW  stress (kbar)      0.00      0.00      0.00
                                0.00      0.00      0.00
                                0.00      0.00      0.00

     MDB     stress (kbar)      0.00      0.00      0.00
                                0.00      0.00      0.00
                                0.00      0.00      0.00

     3D-RISM stress (kbar)      0.00      0.00      0.00
                                0.00      0.00      0.00
                                0.00      0.00      0.00

     Energy error            =      1.3E-04 Ry
     Gradient error          =      1.4E-03 Ry/Bohr
     Cell gradient error     =      2.0E+00 kbar

     number of scf cycles    =   2
     number of bfgs steps    =   1

     enthalpy           old  =    -969.0396963404 Ry
     enthalpy           new  =    -969.0398294839 Ry

     CASE: enthalpy          _new < enthalpy          _old

     new trust radius        =       0.0082334570 bohr
     new conv_thr            =       0.0000000001 Ry

     new unit-cell volume =   3125.19013 a.u.^3 (   463.10540 Ang^3 )
     density =      3.94479 g/cm^3

CELL_PARAMETERS (angstrom)
   3.842817306   0.000000000   0.000000000
  -0.000000000   8.598061419   0.000000000
   0.000000000   0.000000000  14.016176655

ATOMIC_POSITIONS (crystal)
Sr               0.2500000000        0.0661330253        0.8205907188
Sr               0.7500000000        0.9338669747        0.1794092812
Sr               0.7500000000        0.4338669747        0.3205907188
Sr               0.2500000000        0.5661330253        0.6794092812
Zr               0.2500000000        0.3278642620        0.0569842680
Zr               0.7500000000        0.6721357380        0.9430157320
Zr               0.7500000000        0.1721357380        0.5569842680
Zr               0.2500000000        0.8278642620        0.4430157320
S                0.2500000000        0.2066079562        0.2158361501
S                0.7500000000        0.7933920438        0.7841638499
S                0.7500000000        0.2933920438        0.7158361501
S                0.2500000000        0.7066079562        0.2841638499
S                0.2500000000        0.3365625291        0.4860916633
S                0.7500000000        0.6634374709        0.5139083367
S                0.7500000000        0.1634374709        0.9860916633
S                0.2500000000        0.8365625291        0.0139083367
S                0.2500000000        0.4847256565        0.8941121441
S                0.7500000000        0.5152743435        0.1058878559
S                0.7500000000        0.0152743435        0.3941121441
S                0.2500000000        0.9847256565        0.6058878559



     Writing config-only to output data dir ./tmp/relax/SrZrS3_relax.save/ :
     XML data file
     NEW-OLD atomic charge density approx. for the potential
     New effective cutoffs (rho, wfc):  399.39   49.93

     negative rho (up, down):  5.164E-01 0.000E+00

     total cpu time spent up to now is      189.1 secs

     Self-consistent Calculation

     iteration #  1     ecut=    50.00 Ry     beta= 0.30
     Davidson diagonalization with overlap

---- Real-time Memory Report at c_bands before calling an iterative solver
             0 MiB given to the printing process from OS
             0 MiB allocation reported by mallinfo(arena+hblkhd)
             0 MiB available memory on the node where the printing process lives
------------------
     ethr =  1.00E-06,  avg # of iterations =  2.0

     Threshold (ethr) on eigenvalues was too large:
     Diagonalizing with lowered threshold

     Davidson diagonalization with overlap

---- Real-time Memory Report at c_bands before calling an iterative solver
             0 MiB given to the printing process from OS
             0 MiB allocation reported by mallinfo(arena+hblkhd)
             0 MiB available memory on the node where the printing process lives
------------------
     ethr =  6.55E-09,  avg # of iterations =  7.8

     negative rho (up, down):  5.165E-01 0.000E+00

     total cpu time spent up to now is      207.1 secs

     total energy              =    -969.03988371 Ry
     estimated scf accuracy    <       0.00003413 Ry

     iteration #  2     ecut=    50.00 Ry     beta= 0.30
     Davidson diagonalization with overlap

---- Real-time Memory Report at c_bands before calling an iterative solver
             0 MiB given to the printing process from OS
             0 MiB allocation reported by mallinfo(arena+hblkhd)
             0 MiB available memory on the node where the printing process lives
------------------
     ethr =  2.13E-08,  avg # of iterations =  3.6

     negative rho (up, down):  5.165E-01 0.000E+00

     total cpu time spent up to now is      213.1 secs

     total energy              =    -969.03989249 Ry
     estimated scf accuracy    <       0.00000330 Ry

     iteration #  3     ecut=    50.00 Ry     beta= 0.30
     Davidson diagonalization with overlap

---- Real-time Memory Report at c_bands before calling an iterative solver
             0 MiB given to the printing process from OS
             0 MiB allocation reported by mallinfo(arena+hblkhd)
             0 MiB available memory on the node where the printing process lives
------------------
     ethr =  2.06E-09,  avg # of iterations =  2.6

     negative rho (up, down):  5.165E-01 0.000E+00

     total cpu time spent up to now is      218.6 secs

     total energy              =    -969.03989227 Ry
     estimated scf accuracy    <       0.00000125 Ry

     iteration #  4     ecut=    50.00 Ry     beta= 0.30
     Davidson diagonalization with overlap

---- Real-time Memory Report at c_bands before calling an iterative solver
             0 MiB given to the printing process from OS
             0 MiB allocation reported by mallinfo(arena+hblkhd)
             0 MiB available memory on the node where the printing process lives
------------------
     ethr =  7.78E-10,  avg # of iterations =  5.0

     negative rho (up, down):  5.165E-01 0.000E+00

     total cpu time spent up to now is      225.8 secs

     total energy              =    -969.03989238 Ry
     estimated scf accuracy    <       0.00000110 Ry

     iteration #  5     ecut=    50.00 Ry     beta= 0.30
     Davidson diagonalization with overlap

---- Real-time Memory Report at c_bands before calling an iterative solver
             0 MiB given to the printing process from OS
             0 MiB allocation reported by mallinfo(arena+hblkhd)
             0 MiB available memory on the node where the printing process lives
------------------
     ethr =  6.88E-10,  avg # of iterations =  5.1

     negative rho (up, down):  5.165E-01 0.000E+00

     total cpu time spent up to now is      233.2 secs

     total energy              =    -969.03989264 Ry
     estimated scf accuracy    <       0.00000085 Ry

     iteration #  6     ecut=    50.00 Ry     beta= 0.30
     Davidson diagonalization with overlap

---- Real-time Memory Report at c_bands before calling an iterative solver
             0 MiB given to the printing process from OS
             0 MiB allocation reported by mallinfo(arena+hblkhd)
             0 MiB available memory on the node where the printing process lives
------------------
     ethr =  5.31E-10,  avg # of iterations =  3.4

     negative rho (up, down):  5.165E-01 0.000E+00

     total cpu time spent up to now is      239.0 secs

     total energy              =    -969.03989282 Ry
     estimated scf accuracy    <          4.2E-09 Ry

     iteration #  7     ecut=    50.00 Ry     beta= 0.30
     Davidson diagonalization with overlap

---- Real-time Memory Report at c_bands before calling an iterative solver
             0 MiB given to the printing process from OS
             0 MiB allocation reported by mallinfo(arena+hblkhd)
             0 MiB available memory on the node where the printing process lives
------------------
     ethr =  2.63E-12,  avg # of iterations =  9.7

     negative rho (up, down):  5.165E-01 0.000E+00

     total cpu time spent up to now is      253.5 secs

     total energy              =    -969.03989284 Ry
     estimated scf accuracy    <       0.00000009 Ry

     iteration #  8     ecut=    50.00 Ry     beta= 0.30
     Davidson diagonalization with overlap

---- Real-time Memory Report at c_bands before calling an iterative solver
             0 MiB given to the printing process from OS
             0 MiB allocation reported by mallinfo(arena+hblkhd)
             0 MiB available memory on the node where the printing process lives
------------------
     ethr =  2.63E-12,  avg # of iterations =  3.7

     negative rho (up, down):  5.165E-01 0.000E+00

     total cpu time spent up to now is      259.4 secs

     total energy              =    -969.03989283 Ry
     estimated scf accuracy    <       0.00000005 Ry

     iteration #  9     ecut=    50.00 Ry     beta= 0.30
     Davidson diagonalization with overlap

---- Real-time Memory Report at c_bands before calling an iterative solver
             0 MiB given to the printing process from OS
             0 MiB allocation reported by mallinfo(arena+hblkhd)
             0 MiB available memory on the node where the printing process lives
------------------
     ethr =  2.63E-12,  avg # of iterations =  6.4

     negative rho (up, down):  5.164E-01 0.000E+00

     total cpu time spent up to now is      268.4 secs

     End of self-consistent calculation

          k = 0.0000 0.0000 0.0000 ( 18571 PWs)   bands (ev):

   -41.3873 -41.3873 -41.3828 -41.3828 -26.6306 -26.6304 -26.6290 -26.6288
   -19.4755 -19.4755 -19.4422 -19.4422 -19.3948 -19.3948 -19.3670 -19.3669
   -19.3495 -19.3495 -19.3331 -19.3331  -8.7328  -8.7262  -8.7240  -8.7153
    -8.7028  -8.6782  -8.6238  -8.6233  -8.5657  -8.5648  -8.5592  -8.5582
    -4.8624  -4.6310  -4.0815  -4.0280  -3.7916  -3.6958  -3.6589  -3.6530
    -3.5199  -3.4248  -3.3719  -3.2972   3.6607   3.8923   3.9318   3.9618
     3.9917   4.1860   4.3069   4.5614   4.7748   4.7755   4.8047   4.8490
     4.8954   4.9258   4.9376   5.4513   5.6783   5.6963   5.7435   5.9366
     5.9399   5.9904   6.2989   6.3199   6.5156   6.5812   6.6605   6.6966
     6.7731   6.8597   6.9704   7.1363   7.4700   7.4894   7.6981   7.9016

     occupation numbers 
     1.0000   1.0000   1.0000   1.0000   1.0000   1.0000   1.0000   1.0000
     1.0000   1.0000   1.0000   1.0000   1.0000   1.0000   1.0000   1.0000
     1.0000   1.0000   1.0000   1.0000   1.0000   1.0000   1.0000   1.0000
     1.0000   1.0000   1.0000   1.0000   1.0000   1.0000   1.0000   1.0000
     1.0000   1.0000   1.0000   1.0000   1.0000   1.0000   1.0000   1.0000
     1.0000   1.0000   1.0000   1.0000   1.0000   1.0000   1.0000   1.0000
     1.0000   1.0000   1.0000   1.0000   1.0000   1.0000   1.0000   1.0000
     1.0000   1.0000   1.0000   1.0000   1.0000   1.0000   1.0000   1.0000
     1.0000   1.0000   1.0000   1.0000   1.0000   1.0000   1.0000   1.0000
     1.0000   1.0000   1.0000   1.0000   1.0000   1.0000   1.0000   1.0000

          k = 0.0000 0.0000-0.1370 ( 18560 PWs)   bands (ev):

   -41.3873 -41.3873 -41.3828 -41.3828 -26.6305 -26.6305 -26.6289 -26.6289
   -19.4755 -19.4755 -19.4422 -19.4422 -19.3948 -19.3948 -19.3670 -19.3670
   -19.3495 -19.3495 -19.3331 -19.3331  -8.7293  -8.7293  -8.7216  -8.7216
    -8.6889  -8.6889  -8.6236  -8.6236  -8.5653  -8.5653  -8.5587  -8.5587
    -4.7615  -4.7615  -4.0383  -4.0383  -3.7426  -3.7426  -3.6426  -3.6426
    -3.5013  -3.5013  -3.3218  -3.3218   3.7482   3.7482   3.9584   3.9584
     4.0792   4.0792   4.5315   4.5315   4.7893   4.7893   4.8474   4.8474
     4.9183   4.9183   4.9319   4.9319   5.5647   5.5647   5.9631   5.9631
     6.1859   6.1859   6.3156   6.3156   6.6499   6.6499   6.7093   6.7093
     6.7164   6.7164   7.0609   7.0609   7.3353   7.3353   7.7956   7.7956

     occupation numbers 
     1.0000   1.0000   1.0000   1.0000   1.0000   1.0000   1.0000   1.0000
     1.0000   1.0000   1.0000   1.0000   1.0000   1.0000   1.0000   1.0000
     1.0000   1.0000   1.0000   1.0000   1.0000   1.0000   1.0000   1.0000
     1.0000   1.0000   1.0000   1.0000   1.0000   1.0000   1.0000   1.0000
     1.0000   1.0000   1.0000   1.0000   1.0000   1.0000   1.0000   1.0000
     1.0000   1.0000   1.0000   1.0000   1.0000   1.0000   1.0000   1.0000
     1.0000   1.0000   1.0000   1.0000   1.0000   1.0000   1.0000   1.0000
     1.0000   1.0000   1.0000   1.0000   1.0000   1.0000   1.0000   1.0000
     1.0000   1.0000   1.0000   1.0000   1.0000   1.0000   1.0000   1.0000
     1.0000   1.0000   1.0000   1.0000   1.0000   1.0000   1.0000   1.0000

          k = 0.0000 0.1489 0.0000 ( 18580 PWs)   bands (ev):

   -41.3873 -41.3873 -41.3828 -41.3828 -26.6302 -26.6300 -26.6294 -26.6292
   -19.4753 -19.4753 -19.4424 -19.4424 -19.3948 -19.3947 -19.3670 -19.3670
   -19.3495 -19.3495 -19.3331 -19.3331  -8.7393  -8.7308  -8.7187  -8.7076
    -8.6864  -8.6647  -8.6452  -8.6363  -8.5640  -8.5632  -8.5608  -8.5599
    -4.7422  -4.5913  -4.1891  -4.1462  -3.9230  -3.9007  -3.5269  -3.4820
    -3.4387  -3.4168  -3.3259  -3.3156   3.4759   3.6110   3.7533   3.7779
     4.1134   4.2558   4.3789   4.7648   4.7878   4.9042   4.9114   4.9223
     4.9247   5.1633   5.2598   5.3006   5.5670   5.6497   5.8248   6.0619
     6.1226   6.1237   6.1445   6.3497   6.5157   6.5674   6.7296   6.8058
     6.8237   6.8842   6.9531   7.0983   7.1814   7.2590   7.3371   7.3926

     occupation numbers 
     1.0000   1.0000   1.0000   1.0000   1.0000   1.0000   1.0000   1.0000
     1.0000   1.0000   1.0000   1.0000   1.0000   1.0000   1.0000   1.0000
     1.0000   1.0000   1.0000   1.0000   1.0000   1.0000   1.0000   1.0000
     1.0000   1.0000   1.0000   1.0000   1.0000   1.0000   1.0000   1.0000
     1.0000   1.0000   1.0000   1.0000   1.0000   1.0000   1.0000   1.0000
     1.0000   1.0000   1.0000   1.0000   1.0000   1.0000   1.0000   1.0000
     1.0000   1.0000   1.0000   1.0000   1.0000   1.0000   1.0000   1.0000
     1.0000   1.0000   1.0000   1.0000   1.0000   1.0000   1.0000   1.0000
     1.0000   1.0000   1.0000   1.0000   1.0000   1.0000   1.0000   1.0000
     1.0000   1.0000   1.0000   1.0000   1.0000   1.0000   1.0000   1.0000

          k = 0.0000 0.1489-0.1370 ( 18590 PWs)   bands (ev):

   -41.3873 -41.3873 -41.3828 -41.3828 -26.6301 -26.6301 -26.6293 -26.6293
   -19.4753 -19.4753 -19.4424 -19.4424 -19.3947 -19.3947 -19.3670 -19.3670
   -19.3495 -19.3495 -19.3331 -19.3331  -8.7322  -8.7322  -8.7182  -8.7182
    -8.6743  -8.6743  -8.6399  -8.6399  -8.5637  -8.5637  -8.5603  -8.5603
    -4.6687  -4.6687  -4.1858  -4.1858  -3.8853  -3.8853  -3.5208  -3.5208
    -3.3887  -3.3887  -3.3500  -3.3500   3.5380   3.5380   3.7433   3.7433
     4.2134   4.2134   4.6810   4.6810   4.7772   4.7772   4.8662   4.8662
     4.9118   4.9118   5.4218   5.4218   5.5661   5.5661   5.9549   5.9549
     6.1343   6.1343   6.3609   6.3609   6.5424   6.5424   6.7322   6.7322
     6.7703   6.7703   7.0121   7.0121   7.1830   7.1830   7.4356   7.4356

     occupation numbers 
     1.0000   1.0000   1.0000   1.0000   1.0000   1.0000   1.0000   1.0000
     1.0000   1.0000   1.0000   1.0000   1.0000   1.0000   1.0000   1.0000
     1.0000   1.0000   1.0000   1.0000   1.0000   1.0000   1.0000   1.0000
     1.0000   1.0000   1.0000   1.0000   1.0000   1.0000   1.0000   1.0000
     1.0000   1.0000   1.0000   1.0000   1.0000   1.0000   1.0000   1.0000
     1.0000   1.0000   1.0000   1.0000   1.0000   1.0000   1.0000   1.0000
     1.0000   1.0000   1.0000   1.0000   1.0000   1.0000   1.0000   1.0000
     1.0000   1.0000   1.0000   1.0000   1.0000   1.0000   1.0000   1.0000
     1.0000   1.0000   1.0000   1.0000   1.0000   1.0000   1.0000   1.0000
     1.0000   1.0000   1.0000   1.0000   1.0000   1.0000   1.0000   1.0000

          k = 0.1666 0.0000 0.0000 ( 18537 PWs)   bands (ev):

   -41.3858 -41.3858 -41.3819 -41.3819 -26.6256 -26.6254 -26.6240 -26.6239
   -19.4676 -19.4676 -19.4370 -19.4370 -19.3940 -19.3940 -19.3853 -19.3853
   -19.3613 -19.3613 -19.3608 -19.3608  -8.7078  -8.7052  -8.7048  -8.6935
    -8.6880  -8.6641  -8.6625  -8.6599  -8.6443  -8.6424  -8.6116  -8.6110
    -4.6754  -4.4725  -3.9892  -3.9430  -3.8135  -3.7313  -3.6685  -3.6397
    -3.4801  -3.3701  -3.3618  -3.3156   3.8132   3.9021   4.0639   4.0842
     4.1158   4.2214   4.3051   4.3463   4.4400   4.4426   4.6378   5.0543
     5.1587   5.2636   5.3881   5.4420   5.4942   5.5535   5.6611   5.7406
     5.7754   5.8328   5.8766   6.1442   6.1543   6.2769   6.3278   6.4505
     6.4732   6.6673   6.6680   6.8869   6.9772   7.2781   7.4148   7.4969

     occupation numbers 
     1.0000   1.0000   1.0000   1.0000   1.0000   1.0000   1.0000   1.0000
     1.0000   1.0000   1.0000   1.0000   1.0000   1.0000   1.0000   1.0000
     1.0000   1.0000   1.0000   1.0000   1.0000   1.0000   1.0000   1.0000
     1.0000   1.0000   1.0000   1.0000   1.0000   1.0000   1.0000   1.0000
     1.0000   1.0000   1.0000   1.0000   1.0000   1.0000   1.0000   1.0000
     1.0000   1.0000   1.0000   1.0000   1.0000   1.0000   1.0000   1.0000
     1.0000   1.0000   1.0000   1.0000   1.0000   1.0000   1.0000   1.0000
     1.0000   1.0000   1.0000   1.0000   1.0000   1.0000   1.0000   1.0000
     1.0000   1.0000   1.0000   1.0000   1.0000   1.0000   1.0000   1.0000
     1.0000   1.0000   1.0000   1.0000   1.0000   1.0000   1.0000   1.0000

          k = 0.1666 0.0000-0.1370 ( 18576 PWs)   bands (ev):

   -41.3858 -41.3858 -41.3819 -41.3819 -26.6255 -26.6255 -26.6239 -26.6239
   -19.4676 -19.4676 -19.4370 -19.4370 -19.3940 -19.3940 -19.3853 -19.3853
   -19.3613 -19.3613 -19.3608 -19.3608  -8.7056  -8.7056  -8.7018  -8.7018
    -8.6759  -8.6759  -8.6593  -8.6593  -8.6435  -8.6435  -8.6113  -8.6113
    -4.5866  -4.5866  -3.9539  -3.9539  -3.7688  -3.7688  -3.6536  -3.6536
    -3.4384  -3.4384  -3.3291  -3.3291   3.8484   3.8484   4.0557   4.0557
     4.1699   4.1699   4.3146   4.3146   4.5408   4.5408   4.7625   4.7625
     5.2003   5.2003   5.3918   5.3918   5.5074   5.5074   5.6741   5.6741
     5.8326   5.8326   6.0868   6.0868   6.2760   6.2760   6.3743   6.3743
     6.5252   6.5252   6.6975   6.6975   7.2070   7.2070   7.4594   7.4594

     occupation numbers 
     1.0000   1.0000   1.0000   1.0000   1.0000   1.0000   1.0000   1.0000
     1.0000   1.0000   1.0000   1.0000   1.0000   1.0000   1.0000   1.0000
     1.0000   1.0000   1.0000   1.0000   1.0000   1.0000   1.0000   1.0000
     1.0000   1.0000   1.0000   1.0000   1.0000   1.0000   1.0000   1.0000
     1.0000   1.0000   1.0000   1.0000   1.0000   1.0000   1.0000   1.0000
     1.0000   1.0000   1.0000   1.0000   1.0000   1.0000   1.0000   1.0000
     1.0000   1.0000   1.0000   1.0000   1.0000   1.0000   1.0000   1.0000
     1.0000   1.0000   1.0000   1.0000   1.0000   1.0000   1.0000   1.0000
     1.0000   1.0000   1.0000   1.0000   1.0000   1.0000   1.0000   1.0000
     1.0000   1.0000   1.0000   1.0000   1.0000   1.0000   1.0000   1.0000

          k = 0.1666 0.1489 0.0000 ( 18591 PWs)   bands (ev):

   -41.3858 -41.3858 -41.3819 -41.3819 -26.6252 -26.6250 -26.6244 -26.6242
   -19.4675 -19.4675 -19.4372 -19.4372 -19.3940 -19.3939 -19.3853 -19.3853
   -19.3613 -19.3613 -19.3608 -19.3608  -8.7158  -8.7100  -8.6986  -8.6916
    -8.6738  -8.6620  -8.6571  -8.6550  -8.6434  -8.6415  -8.6257  -8.6221
    -4.5756  -4.4461  -4.0644  -4.0270  -3.9179  -3.8961  -3.5152  -3.4853
    -3.4618  -3.4152  -3.3247  -3.3247   3.7272   3.8289   3.9254   3.9427
     4.1611   4.2431   4.3513   4.5262   4.5545   4.5935   4.8124   4.9646
     5.0432   5.1346   5.3456   5.3777   5.4484   5.5940   5.5949   5.6358
     5.7847   5.9417   6.0229   6.0414   6.1562   6.2060   6.4310   6.5030
     6.6209   6.6669   6.7652   6.9105   7.1129   7.2547   7.3604   7.3932

     occupation numbers 
     1.0000   1.0000   1.0000   1.0000   1.0000   1.0000   1.0000   1.0000
     1.0000   1.0000   1.0000   1.0000   1.0000   1.0000   1.0000   1.0000
     1.0000   1.0000   1.0000   1.0000   1.0000   1.0000   1.0000   1.0000
     1.0000   1.0000   1.0000   1.0000   1.0000   1.0000   1.0000   1.0000
     1.0000   1.0000   1.0000   1.0000   1.0000   1.0000   1.0000   1.0000
     1.0000   1.0000   1.0000   1.0000   1.0000   1.0000   1.0000   1.0000
     1.0000   1.0000   1.0000   1.0000   1.0000   1.0000   1.0000   1.0000
     1.0000   1.0000   1.0000   1.0000   1.0000   1.0000   1.0000   1.0000
     1.0000   1.0000   1.0000   1.0000   1.0000   1.0000   1.0000   1.0000
     1.0000   1.0000   1.0000   1.0000   1.0000   1.0000   1.0000   1.0000

          k = 0.1666 0.1489-0.1370 ( 18560 PWs)   bands (ev):

   -41.3858 -41.3858 -41.3819 -41.3819 -26.6251 -26.6251 -26.6243 -26.6243
   -19.4675 -19.4675 -19.4372 -19.4372 -19.3939 -19.3939 -19.3853 -19.3853
   -19.3613 -19.3613 -19.3608 -19.3608  -8.7104  -8.7104  -8.6992  -8.6992
    -8.6659  -8.6659  -8.6566  -8.6566  -8.6424  -8.6424  -8.6238  -8.6238
    -4.5118  -4.5118  -4.0684  -4.0684  -3.8818  -3.8818  -3.5140  -3.5140
    -3.3975  -3.3975  -3.3535  -3.3535   3.7531   3.7531   3.9047   3.9047
     4.2843   4.2843   4.4515   4.4515   4.6313   4.6313   4.8105   4.8105
     5.0249   5.0249   5.3389   5.3389   5.5335   5.5335   5.5947   5.5947
     5.9123   5.9123   6.0455   6.0455   6.2368   6.2368   6.4244   6.4244
     6.7031   6.7031   6.8025   6.8025   7.1715   7.1715   7.3533   7.3533

     occupation numbers 
     1.0000   1.0000   1.0000   1.0000   1.0000   1.0000   1.0000   1.0000
     1.0000   1.0000   1.0000   1.0000   1.0000   1.0000   1.0000   1.0000
     1.0000   1.0000   1.0000   1.0000   1.0000   1.0000   1.0000   1.0000
     1.0000   1.0000   1.0000   1.0000   1.0000   1.0000   1.0000   1.0000
     1.0000   1.0000   1.0000   1.0000   1.0000   1.0000   1.0000   1.0000
     1.0000   1.0000   1.0000   1.0000   1.0000   1.0000   1.0000   1.0000
     1.0000   1.0000   1.0000   1.0000   1.0000   1.0000   1.0000   1.0000
     1.0000   1.0000   1.0000   1.0000   1.0000   1.0000   1.0000   1.0000
     1.0000   1.0000   1.0000   1.0000   1.0000   1.0000   1.0000   1.0000
     1.0000   1.0000   1.0000   1.0000   1.0000   1.0000   1.0000   1.0000

          k = 0.3331 0.0000 0.0000 ( 18620 PWs)   bands (ev):

   -41.3824 -41.3824 -41.3801 -41.3801 -26.6155 -26.6154 -26.6141 -26.6140
   -19.4577 -19.4577 -19.4461 -19.4461 -19.4211 -19.4211 -19.4204 -19.4204
   -19.3793 -19.3793 -19.3677 -19.3676  -8.8472  -8.8467  -8.8104  -8.8096
    -8.6642  -8.6634  -8.6597  -8.6517  -8.6416  -8.6326  -8.5872  -8.5865
    -4.2429  -4.1224  -3.9000  -3.8991  -3.8283  -3.7846  -3.6122  -3.6085
    -3.3658  -3.3486  -3.3477  -3.2535   3.6487   3.8141   3.9733   4.0496
     4.0720   4.1662   4.2938   4.4300   4.6012   4.6811   4.7069   4.7718
     4.8141   4.8223   4.9571   5.1564   5.4249   5.4794   5.5477   5.5834
     5.6806   5.7305   5.7834   5.7954   6.0137   6.2109   6.2580   6.3095
     6.4424   6.5066   6.5443   6.5605   6.6260   6.6486   6.9923   7.0064

     occupation numbers 
     1.0000   1.0000   1.0000   1.0000   1.0000   1.0000   1.0000   1.0000
     1.0000   1.0000   1.0000   1.0000   1.0000   1.0000   1.0000   1.0000
     1.0000   1.0000   1.0000   1.0000   1.0000   1.0000   1.0000   1.0000
     1.0000   1.0000   1.0000   1.0000   1.0000   1.0000   1.0000   1.0000
     1.0000   1.0000   1.0000   1.0000   1.0000   1.0000   1.0000   1.0000
     1.0000   1.0000   1.0000   1.0000   1.0000   1.0000   1.0000   1.0000
     1.0000   1.0000   1.0000   1.0000   1.0000   1.0000   1.0000   1.0000
     1.0000   1.0000   1.0000   1.0000   1.0000   1.0000   1.0000   1.0000
     1.0000   1.0000   1.0000   1.0000   1.0000   1.0000   1.0000   1.0000
     1.0000   1.0000   1.0000   1.0000   1.0000   1.0000   1.0000   1.0000

          k = 0.3331 0.0000-0.1370 ( 18610 PWs)   bands (ev):

   -41.3824 -41.3824 -41.3801 -41.3801 -26.6154 -26.6154 -26.6140 -26.6140
   -19.4577 -19.4577 -19.4461 -19.4461 -19.4211 -19.4211 -19.4204 -19.4204
   -19.3793 -19.3793 -19.3676 -19.3676  -8.8470  -8.8470  -8.8100  -8.8100
    -8.6634  -8.6634  -8.6568  -8.6568  -8.6363  -8.6363  -8.5869  -8.5869
    -4.1884  -4.1884  -3.9001  -3.9001  -3.8021  -3.8021  -3.6090  -3.6090
    -3.3656  -3.3656  -3.2916  -3.2916   3.7760   3.7760   3.8817   3.8817
     4.1220   4.1220   4.4076   4.4076   4.6761   4.6761   4.7807   4.7807
     4.8317   4.8317   5.0674   5.0674   5.3890   5.3890   5.6026   5.6026
     5.8038   5.8038   5.8250   5.8250   5.9085   5.9085   6.1207   6.1207
     6.4507   6.4507   6.6461   6.6461   6.7633   6.7633   7.0180   7.0180

     occupation numbers 
     1.0000   1.0000   1.0000   1.0000   1.0000   1.0000   1.0000   1.0000
     1.0000   1.0000   1.0000   1.0000   1.0000   1.0000   1.0000   1.0000
     1.0000   1.0000   1.0000   1.0000   1.0000   1.0000   1.0000   1.0000
     1.0000   1.0000   1.0000   1.0000   1.0000   1.0000   1.0000   1.0000
     1.0000   1.0000   1.0000   1.0000   1.0000   1.0000   1.0000   1.0000
     1.0000   1.0000   1.0000   1.0000   1.0000   1.0000   1.0000   1.0000
     1.0000   1.0000   1.0000   1.0000   1.0000   1.0000   1.0000   1.0000
     1.0000   1.0000   1.0000   1.0000   1.0000   1.0000   1.0000   1.0000
     1.0000   1.0000   1.0000   1.0000   1.0000   1.0000   1.0000   1.0000
     1.0000   1.0000   1.0000   1.0000   1.0000   1.0000   1.0000   1.0000

          k = 0.3331 0.1489 0.0000 ( 18628 PWs)   bands (ev):

   -41.3824 -41.3824 -41.3801 -41.3801 -26.6151 -26.6150 -26.6144 -26.6143
   -19.4578 -19.4578 -19.4462 -19.4462 -19.4212 -19.4211 -19.4203 -19.4203
   -19.3793 -19.3793 -19.3676 -19.3676  -8.8385  -8.8376  -8.8201  -8.8190
    -8.6688  -8.6669  -8.6581  -8.6544  -8.6244  -8.6186  -8.5987  -8.5962
    -4.2023  -4.1354  -3.9333  -3.9171  -3.8047  -3.7932  -3.6008  -3.5996
    -3.3775  -3.3637  -3.3152  -3.2727   3.7399   3.7798   3.9417   3.9664
     4.2464   4.2844   4.3509   4.4170   4.4766   4.5160   4.6272   4.6613
     4.7559   4.9316   5.1268   5.2673   5.2698   5.3010   5.4198   5.4882
     5.6914   5.7101   5.8108   5.9504   6.0471   6.0502   6.2615   6.3015
     6.3472   6.4131   6.7443   6.7736   6.8678   6.8820   6.9302   7.0343

     occupation numbers 
     1.0000   1.0000   1.0000   1.0000   1.0000   1.0000   1.0000   1.0000
     1.0000   1.0000   1.0000   1.0000   1.0000   1.0000   1.0000   1.0000
     1.0000   1.0000   1.0000   1.0000   1.0000   1.0000   1.0000   1.0000
     1.0000   1.0000   1.0000   1.0000   1.0000   1.0000   1.0000   1.0000
     1.0000   1.0000   1.0000   1.0000   1.0000   1.0000   1.0000   1.0000
     1.0000   1.0000   1.0000   1.0000   1.0000   1.0000   1.0000   1.0000
     1.0000   1.0000   1.0000   1.0000   1.0000   1.0000   1.0000   1.0000
     1.0000   1.0000   1.0000   1.0000   1.0000   1.0000   1.0000   1.0000
     1.0000   1.0000   1.0000   1.0000   1.0000   1.0000   1.0000   1.0000
     1.0000   1.0000   1.0000   1.0000   1.0000   1.0000   1.0000   1.0000

          k = 0.3331 0.1489-0.1370 ( 18596 PWs)   bands (ev):

   -41.3824 -41.3824 -41.3801 -41.3801 -26.6151 -26.6151 -26.6144 -26.6144
   -19.4578 -19.4578 -19.4462 -19.4462 -19.4211 -19.4211 -19.4203 -19.4203
   -19.3793 -19.3793 -19.3676 -19.3676  -8.8381  -8.8381  -8.8196  -8.8196
    -8.6668  -8.6668  -8.6575  -8.6575  -8.6213  -8.6213  -8.5974  -8.5974
    -4.1659  -4.1659  -3.9387  -3.9387  -3.7904  -3.7904  -3.6000  -3.6000
    -3.3581  -3.3581  -3.3044  -3.3044   3.7687   3.7687   3.8903   3.8903
     4.2625   4.2625   4.4122   4.4122   4.5236   4.5236   4.7117   4.7117
     4.8676   4.8676   5.1730   5.1730   5.2825   5.2825   5.3944   5.3944
     5.6707   5.6707   5.7717   5.7717   6.1579   6.1579   6.2586   6.2586
     6.4924   6.4924   6.6590   6.6590   6.8489   6.8489   7.0532   7.0532

     occupation numbers 
     1.0000   1.0000   1.0000   1.0000   1.0000   1.0000   1.0000   1.0000
     1.0000   1.0000   1.0000   1.0000   1.0000   1.0000   1.0000   1.0000
     1.0000   1.0000   1.0000   1.0000   1.0000   1.0000   1.0000   1.0000
     1.0000   1.0000   1.0000   1.0000   1.0000   1.0000   1.0000   1.0000
     1.0000   1.0000   1.0000   1.0000   1.0000   1.0000   1.0000   1.0000
     1.0000   1.0000   1.0000   1.0000   1.0000   1.0000   1.0000   1.0000
     1.0000   1.0000   1.0000   1.0000   1.0000   1.0000   1.0000   1.0000
     1.0000   1.0000   1.0000   1.0000   1.0000   1.0000   1.0000   1.0000
     1.0000   1.0000   1.0000   1.0000   1.0000   1.0000   1.0000   1.0000
     1.0000   1.0000   1.0000   1.0000   1.0000   1.0000   1.0000   1.0000

          k =-0.4997 0.0000 0.0000 ( 18628 PWs)   bands (ev):

   -41.3800 -41.3800 -41.3800 -41.3800 -26.6104 -26.6104 -26.6090 -26.6090
   -19.4718 -19.4718 -19.4718 -19.4718 -19.4214 -19.4214 -19.4214 -19.4214
   -19.3741 -19.3741 -19.3741 -19.3741  -8.9347  -8.9347  -8.8894  -8.8894
    -8.6414  -8.6414  -8.6394  -8.6394  -8.6143  -8.6143  -8.5745  -8.5745
    -3.9630  -3.9630  -3.9609  -3.9609  -3.6681  -3.6681  -3.6554  -3.6554
    -3.3610  -3.3610  -3.2495  -3.2495   3.5678   3.5678   3.7612   3.7612
     4.0611   4.0611   4.3232   4.3232   4.5379   4.5379   4.6280   4.6280
     5.0986   5.0986   5.2457   5.2457   5.2923   5.2923   5.3031   5.3031
     5.5142   5.5142   5.9078   5.9078   5.9972   5.9972   6.0786   6.0786
     6.5889   6.5889   6.6433   6.6433   6.7553   6.7553   6.8280   6.8280

     occupation numbers 
     1.0000   1.0000   1.0000   1.0000   1.0000   1.0000   1.0000   1.0000
     1.0000   1.0000   1.0000   1.0000   1.0000   1.0000   1.0000   1.0000
     1.0000   1.0000   1.0000   1.0000   1.0000   1.0000   1.0000   1.0000
     1.0000   1.0000   1.0000   1.0000   1.0000   1.0000   1.0000   1.0000
     1.0000   1.0000   1.0000   1.0000   1.0000   1.0000   1.0000   1.0000
     1.0000   1.0000   1.0000   1.0000   1.0000   1.0000   1.0000   1.0000
     1.0000   1.0000   1.0000   1.0000   1.0000   1.0000   1.0000   1.0000
     1.0000   1.0000   1.0000   1.0000   1.0000   1.0000   1.0000   1.0000
     1.0000   1.0000   1.0000   1.0000   1.0000   1.0000   1.0000   1.0000
     1.0000   1.0000   1.0000   1.0000   1.0000   1.0000   1.0000   1.0000

          k =-0.4997 0.0000-0.1370 ( 18652 PWs)   bands (ev):

   -41.3800 -41.3800 -41.3800 -41.3800 -26.6104 -26.6104 -26.6090 -26.6090
   -19.4718 -19.4718 -19.4718 -19.4718 -19.4214 -19.4214 -19.4214 -19.4214
   -19.3741 -19.3741 -19.3741 -19.3741  -8.9347  -8.9347  -8.8895  -8.8895
    -8.6414  -8.6414  -8.6394  -8.6394  -8.6143  -8.6143  -8.5745  -8.5745
    -3.9659  -3.9659  -3.9581  -3.9581  -3.6690  -3.6690  -3.6548  -3.6548
    -3.3610  -3.3610  -3.2490  -3.2490   3.5494   3.5494   3.7933   3.7933
     4.0517   4.0517   4.2650   4.2650   4.5831   4.5831   4.7177   4.7177
     5.0120   5.0120   5.0981   5.0981   5.2676   5.2676   5.4321   5.4321
     5.7052   5.7052   5.7249   5.7249   5.9226   5.9226   6.4028   6.4028
     6.4667   6.4667   6.5431   6.5431   6.7025   6.7025   6.8874   6.8874

     occupation numbers 
     1.0000   1.0000   1.0000   1.0000   1.0000   1.0000   1.0000   1.0000
     1.0000   1.0000   1.0000   1.0000   1.0000   1.0000   1.0000   1.0000
     1.0000   1.0000   1.0000   1.0000   1.0000   1.0000   1.0000   1.0000
     1.0000   1.0000   1.0000   1.0000   1.0000   1.0000   1.0000   1.0000
     1.0000   1.0000   1.0000   1.0000   1.0000   1.0000   1.0000   1.0000
     1.0000   1.0000   1.0000   1.0000   1.0000   1.0000   1.0000   1.0000
     1.0000   1.0000   1.0000   1.0000   1.0000   1.0000   1.0000   1.0000
     1.0000   1.0000   1.0000   1.0000   1.0000   1.0000   1.0000   1.0000
     1.0000   1.0000   1.0000   1.0000   1.0000   1.0000   1.0000   1.0000
     1.0000   1.0000   1.0000   1.0000   1.0000   1.0000   1.0000   1.0000

          k =-0.4997 0.1489 0.0000 ( 18590 PWs)   bands (ev):

   -41.3800 -41.3800 -41.3800 -41.3800 -26.6100 -26.6100 -26.6094 -26.6094
   -19.4719 -19.4719 -19.4719 -19.4719 -19.4214 -19.4214 -19.4214 -19.4214
   -19.3741 -19.3741 -19.3741 -19.3741  -8.9235  -8.9235  -8.9009  -8.9009
    -8.6429  -8.6429  -8.6413  -8.6413  -8.6024  -8.6024  -8.5831  -8.5831
    -3.9627  -3.9627  -3.9613  -3.9613  -3.6658  -3.6658  -3.6606  -3.6606
    -3.3303  -3.3303  -3.2753  -3.2753   3.4937   3.4937   3.5537   3.5537
     4.2797   4.2797   4.4019   4.4019   4.6507   4.6507   4.6670   4.6670
     5.0011   5.0011   5.0784   5.0784   5.3031   5.3031   5.4073   5.4073
     5.7265   5.7265   5.7944   5.7944   6.1843   6.1843   6.1912   6.1912
     6.4298   6.4298   6.4311   6.4311   6.6980   6.6980   6.7111   6.7111

     occupation numbers 
     1.0000   1.0000   1.0000   1.0000   1.0000   1.0000   1.0000   1.0000
     1.0000   1.0000   1.0000   1.0000   1.0000   1.0000   1.0000   1.0000
     1.0000   1.0000   1.0000   1.0000   1.0000   1.0000   1.0000   1.0000
     1.0000   1.0000   1.0000   1.0000   1.0000   1.0000   1.0000   1.0000
     1.0000   1.0000   1.0000   1.0000   1.0000   1.0000   1.0000   1.0000
     1.0000   1.0000   1.0000   1.0000   1.0000   1.0000   1.0000   1.0000
     1.0000   1.0000   1.0000   1.0000   1.0000   1.0000   1.0000   1.0000
     1.0000   1.0000   1.0000   1.0000   1.0000   1.0000   1.0000   1.0000
     1.0000   1.0000   1.0000   1.0000   1.0000   1.0000   1.0000   1.0000
     1.0000   1.0000   1.0000   1.0000   1.0000   1.0000   1.0000   1.0000

          k =-0.4997 0.1489-0.1370 ( 18600 PWs)   bands (ev):

   -41.3800 -41.3800 -41.3800 -41.3800 -26.6100 -26.6100 -26.6094 -26.6094
   -19.4719 -19.4719 -19.4719 -19.4719 -19.4214 -19.4214 -19.4214 -19.4214
   -19.3741 -19.3741 -19.3741 -19.3741  -8.9235  -8.9235  -8.9009  -8.9009
    -8.6429  -8.6429  -8.6413  -8.6413  -8.6024  -8.6024  -8.5831  -8.5831
    -3.9639  -3.9639  -3.9602  -3.9602  -3.6674  -3.6674  -3.6594  -3.6594
    -3.3302  -3.3302  -3.2749  -3.2749   3.4717   3.4717   3.5666   3.5666
     4.2704   4.2704   4.4090   4.4090   4.6283   4.6283   4.6499   4.6499
     5.0869   5.0869   5.1959   5.1959   5.3308   5.3308   5.3323   5.3323
     5.7229   5.7229   5.7993   5.7993   5.9749   5.9749   6.0703   6.0703
     6.4479   6.4479   6.4772   6.4772   6.7948   6.7948   6.8004   6.8004

     occupation numbers 
     1.0000   1.0000   1.0000   1.0000   1.0000   1.0000   1.0000   1.0000
     1.0000   1.0000   1.0000   1.0000   1.0000   1.0000   1.0000   1.0000
     1.0000   1.0000   1.0000   1.0000   1.0000   1.0000   1.0000   1.0000
     1.0000   1.0000   1.0000   1.0000   1.0000   1.0000   1.0000   1.0000
     1.0000   1.0000   1.0000   1.0000   1.0000   1.0000   1.0000   1.0000
     1.0000   1.0000   1.0000   1.0000   1.0000   1.0000   1.0000   1.0000
     1.0000   1.0000   1.0000   1.0000   1.0000   1.0000   1.0000   1.0000
     1.0000   1.0000   1.0000   1.0000   1.0000   1.0000   1.0000   1.0000
     1.0000   1.0000   1.0000   1.0000   1.0000   1.0000   1.0000   1.0000
     1.0000   1.0000   1.0000   1.0000   1.0000   1.0000   1.0000   1.0000

     highest occupied level (ev):     7.9016

!    total energy              =    -969.03989284 Ry
     estimated scf accuracy    <          8.4E-11 Ry

     The total energy is the sum of the following terms:
     one-electron contribution =    -193.53674463 Ry
     hartree contribution      =     157.35184315 Ry
     xc contribution           =    -246.05290139 Ry
     ewald contribution        =    -686.80208997 Ry

     convergence has been achieved in   9 iterations

     negative rho (up, down):  5.164E-01 0.000E+00

     Forces acting on atoms (cartesian axes, Ry/au):

     atom    1 type  2   force =     0.00000000   -0.00094011   -0.00055482
     atom    2 type  2   force =     0.00000000    0.00094011    0.00055482
     atom    3 type  2   force =    -0.00000000    0.00094011   -0.00055482
     atom    4 type  2   force =     0.00000000   -0.00094011    0.00055482
     atom    5 type  3   force =     0.00000000   -0.00013566   -0.00005404
     atom    6 type  3   force =     0.00000000    0.00013566    0.00005404
     atom    7 type  3   force =     0.00000000    0.00013566   -0.00005404
     atom    8 type  3   force =     0.00000000   -0.00013566    0.00005404
     atom    9 type  1   force =    -0.00000000    0.00050098   -0.00063068
     atom   10 type  1   force =     0.00000000   -0.00050098    0.00063068
     atom   11 type  1   force =     0.00000000   -0.00050098   -0.00063068
     atom   12 type  1   force =    -0.00000000    0.00050098    0.00063068
     atom   13 type  1   force =     0.00000000   -0.00007286   -0.00075912
     atom   14 type  1   force =     0.00000000    0.00007286    0.00075912
     atom   15 type  1   force =    -0.00000000    0.00007286   -0.00075912
     atom   16 type  1   force =     0.00000000   -0.00007286    0.00075912
     atom   17 type  1   force =     0.00000000    0.00044425    0.00036409
     atom   18 type  1   force =     0.00000000   -0.00044425   -0.00036409
     atom   19 type  1   force =    -0.00000000   -0.00044425    0.00036409
     atom   20 type  1   force =     0.00000000    0.00044425   -0.00036409
     The non-local contrib.  to forces
     atom    1 type  2   force =    -0.00000000   -0.00025341    0.00421603
     atom    2 type  2   force =     0.00000000    0.00025341   -0.00421603
     atom    3 type  2   force =     0.00000000    0.00025341    0.00421603
     atom    4 type  2   force =     0.00000000   -0.00025341   -0.00421603
     atom    5 type  3   force =     0.00000000    0.02269940   -0.02191578
     atom    6 type  3   force =     0.00000000   -0.02269940    0.02191578
     atom    7 type  3   force =     0.00000000   -0.02269940   -0.02191578
     atom    8 type  3   force =     0.00000000    0.02269940    0.02191578
     atom    9 type  1   force =     0.00000000    0.00468739   -0.01118863
     atom   10 type  1   force =     0.00000000   -0.00468739    0.01118863
     atom   11 type  1   force =     0.00000000   -0.00468739   -0.01118863
     atom   12 type  1   force =     0.00000000    0.00468739    0.01118863
     atom   13 type  1   force =     0.00000000   -0.04503392   -0.00423675
     atom   14 type  1   force =     0.00000000    0.04503392    0.00423675
     atom   15 type  1   force =     0.00000000    0.04503392   -0.00423675
     atom   16 type  1   force =     0.00000000   -0.04503392    0.00423675
     atom   17 type  1   force =     0.00000000    0.04202815    0.06858710
     atom   18 type  1   force =     0.00000000   -0.04202815   -0.06858710
     atom   19 type  1   force =    -0.00000000   -0.04202815    0.06858710
     atom   20 type  1   force =     0.00000000    0.04202815   -0.06858710
     The ionic contribution  to forces
     atom    1 type  2   force =     0.00000000    0.34544864    0.03747096
     atom    2 type  2   force =    -0.00000000   -0.34544864   -0.03747096
     atom    3 type  2   force =     0.00000000   -0.34544864    0.03747096
     atom    4 type  2   force =     0.00000000    0.34544864   -0.03747096
     atom    5 type  3   force =     0.00000000   -2.64193148    1.16457540
     atom    6 type  3   force =    -0.00000000    2.64193148   -1.16457540
     atom    7 type  3   force =     0.00000000    2.64193148    1.16457540
     atom    8 type  3   force =     0.00000000   -2.64193148   -1.16457540
     atom    9 type  1   force =     0.00000000   -1.62246251    3.60562518
     atom   10 type  1   force =     0.00000000    1.62246251   -3.60562518
     atom   11 type  1   force =     0.00000000    1.62246251    3.60562518
     atom   12 type  1   force =    -0.00000000   -1.62246251   -3.60562518
     atom   13 type  1   force =    -0.00000000    3.62223725   -2.22204827
     atom   14 type  1   force =    -0.00000000   -3.62223725    2.22204827
     atom   15 type  1   force =     0.00000000   -3.62223725   -2.22204827
     atom   16 type  1   force =    -0.00000000    3.62223725    2.22204827
     atom   17 type  1   force =    -0.00000000   -2.92652774   -4.80342882
     atom   18 type  1   force =     0.00000000    2.92652774    4.80342882
     atom   19 type  1   force =     0.00000000    2.92652774   -4.80342882
     atom   20 type  1   force =    -0.00000000   -2.92652774    4.80342882
     The local contribution  to forces
     atom    1 type  2   force =     0.00000000   -0.34626573   -0.04207602
     atom    2 type  2   force =     0.00000000    0.34626573    0.04207602
     atom    3 type  2   force =    -0.00000000    0.34626573   -0.04207602
     atom    4 type  2   force =     0.00000000   -0.34626573    0.04207602
     atom    5 type  3   force =    -0.00000000    2.61981816   -1.14243894
     atom    6 type  3   force =     0.00000000   -2.61981816    1.14243894
     atom    7 type  3   force =     0.00000000   -2.61981816   -1.14243894
     atom    8 type  3   force =    -0.00000000    2.61981816    1.14243894
     atom    9 type  1   force =    -0.00000000    1.61824004   -3.59502117
     atom   10 type  1   force =     0.00000000   -1.61824004    3.59502117
     atom   11 type  1   force =    -0.00000000   -1.61824004   -3.59502117
     atom   12 type  1   force =    -0.00000000    1.61824004    3.59502117
     atom   13 type  1   force =     0.00000000   -3.57941390    2.22499794
     atom   14 type  1   force =    -0.00000000    3.57941390   -2.22499794
     atom   15 type  1   force =    -0.00000000    3.57941390    2.22499794
     atom   16 type  1   force =     0.00000000   -3.57941390   -2.22499794
     atom   17 type  1   force =    -0.00000000    2.88694104    4.73862291
     atom   18 type  1   force =     0.00000000   -2.88694104   -4.73862291
     atom   19 type  1   force =     0.00000000   -2.88694104    4.73862291
     atom   20 type  1   force =    -0.00000000    2.88694104   -4.73862291
     The core correction contribution to forces
     atom    1 type  2   force =    -0.00000000    0.00012886   -0.00016519
     atom    2 type  2   force =     0.00000000   -0.00012886    0.00016519
     atom    3 type  2   force =     0.00000000   -0.00012886   -0.00016519
     atom    4 type  2   force =    -0.00000000    0.00012886    0.00016519
     atom    5 type  3   force =     0.00000000   -0.00072362   -0.00027042
     atom    6 type  3   force =     0.00000000    0.00072362    0.00027042
     atom    7 type  3   force =    -0.00000000    0.00072362   -0.00027042
     atom    8 type  3   force =     0.00000000   -0.00072362    0.00027042
     atom    9 type  1   force =    -0.00000000    0.00003645   -0.00004835
     atom   10 type  1   force =     0.00000000   -0.00003645    0.00004835
     atom   11 type  1   force =     0.00000000   -0.00003645   -0.00004835
     atom   12 type  1   force =     0.00000000    0.00003645    0.00004835
     atom   13 type  1   force =     0.00000000    0.00213826    0.00052868
     atom   14 type  1   force =    -0.00000000   -0.00213826   -0.00052868
     atom   15 type  1   force =    -0.00000000   -0.00213826    0.00052868
     atom   16 type  1   force =     0.00000000    0.00213826   -0.00052868
     atom   17 type  1   force =    -0.00000000   -0.00199458   -0.00341710
     atom   18 type  1   force =     0.00000000    0.00199458    0.00341710
     atom   19 type  1   force =     0.00000000    0.00199458   -0.00341710
     atom   20 type  1   force =    -0.00000000   -0.00199458    0.00341710
     The Hubbard contrib.    to forces
     atom    1 type  2   force =     0.00000000    0.00000000    0.00000000
     atom    2 type  2   force =     0.00000000    0.00000000    0.00000000
     atom    3 type  2   force =     0.00000000    0.00000000    0.00000000
     atom    4 type  2   force =     0.00000000    0.00000000    0.00000000
     atom    5 type  3   force =     0.00000000    0.00000000    0.00000000
     atom    6 type  3   force =     0.00000000    0.00000000    0.00000000
     atom    7 type  3   force =     0.00000000    0.00000000    0.00000000
     atom    8 type  3   force =     0.00000000    0.00000000    0.00000000
     atom    9 type  1   force =     0.00000000    0.00000000    0.00000000
     atom   10 type  1   force =     0.00000000    0.00000000    0.00000000
     atom   11 type  1   force =     0.00000000    0.00000000    0.00000000
     atom   12 type  1   force =     0.00000000    0.00000000    0.00000000
     atom   13 type  1   force =     0.00000000    0.00000000    0.00000000
     atom   14 type  1   force =     0.00000000    0.00000000    0.00000000
     atom   15 type  1   force =     0.00000000    0.00000000    0.00000000
     atom   16 type  1   force =     0.00000000    0.00000000    0.00000000
     atom   17 type  1   force =     0.00000000    0.00000000    0.00000000
     atom   18 type  1   force =     0.00000000    0.00000000    0.00000000
     atom   19 type  1   force =     0.00000000    0.00000000    0.00000000
     atom   20 type  1   force =     0.00000000    0.00000000    0.00000000
     The SCF correction term to forces
     atom    1 type  2   force =    -0.00000000    0.00000153   -0.00000061
     atom    2 type  2   force =     0.00000000   -0.00000153    0.00000061
     atom    3 type  2   force =     0.00000000   -0.00000153   -0.00000061
     atom    4 type  2   force =    -0.00000000    0.00000153    0.00000061
     atom    5 type  3   force =     0.00000000    0.00000187   -0.00000430
     atom    6 type  3   force =    -0.00000000   -0.00000187    0.00000430
     atom    7 type  3   force =     0.00000000   -0.00000187   -0.00000430
     atom    8 type  3   force =    -0.00000000    0.00000187    0.00000430
     atom    9 type  1   force =     0.00000000   -0.00000039    0.00000229
     atom   10 type  1   force =    -0.00000000    0.00000039   -0.00000229
     atom   11 type  1   force =    -0.00000000    0.00000039    0.00000229
     atom   12 type  1   force =     0.00000000   -0.00000039   -0.00000229
     atom   13 type  1   force =    -0.00000000   -0.00000054   -0.00000072
     atom   14 type  1   force =     0.00000000    0.00000054    0.00000072
     atom   15 type  1   force =    -0.00000000    0.00000054   -0.00000072
     atom   16 type  1   force =     0.00000000   -0.00000054    0.00000072
     atom   17 type  1   force =    -0.00000000   -0.00000262    0.00000000
     atom   18 type  1   force =     0.00000000    0.00000262   -0.00000000
     atom   19 type  1   force =    -0.00000000    0.00000262    0.00000000
     atom   20 type  1   force =     0.00000000   -0.00000262   -0.00000000

     Total force =     0.003331     Total SCF correction =     0.000012


     Computing stress (Cartesian axis) and pressure


     negative rho (up, down):  5.164E-01 0.000E+00
          total   stress  (Ry/bohr**3)                   (kbar)     P=       -0.03
  -0.00000380   0.00000000   0.00000000           -0.56        0.00        0.00
   0.00000000   0.00000315   0.00000000            0.00        0.46        0.00
   0.00000000   0.00000000  -0.00000004            0.00        0.00       -0.01

     kinetic stress (kbar)   8947.40      0.00      0.00
                                0.00   8975.30      0.00
                                0.00      0.00   8994.67

     local   stress (kbar)  -7786.73     -0.00      0.00
                               -0.00  -4281.81     -0.00
                                0.00     -0.00  -4002.08

     nonloc. stress (kbar)   7389.00      0.00      0.00
                                0.00   7385.47      0.00
                                0.00      0.00   7390.87

     hartree stress (kbar)   3484.97      0.00      0.00
                                0.00   2106.68     -0.00
                                0.00     -0.00   1815.02

     exc-cor stress (kbar)   2577.77      0.00      0.00
                                0.00   2575.62     -0.00
                                0.00     -0.00   2578.26

     corecor stress (kbar)  -5273.88     -0.00     -0.00
                               -0.00  -5273.80      0.00
                               -0.00      0.00  -5274.52

     ewald   stress (kbar)  -9339.09      0.00     -0.00
                                0.00 -11486.98      0.00
                               -0.00      0.00 -11502.22

     hubbard stress (kbar)      0.00      0.00      0.00
                                0.00      0.00      0.00
                                0.00      0.00      0.00

     DFT-D   stress (kbar)      0.00      0.00      0.00
                                0.00      0.00      0.00
                                0.00      0.00      0.00

     XDM     stress (kbar)      0.00      0.00      0.00
                                0.00      0.00      0.00
                                0.00      0.00      0.00

     dft-nl  stress (kbar)      0.00      0.00      0.00
                                0.00      0.00      0.00
                                0.00      0.00      0.00

     TS-vdW  stress (kbar)      0.00      0.00      0.00
                                0.00      0.00      0.00
                                0.00      0.00      0.00

     MDB     stress (kbar)      0.00      0.00      0.00
                                0.00      0.00      0.00
                                0.00      0.00      0.00

     3D-RISM stress (kbar)      0.00      0.00      0.00
                                0.00      0.00      0.00
                                0.00      0.00      0.00

     Energy error            =      6.3E-05 Ry
     Gradient error          =      9.4E-04 Ry/Bohr
     Cell gradient error     =      5.6E-01 kbar

     number of scf cycles    =   3
     number of bfgs steps    =   2

     enthalpy           old  =    -969.0398294839 Ry
     enthalpy           new  =    -969.0398928422 Ry

     CASE: enthalpy          _new < enthalpy          _old

     new trust radius        =       0.0029643263 bohr
     new conv_thr            =            1.0E-10 Ry

     new unit-cell volume =   3126.49212 a.u.^3 (   463.29833 Ang^3 )
     density =      3.94314 g/cm^3

CELL_PARAMETERS (angstrom)
   3.842707388   0.000000000   0.000000000
  -0.000000000   8.600341018   0.000000000
   0.000000000   0.000000000  14.018700244

ATOMIC_POSITIONS (crystal)
Sr               0.2500000000        0.0660381406        0.8205556311
Sr               0.7500000000        0.9339618594        0.1794443689
Sr               0.7500000000        0.4339618594        0.3205556311
Sr               0.2500000000        0.5660381406        0.6794443689
Zr               0.2500000000        0.3278749970        0.0569736219
Zr               0.7500000000        0.6721250030        0.9430263781
Zr               0.7500000000        0.1721250030        0.5569736219
Zr               0.2500000000        0.8278749970        0.4430263781
S                0.2500000000        0.2066400484        0.2158201008
S                0.7500000000        0.7933599516        0.7841798992
S                0.7500000000        0.2933599516        0.7158201008
S                0.2500000000        0.7066400484        0.2841798992
S                0.2500000000        0.3365848367        0.4860321282
S                0.7500000000        0.6634151633        0.5139678718
S                0.7500000000        0.1634151633        0.9860321282
S                0.2500000000        0.8365848367        0.0139678718
S                0.2500000000        0.4847563029        0.8941196161
S                0.7500000000        0.5152436971        0.1058803839
S                0.7500000000        0.0152436971        0.3941196161
S                0.2500000000        0.9847563029        0.6058803839



     Writing config-only to output data dir ./tmp/relax/SrZrS3_relax.save/ :
     XML data file
     NEW-OLD atomic charge density approx. for the potential
     New effective cutoffs (rho, wfc):  399.41   49.93

     negative rho (up, down):  5.165E-01 0.000E+00

     total cpu time spent up to now is      275.4 secs

     Self-consistent Calculation

     iteration #  1     ecut=    50.00 Ry     beta= 0.30
     Davidson diagonalization with overlap

---- Real-time Memory Report at c_bands before calling an iterative solver
             0 MiB given to the printing process from OS
             0 MiB allocation reported by mallinfo(arena+hblkhd)
             0 MiB available memory on the node where the printing process lives
------------------
     ethr =  1.00E-06,  avg # of iterations =  2.0

     Threshold (ethr) on eigenvalues was too large:
     Diagonalizing with lowered threshold

     Davidson diagonalization with overlap

---- Real-time Memory Report at c_bands before calling an iterative solver
             0 MiB given to the printing process from OS
             0 MiB allocation reported by mallinfo(arena+hblkhd)
             0 MiB available memory on the node where the printing process lives
------------------
     ethr =  9.05E-10,  avg # of iterations =  8.5

     negative rho (up, down):  5.165E-01 0.000E+00

     total cpu time spent up to now is      293.4 secs

     total energy              =    -969.03990921 Ry
     estimated scf accuracy    <       0.00000112 Ry

     iteration #  2     ecut=    50.00 Ry     beta= 0.30
     Davidson diagonalization with overlap

---- Real-time Memory Report at c_bands before calling an iterative solver
             0 MiB given to the printing process from OS
             0 MiB allocation reported by mallinfo(arena+hblkhd)
             0 MiB available memory on the node where the printing process lives
------------------
     ethr =  6.99E-10,  avg # of iterations =  3.3

     negative rho (up, down):  5.165E-01 0.000E+00

     total cpu time spent up to now is      299.1 secs

     total energy              =    -969.03990939 Ry
     estimated scf accuracy    <       0.00000020 Ry

     iteration #  3     ecut=    50.00 Ry     beta= 0.30
     Davidson diagonalization with overlap

---- Real-time Memory Report at c_bands before calling an iterative solver
             0 MiB given to the printing process from OS
             0 MiB allocation reported by mallinfo(arena+hblkhd)
             0 MiB available memory on the node where the printing process lives
------------------
     ethr =  1.27E-10,  avg # of iterations =  3.1

     negative rho (up, down):  5.165E-01 0.000E+00

     total cpu time spent up to now is      304.7 secs

     total energy              =    -969.03990940 Ry
     estimated scf accuracy    <       0.00000008 Ry

     iteration #  4     ecut=    50.00 Ry     beta= 0.30
     Davidson diagonalization with overlap

---- Real-time Memory Report at c_bands before calling an iterative solver
             0 MiB given to the printing process from OS
             0 MiB allocation reported by mallinfo(arena+hblkhd)
             0 MiB available memory on the node where the printing process lives
------------------
     ethr =  4.79E-11,  avg # of iterations =  3.1

     negative rho (up, down):  5.165E-01 0.000E+00

     total cpu time spent up to now is      310.5 secs

     total energy              =    -969.03990942 Ry
     estimated scf accuracy    <       0.00000002 Ry

     iteration #  5     ecut=    50.00 Ry     beta= 0.30
     Davidson diagonalization with overlap

---- Real-time Memory Report at c_bands before calling an iterative solver
             0 MiB given to the printing process from OS
             0 MiB allocation reported by mallinfo(arena+hblkhd)
             0 MiB available memory on the node where the printing process lives
------------------
     ethr =  1.15E-11,  avg # of iterations =  4.8

     negative rho (up, down):  5.165E-01 0.000E+00

     total cpu time spent up to now is      317.2 secs

     total energy              =    -969.03990942 Ry
     estimated scf accuracy    <          5.6E-09 Ry

     iteration #  6     ecut=    50.00 Ry     beta= 0.30
     Davidson diagonalization with overlap

---- Real-time Memory Report at c_bands before calling an iterative solver
             0 MiB given to the printing process from OS
             0 MiB allocation reported by mallinfo(arena+hblkhd)
             0 MiB available memory on the node where the printing process lives
------------------
     ethr =  3.50E-12,  avg # of iterations =  3.8

     negative rho (up, down):  5.165E-01 0.000E+00

     total cpu time spent up to now is      323.3 secs

     total energy              =    -969.03990943 Ry
     estimated scf accuracy    <          8.3E-10 Ry

     iteration #  7     ecut=    50.00 Ry     beta= 0.30
     Davidson diagonalization with overlap

---- Real-time Memory Report at c_bands before calling an iterative solver
             0 MiB given to the printing process from OS
             0 MiB allocation reported by mallinfo(arena+hblkhd)
             0 MiB available memory on the node where the printing process lives
------------------
     ethr =  5.21E-13,  avg # of iterations =  5.6

     negative rho (up, down):  5.165E-01 0.000E+00

     total cpu time spent up to now is      332.5 secs

     total energy              =    -969.03990943 Ry
     estimated scf accuracy    <          2.4E-09 Ry

     iteration #  8     ecut=    50.00 Ry     beta= 0.30
     Davidson diagonalization with overlap

---- Real-time Memory Report at c_bands before calling an iterative solver
             0 MiB given to the printing process from OS
             0 MiB allocation reported by mallinfo(arena+hblkhd)
             0 MiB available memory on the node where the printing process lives
------------------
     ethr =  5.21E-13,  avg # of iterations =  3.3

     negative rho (up, down):  5.165E-01 0.000E+00

     total cpu time spent up to now is      338.5 secs

     total energy              =    -969.03990943 Ry
     estimated scf accuracy    <          5.0E-10 Ry

     iteration #  9     ecut=    50.00 Ry     beta= 0.30
     Davidson diagonalization with overlap

---- Real-time Memory Report at c_bands before calling an iterative solver
             0 MiB given to the printing process from OS
             0 MiB allocation reported by mallinfo(arena+hblkhd)
             0 MiB available memory on the node where the printing process lives
------------------
     ethr =  3.13E-13,  avg # of iterations =  5.4

     negative rho (up, down):  5.165E-01 0.000E+00

     total cpu time spent up to now is      765.4 secs

     total energy              =    -969.03990943 Ry
     estimated scf accuracy    <          3.3E-10 Ry

     iteration # 10     ecut=    50.00 Ry     beta= 0.30
     Davidson diagonalization with overlap

---- Real-time Memory Report at c_bands before calling an iterative solver
             0 MiB given to the printing process from OS
             0 MiB allocation reported by mallinfo(arena+hblkhd)
             0 MiB available memory on the node where the printing process lives
------------------
     ethr =  2.09E-13,  avg # of iterations =  1.2

     negative rho (up, down):  5.165E-01 0.000E+00

     total cpu time spent up to now is      769.4 secs

     total energy              =    -969.03990943 Ry
     estimated scf accuracy    <          2.1E-10 Ry

     iteration # 11     ecut=    50.00 Ry     beta= 0.30
     Davidson diagonalization with overlap

---- Real-time Memory Report at c_bands before calling an iterative solver
             0 MiB given to the printing process from OS
             0 MiB allocation reported by mallinfo(arena+hblkhd)
             0 MiB available memory on the node where the printing process lives
------------------
     ethr =  1.33E-13,  avg # of iterations =  4.2

     negative rho (up, down):  5.165E-01 0.000E+00

     total cpu time spent up to now is      775.0 secs

     End of self-consistent calculation

          k = 0.0000 0.0000 0.0000 ( 18571 PWs)   bands (ev):

   -41.3939 -41.3939 -41.3894 -41.3894 -26.6368 -26.6366 -26.6352 -26.6350
   -19.4816 -19.4816 -19.4483 -19.4483 -19.4010 -19.4009 -19.3733 -19.3732
   -19.3557 -19.3557 -19.3393 -19.3393  -8.7386  -8.7321  -8.7298  -8.7212
    -8.7087  -8.6842  -8.6299  -8.6294  -8.5718  -8.5709  -8.5653  -8.5644
    -4.8659  -4.6349  -4.0860  -4.0324  -3.7959  -3.7000  -3.6628  -3.6566
    -3.5248  -3.4299  -3.3768  -3.3023   3.6571   3.8878   3.9290   3.9582
     3.9868   4.1814   4.3025   4.5577   4.7720   4.7721   4.8019   4.8450
     4.8917   4.9232   4.9350   5.4469   5.6734   5.6920   5.7383   5.9336
     5.9345   5.9872   6.2935   6.3154   6.5106   6.5778   6.6564   6.6925
     6.7672   6.8558   6.9651   7.1321   7.4648   7.4829   7.6933   7.8963

     occupation numbers 
     1.0000   1.0000   1.0000   1.0000   1.0000   1.0000   1.0000   1.0000
     1.0000   1.0000   1.0000   1.0000   1.0000   1.0000   1.0000   1.0000
     1.0000   1.0000   1.0000   1.0000   1.0000   1.0000   1.0000   1.0000
     1.0000   1.0000   1.0000   1.0000   1.0000   1.0000   1.0000   1.0000
     1.0000   1.0000   1.0000   1.0000   1.0000   1.0000   1.0000   1.0000
     1.0000   1.0000   1.0000   1.0000   1.0000   1.0000   1.0000   1.0000
     1.0000   1.0000   1.0000   1.0000   1.0000   1.0000   1.0000   1.0000
     1.0000   1.0000   1.0000   1.0000   1.0000   1.0000   1.0000   1.0000
     1.0000   1.0000   1.0000   1.0000   1.0000   1.0000   1.0000   1.0000
     1.0000   1.0000   1.0000   1.0000   1.0000   1.0000   1.0000   1.0000

          k = 0.0000 0.0000-0.1370 ( 18560 PWs)   bands (ev):

   -41.3939 -41.3939 -41.3894 -41.3894 -26.6367 -26.6367 -26.6351 -26.6351
   -19.4816 -19.4816 -19.4483 -19.4483 -19.4010 -19.4010 -19.3733 -19.3733
   -19.3557 -19.3557 -19.3393 -19.3393  -8.7351  -8.7351  -8.7274  -8.7274
    -8.6948  -8.6948  -8.6296  -8.6296  -8.5714  -8.5714  -8.5648  -8.5648
    -4.7652  -4.7652  -4.0428  -4.0428  -3.7469  -3.7469  -3.6464  -3.6464
    -3.5062  -3.5062  -3.3268  -3.3268   3.7444   3.7444   3.9547   3.9547
     4.0750   4.0750   4.5271   4.5271   4.7865   4.7865   4.8435   4.8435
     4.9149   4.9149   4.9292   4.9292   5.5597   5.5597   5.9600   5.9600
     6.1810   6.1810   6.3109   6.3109   6.6461   6.6461   6.7039   6.7039
     6.7126   6.7126   7.0546   7.0546   7.3306   7.3306   7.7906   7.7906

     occupation numbers 
     1.0000   1.0000   1.0000   1.0000   1.0000   1.0000   1.0000   1.0000
     1.0000   1.0000   1.0000   1.0000   1.0000   1.0000   1.0000   1.0000
     1.0000   1.0000   1.0000   1.0000   1.0000   1.0000   1.0000   1.0000
     1.0000   1.0000   1.0000   1.0000   1.0000   1.0000   1.0000   1.0000
     1.0000   1.0000   1.0000   1.0000   1.0000   1.0000   1.0000   1.0000
     1.0000   1.0000   1.0000   1.0000   1.0000   1.0000   1.0000   1.0000
     1.0000   1.0000   1.0000   1.0000   1.0000   1.0000   1.0000   1.0000
     1.0000   1.0000   1.0000   1.0000   1.0000   1.0000   1.0000   1.0000
     1.0000   1.0000   1.0000   1.0000   1.0000   1.0000   1.0000   1.0000
     1.0000   1.0000   1.0000   1.0000   1.0000   1.0000   1.0000   1.0000

          k = 0.0000 0.1488 0.0000 ( 18580 PWs)   bands (ev):

   -41.3939 -41.3939 -41.3894 -41.3894 -26.6364 -26.6362 -26.6356 -26.6354
   -19.4814 -19.4814 -19.4486 -19.4485 -19.4009 -19.4009 -19.3733 -19.3733
   -19.3557 -19.3557 -19.3393 -19.3393  -8.7451  -8.7366  -8.7246  -8.7135
    -8.6923  -8.6707  -8.6512  -8.6423  -8.5701  -8.5693  -8.5669  -8.5660
    -4.7460  -4.5954  -4.1925  -4.1500  -3.9276  -3.9050  -3.5316  -3.4864
    -3.4436  -3.4210  -3.3311  -3.3206   3.4725   3.6077   3.7496   3.7741
     4.1092   4.2515   4.3748   4.7624   4.7855   4.9009   4.9068   4.9191
     4.9206   5.1593   5.2552   5.2967   5.5626   5.6445   5.8203   6.0570
     6.1176   6.1208   6.1416   6.3448   6.5123   6.5637   6.7256   6.7997
     6.8197   6.8791   6.9480   7.0937   7.1758   7.2540   7.3320   7.3869

     occupation numbers 
     1.0000   1.0000   1.0000   1.0000   1.0000   1.0000   1.0000   1.0000
     1.0000   1.0000   1.0000   1.0000   1.0000   1.0000   1.0000   1.0000
     1.0000   1.0000   1.0000   1.0000   1.0000   1.0000   1.0000   1.0000
     1.0000   1.0000   1.0000   1.0000   1.0000   1.0000   1.0000   1.0000
     1.0000   1.0000   1.0000   1.0000   1.0000   1.0000   1.0000   1.0000
     1.0000   1.0000   1.0000   1.0000   1.0000   1.0000   1.0000   1.0000
     1.0000   1.0000   1.0000   1.0000   1.0000   1.0000   1.0000   1.0000
     1.0000   1.0000   1.0000   1.0000   1.0000   1.0000   1.0000   1.0000
     1.0000   1.0000   1.0000   1.0000   1.0000   1.0000   1.0000   1.0000
     1.0000   1.0000   1.0000   1.0000   1.0000   1.0000   1.0000   1.0000

          k = 0.0000 0.1488-0.1370 ( 18590 PWs)   bands (ev):

   -41.3939 -41.3939 -41.3894 -41.3894 -26.6363 -26.6363 -26.6355 -26.6355
   -19.4814 -19.4814 -19.4486 -19.4486 -19.4009 -19.4009 -19.3733 -19.3733
   -19.3557 -19.3557 -19.3393 -19.3393  -8.7380  -8.7380  -8.7240  -8.7240
    -8.6803  -8.6803  -8.6459  -8.6459  -8.5698  -8.5698  -8.5664  -8.5664
    -4.6726  -4.6726  -4.1894  -4.1894  -3.8898  -3.8898  -3.5251  -3.5251
    -3.3936  -3.3936  -3.3548  -3.3548   3.5347   3.5347   3.7393   3.7393
     4.2091   4.2091   4.6768   4.6768   4.7748   4.7748   4.8621   4.8621
     4.9086   4.9086   5.4174   5.4174   5.5615   5.5615   5.9502   5.9502
     6.1314   6.1314   6.3557   6.3557   6.5389   6.5389   6.7265   6.7265
     6.7662   6.7662   7.0072   7.0072   7.1782   7.1782   7.4298   7.4298

     occupation numbers 
     1.0000   1.0000   1.0000   1.0000   1.0000   1.0000   1.0000   1.0000
     1.0000   1.0000   1.0000   1.0000   1.0000   1.0000   1.0000   1.0000
     1.0000   1.0000   1.0000   1.0000   1.0000   1.0000   1.0000   1.0000
     1.0000   1.0000   1.0000   1.0000   1.0000   1.0000   1.0000   1.0000
     1.0000   1.0000   1.0000   1.0000   1.0000   1.0000   1.0000   1.0000
     1.0000   1.0000   1.0000   1.0000   1.0000   1.0000   1.0000   1.0000
     1.0000   1.0000   1.0000   1.0000   1.0000   1.0000   1.0000   1.0000
     1.0000   1.0000   1.0000   1.0000   1.0000   1.0000   1.0000   1.0000
     1.0000   1.0000   1.0000   1.0000   1.0000   1.0000   1.0000   1.0000
     1.0000   1.0000   1.0000   1.0000   1.0000   1.0000   1.0000   1.0000

          k = 0.1666 0.0000 0.0000 ( 18537 PWs)   bands (ev):

   -41.3923 -41.3923 -41.3884 -41.3884 -26.6318 -26.6316 -26.6302 -26.6300
   -19.4738 -19.4738 -19.4432 -19.4431 -19.4002 -19.4001 -19.3915 -19.3914
   -19.3676 -19.3676 -19.3670 -19.3670  -8.7137  -8.7110  -8.7106  -8.6994
    -8.6939  -8.6700  -8.6686  -8.6660  -8.6504  -8.6485  -8.6177  -8.6170
    -4.6790  -4.4765  -3.9939  -3.9477  -3.8176  -3.7354  -3.6721  -3.6432
    -3.4849  -3.3749  -3.3669  -3.3206   3.8095   3.8984   4.0605   4.0815
     4.1109   4.2176   4.3010   4.3426   4.4366   4.4391   4.6336   5.0497
     5.1553   5.2609   5.3846   5.4381   5.4909   5.5499   5.6566   5.7360
     5.7712   5.8282   5.8717   6.1397   6.1502   6.2715   6.3232   6.4458
     6.4686   6.6621   6.6629   6.8812   6.9721   7.2722   7.4098   7.4921

     occupation numbers 
     1.0000   1.0000   1.0000   1.0000   1.0000   1.0000   1.0000   1.0000
     1.0000   1.0000   1.0000   1.0000   1.0000   1.0000   1.0000   1.0000
     1.0000   1.0000   1.0000   1.0000   1.0000   1.0000   1.0000   1.0000
     1.0000   1.0000   1.0000   1.0000   1.0000   1.0000   1.0000   1.0000
     1.0000   1.0000   1.0000   1.0000   1.0000   1.0000   1.0000   1.0000
     1.0000   1.0000   1.0000   1.0000   1.0000   1.0000   1.0000   1.0000
     1.0000   1.0000   1.0000   1.0000   1.0000   1.0000   1.0000   1.0000
     1.0000   1.0000   1.0000   1.0000   1.0000   1.0000   1.0000   1.0000
     1.0000   1.0000   1.0000   1.0000   1.0000   1.0000   1.0000   1.0000
     1.0000   1.0000   1.0000   1.0000   1.0000   1.0000   1.0000   1.0000

          k = 0.1666 0.0000-0.1370 ( 18576 PWs)   bands (ev):

   -41.3923 -41.3923 -41.3884 -41.3884 -26.6317 -26.6317 -26.6301 -26.6301
   -19.4738 -19.4738 -19.4431 -19.4431 -19.4002 -19.4002 -19.3915 -19.3915
   -19.3676 -19.3676 -19.3670 -19.3670  -8.7115  -8.7115  -8.7077  -8.7077
    -8.6819  -8.6819  -8.6654  -8.6654  -8.6496  -8.6496  -8.6174  -8.6174
    -4.5904  -4.5904  -3.9587  -3.9587  -3.7728  -3.7728  -3.6572  -3.6572
    -3.4432  -3.4432  -3.3341  -3.3341   3.8445   3.8445   4.0525   4.0525
     4.1659   4.1659   4.3108   4.3108   4.5369   4.5369   4.7586   4.7586
     5.1973   5.1973   5.3879   5.3879   5.5040   5.5040   5.6691   5.6691
     5.8283   5.8283   6.0823   6.0823   6.2713   6.2713   6.3698   6.3698
     6.5204   6.5204   6.6921   6.6921   7.2009   7.2009   7.4545   7.4545

     occupation numbers 
     1.0000   1.0000   1.0000   1.0000   1.0000   1.0000   1.0000   1.0000
     1.0000   1.0000   1.0000   1.0000   1.0000   1.0000   1.0000   1.0000
     1.0000   1.0000   1.0000   1.0000   1.0000   1.0000   1.0000   1.0000
     1.0000   1.0000   1.0000   1.0000   1.0000   1.0000   1.0000   1.0000
     1.0000   1.0000   1.0000   1.0000   1.0000   1.0000   1.0000   1.0000
     1.0000   1.0000   1.0000   1.0000   1.0000   1.0000   1.0000   1.0000
     1.0000   1.0000   1.0000   1.0000   1.0000   1.0000   1.0000   1.0000
     1.0000   1.0000   1.0000   1.0000   1.0000   1.0000   1.0000   1.0000
     1.0000   1.0000   1.0000   1.0000   1.0000   1.0000   1.0000   1.0000
     1.0000   1.0000   1.0000   1.0000   1.0000   1.0000   1.0000   1.0000

          k = 0.1666 0.1488 0.0000 ( 18591 PWs)   bands (ev):

   -41.3923 -41.3923 -41.3884 -41.3884 -26.6314 -26.6312 -26.6306 -26.6304
   -19.4737 -19.4736 -19.4434 -19.4433 -19.4001 -19.4001 -19.3915 -19.3915
   -19.3676 -19.3676 -19.3670 -19.3670  -8.7216  -8.7158  -8.7045  -8.6975
    -8.6798  -8.6680  -8.6631  -8.6610  -8.6495  -8.6475  -8.6318  -8.6282
    -4.5796  -4.4504  -4.0677  -4.0310  -3.9226  -3.9004  -3.5191  -3.4892
    -3.4666  -3.4199  -3.3298  -3.3297   3.7238   3.8257   3.9215   3.9387
     4.1572   4.2394   4.3469   4.5231   4.5504   4.5900   4.8089   4.9617
     5.0399   5.1306   5.3418   5.3737   5.4444   5.5897   5.5915   5.6308
     5.7800   5.9371   6.0181   6.0366   6.1517   6.2014   6.4263   6.4985
     6.6161   6.6619   6.7604   6.9055   7.1075   7.2486   7.3557   7.3877

     occupation numbers 
     1.0000   1.0000   1.0000   1.0000   1.0000   1.0000   1.0000   1.0000
     1.0000   1.0000   1.0000   1.0000   1.0000   1.0000   1.0000   1.0000
     1.0000   1.0000   1.0000   1.0000   1.0000   1.0000   1.0000   1.0000
     1.0000   1.0000   1.0000   1.0000   1.0000   1.0000   1.0000   1.0000
     1.0000   1.0000   1.0000   1.0000   1.0000   1.0000   1.0000   1.0000
     1.0000   1.0000   1.0000   1.0000   1.0000   1.0000   1.0000   1.0000
     1.0000   1.0000   1.0000   1.0000   1.0000   1.0000   1.0000   1.0000
     1.0000   1.0000   1.0000   1.0000   1.0000   1.0000   1.0000   1.0000
     1.0000   1.0000   1.0000   1.0000   1.0000   1.0000   1.0000   1.0000
     1.0000   1.0000   1.0000   1.0000   1.0000   1.0000   1.0000   1.0000

          k = 0.1666 0.1488-0.1370 ( 18560 PWs)   bands (ev):

   -41.3923 -41.3923 -41.3884 -41.3884 -26.6313 -26.6313 -26.6305 -26.6305
   -19.4737 -19.4737 -19.4433 -19.4433 -19.4001 -19.4001 -19.3915 -19.3915
   -19.3676 -19.3676 -19.3670 -19.3670  -8.7162  -8.7162  -8.7050  -8.7050
    -8.6719  -8.6719  -8.6627  -8.6627  -8.6485  -8.6485  -8.6298  -8.6298
    -4.5159  -4.5159  -4.0721  -4.0721  -3.8862  -3.8862  -3.5179  -3.5179
    -3.4023  -3.4023  -3.3585  -3.3585   3.7498   3.7498   3.9007   3.9007
     4.2804   4.2804   4.4476   4.4476   4.6274   4.6274   4.8073   4.8073
     5.0217   5.0217   5.3349   5.3349   5.5291   5.5291   5.5907   5.5907
     5.9077   5.9077   6.0406   6.0406   6.2323   6.2323   6.4195   6.4195
     6.6982   6.6982   6.7980   6.7980   7.1655   7.1655   7.3482   7.3482

     occupation numbers 
     1.0000   1.0000   1.0000   1.0000   1.0000   1.0000   1.0000   1.0000
     1.0000   1.0000   1.0000   1.0000   1.0000   1.0000   1.0000   1.0000
     1.0000   1.0000   1.0000   1.0000   1.0000   1.0000   1.0000   1.0000
     1.0000   1.0000   1.0000   1.0000   1.0000   1.0000   1.0000   1.0000
     1.0000   1.0000   1.0000   1.0000   1.0000   1.0000   1.0000   1.0000
     1.0000   1.0000   1.0000   1.0000   1.0000   1.0000   1.0000   1.0000
     1.0000   1.0000   1.0000   1.0000   1.0000   1.0000   1.0000   1.0000
     1.0000   1.0000   1.0000   1.0000   1.0000   1.0000   1.0000   1.0000
     1.0000   1.0000   1.0000   1.0000   1.0000   1.0000   1.0000   1.0000
     1.0000   1.0000   1.0000   1.0000   1.0000   1.0000   1.0000   1.0000

          k = 0.3331 0.0000 0.0000 ( 18620 PWs)   bands (ev):

   -41.3889 -41.3889 -41.3866 -41.3866 -26.6217 -26.6216 -26.6203 -26.6201
   -19.4639 -19.4639 -19.4522 -19.4522 -19.4273 -19.4273 -19.4266 -19.4266
   -19.3855 -19.3855 -19.3739 -19.3739  -8.8532  -8.8527  -8.8164  -8.8157
    -8.6701  -8.6692  -8.6656  -8.6576  -8.6475  -8.6386  -8.5933  -8.5926
    -4.2472  -4.1271  -3.9049  -3.9041  -3.8316  -3.7882  -3.6155  -3.6119
    -3.3705  -3.3533  -3.3525  -3.2585   3.6451   3.8103   3.9703   4.0454
     4.0679   4.1630   4.2908   4.4268   4.5971   4.6772   4.7032   4.7674
     4.8102   4.8182   4.9529   5.1520   5.4201   5.4750   5.5432   5.5793
     5.6760   5.7257   5.7784   5.7902   6.0091   6.2067   6.2521   6.3046
     6.4371   6.5023   6.5392   6.5553   6.6207   6.6441   6.9865   7.0026

     occupation numbers 
     1.0000   1.0000   1.0000   1.0000   1.0000   1.0000   1.0000   1.0000
     1.0000   1.0000   1.0000   1.0000   1.0000   1.0000   1.0000   1.0000
     1.0000   1.0000   1.0000   1.0000   1.0000   1.0000   1.0000   1.0000
     1.0000   1.0000   1.0000   1.0000   1.0000   1.0000   1.0000   1.0000
     1.0000   1.0000   1.0000   1.0000   1.0000   1.0000   1.0000   1.0000
     1.0000   1.0000   1.0000   1.0000   1.0000   1.0000   1.0000   1.0000
     1.0000   1.0000   1.0000   1.0000   1.0000   1.0000   1.0000   1.0000
     1.0000   1.0000   1.0000   1.0000   1.0000   1.0000   1.0000   1.0000
     1.0000   1.0000   1.0000   1.0000   1.0000   1.0000   1.0000   1.0000
     1.0000   1.0000   1.0000   1.0000   1.0000   1.0000   1.0000   1.0000

          k = 0.3331 0.0000-0.1370 ( 18610 PWs)   bands (ev):

   -41.3889 -41.3889 -41.3866 -41.3866 -26.6216 -26.6216 -26.6202 -26.6202
   -19.4639 -19.4639 -19.4522 -19.4522 -19.4273 -19.4273 -19.4266 -19.4266
   -19.3855 -19.3855 -19.3739 -19.3739  -8.8530  -8.8530  -8.8160  -8.8160
    -8.6693  -8.6693  -8.6627  -8.6627  -8.6423  -8.6423  -8.5929  -8.5929
    -4.1928  -4.1928  -3.9049  -3.9049  -3.8056  -3.8056  -3.6124  -3.6124
    -3.3703  -3.3703  -3.2965  -3.2965   3.7723   3.7723   3.8782   3.8782
     4.1183   4.1183   4.4044   4.4044   4.6723   4.6723   4.7767   4.7767
     4.8272   4.8272   5.0632   5.0632   5.3847   5.3847   5.5984   5.5984
     5.7986   5.7986   5.8204   5.8204   5.9032   5.9032   6.1158   6.1158
     6.4464   6.4464   6.6406   6.6406   6.7584   6.7584   7.0128   7.0128

     occupation numbers 
     1.0000   1.0000   1.0000   1.0000   1.0000   1.0000   1.0000   1.0000
     1.0000   1.0000   1.0000   1.0000   1.0000   1.0000   1.0000   1.0000
     1.0000   1.0000   1.0000   1.0000   1.0000   1.0000   1.0000   1.0000
     1.0000   1.0000   1.0000   1.0000   1.0000   1.0000   1.0000   1.0000
     1.0000   1.0000   1.0000   1.0000   1.0000   1.0000   1.0000   1.0000
     1.0000   1.0000   1.0000   1.0000   1.0000   1.0000   1.0000   1.0000
     1.0000   1.0000   1.0000   1.0000   1.0000   1.0000   1.0000   1.0000
     1.0000   1.0000   1.0000   1.0000   1.0000   1.0000   1.0000   1.0000
     1.0000   1.0000   1.0000   1.0000   1.0000   1.0000   1.0000   1.0000
     1.0000   1.0000   1.0000   1.0000   1.0000   1.0000   1.0000   1.0000

          k = 0.3331 0.1488 0.0000 ( 18628 PWs)   bands (ev):

   -41.3889 -41.3889 -41.3866 -41.3866 -26.6213 -26.6212 -26.6206 -26.6205
   -19.4639 -19.4639 -19.4523 -19.4523 -19.4273 -19.4273 -19.4264 -19.4264
   -19.3855 -19.3855 -19.3739 -19.3739  -8.8445  -8.8436  -8.8262  -8.8251
    -8.6747  -8.6727  -8.6640  -8.6603  -8.6304  -8.6246  -8.6047  -8.6023
    -4.2068  -4.1402  -3.9375  -3.9216  -3.8085  -3.7969  -3.6041  -3.6029
    -3.3822  -3.3684  -3.3200  -3.2776   3.7362   3.7761   3.9379   3.9623
     4.2430   4.2805   4.3476   4.4137   4.4733   4.5126   4.6235   4.6570
     4.7518   4.9276   5.1223   5.2632   5.2656   5.2965   5.4152   5.4838
     5.6865   5.7054   5.8062   5.9451   6.0422   6.0454   6.2565   6.2964
     6.3421   6.4081   6.7388   6.7688   6.8638   6.8772   6.9246   7.0289

     occupation numbers 
     1.0000   1.0000   1.0000   1.0000   1.0000   1.0000   1.0000   1.0000
     1.0000   1.0000   1.0000   1.0000   1.0000   1.0000   1.0000   1.0000
     1.0000   1.0000   1.0000   1.0000   1.0000   1.0000   1.0000   1.0000
     1.0000   1.0000   1.0000   1.0000   1.0000   1.0000   1.0000   1.0000
     1.0000   1.0000   1.0000   1.0000   1.0000   1.0000   1.0000   1.0000
     1.0000   1.0000   1.0000   1.0000   1.0000   1.0000   1.0000   1.0000
     1.0000   1.0000   1.0000   1.0000   1.0000   1.0000   1.0000   1.0000
     1.0000   1.0000   1.0000   1.0000   1.0000   1.0000   1.0000   1.0000
     1.0000   1.0000   1.0000   1.0000   1.0000   1.0000   1.0000   1.0000
     1.0000   1.0000   1.0000   1.0000   1.0000   1.0000   1.0000   1.0000

          k = 0.3331 0.1488-0.1370 ( 18596 PWs)   bands (ev):

   -41.3889 -41.3889 -41.3866 -41.3866 -26.6213 -26.6213 -26.6205 -26.6205
   -19.4639 -19.4639 -19.4523 -19.4523 -19.4273 -19.4273 -19.4264 -19.4264
   -19.3855 -19.3855 -19.3739 -19.3739  -8.8441  -8.8441  -8.8256  -8.8256
    -8.6727  -8.6727  -8.6634  -8.6634  -8.6273  -8.6273  -8.6034  -8.6034
    -4.1706  -4.1706  -3.9430  -3.9430  -3.7942  -3.7942  -3.6033  -3.6033
    -3.3629  -3.3629  -3.3093  -3.3093   3.7651   3.7651   3.8865   3.8865
     4.2587   4.2587   4.4091   4.4091   4.5199   4.5199   4.7075   4.7075
     4.8635   4.8635   5.1689   5.1689   5.2782   5.2782   5.3900   5.3900
     5.6659   5.6659   5.7667   5.7667   6.1531   6.1531   6.2538   6.2538
     6.4869   6.4869   6.6538   6.6538   6.8447   6.8447   7.0474   7.0474

     occupation numbers 
     1.0000   1.0000   1.0000   1.0000   1.0000   1.0000   1.0000   1.0000
     1.0000   1.0000   1.0000   1.0000   1.0000   1.0000   1.0000   1.0000
     1.0000   1.0000   1.0000   1.0000   1.0000   1.0000   1.0000   1.0000
     1.0000   1.0000   1.0000   1.0000   1.0000   1.0000   1.0000   1.0000
     1.0000   1.0000   1.0000   1.0000   1.0000   1.0000   1.0000   1.0000
     1.0000   1.0000   1.0000   1.0000   1.0000   1.0000   1.0000   1.0000
     1.0000   1.0000   1.0000   1.0000   1.0000   1.0000   1.0000   1.0000
     1.0000   1.0000   1.0000   1.0000   1.0000   1.0000   1.0000   1.0000
     1.0000   1.0000   1.0000   1.0000   1.0000   1.0000   1.0000   1.0000
     1.0000   1.0000   1.0000   1.0000   1.0000   1.0000   1.0000   1.0000

          k =-0.4997 0.0000 0.0000 ( 18628 PWs)   bands (ev):

   -41.3865 -41.3865 -41.3865 -41.3865 -26.6165 -26.6165 -26.6152 -26.6152
   -19.4780 -19.4780 -19.4779 -19.4779 -19.4276 -19.4276 -19.4276 -19.4276
   -19.3804 -19.3804 -19.3803 -19.3803  -8.9407  -8.9407  -8.8955  -8.8955
    -8.6473  -8.6473  -8.6454  -8.6454  -8.6203  -8.6203  -8.5806  -8.5806
    -3.9679  -3.9679  -3.9658  -3.9658  -3.6712  -3.6712  -3.6586  -3.6586
    -3.3658  -3.3658  -3.2543  -3.2543   3.5641   3.5641   3.7573   3.7573
     4.0580   4.0580   4.3200   4.3200   4.5337   4.5337   4.6237   4.6237
     5.0940   5.0940   5.2413   5.2413   5.2879   5.2879   5.2987   5.2987
     5.5095   5.5095   5.9029   5.9029   5.9918   5.9918   6.0738   6.0738
     6.5847   6.5847   6.6378   6.6378   6.7505   6.7505   6.8229   6.8229

     occupation numbers 
     1.0000   1.0000   1.0000   1.0000   1.0000   1.0000   1.0000   1.0000
     1.0000   1.0000   1.0000   1.0000   1.0000   1.0000   1.0000   1.0000
     1.0000   1.0000   1.0000   1.0000   1.0000   1.0000   1.0000   1.0000
     1.0000   1.0000   1.0000   1.0000   1.0000   1.0000   1.0000   1.0000
     1.0000   1.0000   1.0000   1.0000   1.0000   1.0000   1.0000   1.0000
     1.0000   1.0000   1.0000   1.0000   1.0000   1.0000   1.0000   1.0000
     1.0000   1.0000   1.0000   1.0000   1.0000   1.0000   1.0000   1.0000
     1.0000   1.0000   1.0000   1.0000   1.0000   1.0000   1.0000   1.0000
     1.0000   1.0000   1.0000   1.0000   1.0000   1.0000   1.0000   1.0000
     1.0000   1.0000   1.0000   1.0000   1.0000   1.0000   1.0000   1.0000

          k =-0.4997 0.0000-0.1370 ( 18652 PWs)   bands (ev):

   -41.3865 -41.3865 -41.3865 -41.3865 -26.6165 -26.6165 -26.6152 -26.6152
   -19.4779 -19.4779 -19.4779 -19.4779 -19.4276 -19.4276 -19.4276 -19.4276
   -19.3804 -19.3804 -19.3803 -19.3803  -8.9407  -8.9407  -8.8955  -8.8955
    -8.6473  -8.6473  -8.6454  -8.6454  -8.6203  -8.6203  -8.5805  -8.5805
    -3.9708  -3.9708  -3.9629  -3.9629  -3.6722  -3.6722  -3.6581  -3.6581
    -3.3657  -3.3657  -3.2538  -3.2538   3.5457   3.5457   3.7894   3.7894
     4.0485   4.0485   4.2617   4.2617   4.5788   4.5788   4.7132   4.7132
     5.0080   5.0080   5.0938   5.0938   5.2631   5.2631   5.4274   5.4274
     5.7001   5.7001   5.7201   5.7201   5.9185   5.9185   6.3968   6.3968
     6.4618   6.4618   6.5375   6.5375   6.6987   6.6987   6.8825   6.8825

     occupation numbers 
     1.0000   1.0000   1.0000   1.0000   1.0000   1.0000   1.0000   1.0000
     1.0000   1.0000   1.0000   1.0000   1.0000   1.0000   1.0000   1.0000
     1.0000   1.0000   1.0000   1.0000   1.0000   1.0000   1.0000   1.0000
     1.0000   1.0000   1.0000   1.0000   1.0000   1.0000   1.0000   1.0000
     1.0000   1.0000   1.0000   1.0000   1.0000   1.0000   1.0000   1.0000
     1.0000   1.0000   1.0000   1.0000   1.0000   1.0000   1.0000   1.0000
     1.0000   1.0000   1.0000   1.0000   1.0000   1.0000   1.0000   1.0000
     1.0000   1.0000   1.0000   1.0000   1.0000   1.0000   1.0000   1.0000
     1.0000   1.0000   1.0000   1.0000   1.0000   1.0000   1.0000   1.0000
     1.0000   1.0000   1.0000   1.0000   1.0000   1.0000   1.0000   1.0000

          k =-0.4997 0.1488 0.0000 ( 18590 PWs)   bands (ev):

   -41.3865 -41.3865 -41.3865 -41.3865 -26.6162 -26.6162 -26.6156 -26.6156
   -19.4780 -19.4780 -19.4780 -19.4780 -19.4276 -19.4276 -19.4275 -19.4275
   -19.3803 -19.3803 -19.3803 -19.3803  -8.9295  -8.9295  -8.9069  -8.9069
    -8.6488  -8.6488  -8.6472  -8.6472  -8.6084  -8.6084  -8.5891  -8.5891
    -3.9675  -3.9675  -3.9661  -3.9661  -3.6690  -3.6690  -3.6639  -3.6639
    -3.3351  -3.3351  -3.2801  -3.2801   3.4901   3.4901   3.5502   3.5502
     4.2761   4.2761   4.3983   4.3983   4.6466   4.6466   4.6630   4.6630
     4.9969   4.9969   5.0741   5.0741   5.2986   5.2986   5.4026   5.4026
     5.7217   5.7217   5.7894   5.7894   6.1792   6.1792   6.1862   6.1862
     6.4249   6.4249   6.4265   6.4265   6.6930   6.6930   6.7063   6.7063

     occupation numbers 
     1.0000   1.0000   1.0000   1.0000   1.0000   1.0000   1.0000   1.0000
     1.0000   1.0000   1.0000   1.0000   1.0000   1.0000   1.0000   1.0000
     1.0000   1.0000   1.0000   1.0000   1.0000   1.0000   1.0000   1.0000
     1.0000   1.0000   1.0000   1.0000   1.0000   1.0000   1.0000   1.0000
     1.0000   1.0000   1.0000   1.0000   1.0000   1.0000   1.0000   1.0000
     1.0000   1.0000   1.0000   1.0000   1.0000   1.0000   1.0000   1.0000
     1.0000   1.0000   1.0000   1.0000   1.0000   1.0000   1.0000   1.0000
     1.0000   1.0000   1.0000   1.0000   1.0000   1.0000   1.0000   1.0000
     1.0000   1.0000   1.0000   1.0000   1.0000   1.0000   1.0000   1.0000
     1.0000   1.0000   1.0000   1.0000   1.0000   1.0000   1.0000   1.0000

          k =-0.4997 0.1488-0.1370 ( 18600 PWs)   bands (ev):

   -41.3865 -41.3865 -41.3865 -41.3865 -26.6162 -26.6162 -26.6156 -26.6156
   -19.4780 -19.4780 -19.4780 -19.4780 -19.4275 -19.4275 -19.4275 -19.4275
   -19.3803 -19.3803 -19.3803 -19.3803  -8.9295  -8.9295  -8.9069  -8.9069
    -8.6488  -8.6488  -8.6472  -8.6472  -8.6084  -8.6084  -8.5891  -8.5891
    -3.9687  -3.9687  -3.9650  -3.9650  -3.6706  -3.6706  -3.6627  -3.6627
    -3.3349  -3.3349  -3.2796  -3.2796   3.4682   3.4682   3.5629   3.5629
     4.2668   4.2668   4.4052   4.4052   4.6244   4.6244   4.6459   4.6459
     5.0827   5.0827   5.1913   5.1913   5.3265   5.3265   5.3277   5.3277
     5.7178   5.7178   5.7946   5.7946   5.9702   5.9702   6.0654   6.0654
     6.4430   6.4430   6.4725   6.4725   6.7896   6.7896   6.7952   6.7952

     occupation numbers 
     1.0000   1.0000   1.0000   1.0000   1.0000   1.0000   1.0000   1.0000
     1.0000   1.0000   1.0000   1.0000   1.0000   1.0000   1.0000   1.0000
     1.0000   1.0000   1.0000   1.0000   1.0000   1.0000   1.0000   1.0000
     1.0000   1.0000   1.0000   1.0000   1.0000   1.0000   1.0000   1.0000
     1.0000   1.0000   1.0000   1.0000   1.0000   1.0000   1.0000   1.0000
     1.0000   1.0000   1.0000   1.0000   1.0000   1.0000   1.0000   1.0000
     1.0000   1.0000   1.0000   1.0000   1.0000   1.0000   1.0000   1.0000
     1.0000   1.0000   1.0000   1.0000   1.0000   1.0000   1.0000   1.0000
     1.0000   1.0000   1.0000   1.0000   1.0000   1.0000   1.0000   1.0000
     1.0000   1.0000   1.0000   1.0000   1.0000   1.0000   1.0000   1.0000

     highest occupied level (ev):     7.8963

!    total energy              =    -969.03990943 Ry
     estimated scf accuracy    <          7.7E-12 Ry

     The total energy is the sum of the following terms:
     one-electron contribution =    -193.69678442 Ry
     hartree contribution      =     157.39911195 Ry
     xc contribution           =    -246.04847384 Ry
     ewald contribution        =    -686.69376311 Ry

     convergence has been achieved in  11 iterations

     negative rho (up, down):  5.165E-01 0.000E+00

     Forces acting on atoms (cartesian axes, Ry/au):

     atom    1 type  2   force =     0.00000000   -0.00090565   -0.00049973
     atom    2 type  2   force =     0.00000000    0.00090565    0.00049973
     atom    3 type  2   force =     0.00000000    0.00090565   -0.00049973
     atom    4 type  2   force =     0.00000000   -0.00090565    0.00049973
     atom    5 type  3   force =    -0.00000000   -0.00030792   -0.00012265
     atom    6 type  3   force =     0.00000000    0.00030792    0.00012265
     atom    7 type  3   force =     0.00000000    0.00030792   -0.00012265
     atom    8 type  3   force =    -0.00000000   -0.00030792    0.00012265
     atom    9 type  1   force =     0.00000000    0.00056654   -0.00072773
     atom   10 type  1   force =     0.00000000   -0.00056654    0.00072773
     atom   11 type  1   force =     0.00000000   -0.00056654   -0.00072773
     atom   12 type  1   force =     0.00000000    0.00056654    0.00072773
     atom   13 type  1   force =     0.00000000   -0.00027962   -0.00059945
     atom   14 type  1   force =     0.00000000    0.00027962    0.00059945
     atom   15 type  1   force =    -0.00000000    0.00027962   -0.00059945
     atom   16 type  1   force =     0.00000000   -0.00027962    0.00059945
     atom   17 type  1   force =     0.00000000    0.00052152    0.00047581
     atom   18 type  1   force =     0.00000000   -0.00052152   -0.00047581
     atom   19 type  1   force =    -0.00000000   -0.00052152    0.00047581
     atom   20 type  1   force =    -0.00000000    0.00052152   -0.00047581
     The non-local contrib.  to forces
     atom    1 type  2   force =     0.00000000   -0.00020430    0.00422835
     atom    2 type  2   force =     0.00000000    0.00020430   -0.00422835
     atom    3 type  2   force =     0.00000000    0.00020430    0.00422835
     atom    4 type  2   force =     0.00000000   -0.00020430   -0.00422835
     atom    5 type  3   force =     0.00000000    0.02260179   -0.02197739
     atom    6 type  3   force =    -0.00000000   -0.02260179    0.02197739
     atom    7 type  3   force =     0.00000000   -0.02260179   -0.02197739
     atom    8 type  3   force =     0.00000000    0.02260179    0.02197739
     atom    9 type  1   force =    -0.00000000    0.00477682   -0.01132128
     atom   10 type  1   force =    -0.00000000   -0.00477682    0.01132128
     atom   11 type  1   force =     0.00000000   -0.00477682   -0.01132128
     atom   12 type  1   force =     0.00000000    0.00477682    0.01132128
     atom   13 type  1   force =     0.00000000   -0.04535073   -0.00404173
     atom   14 type  1   force =     0.00000000    0.04535073    0.00404173
     atom   15 type  1   force =     0.00000000    0.04535073   -0.00404173
     atom   16 type  1   force =     0.00000000   -0.04535073    0.00404173
     atom   17 type  1   force =    -0.00000000    0.04211443    0.06870519
     atom   18 type  1   force =    -0.00000000   -0.04211443   -0.06870519
     atom   19 type  1   force =     0.00000000   -0.04211443    0.06870519
     atom   20 type  1   force =     0.00000000    0.04211443   -0.06870519
     The ionic contribution  to forces
     atom    1 type  2   force =     0.00000000    0.34764277    0.04142312
     atom    2 type  2   force =    -0.00000000   -0.34764277   -0.04142312
     atom    3 type  2   force =    -0.00000000   -0.34764277    0.04142312
     atom    4 type  2   force =     0.00000000    0.34764277   -0.04142312
     atom    5 type  3   force =     0.00000000   -2.64662519    1.16072247
     atom    6 type  3   force =    -0.00000000    2.64662519   -1.16072247
     atom    7 type  3   force =    -0.00000000    2.64662519    1.16072247
     atom    8 type  3   force =    -0.00000000   -2.64662519   -1.16072247
     atom    9 type  1   force =     0.00000000   -1.62135040    3.60601944
     atom   10 type  1   force =    -0.00000000    1.62135040   -3.60601944
     atom   11 type  1   force =    -0.00000000    1.62135040    3.60601944
     atom   12 type  1   force =    -0.00000000   -1.62135040   -3.60601944
     atom   13 type  1   force =     0.00000000    3.62061453   -2.22180746
     atom   14 type  1   force =    -0.00000000   -3.62061453    2.22180746
     atom   15 type  1   force =    -0.00000000   -3.62061453   -2.22180746
     atom   16 type  1   force =     0.00000000    3.62061453    2.22180746
     atom   17 type  1   force =    -0.00000000   -2.92871943   -4.80250054
     atom   18 type  1   force =    -0.00000000    2.92871943    4.80250054
     atom   19 type  1   force =    -0.00000000    2.92871943   -4.80250054
     atom   20 type  1   force =    -0.00000000   -2.92871943    4.80250054
     The local contribution  to forces
     atom    1 type  2   force =     0.00000000   -0.34847035   -0.04598580
     atom    2 type  2   force =    -0.00000000    0.34847035    0.04598580
     atom    3 type  2   force =    -0.00000000    0.34847035   -0.04598580
     atom    4 type  2   force =     0.00000000   -0.34847035    0.04598580
     atom    5 type  3   force =    -0.00000000    2.62443542   -1.13859861
     atom    6 type  3   force =    -0.00000000   -2.62443542    1.13859861
     atom    7 type  3   force =     0.00000000   -2.62443542   -1.13859861
     atom    8 type  3   force =    -0.00000000    2.62443542    1.13859861
     atom    9 type  1   force =    -0.00000000    1.61710867   -3.59538442
     atom   10 type  1   force =     0.00000000   -1.61710867    3.59538442
     atom   11 type  1   force =     0.00000000   -1.61710867   -3.59538442
     atom   12 type  1   force =    -0.00000000    1.61710867    3.59538442
     atom   13 type  1   force =     0.00000000   -3.57769907    2.22473185
     atom   14 type  1   force =    -0.00000000    3.57769907   -2.22473185
     atom   15 type  1   force =    -0.00000000    3.57769907    2.22473185
     atom   16 type  1   force =     0.00000000   -3.57769907   -2.22473185
     atom   17 type  1   force =     0.00000000    2.88912497    4.73769325
     atom   18 type  1   force =     0.00000000   -2.88912497   -4.73769325
     atom   19 type  1   force =    -0.00000000   -2.88912497    4.73769325
     atom   20 type  1   force =     0.00000000    2.88912497   -4.73769325
     The core correction contribution to forces
     atom    1 type  2   force =     0.00000000    0.00012598   -0.00016616
     atom    2 type  2   force =    -0.00000000   -0.00012598    0.00016616
     atom    3 type  2   force =    -0.00000000   -0.00012598   -0.00016616
     atom    4 type  2   force =     0.00000000    0.00012598    0.00016616
     atom    5 type  3   force =    -0.00000000   -0.00072118   -0.00026797
     atom    6 type  3   force =     0.00000000    0.00072118    0.00026797
     atom    7 type  3   force =     0.00000000    0.00072118   -0.00026797
     atom    8 type  3   force =    -0.00000000   -0.00072118    0.00026797
     atom    9 type  1   force =     0.00000000    0.00003085   -0.00004021
     atom   10 type  1   force =    -0.00000000   -0.00003085    0.00004021
     atom   11 type  1   force =     0.00000000   -0.00003085   -0.00004021
     atom   12 type  1   force =     0.00000000    0.00003085    0.00004021
     atom   13 type  1   force =    -0.00000000    0.00215694    0.00051712
     atom   14 type  1   force =     0.00000000   -0.00215694   -0.00051712
     atom   15 type  1   force =     0.00000000   -0.00215694    0.00051712
     atom   16 type  1   force =    -0.00000000    0.00215694   -0.00051712
     atom   17 type  1   force =     0.00000000   -0.00199911   -0.00342412
     atom   18 type  1   force =     0.00000000    0.00199911    0.00342412
     atom   19 type  1   force =     0.00000000    0.00199911   -0.00342412
     atom   20 type  1   force =     0.00000000   -0.00199911    0.00342412
     The Hubbard contrib.    to forces
     atom    1 type  2   force =     0.00000000    0.00000000    0.00000000
     atom    2 type  2   force =     0.00000000    0.00000000    0.00000000
     atom    3 type  2   force =     0.00000000    0.00000000    0.00000000
     atom    4 type  2   force =     0.00000000    0.00000000    0.00000000
     atom    5 type  3   force =     0.00000000    0.00000000    0.00000000
     atom    6 type  3   force =     0.00000000    0.00000000    0.00000000
     atom    7 type  3   force =     0.00000000    0.00000000    0.00000000
     atom    8 type  3   force =     0.00000000    0.00000000    0.00000000
     atom    9 type  1   force =     0.00000000    0.00000000    0.00000000
     atom   10 type  1   force =     0.00000000    0.00000000    0.00000000
     atom   11 type  1   force =     0.00000000    0.00000000    0.00000000
     atom   12 type  1   force =     0.00000000    0.00000000    0.00000000
     atom   13 type  1   force =     0.00000000    0.00000000    0.00000000
     atom   14 type  1   force =     0.00000000    0.00000000    0.00000000
     atom   15 type  1   force =     0.00000000    0.00000000    0.00000000
     atom   16 type  1   force =     0.00000000    0.00000000    0.00000000
     atom   17 type  1   force =     0.00000000    0.00000000    0.00000000
     atom   18 type  1   force =     0.00000000    0.00000000    0.00000000
     atom   19 type  1   force =     0.00000000    0.00000000    0.00000000
     atom   20 type  1   force =     0.00000000    0.00000000    0.00000000
     The SCF correction term to forces
     atom    1 type  2   force =    -0.00000000    0.00000025    0.00000076
     atom    2 type  2   force =     0.00000000   -0.00000025   -0.00000076
     atom    3 type  2   force =    -0.00000000   -0.00000025    0.00000076
     atom    4 type  2   force =    -0.00000000    0.00000025   -0.00000076
     atom    5 type  3   force =    -0.00000000    0.00000124   -0.00000116
     atom    6 type  3   force =     0.00000000   -0.00000124    0.00000116
     atom    7 type  3   force =    -0.00000000   -0.00000124   -0.00000116
     atom    8 type  3   force =     0.00000000    0.00000124    0.00000116
     atom    9 type  1   force =    -0.00000000    0.00000059   -0.00000125
     atom   10 type  1   force =     0.00000000   -0.00000059    0.00000125
     atom   11 type  1   force =     0.00000000   -0.00000059   -0.00000125
     atom   12 type  1   force =    -0.00000000    0.00000059    0.00000125
     atom   13 type  1   force =     0.00000000   -0.00000128    0.00000077
     atom   14 type  1   force =    -0.00000000    0.00000128   -0.00000077
     atom   15 type  1   force =     0.00000000    0.00000128    0.00000077
     atom   16 type  1   force =    -0.00000000   -0.00000128   -0.00000077
     atom   17 type  1   force =     0.00000000    0.00000066    0.00000202
     atom   18 type  1   force =    -0.00000000   -0.00000066   -0.00000202
     atom   19 type  1   force =     0.00000000   -0.00000066    0.00000202
     atom   20 type  1   force =    -0.00000000    0.00000066   -0.00000202

     Total force =     0.003445     Total SCF correction =     0.000007


     Computing stress (Cartesian axis) and pressure


     negative rho (up, down):  5.165E-01 0.000E+00
          total   stress  (Ry/bohr**3)                   (kbar)     P=       -0.34
  -0.00000528   0.00000000   0.00000000           -0.78        0.00        0.00
   0.00000000   0.00000104   0.00000000            0.00        0.15        0.00
   0.00000000   0.00000000  -0.00000265            0.00        0.00       -0.39

     kinetic stress (kbar)   8943.42      0.00      0.00
                                0.00   8971.19      0.00
                                0.00      0.00   8990.47

     local   stress (kbar)  -7786.93     -0.00     -0.00
                               -0.00  -4281.81     -0.00
                               -0.00     -0.00  -4002.24

     nonloc. stress (kbar)   7385.82      0.00      0.00
                                0.00   7382.28      0.00
                                0.00      0.00   7387.69

     hartree stress (kbar)   3484.83      0.00      0.00
                                0.00   2106.18      0.00
                                0.00      0.00   1814.81

     exc-cor stress (kbar)   2576.75      0.00      0.00
                                0.00   2574.60     -0.00
                                0.00     -0.00   2577.24

     corecor stress (kbar)  -5271.68     -0.00     -0.00
                               -0.00  -5271.60      0.00
                               -0.00      0.00  -5272.31

     ewald   stress (kbar)  -9332.99      0.00      0.00
                                0.00 -11480.69      0.00
                                0.00      0.00 -11496.05

     hubbard stress (kbar)      0.00      0.00      0.00
                                0.00      0.00      0.00
                                0.00      0.00      0.00

     DFT-D   stress (kbar)      0.00      0.00      0.00
                                0.00      0.00      0.00
                                0.00      0.00      0.00

     XDM     stress (kbar)      0.00      0.00      0.00
                                0.00      0.00      0.00
                                0.00      0.00      0.00

     dft-nl  stress (kbar)      0.00      0.00      0.00
                                0.00      0.00      0.00
                                0.00      0.00      0.00

     TS-vdW  stress (kbar)      0.00      0.00      0.00
                                0.00      0.00      0.00
                                0.00      0.00      0.00

     MDB     stress (kbar)      0.00      0.00      0.00
                                0.00      0.00      0.00
                                0.00      0.00      0.00

     3D-RISM stress (kbar)      0.00      0.00      0.00
                                0.00      0.00      0.00
                                0.00      0.00      0.00

     Energy error            =      1.7E-05 Ry
     Gradient error          =      9.1E-04 Ry/Bohr
     Cell gradient error     =      7.8E-01 kbar

     number of scf cycles    =   4
     number of bfgs steps    =   3

     enthalpy           old  =    -969.0398928422 Ry
     enthalpy           new  =    -969.0399094270 Ry

     CASE: enthalpy          _new < enthalpy          _old

     new trust radius        =       0.0044462367 bohr
     new conv_thr            =            1.0E-10 Ry

     new unit-cell volume =   3127.91536 a.u.^3 (   463.50923 Ang^3 )
     density =      3.94135 g/cm^3

CELL_PARAMETERS (angstrom)
   3.842151388   0.000000000   0.000000000
  -0.000000000   8.603760415   0.000000000
   0.000000000   0.000000000  14.021536600

ATOMIC_POSITIONS (crystal)
Sr               0.2500000000        0.0658579106        0.8204911132
Sr               0.7500000000        0.9341420894        0.1795088868
Sr               0.7500000000        0.4341420894        0.3204911132
Sr               0.2500000000        0.5658579106        0.6795088868
Zr               0.2500000000        0.3278734638        0.0569511586
Zr               0.7500000000        0.6721265362        0.9430488414
Zr               0.7500000000        0.1721265362        0.5569511586
Zr               0.2500000000        0.8278734638        0.4430488414
S                0.2500000000        0.2067130376        0.2157774248
S                0.7500000000        0.7932869624        0.7842225752
S                0.7500000000        0.2932869624        0.7157774248
S                0.2500000000        0.7067130376        0.2842225752
S                0.2500000000        0.3366010064        0.4859294366
S                0.7500000000        0.6633989936        0.5140705634
S                0.7500000000        0.1633989936        0.9859294366
S                0.2500000000        0.8366010064        0.0140705634
S                0.2500000000        0.4848264228        0.8941444176
S                0.7500000000        0.5151735772        0.1058555824
S                0.7500000000        0.0151735772        0.3941444176
S                0.2500000000        0.9848264228        0.6058555824



     Writing config-only to output data dir ./tmp/relax/SrZrS3_relax.save/ :
     XML data file
     NEW-OLD atomic charge density approx. for the potential
     New effective cutoffs (rho, wfc):  399.53   49.95

     negative rho (up, down):  5.165E-01 0.000E+00

     total cpu time spent up to now is      781.5 secs

     Self-consistent Calculation

     iteration #  1     ecut=    50.00 Ry     beta= 0.30
     Davidson diagonalization with overlap

---- Real-time Memory Report at c_bands before calling an iterative solver
             0 MiB given to the printing process from OS
             0 MiB allocation reported by mallinfo(arena+hblkhd)
             0 MiB available memory on the node where the printing process lives
------------------
     ethr =  1.00E-06,  avg # of iterations =  3.0

     Threshold (ethr) on eigenvalues was too large:
     Diagonalizing with lowered threshold

     Davidson diagonalization with overlap

---- Real-time Memory Report at c_bands before calling an iterative solver
             0 MiB given to the printing process from OS
             0 MiB allocation reported by mallinfo(arena+hblkhd)
             0 MiB available memory on the node where the printing process lives
------------------
     ethr =  2.45E-09,  avg # of iterations =  8.7

     negative rho (up, down):  5.165E-01 0.000E+00

     total cpu time spent up to now is      799.1 secs

     total energy              =    -969.03993827 Ry
     estimated scf accuracy    <       0.00000191 Ry

     iteration #  2     ecut=    50.00 Ry     beta= 0.30
     Davidson diagonalization with overlap

---- Real-time Memory Report at c_bands before calling an iterative solver
             0 MiB given to the printing process from OS
             0 MiB allocation reported by mallinfo(arena+hblkhd)
             0 MiB available memory on the node where the printing process lives
------------------
     ethr =  1.19E-09,  avg # of iterations =  2.4

     negative rho (up, down):  5.165E-01 0.000E+00

     total cpu time spent up to now is      804.0 secs

     total energy              =    -969.03993833 Ry
     estimated scf accuracy    <       0.00000058 Ry

     iteration #  3     ecut=    50.00 Ry     beta= 0.30
     Davidson diagonalization with overlap

---- Real-time Memory Report at c_bands before calling an iterative solver
             0 MiB given to the printing process from OS
             0 MiB allocation reported by mallinfo(arena+hblkhd)
             0 MiB available memory on the node where the printing process lives
------------------
     ethr =  3.64E-10,  avg # of iterations =  4.6

     negative rho (up, down):  5.165E-01 0.000E+00

     total cpu time spent up to now is      810.0 secs

     total energy              =    -969.03993845 Ry
     estimated scf accuracy    <       0.00000010 Ry

     iteration #  4     ecut=    50.00 Ry     beta= 0.30
     Davidson diagonalization with overlap

---- Real-time Memory Report at c_bands before calling an iterative solver
             0 MiB given to the printing process from OS
             0 MiB allocation reported by mallinfo(arena+hblkhd)
             0 MiB available memory on the node where the printing process lives
------------------
     ethr =  6.24E-11,  avg # of iterations =  4.6

     negative rho (up, down):  5.165E-01 0.000E+00

     total cpu time spent up to now is      816.1 secs

     total energy              =    -969.03993848 Ry
     estimated scf accuracy    <       0.00000003 Ry

     iteration #  5     ecut=    50.00 Ry     beta= 0.30
     Davidson diagonalization with overlap

---- Real-time Memory Report at c_bands before calling an iterative solver
             0 MiB given to the printing process from OS
             0 MiB allocation reported by mallinfo(arena+hblkhd)
             0 MiB available memory on the node where the printing process lives
------------------
     ethr =  1.59E-11,  avg # of iterations =  3.9

     negative rho (up, down):  5.165E-01 0.000E+00

     total cpu time spent up to now is      821.7 secs

     total energy              =    -969.03993849 Ry
     estimated scf accuracy    <          3.9E-09 Ry

     iteration #  6     ecut=    50.00 Ry     beta= 0.30
     Davidson diagonalization with overlap

---- Real-time Memory Report at c_bands before calling an iterative solver
             0 MiB given to the printing process from OS
             0 MiB allocation reported by mallinfo(arena+hblkhd)
             0 MiB available memory on the node where the printing process lives
------------------
     ethr =  2.43E-12,  avg # of iterations =  5.6

     negative rho (up, down):  5.165E-01 0.000E+00

     total cpu time spent up to now is      829.3 secs

     total energy              =    -969.03993849 Ry
     estimated scf accuracy    <          2.3E-09 Ry

     iteration #  7     ecut=    50.00 Ry     beta= 0.30
     Davidson diagonalization with overlap

---- Real-time Memory Report at c_bands before calling an iterative solver
             0 MiB given to the printing process from OS
             0 MiB allocation reported by mallinfo(arena+hblkhd)
             0 MiB available memory on the node where the printing process lives
------------------
     ethr =  1.44E-12,  avg # of iterations =  6.6

     negative rho (up, down):  5.165E-01 0.000E+00

     total cpu time spent up to now is      837.3 secs

     total energy              =    -969.03993849 Ry
     estimated scf accuracy    <          4.9E-09 Ry

     iteration #  8     ecut=    50.00 Ry     beta= 0.30
     Davidson diagonalization with overlap

---- Real-time Memory Report at c_bands before calling an iterative solver
             0 MiB given to the printing process from OS
             0 MiB allocation reported by mallinfo(arena+hblkhd)
             0 MiB available memory on the node where the printing process lives
------------------
     ethr =  1.44E-12,  avg # of iterations =  5.5

     negative rho (up, down):  5.165E-01 0.000E+00

     total cpu time spent up to now is      843.7 secs

     End of self-consistent calculation

          k = 0.0000 0.0000 0.0000 ( 18571 PWs)   bands (ev):

   -41.4002 -41.4002 -41.3957 -41.3957 -26.6440 -26.6438 -26.6424 -26.6422
   -19.4878 -19.4878 -19.4543 -19.4543 -19.4071 -19.4071 -19.3796 -19.3796
   -19.3618 -19.3618 -19.3454 -19.3454  -8.7455  -8.7390  -8.7366  -8.7280
    -8.7155  -8.6911  -8.6370  -8.6365  -8.5788  -8.5780  -8.5724  -8.5714
    -4.8698  -4.6392  -4.0908  -4.0371  -3.8005  -3.7045  -3.6671  -3.6607
    -3.5308  -3.4363  -3.3828  -3.3085   3.6532   3.8826   3.9260   3.9540
     3.9808   4.1760   4.2972   4.5540   4.7685   4.7693   4.7993   4.8403
     4.8875   4.9210   4.9327   5.4418   5.6675   5.6869   5.7313   5.9284
     5.9312   5.9849   6.2870   6.3102   6.5052   6.5748   6.6517   6.6878
     6.7602   6.8514   6.9592   7.1284   7.4590   7.4750   7.6881   7.8904

     occupation numbers 
     1.0000   1.0000   1.0000   1.0000   1.0000   1.0000   1.0000   1.0000
     1.0000   1.0000   1.0000   1.0000   1.0000   1.0000   1.0000   1.0000
     1.0000   1.0000   1.0000   1.0000   1.0000   1.0000   1.0000   1.0000
     1.0000   1.0000   1.0000   1.0000   1.0000   1.0000   1.0000   1.0000
     1.0000   1.0000   1.0000   1.0000   1.0000   1.0000   1.0000   1.0000
     1.0000   1.0000   1.0000   1.0000   1.0000   1.0000   1.0000   1.0000
     1.0000   1.0000   1.0000   1.0000   1.0000   1.0000   1.0000   1.0000
     1.0000   1.0000   1.0000   1.0000   1.0000   1.0000   1.0000   1.0000
     1.0000   1.0000   1.0000   1.0000   1.0000   1.0000   1.0000   1.0000
     1.0000   1.0000   1.0000   1.0000   1.0000   1.0000   1.0000   1.0000

          k = 0.0000 0.0000-0.1369 ( 18560 PWs)   bands (ev):

   -41.4002 -41.4002 -41.3957 -41.3957 -26.6439 -26.6439 -26.6423 -26.6423
   -19.4878 -19.4878 -19.4543 -19.4543 -19.4071 -19.4071 -19.3796 -19.3796
   -19.3618 -19.3618 -19.3454 -19.3454  -8.7420  -8.7420  -8.7341  -8.7341
    -8.7017  -8.7017  -8.6367  -8.6367  -8.5784  -8.5784  -8.5719  -8.5719
    -4.7692  -4.7692  -4.0477  -4.0477  -3.7513  -3.7513  -3.6505  -3.6505
    -3.5125  -3.5125  -3.3330  -3.3330   3.7401   3.7401   3.9502   3.9502
     4.0700   4.0700   4.5218   4.5218   4.7839   4.7839   4.8393   4.8393
     4.9111   4.9111   4.9270   4.9270   5.5532   5.5532   5.9576   5.9576
     6.1752   6.1752   6.3054   6.3054   6.6420   6.6420   6.6976   6.6976
     6.7086   6.7086   7.0473   7.0473   7.3255   7.3255   7.7850   7.7850

     occupation numbers 
     1.0000   1.0000   1.0000   1.0000   1.0000   1.0000   1.0000   1.0000
     1.0000   1.0000   1.0000   1.0000   1.0000   1.0000   1.0000   1.0000
     1.0000   1.0000   1.0000   1.0000   1.0000   1.0000   1.0000   1.0000
     1.0000   1.0000   1.0000   1.0000   1.0000   1.0000   1.0000   1.0000
     1.0000   1.0000   1.0000   1.0000   1.0000   1.0000   1.0000   1.0000
     1.0000   1.0000   1.0000   1.0000   1.0000   1.0000   1.0000   1.0000
     1.0000   1.0000   1.0000   1.0000   1.0000   1.0000   1.0000   1.0000
     1.0000   1.0000   1.0000   1.0000   1.0000   1.0000   1.0000   1.0000
     1.0000   1.0000   1.0000   1.0000   1.0000   1.0000   1.0000   1.0000
     1.0000   1.0000   1.0000   1.0000   1.0000   1.0000   1.0000   1.0000

          k = 0.0000 0.1488 0.0000 ( 18580 PWs)   bands (ev):

   -41.4002 -41.4002 -41.3957 -41.3957 -26.6436 -26.6434 -26.6428 -26.6426
   -19.4875 -19.4875 -19.4545 -19.4545 -19.4071 -19.4070 -19.3797 -19.3796
   -19.3618 -19.3618 -19.3454 -19.3454  -8.7519  -8.7433  -8.7315  -8.7204
    -8.6993  -8.6777  -8.6583  -8.6494  -8.5772  -8.5763  -8.5740  -8.5731
    -4.7503  -4.6002  -4.1961  -4.1541  -3.9324  -3.9096  -3.5373  -3.4916
    -3.4496  -3.4255  -3.3376  -3.3266   3.4687   3.6040   3.7453   3.7698
     4.1042   4.2463   4.3701   4.7606   4.7839   4.8977   4.9015   4.9159
     4.9160   5.1545   5.2494   5.2920   5.5576   5.6381   5.8148   6.0511
     6.1120   6.1185   6.1393   6.3393   6.5093   6.5601   6.7209   6.7923
     6.8152   6.8733   6.9422   7.0889   7.1694   7.2484   7.3261   7.3802

     occupation numbers 
     1.0000   1.0000   1.0000   1.0000   1.0000   1.0000   1.0000   1.0000
     1.0000   1.0000   1.0000   1.0000   1.0000   1.0000   1.0000   1.0000
     1.0000   1.0000   1.0000   1.0000   1.0000   1.0000   1.0000   1.0000
     1.0000   1.0000   1.0000   1.0000   1.0000   1.0000   1.0000   1.0000
     1.0000   1.0000   1.0000   1.0000   1.0000   1.0000   1.0000   1.0000
     1.0000   1.0000   1.0000   1.0000   1.0000   1.0000   1.0000   1.0000
     1.0000   1.0000   1.0000   1.0000   1.0000   1.0000   1.0000   1.0000
     1.0000   1.0000   1.0000   1.0000   1.0000   1.0000   1.0000   1.0000
     1.0000   1.0000   1.0000   1.0000   1.0000   1.0000   1.0000   1.0000
     1.0000   1.0000   1.0000   1.0000   1.0000   1.0000   1.0000   1.0000

          k = 0.0000 0.1488-0.1369 ( 18590 PWs)   bands (ev):

   -41.4002 -41.4002 -41.3957 -41.3957 -26.6435 -26.6435 -26.6427 -26.6427
   -19.4875 -19.4875 -19.4545 -19.4545 -19.4071 -19.4071 -19.3796 -19.3796
   -19.3618 -19.3618 -19.3454 -19.3454  -8.7447  -8.7447  -8.7309  -8.7309
    -8.6873  -8.6873  -8.6530  -8.6530  -8.5768  -8.5768  -8.5735  -8.5735
    -4.6771  -4.6771  -4.1934  -4.1934  -3.8945  -3.8945  -3.5303  -3.5303
    -3.3996  -3.3996  -3.3606  -3.3606   3.5311   3.5311   3.7347   3.7347
     4.2040   4.2040   4.6722   4.6722   4.7731   4.7731   4.8574   4.8574
     4.9054   4.9054   5.4122   5.4122   5.5557   5.5557   5.9445   5.9445
     6.1291   6.1291   6.3497   6.3497   6.5356   6.5356   6.7200   6.7200
     6.7617   6.7617   7.0018   7.0018   7.1730   7.1730   7.4230   7.4230

     occupation numbers 
     1.0000   1.0000   1.0000   1.0000   1.0000   1.0000   1.0000   1.0000
     1.0000   1.0000   1.0000   1.0000   1.0000   1.0000   1.0000   1.0000
     1.0000   1.0000   1.0000   1.0000   1.0000   1.0000   1.0000   1.0000
     1.0000   1.0000   1.0000   1.0000   1.0000   1.0000   1.0000   1.0000
     1.0000   1.0000   1.0000   1.0000   1.0000   1.0000   1.0000   1.0000
     1.0000   1.0000   1.0000   1.0000   1.0000   1.0000   1.0000   1.0000
     1.0000   1.0000   1.0000   1.0000   1.0000   1.0000   1.0000   1.0000
     1.0000   1.0000   1.0000   1.0000   1.0000   1.0000   1.0000   1.0000
     1.0000   1.0000   1.0000   1.0000   1.0000   1.0000   1.0000   1.0000
     1.0000   1.0000   1.0000   1.0000   1.0000   1.0000   1.0000   1.0000

          k = 0.1666 0.0000 0.0000 ( 18537 PWs)   bands (ev):

   -41.3986 -41.3986 -41.3947 -41.3947 -26.6390 -26.6388 -26.6374 -26.6373
   -19.4799 -19.4799 -19.4491 -19.4491 -19.4063 -19.4062 -19.3976 -19.3976
   -19.3739 -19.3739 -19.3731 -19.3731  -8.7205  -8.7178  -8.7173  -8.7063
    -8.7008  -8.6770  -8.6757  -8.6730  -8.6575  -8.6557  -8.6248  -8.6241
    -4.6831  -4.4810  -3.9989  -3.9527  -3.8219  -3.7397  -3.6761  -3.6468
    -3.4910  -3.3809  -3.3732  -3.3267   3.8054   3.8943   4.0571   4.0787
     4.1052   4.2135   4.2961   4.3384   4.4330   4.4351   4.6287   5.0442
     5.1519   5.2585   5.3806   5.4341   5.4874   5.5462   5.6516   5.7305
     5.7662   5.8227   5.8658   6.1347   6.1452   6.2651   6.3181   6.4406
     6.4635   6.6558   6.6569   6.8742   6.9663   7.2656   7.4044   7.4869

     occupation numbers 
     1.0000   1.0000   1.0000   1.0000   1.0000   1.0000   1.0000   1.0000
     1.0000   1.0000   1.0000   1.0000   1.0000   1.0000   1.0000   1.0000
     1.0000   1.0000   1.0000   1.0000   1.0000   1.0000   1.0000   1.0000
     1.0000   1.0000   1.0000   1.0000   1.0000   1.0000   1.0000   1.0000
     1.0000   1.0000   1.0000   1.0000   1.0000   1.0000   1.0000   1.0000
     1.0000   1.0000   1.0000   1.0000   1.0000   1.0000   1.0000   1.0000
     1.0000   1.0000   1.0000   1.0000   1.0000   1.0000   1.0000   1.0000
     1.0000   1.0000   1.0000   1.0000   1.0000   1.0000   1.0000   1.0000
     1.0000   1.0000   1.0000   1.0000   1.0000   1.0000   1.0000   1.0000
     1.0000   1.0000   1.0000   1.0000   1.0000   1.0000   1.0000   1.0000

          k = 0.1666 0.0000-0.1369 ( 18576 PWs)   bands (ev):

   -41.3986 -41.3986 -41.3947 -41.3947 -26.6389 -26.6389 -26.6373 -26.6373
   -19.4799 -19.4799 -19.4491 -19.4491 -19.4063 -19.4063 -19.3976 -19.3976
   -19.3739 -19.3739 -19.3731 -19.3731  -8.7183  -8.7183  -8.7145  -8.7145
    -8.6889  -8.6889  -8.6725  -8.6725  -8.6567  -8.6567  -8.6245  -8.6245
    -4.5946  -4.5946  -3.9638  -3.9638  -3.7771  -3.7771  -3.6610  -3.6610
    -3.4493  -3.4493  -3.3402  -3.3402   3.8403   3.8403   4.0493   4.0493
     4.1610   4.1610   4.3066   4.3066   4.5324   4.5324   4.7543   4.7543
     5.1944   5.1944   5.3839   5.3839   5.5002   5.5002   5.6627   5.6627
     5.8236   5.8236   6.0773   6.0773   6.2655   6.2655   6.3650   6.3650
     6.5151   6.5151   6.6859   6.6859   7.1935   7.1935   7.4493   7.4493

     occupation numbers 
     1.0000   1.0000   1.0000   1.0000   1.0000   1.0000   1.0000   1.0000
     1.0000   1.0000   1.0000   1.0000   1.0000   1.0000   1.0000   1.0000
     1.0000   1.0000   1.0000   1.0000   1.0000   1.0000   1.0000   1.0000
     1.0000   1.0000   1.0000   1.0000   1.0000   1.0000   1.0000   1.0000
     1.0000   1.0000   1.0000   1.0000   1.0000   1.0000   1.0000   1.0000
     1.0000   1.0000   1.0000   1.0000   1.0000   1.0000   1.0000   1.0000
     1.0000   1.0000   1.0000   1.0000   1.0000   1.0000   1.0000   1.0000
     1.0000   1.0000   1.0000   1.0000   1.0000   1.0000   1.0000   1.0000
     1.0000   1.0000   1.0000   1.0000   1.0000   1.0000   1.0000   1.0000
     1.0000   1.0000   1.0000   1.0000   1.0000   1.0000   1.0000   1.0000

          k = 0.1666 0.1488 0.0000 ( 18591 PWs)   bands (ev):

   -41.3986 -41.3986 -41.3948 -41.3948 -26.6386 -26.6384 -26.6378 -26.6376
   -19.4798 -19.4798 -19.4493 -19.4493 -19.4062 -19.4062 -19.3976 -19.3976
   -19.3739 -19.3738 -19.3731 -19.3731  -8.7283  -8.7226  -8.7114  -8.7043
    -8.6868  -8.6751  -8.6702  -8.6681  -8.6566  -8.6547  -8.6388  -8.6352
    -4.5840  -4.4553  -4.0711  -4.0351  -3.9276  -3.9049  -3.5234  -3.4936
    -3.4724  -3.4257  -3.3360  -3.3360   3.7199   3.8223   3.9172   3.9342
     4.1526   4.2351   4.3418   4.5200   4.5456   4.5864   4.8052   4.9591
     5.0364   5.1261   5.3379   5.3693   5.4399   5.5847   5.5881   5.6245
     5.7747   5.9319   6.0122   6.0309   6.1463   6.1959   6.4211   6.4933
     6.6103   6.6561   6.7550   6.8998   7.1013   7.2416   7.3507   7.3814

     occupation numbers 
     1.0000   1.0000   1.0000   1.0000   1.0000   1.0000   1.0000   1.0000
     1.0000   1.0000   1.0000   1.0000   1.0000   1.0000   1.0000   1.0000
     1.0000   1.0000   1.0000   1.0000   1.0000   1.0000   1.0000   1.0000
     1.0000   1.0000   1.0000   1.0000   1.0000   1.0000   1.0000   1.0000
     1.0000   1.0000   1.0000   1.0000   1.0000   1.0000   1.0000   1.0000
     1.0000   1.0000   1.0000   1.0000   1.0000   1.0000   1.0000   1.0000
     1.0000   1.0000   1.0000   1.0000   1.0000   1.0000   1.0000   1.0000
     1.0000   1.0000   1.0000   1.0000   1.0000   1.0000   1.0000   1.0000
     1.0000   1.0000   1.0000   1.0000   1.0000   1.0000   1.0000   1.0000
     1.0000   1.0000   1.0000   1.0000   1.0000   1.0000   1.0000   1.0000

          k = 0.1666 0.1488-0.1369 ( 18560 PWs)   bands (ev):

   -41.3986 -41.3986 -41.3948 -41.3948 -26.6385 -26.6385 -26.6377 -26.6377
   -19.4798 -19.4798 -19.4493 -19.4493 -19.4062 -19.4062 -19.3976 -19.3976
   -19.3739 -19.3739 -19.3731 -19.3731  -8.7230  -8.7230  -8.7119  -8.7119
    -8.6790  -8.6790  -8.6698  -8.6698  -8.6556  -8.6556  -8.6369  -8.6369
    -4.5206  -4.5206  -4.0760  -4.0760  -3.8909  -3.8909  -3.5222  -3.5222
    -3.4083  -3.4083  -3.3646  -3.3646   3.7461   3.7461   3.8962   3.8962
     4.2759   4.2759   4.4433   4.4433   4.6232   4.6232   4.8040   4.8040
     5.0182   5.0182   5.3307   5.3307   5.5241   5.5241   5.5863   5.5863
     5.9025   5.9025   6.0347   6.0347   6.2272   6.2272   6.4140   6.4140
     6.6924   6.6924   6.7930   6.7930   7.1584   7.1584   7.3426   7.3426

     occupation numbers 
     1.0000   1.0000   1.0000   1.0000   1.0000   1.0000   1.0000   1.0000
     1.0000   1.0000   1.0000   1.0000   1.0000   1.0000   1.0000   1.0000
     1.0000   1.0000   1.0000   1.0000   1.0000   1.0000   1.0000   1.0000
     1.0000   1.0000   1.0000   1.0000   1.0000   1.0000   1.0000   1.0000
     1.0000   1.0000   1.0000   1.0000   1.0000   1.0000   1.0000   1.0000
     1.0000   1.0000   1.0000   1.0000   1.0000   1.0000   1.0000   1.0000
     1.0000   1.0000   1.0000   1.0000   1.0000   1.0000   1.0000   1.0000
     1.0000   1.0000   1.0000   1.0000   1.0000   1.0000   1.0000   1.0000
     1.0000   1.0000   1.0000   1.0000   1.0000   1.0000   1.0000   1.0000
     1.0000   1.0000   1.0000   1.0000   1.0000   1.0000   1.0000   1.0000

          k = 0.3332 0.0000 0.0000 ( 18620 PWs)   bands (ev):

   -41.3953 -41.3953 -41.3930 -41.3930 -26.6288 -26.6287 -26.6274 -26.6273
   -19.4700 -19.4700 -19.4583 -19.4583 -19.4333 -19.4333 -19.4326 -19.4326
   -19.3918 -19.3917 -19.3802 -19.3802  -8.8604  -8.8599  -8.8237  -8.8230
    -8.6769  -8.6760  -8.6724  -8.6645  -8.6545  -8.6456  -8.6003  -8.5996
    -4.2519  -4.1323  -3.9101  -3.9093  -3.8350  -3.7917  -3.6188  -3.6154
    -3.3764  -3.3590  -3.3584  -3.2645   3.6413   3.8059   3.9673   4.0405
     4.0632   4.1597   4.2879   4.4237   4.5925   4.6729   4.6993   4.7624
     4.8058   4.8135   4.9479   5.1467   5.4145   5.4700   5.5379   5.5742
     5.6703   5.7201   5.7721   5.7832   6.0041   6.2018   6.2445   6.2988
     6.4311   6.4979   6.5332   6.5495   6.6146   6.6392   6.9797   6.9989

     occupation numbers 
     1.0000   1.0000   1.0000   1.0000   1.0000   1.0000   1.0000   1.0000
     1.0000   1.0000   1.0000   1.0000   1.0000   1.0000   1.0000   1.0000
     1.0000   1.0000   1.0000   1.0000   1.0000   1.0000   1.0000   1.0000
     1.0000   1.0000   1.0000   1.0000   1.0000   1.0000   1.0000   1.0000
     1.0000   1.0000   1.0000   1.0000   1.0000   1.0000   1.0000   1.0000
     1.0000   1.0000   1.0000   1.0000   1.0000   1.0000   1.0000   1.0000
     1.0000   1.0000   1.0000   1.0000   1.0000   1.0000   1.0000   1.0000
     1.0000   1.0000   1.0000   1.0000   1.0000   1.0000   1.0000   1.0000
     1.0000   1.0000   1.0000   1.0000   1.0000   1.0000   1.0000   1.0000
     1.0000   1.0000   1.0000   1.0000   1.0000   1.0000   1.0000   1.0000

          k = 0.3332 0.0000-0.1369 ( 18610 PWs)   bands (ev):

   -41.3953 -41.3953 -41.3930 -41.3930 -26.6288 -26.6288 -26.6274 -26.6274
   -19.4700 -19.4700 -19.4583 -19.4583 -19.4333 -19.4333 -19.4326 -19.4326
   -19.3917 -19.3917 -19.3802 -19.3802  -8.8602  -8.8602  -8.8233  -8.8233
    -8.6761  -8.6761  -8.6695  -8.6695  -8.6493  -8.6493  -8.6000  -8.6000
    -4.1977  -4.1977  -3.9101  -3.9101  -3.8092  -3.8092  -3.6158  -3.6158
    -3.3761  -3.3761  -3.3024  -3.3024   3.7682   3.7682   3.8745   3.8745
     4.1144   4.1144   4.4011   4.4011   4.6683   4.6683   4.7722   4.7722
     4.8219   4.8219   5.0583   5.0583   5.3797   5.3797   5.5936   5.5936
     5.7921   5.7921   5.8153   5.8153   5.8967   5.8967   6.1102   6.1102
     6.4415   6.4415   6.6343   6.6343   6.7530   6.7530   7.0071   7.0071

     occupation numbers 
     1.0000   1.0000   1.0000   1.0000   1.0000   1.0000   1.0000   1.0000
     1.0000   1.0000   1.0000   1.0000   1.0000   1.0000   1.0000   1.0000
     1.0000   1.0000   1.0000   1.0000   1.0000   1.0000   1.0000   1.0000
     1.0000   1.0000   1.0000   1.0000   1.0000   1.0000   1.0000   1.0000
     1.0000   1.0000   1.0000   1.0000   1.0000   1.0000   1.0000   1.0000
     1.0000   1.0000   1.0000   1.0000   1.0000   1.0000   1.0000   1.0000
     1.0000   1.0000   1.0000   1.0000   1.0000   1.0000   1.0000   1.0000
     1.0000   1.0000   1.0000   1.0000   1.0000   1.0000   1.0000   1.0000
     1.0000   1.0000   1.0000   1.0000   1.0000   1.0000   1.0000   1.0000
     1.0000   1.0000   1.0000   1.0000   1.0000   1.0000   1.0000   1.0000

          k = 0.3332 0.1488 0.0000 ( 18628 PWs)   bands (ev):

   -41.3953 -41.3953 -41.3930 -41.3930 -26.6285 -26.6284 -26.6278 -26.6277
   -19.4701 -19.4701 -19.4584 -19.4584 -19.4333 -19.4333 -19.4325 -19.4325
   -19.3917 -19.3917 -19.3802 -19.3802  -8.8517  -8.8509  -8.8334  -8.8324
    -8.6815  -8.6795  -8.6708  -8.6672  -8.6373  -8.6316  -8.6118  -8.6093
    -4.2117  -4.1455  -3.9420  -3.9265  -3.8124  -3.8005  -3.6076  -3.6065
    -3.3880  -3.3742  -3.3259  -3.2836   3.7323   3.7722   3.9336   3.9577
     4.2394   4.2761   4.3442   4.4102   4.4699   4.5091   4.6193   4.6520
     4.7474   4.9230   5.1172   5.2585   5.2606   5.2913   5.4098   5.4785
     5.6800   5.6997   5.8010   5.9384   6.0367   6.0399   6.2506   6.2904
     6.3362   6.4022   6.7327   6.7633   6.8595   6.8718   6.9179   7.0227

     occupation numbers 
     1.0000   1.0000   1.0000   1.0000   1.0000   1.0000   1.0000   1.0000
     1.0000   1.0000   1.0000   1.0000   1.0000   1.0000   1.0000   1.0000
     1.0000   1.0000   1.0000   1.0000   1.0000   1.0000   1.0000   1.0000
     1.0000   1.0000   1.0000   1.0000   1.0000   1.0000   1.0000   1.0000
     1.0000   1.0000   1.0000   1.0000   1.0000   1.0000   1.0000   1.0000
     1.0000   1.0000   1.0000   1.0000   1.0000   1.0000   1.0000   1.0000
     1.0000   1.0000   1.0000   1.0000   1.0000   1.0000   1.0000   1.0000
     1.0000   1.0000   1.0000   1.0000   1.0000   1.0000   1.0000   1.0000
     1.0000   1.0000   1.0000   1.0000   1.0000   1.0000   1.0000   1.0000
     1.0000   1.0000   1.0000   1.0000   1.0000   1.0000   1.0000   1.0000

          k = 0.3332 0.1488-0.1369 ( 18596 PWs)   bands (ev):

   -41.3953 -41.3953 -41.3930 -41.3930 -26.6284 -26.6284 -26.6277 -26.6277
   -19.4701 -19.4701 -19.4584 -19.4584 -19.4333 -19.4333 -19.4325 -19.4325
   -19.3917 -19.3917 -19.3802 -19.3802  -8.8513  -8.8513  -8.8329  -8.8329
    -8.6795  -8.6795  -8.6703  -8.6703  -8.6343  -8.6343  -8.6105  -8.6105
    -4.1757  -4.1757  -3.9476  -3.9476  -3.7981  -3.7981  -3.6068  -3.6068
    -3.3688  -3.3688  -3.3152  -3.3152   3.7612   3.7612   3.8822   3.8822
     4.2545   4.2545   4.4061   4.4061   4.5160   4.5160   4.7028   4.7028
     4.8590   4.8590   5.1642   5.1642   5.2733   5.2733   5.3848   5.3848
     5.6599   5.6599   5.7607   5.7607   6.1475   6.1475   6.2483   6.2483
     6.4803   6.4803   6.6481   6.6481   6.8402   6.8402   7.0406   7.0406

     occupation numbers 
     1.0000   1.0000   1.0000   1.0000   1.0000   1.0000   1.0000   1.0000
     1.0000   1.0000   1.0000   1.0000   1.0000   1.0000   1.0000   1.0000
     1.0000   1.0000   1.0000   1.0000   1.0000   1.0000   1.0000   1.0000
     1.0000   1.0000   1.0000   1.0000   1.0000   1.0000   1.0000   1.0000
     1.0000   1.0000   1.0000   1.0000   1.0000   1.0000   1.0000   1.0000
     1.0000   1.0000   1.0000   1.0000   1.0000   1.0000   1.0000   1.0000
     1.0000   1.0000   1.0000   1.0000   1.0000   1.0000   1.0000   1.0000
     1.0000   1.0000   1.0000   1.0000   1.0000   1.0000   1.0000   1.0000
     1.0000   1.0000   1.0000   1.0000   1.0000   1.0000   1.0000   1.0000
     1.0000   1.0000   1.0000   1.0000   1.0000   1.0000   1.0000   1.0000

          k =-0.4997 0.0000 0.0000 ( 18628 PWs)   bands (ev):

   -41.3928 -41.3928 -41.3928 -41.3928 -26.6237 -26.6237 -26.6224 -26.6224
   -19.4841 -19.4841 -19.4840 -19.4840 -19.4337 -19.4337 -19.4336 -19.4336
   -19.3866 -19.3866 -19.3866 -19.3866  -8.9479  -8.9479  -8.9029  -8.9029
    -8.6541  -8.6541  -8.6522  -8.6522  -8.6273  -8.6273  -8.5876  -8.5876
    -3.9732  -3.9732  -3.9711  -3.9711  -3.6743  -3.6743  -3.6618  -3.6618
    -3.3716  -3.3716  -3.2600  -3.2600   3.5599   3.5599   3.7527   3.7527
     4.0548   4.0548   4.3170   4.3170   4.5289   4.5289   4.6183   4.6183
     5.0886   5.0886   5.2362   5.2362   5.2832   5.2832   5.2935   5.2935
     5.5038   5.5038   5.8970   5.8970   5.9848   5.9848   6.0684   6.0684
     6.5803   6.5803   6.6316   6.6316   6.7451   6.7451   6.8169   6.8169

     occupation numbers 
     1.0000   1.0000   1.0000   1.0000   1.0000   1.0000   1.0000   1.0000
     1.0000   1.0000   1.0000   1.0000   1.0000   1.0000   1.0000   1.0000
     1.0000   1.0000   1.0000   1.0000   1.0000   1.0000   1.0000   1.0000
     1.0000   1.0000   1.0000   1.0000   1.0000   1.0000   1.0000   1.0000
     1.0000   1.0000   1.0000   1.0000   1.0000   1.0000   1.0000   1.0000
     1.0000   1.0000   1.0000   1.0000   1.0000   1.0000   1.0000   1.0000
     1.0000   1.0000   1.0000   1.0000   1.0000   1.0000   1.0000   1.0000
     1.0000   1.0000   1.0000   1.0000   1.0000   1.0000   1.0000   1.0000
     1.0000   1.0000   1.0000   1.0000   1.0000   1.0000   1.0000   1.0000
     1.0000   1.0000   1.0000   1.0000   1.0000   1.0000   1.0000   1.0000

          k =-0.4997 0.0000-0.1369 ( 18652 PWs)   bands (ev):

   -41.3928 -41.3928 -41.3928 -41.3928 -26.6237 -26.6237 -26.6224 -26.6224
   -19.4841 -19.4841 -19.4841 -19.4841 -19.4337 -19.4337 -19.4337 -19.4337
   -19.3866 -19.3866 -19.3866 -19.3866  -8.9479  -8.9479  -8.9029  -8.9029
    -8.6541  -8.6541  -8.6522  -8.6522  -8.6273  -8.6273  -8.5876  -8.5876
    -3.9760  -3.9760  -3.9682  -3.9682  -3.6753  -3.6753  -3.6613  -3.6613
    -3.3716  -3.3716  -3.2596  -3.2596   3.5415   3.5415   3.7849   3.7849
     4.0452   4.0452   4.2584   4.2584   4.5736   4.5736   4.7082   4.7082
     5.0037   5.0037   5.0890   5.0890   5.2578   5.2578   5.4218   5.4218
     5.6934   5.6934   5.7139   5.7139   5.9146   5.9146   6.3895   6.3895
     6.4561   6.4561   6.5308   6.5308   6.6946   6.6946   6.8769   6.8769

     occupation numbers 
     1.0000   1.0000   1.0000   1.0000   1.0000   1.0000   1.0000   1.0000
     1.0000   1.0000   1.0000   1.0000   1.0000   1.0000   1.0000   1.0000
     1.0000   1.0000   1.0000   1.0000   1.0000   1.0000   1.0000   1.0000
     1.0000   1.0000   1.0000   1.0000   1.0000   1.0000   1.0000   1.0000
     1.0000   1.0000   1.0000   1.0000   1.0000   1.0000   1.0000   1.0000
     1.0000   1.0000   1.0000   1.0000   1.0000   1.0000   1.0000   1.0000
     1.0000   1.0000   1.0000   1.0000   1.0000   1.0000   1.0000   1.0000
     1.0000   1.0000   1.0000   1.0000   1.0000   1.0000   1.0000   1.0000
     1.0000   1.0000   1.0000   1.0000   1.0000   1.0000   1.0000   1.0000
     1.0000   1.0000   1.0000   1.0000   1.0000   1.0000   1.0000   1.0000

          k =-0.4997 0.1488 0.0000 ( 18590 PWs)   bands (ev):

   -41.3928 -41.3928 -41.3928 -41.3928 -26.6234 -26.6234 -26.6227 -26.6227
   -19.4841 -19.4841 -19.4841 -19.4841 -19.4336 -19.4336 -19.4336 -19.4336
   -19.3866 -19.3866 -19.3866 -19.3866  -8.9368  -8.9368  -8.9143  -8.9143
    -8.6556  -8.6556  -8.6541  -8.6541  -8.6154  -8.6154  -8.5962  -8.5962
    -3.9728  -3.9728  -3.9714  -3.9714  -3.6722  -3.6722  -3.6671  -3.6671
    -3.3408  -3.3408  -3.2858  -3.2858   3.4861   3.4861   3.5462   3.5462
     4.2720   4.2720   4.3945   4.3945   4.6421   4.6421   4.6584   4.6584
     4.9923   4.9923   5.0694   5.0694   5.2931   5.2931   5.3965   5.3965
     5.7158   5.7158   5.7834   5.7834   6.1731   6.1731   6.1806   6.1806
     6.4196   6.4196   6.4214   6.4214   6.6871   6.6871   6.7007   6.7007

     occupation numbers 
     1.0000   1.0000   1.0000   1.0000   1.0000   1.0000   1.0000   1.0000
     1.0000   1.0000   1.0000   1.0000   1.0000   1.0000   1.0000   1.0000
     1.0000   1.0000   1.0000   1.0000   1.0000   1.0000   1.0000   1.0000
     1.0000   1.0000   1.0000   1.0000   1.0000   1.0000   1.0000   1.0000
     1.0000   1.0000   1.0000   1.0000   1.0000   1.0000   1.0000   1.0000
     1.0000   1.0000   1.0000   1.0000   1.0000   1.0000   1.0000   1.0000
     1.0000   1.0000   1.0000   1.0000   1.0000   1.0000   1.0000   1.0000
     1.0000   1.0000   1.0000   1.0000   1.0000   1.0000   1.0000   1.0000
     1.0000   1.0000   1.0000   1.0000   1.0000   1.0000   1.0000   1.0000
     1.0000   1.0000   1.0000   1.0000   1.0000   1.0000   1.0000   1.0000

          k =-0.4997 0.1488-0.1369 ( 18600 PWs)   bands (ev):

   -41.3928 -41.3928 -41.3928 -41.3928 -26.6234 -26.6234 -26.6227 -26.6227
   -19.4841 -19.4841 -19.4841 -19.4841 -19.4336 -19.4336 -19.4336 -19.4336
   -19.3866 -19.3866 -19.3866 -19.3866  -8.9368  -8.9368  -8.9143  -8.9143
    -8.6556  -8.6556  -8.6541  -8.6541  -8.6154  -8.6154  -8.5962  -8.5962
    -3.9740  -3.9740  -3.9702  -3.9702  -3.6738  -3.6738  -3.6659  -3.6659
    -3.3407  -3.3407  -3.2854  -3.2854   3.4643   3.4643   3.5589   3.5589
     4.2628   4.2628   4.4010   4.4010   4.6198   4.6198   4.6414   4.6414
     5.0782   5.0782   5.1861   5.1861   5.3212   5.3212   5.3221   5.3221
     5.7116   5.7116   5.7890   5.7890   5.9650   5.9650   6.0598   6.0598
     6.4372   6.4372   6.4672   6.4672   6.7836   6.7836   6.7891   6.7891

     occupation numbers 
     1.0000   1.0000   1.0000   1.0000   1.0000   1.0000   1.0000   1.0000
     1.0000   1.0000   1.0000   1.0000   1.0000   1.0000   1.0000   1.0000
     1.0000   1.0000   1.0000   1.0000   1.0000   1.0000   1.0000   1.0000
     1.0000   1.0000   1.0000   1.0000   1.0000   1.0000   1.0000   1.0000
     1.0000   1.0000   1.0000   1.0000   1.0000   1.0000   1.0000   1.0000
     1.0000   1.0000   1.0000   1.0000   1.0000   1.0000   1.0000   1.0000
     1.0000   1.0000   1.0000   1.0000   1.0000   1.0000   1.0000   1.0000
     1.0000   1.0000   1.0000   1.0000   1.0000   1.0000   1.0000   1.0000
     1.0000   1.0000   1.0000   1.0000   1.0000   1.0000   1.0000   1.0000
     1.0000   1.0000   1.0000   1.0000   1.0000   1.0000   1.0000   1.0000

     highest occupied level (ev):     7.8904

!    total energy              =    -969.03993849 Ry
     estimated scf accuracy    <          5.8E-11 Ry

     The total energy is the sum of the following terms:
     one-electron contribution =    -193.92681425 Ry
     hartree contribution      =     157.47876236 Ry
     xc contribution           =    -246.04474049 Ry
     ewald contribution        =    -686.54714611 Ry

     convergence has been achieved in   8 iterations

     negative rho (up, down):  5.165E-01 0.000E+00

     Forces acting on atoms (cartesian axes, Ry/au):

     atom    1 type  2   force =     0.00000000   -0.00083470   -0.00039635
     atom    2 type  2   force =    -0.00000000    0.00083470    0.00039635
     atom    3 type  2   force =    -0.00000000    0.00083470   -0.00039635
     atom    4 type  2   force =     0.00000000   -0.00083470    0.00039635
     atom    5 type  3   force =     0.00000000   -0.00048643   -0.00030561
     atom    6 type  3   force =    -0.00000000    0.00048643    0.00030561
     atom    7 type  3   force =     0.00000000    0.00048643   -0.00030561
     atom    8 type  3   force =     0.00000000   -0.00048643    0.00030561
     atom    9 type  1   force =     0.00000000    0.00058361   -0.00069323
     atom   10 type  1   force =     0.00000000   -0.00058361    0.00069323
     atom   11 type  1   force =    -0.00000000   -0.00058361   -0.00069323
     atom   12 type  1   force =    -0.00000000    0.00058361    0.00069323
     atom   13 type  1   force =     0.00000000   -0.00047688   -0.00042621
     atom   14 type  1   force =     0.00000000    0.00047688    0.00042621
     atom   15 type  1   force =     0.00000000    0.00047688   -0.00042621
     atom   16 type  1   force =     0.00000000   -0.00047688    0.00042621
     atom   17 type  1   force =    -0.00000000    0.00058438    0.00053484
     atom   18 type  1   force =     0.00000000   -0.00058438   -0.00053484
     atom   19 type  1   force =     0.00000000   -0.00058438    0.00053484
     atom   20 type  1   force =     0.00000000    0.00058438   -0.00053484
     The non-local contrib.  to forces
     atom    1 type  2   force =     0.00000000   -0.00011505    0.00425103
     atom    2 type  2   force =     0.00000000    0.00011505   -0.00425103
     atom    3 type  2   force =     0.00000000    0.00011505    0.00425103
     atom    4 type  2   force =    -0.00000000   -0.00011505   -0.00425103
     atom    5 type  3   force =     0.00000000    0.02249740   -0.02208402
     atom    6 type  3   force =    -0.00000000   -0.02249740    0.02208402
     atom    7 type  3   force =     0.00000000   -0.02249740   -0.02208402
     atom    8 type  3   force =     0.00000000    0.02249740    0.02208402
     atom    9 type  1   force =     0.00000000    0.00478990   -0.01124811
     atom   10 type  1   force =     0.00000000   -0.00478990    0.01124811
     atom   11 type  1   force =     0.00000000   -0.00478990   -0.01124811
     atom   12 type  1   force =     0.00000000    0.00478990    0.01124811
     atom   13 type  1   force =     0.00000000   -0.04563815   -0.00382462
     atom   14 type  1   force =     0.00000000    0.04563815    0.00382462
     atom   15 type  1   force =     0.00000000    0.04563815   -0.00382462
     atom   16 type  1   force =    -0.00000000   -0.04563815    0.00382462
     atom   17 type  1   force =     0.00000000    0.04216414    0.06872949
     atom   18 type  1   force =    -0.00000000   -0.04216414   -0.06872949
     atom   19 type  1   force =    -0.00000000   -0.04216414    0.06872949
     atom   20 type  1   force =     0.00000000    0.04216414   -0.06872949
     The ionic contribution  to forces
     atom    1 type  2   force =    -0.00000000    0.35212387    0.04822104
     atom    2 type  2   force =    -0.00000000   -0.35212387   -0.04822104
     atom    3 type  2   force =    -0.00000000   -0.35212387    0.04822104
     atom    4 type  2   force =    -0.00000000    0.35212387   -0.04822104
     atom    5 type  3   force =    -0.00000000   -2.65420279    1.15286113
     atom    6 type  3   force =    -0.00000000    2.65420279   -1.15286113
     atom    7 type  3   force =    -0.00000000    2.65420279    1.15286113
     atom    8 type  3   force =    -0.00000000   -2.65420279   -1.15286113
     atom    9 type  1   force =    -0.00000000   -1.62049066    3.61012453
     atom   10 type  1   force =    -0.00000000    1.62049066   -3.61012453
     atom   11 type  1   force =     0.00000000    1.62049066    3.61012453
     atom   12 type  1   force =    -0.00000000   -1.62049066   -3.61012453
     atom   13 type  1   force =     0.00000000    3.61974391   -2.22341834
     atom   14 type  1   force =    -0.00000000   -3.61974391    2.22341834
     atom   15 type  1   force =    -0.00000000   -3.61974391   -2.22341834
     atom   16 type  1   force =     0.00000000    3.61974391    2.22341834
     atom   17 type  1   force =    -0.00000000   -2.93344104   -4.80227718
     atom   18 type  1   force =     0.00000000    2.93344104    4.80227718
     atom   19 type  1   force =     0.00000000    2.93344104   -4.80227718
     atom   20 type  1   force =    -0.00000000   -2.93344104    4.80227718
     The local contribution  to forces
     atom    1 type  2   force =    -0.00000000   -0.35296774   -0.05269617
     atom    2 type  2   force =    -0.00000000    0.35296774    0.05269617
     atom    3 type  2   force =    -0.00000000    0.35296774   -0.05269617
     atom    4 type  2   force =    -0.00000000   -0.35296774    0.05269617
     atom    5 type  3   force =    -0.00000000    2.63192795   -1.13081783
     atom    6 type  3   force =    -0.00000000   -2.63192795    1.13081783
     atom    7 type  3   force =    -0.00000000   -2.63192795   -1.13081783
     atom    8 type  3   force =    -0.00000000    2.63192795    1.13081783
     atom    9 type  1   force =     0.00000000    1.61625289   -3.59952600
     atom   10 type  1   force =    -0.00000000   -1.61625289    3.59952600
     atom   11 type  1   force =    -0.00000000   -1.61625289   -3.59952600
     atom   12 type  1   force =     0.00000000    1.61625289    3.59952600
     atom   13 type  1   force =    -0.00000000   -3.57675198    2.22631303
     atom   14 type  1   force =    -0.00000000    3.57675198   -2.22631303
     atom   15 type  1   force =    -0.00000000    3.57675198    2.22631303
     atom   16 type  1   force =    -0.00000000   -3.57675198   -2.22631303
     atom   17 type  1   force =     0.00000000    2.89386130    4.73750628
     atom   18 type  1   force =    -0.00000000   -2.89386130   -4.73750628
     atom   19 type  1   force =    -0.00000000   -2.89386130    4.73750628
     atom   20 type  1   force =     0.00000000    2.89386130   -4.73750628
     The core correction contribution to forces
     atom    1 type  2   force =     0.00000000    0.00012092   -0.00016742
     atom    2 type  2   force =     0.00000000   -0.00012092    0.00016742
     atom    3 type  2   force =     0.00000000   -0.00012092   -0.00016742
     atom    4 type  2   force =     0.00000000    0.00012092    0.00016742
     atom    5 type  3   force =     0.00000000   -0.00071990   -0.00026540
     atom    6 type  3   force =     0.00000000    0.00071990    0.00026540
     atom    7 type  3   force =     0.00000000    0.00071990   -0.00026540
     atom    8 type  3   force =     0.00000000   -0.00071990    0.00026540
     atom    9 type  1   force =     0.00000000    0.00002958   -0.00004441
     atom   10 type  1   force =     0.00000000   -0.00002958    0.00004441
     atom   11 type  1   force =     0.00000000   -0.00002958   -0.00004441
     atom   12 type  1   force =     0.00000000    0.00002958    0.00004441
     atom   13 type  1   force =     0.00000000    0.00217404    0.00050433
     atom   14 type  1   force =     0.00000000   -0.00217404   -0.00050433
     atom   15 type  1   force =     0.00000000   -0.00217404    0.00050433
     atom   16 type  1   force =     0.00000000    0.00217404   -0.00050433
     atom   17 type  1   force =     0.00000000   -0.00200111   -0.00342592
     atom   18 type  1   force =     0.00000000    0.00200111    0.00342592
     atom   19 type  1   force =     0.00000000    0.00200111   -0.00342592
     atom   20 type  1   force =     0.00000000   -0.00200111    0.00342592
     The Hubbard contrib.    to forces
     atom    1 type  2   force =     0.00000000    0.00000000    0.00000000
     atom    2 type  2   force =     0.00000000    0.00000000    0.00000000
     atom    3 type  2   force =     0.00000000    0.00000000    0.00000000
     atom    4 type  2   force =     0.00000000    0.00000000    0.00000000
     atom    5 type  3   force =     0.00000000    0.00000000    0.00000000
     atom    6 type  3   force =     0.00000000    0.00000000    0.00000000
     atom    7 type  3   force =     0.00000000    0.00000000    0.00000000
     atom    8 type  3   force =     0.00000000    0.00000000    0.00000000
     atom    9 type  1   force =     0.00000000    0.00000000    0.00000000
     atom   10 type  1   force =     0.00000000    0.00000000    0.00000000
     atom   11 type  1   force =     0.00000000    0.00000000    0.00000000
     atom   12 type  1   force =     0.00000000    0.00000000    0.00000000
     atom   13 type  1   force =     0.00000000    0.00000000    0.00000000
     atom   14 type  1   force =     0.00000000    0.00000000    0.00000000
     atom   15 type  1   force =     0.00000000    0.00000000    0.00000000
     atom   16 type  1   force =     0.00000000    0.00000000    0.00000000
     atom   17 type  1   force =     0.00000000    0.00000000    0.00000000
     atom   18 type  1   force =     0.00000000    0.00000000    0.00000000
     atom   19 type  1   force =     0.00000000    0.00000000    0.00000000
     atom   20 type  1   force =     0.00000000    0.00000000    0.00000000
     The SCF correction term to forces
     atom    1 type  2   force =    -0.00000000    0.00000331   -0.00000483
     atom    2 type  2   force =    -0.00000000   -0.00000331    0.00000483
     atom    3 type  2   force =     0.00000000   -0.00000331   -0.00000483
     atom    4 type  2   force =    -0.00000000    0.00000331    0.00000483
     atom    5 type  3   force =     0.00000000    0.00001092    0.00000051
     atom    6 type  3   force =    -0.00000000   -0.00001092   -0.00000051
     atom    7 type  3   force =     0.00000000   -0.00001092    0.00000051
     atom    8 type  3   force =    -0.00000000    0.00001092   -0.00000051
     atom    9 type  1   force =     0.00000000    0.00000191    0.00000076
     atom   10 type  1   force =    -0.00000000   -0.00000191   -0.00000076
     atom   11 type  1   force =    -0.00000000   -0.00000191    0.00000076
     atom   12 type  1   force =     0.00000000    0.00000191   -0.00000076
     atom   13 type  1   force =    -0.00000000   -0.00000469   -0.00000061
     atom   14 type  1   force =     0.00000000    0.00000469    0.00000061
     atom   15 type  1   force =     0.00000000    0.00000469   -0.00000061
     atom   16 type  1   force =    -0.00000000   -0.00000469    0.00000061
     atom   17 type  1   force =     0.00000000    0.00000110    0.00000217
     atom   18 type  1   force =    -0.00000000   -0.00000110   -0.00000217
     atom   19 type  1   force =    -0.00000000   -0.00000110    0.00000217
     atom   20 type  1   force =     0.00000000    0.00000110   -0.00000217

     Total force =     0.003488     Total SCF correction =     0.000027


     Computing stress (Cartesian axis) and pressure


     negative rho (up, down):  5.165E-01 0.000E+00
          total   stress  (Ry/bohr**3)                   (kbar)     P=       -0.58
  -0.00000603   0.00000000   0.00000000           -0.89        0.00        0.00
   0.00000000  -0.00000089   0.00000000            0.00       -0.13        0.00
   0.00000000   0.00000000  -0.00000495            0.00        0.00       -0.73

     kinetic stress (kbar)   8939.20      0.00      0.00
                                0.00   8966.78      0.00
                                0.00      0.00   8985.99

     local   stress (kbar)  -7790.32     -0.00     -0.00
                               -0.00  -4281.92     -0.00
                               -0.00     -0.00  -4001.83

     nonloc. stress (kbar)   7382.38      0.00      0.00
                                0.00   7378.83      0.00
                                0.00      0.00   7384.26

     hartree stress (kbar)   3486.12     -0.00      0.00
                               -0.00   2105.73     -0.00
                                0.00     -0.00   1814.33

     exc-cor stress (kbar)   2575.62     -0.00      0.00
                               -0.00   2573.48     -0.00
                                0.00     -0.00   2576.12

     corecor stress (kbar)  -5269.27      0.00     -0.00
                                0.00  -5269.19      0.00
                               -0.00      0.00  -5269.91

     ewald   stress (kbar)  -9324.62      0.00      0.00
                                0.00 -11473.84      0.00
                                0.00      0.00 -11489.68

     hubbard stress (kbar)      0.00      0.00      0.00
                                0.00      0.00      0.00
                                0.00      0.00      0.00

     DFT-D   stress (kbar)      0.00      0.00      0.00
                                0.00      0.00      0.00
                                0.00      0.00      0.00

     XDM     stress (kbar)      0.00      0.00      0.00
                                0.00      0.00      0.00
                                0.00      0.00      0.00

     dft-nl  stress (kbar)      0.00      0.00      0.00
                                0.00      0.00      0.00
                                0.00      0.00      0.00

     TS-vdW  stress (kbar)      0.00      0.00      0.00
                                0.00      0.00      0.00
                                0.00      0.00      0.00

     MDB     stress (kbar)      0.00      0.00      0.00
                                0.00      0.00      0.00
                                0.00      0.00      0.00

     3D-RISM stress (kbar)      0.00      0.00      0.00
                                0.00      0.00      0.00
                                0.00      0.00      0.00

     Energy error            =      2.9E-05 Ry
     Gradient error          =      8.3E-04 Ry/Bohr
     Cell gradient error     =      8.9E-01 kbar

     number of scf cycles    =   5
     number of bfgs steps    =   4

     enthalpy           old  =    -969.0399094270 Ry
     enthalpy           new  =    -969.0399384920 Ry

     CASE: enthalpy          _new < enthalpy          _old

     new trust radius        =       0.0066682217 bohr
     new conv_thr            =            1.0E-10 Ry

     new unit-cell volume =   3129.55130 a.u.^3 (   463.75166 Ang^3 )
     density =      3.93929 g/cm^3

CELL_PARAMETERS (angstrom)
   3.840977986   0.000000000   0.000000000
  -0.000000000   8.608889511   0.000000000
   0.000000000   0.000000000  14.024794981

ATOMIC_POSITIONS (crystal)
Sr               0.2500000000        0.0655493458        0.8203843058
Sr               0.7500000000        0.9344506542        0.1796156942
Sr               0.7500000000        0.4344506542        0.3203843058
Sr               0.2500000000        0.5655493458        0.6796156942
Zr               0.2500000000        0.3278496375        0.0569031699
Zr               0.7500000000        0.6721503625        0.9430968301
Zr               0.7500000000        0.1721503625        0.5569031699
Zr               0.2500000000        0.8278496375        0.4430968301
S                0.2500000000        0.2068459156        0.2157001345
S                0.7500000000        0.7931540844        0.7842998655
S                0.7500000000        0.2931540844        0.7157001345
S                0.2500000000        0.7068459156        0.2842998655
S                0.2500000000        0.3366054645        0.4857620914
S                0.7500000000        0.6633945355        0.5142379086
S                0.7500000000        0.1633945355        0.9857620914
S                0.2500000000        0.8366054645        0.0142379086
S                0.2500000000        0.4849576110        0.8941940739
S                0.7500000000        0.5150423890        0.1058059261
S                0.7500000000        0.0150423890        0.3941940739
S                0.2500000000        0.9849576110        0.6058059261



     Writing config-only to output data dir ./tmp/relax/SrZrS3_relax.save/ :
     XML data file
     NEW-OLD atomic charge density approx. for the potential
     New effective cutoffs (rho, wfc):  399.77   49.98

     negative rho (up, down):  5.166E-01 0.000E+00

     total cpu time spent up to now is      850.6 secs

     Self-consistent Calculation

     iteration #  1     ecut=    50.00 Ry     beta= 0.30
     Davidson diagonalization with overlap

---- Real-time Memory Report at c_bands before calling an iterative solver
             0 MiB given to the printing process from OS
             0 MiB allocation reported by mallinfo(arena+hblkhd)
             0 MiB available memory on the node where the printing process lives
------------------
     ethr =  1.00E-06,  avg # of iterations =  3.2

     Threshold (ethr) on eigenvalues was too large:
     Diagonalizing with lowered threshold

     Davidson diagonalization with overlap

---- Real-time Memory Report at c_bands before calling an iterative solver
             0 MiB given to the printing process from OS
             0 MiB allocation reported by mallinfo(arena+hblkhd)
             0 MiB available memory on the node where the printing process lives
------------------
     ethr =  6.69E-09,  avg # of iterations =  8.4

     negative rho (up, down):  5.166E-01 0.000E+00

     total cpu time spent up to now is      869.3 secs

     total energy              =    -969.03998191 Ry
     estimated scf accuracy    <       0.00000528 Ry

     iteration #  2     ecut=    50.00 Ry     beta= 0.30
     Davidson diagonalization with overlap

---- Real-time Memory Report at c_bands before calling an iterative solver
             0 MiB given to the printing process from OS
             0 MiB allocation reported by mallinfo(arena+hblkhd)
             0 MiB available memory on the node where the printing process lives
------------------
     ethr =  3.30E-09,  avg # of iterations =  2.0

     negative rho (up, down):  5.166E-01 0.000E+00

     total cpu time spent up to now is      874.4 secs

     total energy              =    -969.03998211 Ry
     estimated scf accuracy    <       0.00000159 Ry

     iteration #  3     ecut=    50.00 Ry     beta= 0.30
     Davidson diagonalization with overlap

---- Real-time Memory Report at c_bands before calling an iterative solver
             0 MiB given to the printing process from OS
             0 MiB allocation reported by mallinfo(arena+hblkhd)
             0 MiB available memory on the node where the printing process lives
------------------
     ethr =  9.92E-10,  avg # of iterations =  3.0

     negative rho (up, down):  5.166E-01 0.000E+00

     total cpu time spent up to now is      880.2 secs

     total energy              =    -969.03998244 Ry
     estimated scf accuracy    <       0.00000024 Ry

     iteration #  4     ecut=    50.00 Ry     beta= 0.30
     Davidson diagonalization with overlap

---- Real-time Memory Report at c_bands before calling an iterative solver
             0 MiB given to the printing process from OS
             0 MiB allocation reported by mallinfo(arena+hblkhd)
             0 MiB available memory on the node where the printing process lives
------------------
     ethr =  1.50E-10,  avg # of iterations =  4.1

     negative rho (up, down):  5.166E-01 0.000E+00

     total cpu time spent up to now is      886.0 secs

     total energy              =    -969.03998250 Ry
     estimated scf accuracy    <       0.00000006 Ry

     iteration #  5     ecut=    50.00 Ry     beta= 0.30
     Davidson diagonalization with overlap

---- Real-time Memory Report at c_bands before calling an iterative solver
             0 MiB given to the printing process from OS
             0 MiB allocation reported by mallinfo(arena+hblkhd)
             0 MiB available memory on the node where the printing process lives
------------------
     ethr =  4.04E-11,  avg # of iterations =  4.5

     negative rho (up, down):  5.166E-01 0.000E+00

     total cpu time spent up to now is      892.3 secs

     total energy              =    -969.03998251 Ry
     estimated scf accuracy    <       0.00000001 Ry

     iteration #  6     ecut=    50.00 Ry     beta= 0.30
     Davidson diagonalization with overlap

---- Real-time Memory Report at c_bands before calling an iterative solver
             0 MiB given to the printing process from OS
             0 MiB allocation reported by mallinfo(arena+hblkhd)
             0 MiB available memory on the node where the printing process lives
------------------
     ethr =  6.78E-12,  avg # of iterations =  5.8

     negative rho (up, down):  5.166E-01 0.000E+00

     total cpu time spent up to now is      900.2 secs

     total energy              =    -969.03998252 Ry
     estimated scf accuracy    <       0.00000001 Ry

     iteration #  7     ecut=    50.00 Ry     beta= 0.30
     Davidson diagonalization with overlap

---- Real-time Memory Report at c_bands before calling an iterative solver
             0 MiB given to the printing process from OS
             0 MiB allocation reported by mallinfo(arena+hblkhd)
             0 MiB available memory on the node where the printing process lives
------------------
     ethr =  6.78E-12,  avg # of iterations =  3.7

     negative rho (up, down):  5.166E-01 0.000E+00

     total cpu time spent up to now is      906.0 secs

     total energy              =    -969.03998253 Ry
     estimated scf accuracy    <          4.0E-10 Ry

     iteration #  8     ecut=    50.00 Ry     beta= 0.30
     Davidson diagonalization with overlap

---- Real-time Memory Report at c_bands before calling an iterative solver
             0 MiB given to the printing process from OS
             0 MiB allocation reported by mallinfo(arena+hblkhd)
             0 MiB available memory on the node where the printing process lives
------------------
     ethr =  2.52E-13,  avg # of iterations =  6.6

     negative rho (up, down):  5.166E-01 0.000E+00

     total cpu time spent up to now is      915.0 secs

     total energy              =    -969.03998253 Ry
     estimated scf accuracy    <          8.3E-10 Ry

     iteration #  9     ecut=    50.00 Ry     beta= 0.30
     Davidson diagonalization with overlap

---- Real-time Memory Report at c_bands before calling an iterative solver
             0 MiB given to the printing process from OS
             0 MiB allocation reported by mallinfo(arena+hblkhd)
             0 MiB available memory on the node where the printing process lives
------------------
     ethr =  2.52E-13,  avg # of iterations =  4.0

     negative rho (up, down):  5.166E-01 0.000E+00

     total cpu time spent up to now is      921.1 secs

     End of self-consistent calculation

          k = 0.0000 0.0000 0.0000 ( 18571 PWs)   bands (ev):

   -41.4066 -41.4066 -41.4021 -41.4021 -26.6528 -26.6526 -26.6512 -26.6510
   -19.4940 -19.4940 -19.4604 -19.4603 -19.4135 -19.4134 -19.3863 -19.3862
   -19.3679 -19.3679 -19.3516 -19.3516  -8.7539  -8.7474  -8.7447  -8.7363
    -8.7239  -8.6996  -8.6456  -8.6451  -8.5873  -8.5865  -8.5809  -8.5800
    -4.8745  -4.6445  -4.0962  -4.0426  -3.8059  -3.7096  -3.6722  -3.6658
    -3.5383  -3.4445  -3.3903  -3.3165   3.6489   3.8760   3.9225   3.9489
     3.9733   4.1690   4.2903   4.5501   4.7640   4.7666   4.7966   4.8341
     4.8822   4.9191   4.9307   5.4355   5.6603   5.6806   5.7220   5.9212
     5.9294   5.9832   6.2788   6.3038   6.4989   6.5720   6.6462   6.6822
     6.7516   6.8465   6.9519   7.1249   7.4522   7.4653   7.6820   7.8832

     occupation numbers 
     1.0000   1.0000   1.0000   1.0000   1.0000   1.0000   1.0000   1.0000
     1.0000   1.0000   1.0000   1.0000   1.0000   1.0000   1.0000   1.0000
     1.0000   1.0000   1.0000   1.0000   1.0000   1.0000   1.0000   1.0000
     1.0000   1.0000   1.0000   1.0000   1.0000   1.0000   1.0000   1.0000
     1.0000   1.0000   1.0000   1.0000   1.0000   1.0000   1.0000   1.0000
     1.0000   1.0000   1.0000   1.0000   1.0000   1.0000   1.0000   1.0000
     1.0000   1.0000   1.0000   1.0000   1.0000   1.0000   1.0000   1.0000
     1.0000   1.0000   1.0000   1.0000   1.0000   1.0000   1.0000   1.0000
     1.0000   1.0000   1.0000   1.0000   1.0000   1.0000   1.0000   1.0000
     1.0000   1.0000   1.0000   1.0000   1.0000   1.0000   1.0000   1.0000

          k = 0.0000 0.0000-0.1369 ( 18560 PWs)   bands (ev):

   -41.4066 -41.4066 -41.4021 -41.4021 -26.6527 -26.6527 -26.6511 -26.6511
   -19.4940 -19.4940 -19.4603 -19.4603 -19.4134 -19.4134 -19.3863 -19.3863
   -19.3679 -19.3679 -19.3516 -19.3516  -8.7505  -8.7505  -8.7423  -8.7423
    -8.7101  -8.7101  -8.6454  -8.6454  -8.5869  -8.5869  -8.5804  -8.5804
    -4.7741  -4.7741  -4.0532  -4.0532  -3.7565  -3.7565  -3.6555  -3.6555
    -3.5205  -3.5205  -3.3408  -3.3408   3.7351   3.7351   3.9445   3.9445
     4.0637   4.0637   4.5153   4.5153   4.7812   4.7812   4.8345   4.8345
     4.9067   4.9067   4.9251   4.9251   5.5445   5.5445   5.9559   5.9559
     6.1681   6.1681   6.2988   6.2988   6.6374   6.6374   6.6897   6.6897
     6.7043   6.7043   7.0385   7.0385   7.3199   7.3199   7.7783   7.7783

     occupation numbers 
     1.0000   1.0000   1.0000   1.0000   1.0000   1.0000   1.0000   1.0000
     1.0000   1.0000   1.0000   1.0000   1.0000   1.0000   1.0000   1.0000
     1.0000   1.0000   1.0000   1.0000   1.0000   1.0000   1.0000   1.0000
     1.0000   1.0000   1.0000   1.0000   1.0000   1.0000   1.0000   1.0000
     1.0000   1.0000   1.0000   1.0000   1.0000   1.0000   1.0000   1.0000
     1.0000   1.0000   1.0000   1.0000   1.0000   1.0000   1.0000   1.0000
     1.0000   1.0000   1.0000   1.0000   1.0000   1.0000   1.0000   1.0000
     1.0000   1.0000   1.0000   1.0000   1.0000   1.0000   1.0000   1.0000
     1.0000   1.0000   1.0000   1.0000   1.0000   1.0000   1.0000   1.0000
     1.0000   1.0000   1.0000   1.0000   1.0000   1.0000   1.0000   1.0000

          k = 0.0000 0.1487 0.0000 ( 18580 PWs)   bands (ev):

   -41.4066 -41.4066 -41.4021 -41.4021 -26.6524 -26.6522 -26.6516 -26.6514
   -19.4938 -19.4938 -19.4606 -19.4606 -19.4134 -19.4134 -19.3863 -19.3863
   -19.3679 -19.3679 -19.3516 -19.3516  -8.7600  -8.7515  -8.7399  -8.7287
    -8.7077  -8.6863  -8.6669  -8.6581  -8.5857  -8.5849  -8.5825  -8.5816
    -4.7554  -4.6060  -4.2003  -4.1589  -3.9376  -3.9145  -3.5445  -3.4982
    -3.4572  -3.4310  -3.3457  -3.3341   3.4641   3.5993   3.7402   3.7647
     4.0980   4.2398   4.3645   4.7591   4.7827   4.8941   4.8949   4.9104
     4.9126   5.1484   5.2420   5.2863   5.5515   5.6302   5.8077   6.0437
     6.1051   6.1167   6.1376   6.3327   6.5067   6.5564   6.7155   6.7831
     6.8101   6.8663   6.9355   7.0838   7.1615   7.2421   7.3188   7.3720

     occupation numbers 
     1.0000   1.0000   1.0000   1.0000   1.0000   1.0000   1.0000   1.0000
     1.0000   1.0000   1.0000   1.0000   1.0000   1.0000   1.0000   1.0000
     1.0000   1.0000   1.0000   1.0000   1.0000   1.0000   1.0000   1.0000
     1.0000   1.0000   1.0000   1.0000   1.0000   1.0000   1.0000   1.0000
     1.0000   1.0000   1.0000   1.0000   1.0000   1.0000   1.0000   1.0000
     1.0000   1.0000   1.0000   1.0000   1.0000   1.0000   1.0000   1.0000
     1.0000   1.0000   1.0000   1.0000   1.0000   1.0000   1.0000   1.0000
     1.0000   1.0000   1.0000   1.0000   1.0000   1.0000   1.0000   1.0000
     1.0000   1.0000   1.0000   1.0000   1.0000   1.0000   1.0000   1.0000
     1.0000   1.0000   1.0000   1.0000   1.0000   1.0000   1.0000   1.0000

          k = 0.0000 0.1487-0.1369 ( 18590 PWs)   bands (ev):

   -41.4066 -41.4066 -41.4021 -41.4021 -26.6523 -26.6523 -26.6515 -26.6515
   -19.4938 -19.4938 -19.4606 -19.4606 -19.4134 -19.4134 -19.3863 -19.3863
   -19.3679 -19.3679 -19.3516 -19.3516  -8.7529  -8.7529  -8.7391  -8.7391
    -8.6958  -8.6958  -8.6617  -8.6617  -8.5853  -8.5853  -8.5820  -8.5820
    -4.6825  -4.6825  -4.1980  -4.1980  -3.8995  -3.8995  -3.5369  -3.5369
    -3.4071  -3.4071  -3.3677  -3.3677   3.5269   3.5269   3.7288   3.7288
     4.1977   4.1977   4.6668   4.6668   4.7717   4.7717   4.8516   4.8516
     4.9020   4.9020   5.4056   5.4056   5.5484   5.5484   5.9374   5.9374
     6.1273   6.1273   6.3422   6.3422   6.5325   6.5325   6.7120   6.7120
     6.7564   6.7564   6.9954   6.9954   7.1672   7.1672   7.4146   7.4146

     occupation numbers 
     1.0000   1.0000   1.0000   1.0000   1.0000   1.0000   1.0000   1.0000
     1.0000   1.0000   1.0000   1.0000   1.0000   1.0000   1.0000   1.0000
     1.0000   1.0000   1.0000   1.0000   1.0000   1.0000   1.0000   1.0000
     1.0000   1.0000   1.0000   1.0000   1.0000   1.0000   1.0000   1.0000
     1.0000   1.0000   1.0000   1.0000   1.0000   1.0000   1.0000   1.0000
     1.0000   1.0000   1.0000   1.0000   1.0000   1.0000   1.0000   1.0000
     1.0000   1.0000   1.0000   1.0000   1.0000   1.0000   1.0000   1.0000
     1.0000   1.0000   1.0000   1.0000   1.0000   1.0000   1.0000   1.0000
     1.0000   1.0000   1.0000   1.0000   1.0000   1.0000   1.0000   1.0000
     1.0000   1.0000   1.0000   1.0000   1.0000   1.0000   1.0000   1.0000

          k = 0.1666 0.0000 0.0000 ( 18537 PWs)   bands (ev):

   -41.4050 -41.4050 -41.4012 -41.4012 -26.6477 -26.6476 -26.6462 -26.6460
   -19.4862 -19.4862 -19.4552 -19.4551 -19.4126 -19.4125 -19.4039 -19.4038
   -19.3804 -19.3804 -19.3794 -19.3794  -8.7289  -8.7261  -8.7255  -8.7147
    -8.7091  -8.6855  -8.6844  -8.6817  -8.6663  -8.6644  -8.6334  -8.6327
    -4.6879  -4.4864  -4.0044  -3.9584  -3.8270  -3.7446  -3.6810  -3.6514
    -3.4986  -3.3882  -3.3811  -3.3344   3.8007   3.8893   4.0535   4.0756
     4.0981   4.2090   4.2897   4.3334   4.4288   4.4304   4.6226   5.0372
     5.1480   5.2564   5.3760   5.4296   5.4831   5.5422   5.6457   5.7235
     5.7600   5.8161   5.8585   6.1289   6.1390   6.2571   6.3120   6.4347
     6.4576   6.6479   6.6499   6.8655   6.9594   7.2578   7.3983   7.4809

     occupation numbers 
     1.0000   1.0000   1.0000   1.0000   1.0000   1.0000   1.0000   1.0000
     1.0000   1.0000   1.0000   1.0000   1.0000   1.0000   1.0000   1.0000
     1.0000   1.0000   1.0000   1.0000   1.0000   1.0000   1.0000   1.0000
     1.0000   1.0000   1.0000   1.0000   1.0000   1.0000   1.0000   1.0000
     1.0000   1.0000   1.0000   1.0000   1.0000   1.0000   1.0000   1.0000
     1.0000   1.0000   1.0000   1.0000   1.0000   1.0000   1.0000   1.0000
     1.0000   1.0000   1.0000   1.0000   1.0000   1.0000   1.0000   1.0000
     1.0000   1.0000   1.0000   1.0000   1.0000   1.0000   1.0000   1.0000
     1.0000   1.0000   1.0000   1.0000   1.0000   1.0000   1.0000   1.0000
     1.0000   1.0000   1.0000   1.0000   1.0000   1.0000   1.0000   1.0000

          k = 0.1666 0.0000-0.1369 ( 18576 PWs)   bands (ev):

   -41.4050 -41.4050 -41.4012 -41.4012 -26.6476 -26.6476 -26.6461 -26.6461
   -19.4862 -19.4862 -19.4551 -19.4551 -19.4126 -19.4126 -19.4039 -19.4039
   -19.3804 -19.3804 -19.3794 -19.3794  -8.7267  -8.7267  -8.7227  -8.7227
    -8.6973  -8.6973  -8.6811  -8.6811  -8.6654  -8.6654  -8.6331  -8.6331
    -4.5996  -4.5996  -3.9695  -3.9695  -3.7820  -3.7820  -3.6658  -3.6658
    -3.4570  -3.4570  -3.3478  -3.3478   3.8354   3.8354   4.0458   4.0458
     4.1548   4.1548   4.3017   4.3017   4.5268   4.5268   4.7494   4.7494
     5.1912   5.1912   5.3796   5.3796   5.4956   5.4956   5.6544   5.6544
     5.8181   5.8181   6.0712   6.0712   6.2581   6.2581   6.3595   6.3595
     6.5090   6.5090   6.6783   6.6783   7.1845   7.1845   7.4433   7.4433

     occupation numbers 
     1.0000   1.0000   1.0000   1.0000   1.0000   1.0000   1.0000   1.0000
     1.0000   1.0000   1.0000   1.0000   1.0000   1.0000   1.0000   1.0000
     1.0000   1.0000   1.0000   1.0000   1.0000   1.0000   1.0000   1.0000
     1.0000   1.0000   1.0000   1.0000   1.0000   1.0000   1.0000   1.0000
     1.0000   1.0000   1.0000   1.0000   1.0000   1.0000   1.0000   1.0000
     1.0000   1.0000   1.0000   1.0000   1.0000   1.0000   1.0000   1.0000
     1.0000   1.0000   1.0000   1.0000   1.0000   1.0000   1.0000   1.0000
     1.0000   1.0000   1.0000   1.0000   1.0000   1.0000   1.0000   1.0000
     1.0000   1.0000   1.0000   1.0000   1.0000   1.0000   1.0000   1.0000
     1.0000   1.0000   1.0000   1.0000   1.0000   1.0000   1.0000   1.0000

          k = 0.1666 0.1487 0.0000 ( 18591 PWs)   bands (ev):

   -41.4050 -41.4050 -41.4012 -41.4012 -26.6473 -26.6472 -26.6466 -26.6464
   -19.4860 -19.4860 -19.4554 -19.4553 -19.4125 -19.4125 -19.4039 -19.4039
   -19.3804 -19.3804 -19.3794 -19.3794  -8.7365  -8.7307  -8.7197  -8.7126
    -8.6953  -8.6837  -8.6789  -8.6767  -8.6652  -8.6634  -8.6475  -8.6439
    -4.5893  -4.4612  -4.0751  -4.0399  -3.9330  -3.9099  -3.5287  -3.4990
    -3.4798  -3.4329  -3.3439  -3.3437   3.7152   3.8184   3.9122   3.9287
     4.1470   4.2298   4.3357   4.5164   4.5397   4.5823   4.8010   4.9565
     5.0322   5.1207   5.3337   5.3643   5.4347   5.5788   5.5844   5.6165
     5.7687   5.9260   6.0050   6.0238   6.1399   6.1890   6.4153   6.4871
     6.6033   6.6489   6.7486   6.8928   7.0939   7.2332   7.3449   7.3735

     occupation numbers 
     1.0000   1.0000   1.0000   1.0000   1.0000   1.0000   1.0000   1.0000
     1.0000   1.0000   1.0000   1.0000   1.0000   1.0000   1.0000   1.0000
     1.0000   1.0000   1.0000   1.0000   1.0000   1.0000   1.0000   1.0000
     1.0000   1.0000   1.0000   1.0000   1.0000   1.0000   1.0000   1.0000
     1.0000   1.0000   1.0000   1.0000   1.0000   1.0000   1.0000   1.0000
     1.0000   1.0000   1.0000   1.0000   1.0000   1.0000   1.0000   1.0000
     1.0000   1.0000   1.0000   1.0000   1.0000   1.0000   1.0000   1.0000
     1.0000   1.0000   1.0000   1.0000   1.0000   1.0000   1.0000   1.0000
     1.0000   1.0000   1.0000   1.0000   1.0000   1.0000   1.0000   1.0000
     1.0000   1.0000   1.0000   1.0000   1.0000   1.0000   1.0000   1.0000

          k = 0.1666 0.1487-0.1369 ( 18560 PWs)   bands (ev):

   -41.4050 -41.4050 -41.4012 -41.4012 -26.6473 -26.6473 -26.6465 -26.6465
   -19.4860 -19.4860 -19.4554 -19.4554 -19.4125 -19.4125 -19.4039 -19.4039
   -19.3804 -19.3804 -19.3794 -19.3794  -8.7312  -8.7312  -8.7201  -8.7201
    -8.6876  -8.6876  -8.6784  -8.6784  -8.6643  -8.6643  -8.6455  -8.6455
    -4.5261  -4.5261  -4.0805  -4.0805  -3.8960  -3.8960  -3.5276  -3.5276
    -3.4159  -3.4159  -3.3721  -3.3721   3.7419   3.7419   3.8906   3.8906
     4.2705   4.2705   4.4383   4.4383   4.6182   4.6182   4.8004   4.8004
     5.0144   5.0144   5.3259   5.3259   5.5179   5.5179   5.5810   5.5810
     5.8962   5.8962   6.0274   6.0274   6.2211   6.2211   6.4073   6.4073
     6.6851   6.6851   6.7872   6.7872   7.1497   7.1497   7.3359   7.3359

     occupation numbers 
     1.0000   1.0000   1.0000   1.0000   1.0000   1.0000   1.0000   1.0000
     1.0000   1.0000   1.0000   1.0000   1.0000   1.0000   1.0000   1.0000
     1.0000   1.0000   1.0000   1.0000   1.0000   1.0000   1.0000   1.0000
     1.0000   1.0000   1.0000   1.0000   1.0000   1.0000   1.0000   1.0000
     1.0000   1.0000   1.0000   1.0000   1.0000   1.0000   1.0000   1.0000
     1.0000   1.0000   1.0000   1.0000   1.0000   1.0000   1.0000   1.0000
     1.0000   1.0000   1.0000   1.0000   1.0000   1.0000   1.0000   1.0000
     1.0000   1.0000   1.0000   1.0000   1.0000   1.0000   1.0000   1.0000
     1.0000   1.0000   1.0000   1.0000   1.0000   1.0000   1.0000   1.0000
     1.0000   1.0000   1.0000   1.0000   1.0000   1.0000   1.0000   1.0000

          k = 0.3333 0.0000 0.0000 ( 18620 PWs)   bands (ev):

   -41.4016 -41.4016 -41.3994 -41.3994 -26.6376 -26.6375 -26.6362 -26.6361
   -19.4763 -19.4763 -19.4645 -19.4645 -19.4394 -19.4394 -19.4388 -19.4388
   -19.3982 -19.3981 -19.3868 -19.3868  -8.8694  -8.8689  -8.8328  -8.8320
    -8.6851  -8.6842  -8.6806  -8.6728  -8.6629  -8.6541  -8.6089  -8.6082
    -4.2572  -4.1384  -3.9160  -3.9152  -3.8389  -3.7959  -3.6227  -3.6196
    -3.3835  -3.3662  -3.3658  -3.2719   3.6370   3.8007   3.9640   4.0347
     4.0575   4.1561   4.2848   4.4204   4.5870   4.6679   4.6950   4.7564
     4.8004   4.8078   4.9418   5.1402   5.4078   5.4643   5.5311   5.5677
     5.6628   5.7133   5.7639   5.7740   5.9986   6.1958   6.2342   6.2915
     6.4240   6.4932   6.5257   6.5428   6.6073   6.6333   6.9713   6.9952

     occupation numbers 
     1.0000   1.0000   1.0000   1.0000   1.0000   1.0000   1.0000   1.0000
     1.0000   1.0000   1.0000   1.0000   1.0000   1.0000   1.0000   1.0000
     1.0000   1.0000   1.0000   1.0000   1.0000   1.0000   1.0000   1.0000
     1.0000   1.0000   1.0000   1.0000   1.0000   1.0000   1.0000   1.0000
     1.0000   1.0000   1.0000   1.0000   1.0000   1.0000   1.0000   1.0000
     1.0000   1.0000   1.0000   1.0000   1.0000   1.0000   1.0000   1.0000
     1.0000   1.0000   1.0000   1.0000   1.0000   1.0000   1.0000   1.0000
     1.0000   1.0000   1.0000   1.0000   1.0000   1.0000   1.0000   1.0000
     1.0000   1.0000   1.0000   1.0000   1.0000   1.0000   1.0000   1.0000
     1.0000   1.0000   1.0000   1.0000   1.0000   1.0000   1.0000   1.0000

          k = 0.3333 0.0000-0.1369 ( 18610 PWs)   bands (ev):

   -41.4016 -41.4016 -41.3994 -41.3994 -26.6375 -26.6375 -26.6361 -26.6361
   -19.4763 -19.4763 -19.4645 -19.4645 -19.4394 -19.4394 -19.4388 -19.4388
   -19.3981 -19.3981 -19.3868 -19.3868  -8.8692  -8.8692  -8.8324  -8.8324
    -8.6843  -8.6843  -8.6778  -8.6778  -8.6578  -8.6578  -8.6085  -8.6085
    -4.2033  -4.2033  -3.9160  -3.9160  -3.8133  -3.8133  -3.6198  -3.6198
    -3.3834  -3.3834  -3.3097  -3.3097   3.7634   3.7634   3.8702   3.8702
     4.1097   4.1097   4.3975   4.3975   4.6639   4.6639   4.7667   4.7667
     4.8150   4.8150   5.0526   5.0526   5.3735   5.3735   5.5878   5.5878
     5.7837   5.7837   5.8092   5.8092   5.8882   5.8882   6.1032   6.1032
     6.4351   6.4351   6.6268   6.6268   6.7466   6.7466   7.0002   7.0002

     occupation numbers 
     1.0000   1.0000   1.0000   1.0000   1.0000   1.0000   1.0000   1.0000
     1.0000   1.0000   1.0000   1.0000   1.0000   1.0000   1.0000   1.0000
     1.0000   1.0000   1.0000   1.0000   1.0000   1.0000   1.0000   1.0000
     1.0000   1.0000   1.0000   1.0000   1.0000   1.0000   1.0000   1.0000
     1.0000   1.0000   1.0000   1.0000   1.0000   1.0000   1.0000   1.0000
     1.0000   1.0000   1.0000   1.0000   1.0000   1.0000   1.0000   1.0000
     1.0000   1.0000   1.0000   1.0000   1.0000   1.0000   1.0000   1.0000
     1.0000   1.0000   1.0000   1.0000   1.0000   1.0000   1.0000   1.0000
     1.0000   1.0000   1.0000   1.0000   1.0000   1.0000   1.0000   1.0000
     1.0000   1.0000   1.0000   1.0000   1.0000   1.0000   1.0000   1.0000

          k = 0.3333 0.1487 0.0000 ( 18628 PWs)   bands (ev):

   -41.4016 -41.4016 -41.3994 -41.3994 -26.6372 -26.6371 -26.6365 -26.6364
   -19.4763 -19.4763 -19.4646 -19.4646 -19.4394 -19.4394 -19.4387 -19.4387
   -19.3981 -19.3981 -19.3868 -19.3868  -8.8607  -8.8598  -8.8425  -8.8414
    -8.6897  -8.6877  -8.6791  -8.6754  -8.6458  -8.6402  -8.6203  -8.6179
    -4.2174  -4.1518  -3.9470  -3.9320  -3.8166  -3.8046  -3.6117  -3.6107
    -3.3953  -3.3815  -3.3333  -3.2909   3.7277   3.7676   3.9285   3.9522
     4.2354   4.2707   4.3407   4.4064   4.4659   4.5051   4.6144   4.6460
     4.7425   4.9173   5.1111   5.2527   5.2544   5.2848   5.4030   5.4720
     5.6716   5.6927   5.7945   5.9298   6.0302   6.0331   6.2433   6.2830
     6.3290   6.3951   6.7254   6.7564   6.8544   6.8655   6.9097   7.0152

     occupation numbers 
     1.0000   1.0000   1.0000   1.0000   1.0000   1.0000   1.0000   1.0000
     1.0000   1.0000   1.0000   1.0000   1.0000   1.0000   1.0000   1.0000
     1.0000   1.0000   1.0000   1.0000   1.0000   1.0000   1.0000   1.0000
     1.0000   1.0000   1.0000   1.0000   1.0000   1.0000   1.0000   1.0000
     1.0000   1.0000   1.0000   1.0000   1.0000   1.0000   1.0000   1.0000
     1.0000   1.0000   1.0000   1.0000   1.0000   1.0000   1.0000   1.0000
     1.0000   1.0000   1.0000   1.0000   1.0000   1.0000   1.0000   1.0000
     1.0000   1.0000   1.0000   1.0000   1.0000   1.0000   1.0000   1.0000
     1.0000   1.0000   1.0000   1.0000   1.0000   1.0000   1.0000   1.0000
     1.0000   1.0000   1.0000   1.0000   1.0000   1.0000   1.0000   1.0000

          k = 0.3333 0.1487-0.1369 ( 18596 PWs)   bands (ev):

   -41.4016 -41.4016 -41.3994 -41.3994 -26.6372 -26.6372 -26.6365 -26.6365
   -19.4763 -19.4763 -19.4646 -19.4646 -19.4394 -19.4394 -19.4387 -19.4387
   -19.3981 -19.3981 -19.3868 -19.3868  -8.8603  -8.8603  -8.8419  -8.8419
    -8.6877  -8.6877  -8.6785  -8.6785  -8.6428  -8.6428  -8.6190  -8.6190
    -4.1817  -4.1817  -3.9528  -3.9528  -3.8023  -3.8023  -3.6110  -3.6110
    -3.3761  -3.3761  -3.3224  -3.3224   3.7567   3.7567   3.8772   3.8772
     4.2495   4.2495   4.4027   4.4027   4.5114   4.5114   4.6971   4.6971
     4.8539   4.8539   5.1586   5.1586   5.2672   5.2672   5.3783   5.3783
     5.6522   5.6522   5.7530   5.7530   6.1407   6.1407   6.2417   6.2417
     6.4721   6.4721   6.6413   6.6413   6.8346   6.8346   7.0321   7.0321

     occupation numbers 
     1.0000   1.0000   1.0000   1.0000   1.0000   1.0000   1.0000   1.0000
     1.0000   1.0000   1.0000   1.0000   1.0000   1.0000   1.0000   1.0000
     1.0000   1.0000   1.0000   1.0000   1.0000   1.0000   1.0000   1.0000
     1.0000   1.0000   1.0000   1.0000   1.0000   1.0000   1.0000   1.0000
     1.0000   1.0000   1.0000   1.0000   1.0000   1.0000   1.0000   1.0000
     1.0000   1.0000   1.0000   1.0000   1.0000   1.0000   1.0000   1.0000
     1.0000   1.0000   1.0000   1.0000   1.0000   1.0000   1.0000   1.0000
     1.0000   1.0000   1.0000   1.0000   1.0000   1.0000   1.0000   1.0000
     1.0000   1.0000   1.0000   1.0000   1.0000   1.0000   1.0000   1.0000
     1.0000   1.0000   1.0000   1.0000   1.0000   1.0000   1.0000   1.0000

          k =-0.4999 0.0000 0.0000 ( 18628 PWs)   bands (ev):

   -41.3992 -41.3992 -41.3992 -41.3992 -26.6324 -26.6324 -26.6311 -26.6311
   -19.4904 -19.4904 -19.4904 -19.4904 -19.4398 -19.4398 -19.4397 -19.4397
   -19.3931 -19.3931 -19.3930 -19.3930  -8.9570  -8.9570  -8.9121  -8.9121
    -8.6623  -8.6623  -8.6605  -8.6605  -8.6358  -8.6358  -8.5961  -8.5961
    -3.9792  -3.9792  -3.9773  -3.9773  -3.6778  -3.6778  -3.6653  -3.6653
    -3.3789  -3.3789  -3.2670  -3.2670   3.5550   3.5550   3.7470   3.7470
     4.0512   4.0512   4.3139   4.3139   4.5233   4.5233   4.6114   4.6114
     5.0820   5.0820   5.2301   5.2301   5.2778   5.2778   5.2870   5.2870
     5.4965   5.4965   5.8896   5.8896   5.9757   5.9757   6.0621   6.0621
     6.5755   6.5755   6.6240   6.6240   6.7383   6.7383   6.8092   6.8092

     occupation numbers 
     1.0000   1.0000   1.0000   1.0000   1.0000   1.0000   1.0000   1.0000
     1.0000   1.0000   1.0000   1.0000   1.0000   1.0000   1.0000   1.0000
     1.0000   1.0000   1.0000   1.0000   1.0000   1.0000   1.0000   1.0000
     1.0000   1.0000   1.0000   1.0000   1.0000   1.0000   1.0000   1.0000
     1.0000   1.0000   1.0000   1.0000   1.0000   1.0000   1.0000   1.0000
     1.0000   1.0000   1.0000   1.0000   1.0000   1.0000   1.0000   1.0000
     1.0000   1.0000   1.0000   1.0000   1.0000   1.0000   1.0000   1.0000
     1.0000   1.0000   1.0000   1.0000   1.0000   1.0000   1.0000   1.0000
     1.0000   1.0000   1.0000   1.0000   1.0000   1.0000   1.0000   1.0000
     1.0000   1.0000   1.0000   1.0000   1.0000   1.0000   1.0000   1.0000

          k =-0.4999 0.0000-0.1369 ( 18652 PWs)   bands (ev):

   -41.3992 -41.3992 -41.3992 -41.3992 -26.6324 -26.6324 -26.6311 -26.6311
   -19.4904 -19.4904 -19.4904 -19.4904 -19.4398 -19.4398 -19.4398 -19.4398
   -19.3931 -19.3931 -19.3930 -19.3930  -8.9570  -8.9570  -8.9121  -8.9121
    -8.6623  -8.6623  -8.6605  -8.6605  -8.6358  -8.6358  -8.5961  -8.5961
    -3.9821  -3.9821  -3.9743  -3.9743  -3.6787  -3.6787  -3.6648  -3.6648
    -3.3788  -3.3788  -3.2665  -3.2665   3.5366   3.5366   3.7793   3.7793
     4.0414   4.0414   4.2548   4.2548   4.5668   4.5668   4.7021   4.7021
     4.9992   4.9992   5.0833   5.0833   5.2511   5.2511   5.4147   5.4147
     5.6847   5.6847   5.7060   5.7060   5.9108   5.9108   6.3803   6.3803
     6.4494   6.4494   6.5224   6.5224   6.6896   6.6896   6.8698   6.8698

     occupation numbers 
     1.0000   1.0000   1.0000   1.0000   1.0000   1.0000   1.0000   1.0000
     1.0000   1.0000   1.0000   1.0000   1.0000   1.0000   1.0000   1.0000
     1.0000   1.0000   1.0000   1.0000   1.0000   1.0000   1.0000   1.0000
     1.0000   1.0000   1.0000   1.0000   1.0000   1.0000   1.0000   1.0000
     1.0000   1.0000   1.0000   1.0000   1.0000   1.0000   1.0000   1.0000
     1.0000   1.0000   1.0000   1.0000   1.0000   1.0000   1.0000   1.0000
     1.0000   1.0000   1.0000   1.0000   1.0000   1.0000   1.0000   1.0000
     1.0000   1.0000   1.0000   1.0000   1.0000   1.0000   1.0000   1.0000
     1.0000   1.0000   1.0000   1.0000   1.0000   1.0000   1.0000   1.0000
     1.0000   1.0000   1.0000   1.0000   1.0000   1.0000   1.0000   1.0000

          k =-0.4999 0.1487 0.0000 ( 18590 PWs)   bands (ev):

   -41.3992 -41.3992 -41.3992 -41.3992 -26.6321 -26.6321 -26.6314 -26.6314
   -19.4905 -19.4905 -19.4905 -19.4905 -19.4397 -19.4397 -19.4397 -19.4397
   -19.3931 -19.3931 -19.3931 -19.3931  -8.9459  -8.9459  -8.9235  -8.9235
    -8.6638  -8.6638  -8.6623  -8.6623  -8.6239  -8.6239  -8.6047  -8.6047
    -3.9788  -3.9788  -3.9775  -3.9775  -3.6758  -3.6758  -3.6707  -3.6707
    -3.3480  -3.3480  -3.2928  -3.2928   3.4814   3.4814   3.5414   3.5414
     4.2673   4.2673   4.3902   4.3902   4.6367   4.6367   4.6527   4.6527
     4.9870   4.9870   5.0639   5.0639   5.2862   5.2862   5.3885   5.3885
     5.7083   5.7083   5.7756   5.7756   6.1656   6.1656   6.1741   6.1741
     6.4134   6.4134   6.4155   6.4155   6.6797   6.6797   6.6938   6.6938

     occupation numbers 
     1.0000   1.0000   1.0000   1.0000   1.0000   1.0000   1.0000   1.0000
     1.0000   1.0000   1.0000   1.0000   1.0000   1.0000   1.0000   1.0000
     1.0000   1.0000   1.0000   1.0000   1.0000   1.0000   1.0000   1.0000
     1.0000   1.0000   1.0000   1.0000   1.0000   1.0000   1.0000   1.0000
     1.0000   1.0000   1.0000   1.0000   1.0000   1.0000   1.0000   1.0000
     1.0000   1.0000   1.0000   1.0000   1.0000   1.0000   1.0000   1.0000
     1.0000   1.0000   1.0000   1.0000   1.0000   1.0000   1.0000   1.0000
     1.0000   1.0000   1.0000   1.0000   1.0000   1.0000   1.0000   1.0000
     1.0000   1.0000   1.0000   1.0000   1.0000   1.0000   1.0000   1.0000
     1.0000   1.0000   1.0000   1.0000   1.0000   1.0000   1.0000   1.0000

          k =-0.4999 0.1487-0.1369 ( 18600 PWs)   bands (ev):

   -41.3992 -41.3992 -41.3992 -41.3992 -26.6321 -26.6321 -26.6314 -26.6314
   -19.4905 -19.4905 -19.4905 -19.4905 -19.4397 -19.4397 -19.4397 -19.4397
   -19.3931 -19.3931 -19.3931 -19.3931  -8.9459  -8.9459  -8.9235  -8.9235
    -8.6638  -8.6638  -8.6623  -8.6623  -8.6239  -8.6239  -8.6047  -8.6047
    -3.9800  -3.9800  -3.9763  -3.9763  -3.6773  -3.6773  -3.6695  -3.6695
    -3.3478  -3.3478  -3.2924  -3.2924   3.4597   3.4597   3.5542   3.5542
     4.2581   4.2581   4.3962   4.3962   4.6141   4.6141   4.6361   4.6361
     5.0729   5.0729   5.1797   5.1797   5.3146   5.3146   5.3149   5.3149
     5.7038   5.7038   5.7820   5.7820   5.9589   5.9589   6.0531   6.0531
     6.4301   6.4301   6.4609   6.4609   6.7761   6.7761   6.7816   6.7816

     occupation numbers 
     1.0000   1.0000   1.0000   1.0000   1.0000   1.0000   1.0000   1.0000
     1.0000   1.0000   1.0000   1.0000   1.0000   1.0000   1.0000   1.0000
     1.0000   1.0000   1.0000   1.0000   1.0000   1.0000   1.0000   1.0000
     1.0000   1.0000   1.0000   1.0000   1.0000   1.0000   1.0000   1.0000
     1.0000   1.0000   1.0000   1.0000   1.0000   1.0000   1.0000   1.0000
     1.0000   1.0000   1.0000   1.0000   1.0000   1.0000   1.0000   1.0000
     1.0000   1.0000   1.0000   1.0000   1.0000   1.0000   1.0000   1.0000
     1.0000   1.0000   1.0000   1.0000   1.0000   1.0000   1.0000   1.0000
     1.0000   1.0000   1.0000   1.0000   1.0000   1.0000   1.0000   1.0000
     1.0000   1.0000   1.0000   1.0000   1.0000   1.0000   1.0000   1.0000

     highest occupied level (ev):     7.8832

!    total energy              =    -969.03998253 Ry
     estimated scf accuracy    <          2.9E-11 Ry

     The total energy is the sum of the following terms:
     one-electron contribution =    -194.26138043 Ry
     hartree contribution      =     157.60584694 Ry
     xc contribution           =    -246.04181057 Ry
     ewald contribution        =    -686.34263846 Ry

     convergence has been achieved in   9 iterations

     negative rho (up, down):  5.166E-01 0.000E+00

     Forces acting on atoms (cartesian axes, Ry/au):

     atom    1 type  2   force =    -0.00000000   -0.00071695   -0.00025643
     atom    2 type  2   force =    -0.00000000    0.00071695    0.00025643
     atom    3 type  2   force =    -0.00000000    0.00071695   -0.00025643
     atom    4 type  2   force =     0.00000000   -0.00071695    0.00025643
     atom    5 type  3   force =    -0.00000000   -0.00065485   -0.00060332
     atom    6 type  3   force =     0.00000000    0.00065485    0.00060332
     atom    7 type  3   force =     0.00000000    0.00065485   -0.00060332
     atom    8 type  3   force =    -0.00000000   -0.00065485    0.00060332
     atom    9 type  1   force =     0.00000000    0.00054734   -0.00051188
     atom   10 type  1   force =     0.00000000   -0.00054734    0.00051188
     atom   11 type  1   force =     0.00000000   -0.00054734   -0.00051188
     atom   12 type  1   force =     0.00000000    0.00054734    0.00051188
     atom   13 type  1   force =     0.00000000   -0.00065387   -0.00023677
     atom   14 type  1   force =     0.00000000    0.00065387    0.00023677
     atom   15 type  1   force =     0.00000000    0.00065387   -0.00023677
     atom   16 type  1   force =    -0.00000000   -0.00065387    0.00023677
     atom   17 type  1   force =     0.00000000    0.00062978    0.00053053
     atom   18 type  1   force =     0.00000000   -0.00062978   -0.00053053
     atom   19 type  1   force =     0.00000000   -0.00062978    0.00053053
     atom   20 type  1   force =     0.00000000    0.00062978   -0.00053053
     The non-local contrib.  to forces
     atom    1 type  2   force =     0.00000000    0.00003500    0.00429746
     atom    2 type  2   force =    -0.00000000   -0.00003500   -0.00429746
     atom    3 type  2   force =     0.00000000   -0.00003500    0.00429746
     atom    4 type  2   force =     0.00000000    0.00003500   -0.00429746
     atom    5 type  3   force =     0.00000000    0.02240361   -0.02222875
     atom    6 type  3   force =     0.00000000   -0.02240361    0.02222875
     atom    7 type  3   force =    -0.00000000   -0.02240361   -0.02222875
     atom    8 type  3   force =     0.00000000    0.02240361    0.02222875
     atom    9 type  1   force =     0.00000000    0.00472092   -0.01095187
     atom   10 type  1   force =     0.00000000   -0.00472092    0.01095187
     atom   11 type  1   force =     0.00000000   -0.00472092   -0.01095187
     atom   12 type  1   force =     0.00000000    0.00472092    0.01095187
     atom   13 type  1   force =     0.00000000   -0.04584823   -0.00358050
     atom   14 type  1   force =     0.00000000    0.04584823    0.00358050
     atom   15 type  1   force =    -0.00000000    0.04584823   -0.00358050
     atom   16 type  1   force =     0.00000000   -0.04584823    0.00358050
     atom   17 type  1   force =     0.00000000    0.04216792    0.06864180
     atom   18 type  1   force =     0.00000000   -0.04216792   -0.06864180
     atom   19 type  1   force =    -0.00000000   -0.04216792    0.06864180
     atom   20 type  1   force =     0.00000000    0.04216792   -0.06864180
     The ionic contribution  to forces
     atom    1 type  2   force =     0.00000000    0.35974237    0.05870949
     atom    2 type  2   force =     0.00000000   -0.35974237   -0.05870949
     atom    3 type  2   force =     0.00000000   -0.35974237    0.05870949
     atom    4 type  2   force =    -0.00000000    0.35974237   -0.05870949
     atom    5 type  3   force =     0.00000000   -2.66624955    1.13999815
     atom    6 type  3   force =     0.00000000    2.66624955   -1.13999815
     atom    7 type  3   force =     0.00000000    2.66624955    1.13999815
     atom    8 type  3   force =     0.00000000   -2.66624955   -1.13999815
     atom    9 type  1   force =     0.00000000   -1.61948783    3.61894588
     atom   10 type  1   force =     0.00000000    1.61948783   -3.61894588
     atom   11 type  1   force =     0.00000000    1.61948783    3.61894588
     atom   12 type  1   force =     0.00000000   -1.61948783   -3.61894588
     atom   13 type  1   force =     0.00000000    3.62018290   -2.22766390
     atom   14 type  1   force =     0.00000000   -3.62018290    2.22766390
     atom   15 type  1   force =     0.00000000   -3.62018290   -2.22766390
     atom   16 type  1   force =    -0.00000000    3.62018290    2.22766390
     atom   17 type  1   force =     0.00000000   -2.94113262   -4.80343899
     atom   18 type  1   force =     0.00000000    2.94113262    4.80343899
     atom   19 type  1   force =     0.00000000    2.94113262   -4.80343899
     atom   20 type  1   force =     0.00000000   -2.94113262    4.80343899
     The local contribution  to forces
     atom    1 type  2   force =    -0.00000000   -0.36060812   -0.06309013
     atom    2 type  2   force =    -0.00000000    0.36060812    0.06309013
     atom    3 type  2   force =    -0.00000000    0.36060812   -0.06309013
     atom    4 type  2   force =    -0.00000000   -0.36060812    0.06309013
     atom    5 type  3   force =    -0.00000000    2.64391095   -1.11811242
     atom    6 type  3   force =    -0.00000000   -2.64391095    1.11811242
     atom    7 type  3   force =    -0.00000000   -2.64391095   -1.11811242
     atom    8 type  3   force =    -0.00000000    2.64391095    1.11811242
     atom    9 type  1   force =    -0.00000000    1.61528070   -3.60844599
     atom   10 type  1   force =    -0.00000000   -1.61528070    3.60844599
     atom   11 type  1   force =    -0.00000000   -1.61528070   -3.60844599
     atom   12 type  1   force =    -0.00000000    1.61528070    3.60844599
     atom   13 type  1   force =    -0.00000000   -3.57717568    2.23051673
     atom   14 type  1   force =    -0.00000000    3.57717568   -2.23051673
     atom   15 type  1   force =    -0.00000000    3.57717568    2.23051673
     atom   16 type  1   force =    -0.00000000   -3.57717568   -2.23051673
     atom   17 type  1   force =    -0.00000000    2.90159505    4.73875033
     atom   18 type  1   force =     0.00000000   -2.90159505   -4.73875033
     atom   19 type  1   force =     0.00000000   -2.90159505    4.73875033
     atom   20 type  1   force =    -0.00000000    2.90159505   -4.73875033
     The core correction contribution to forces
     atom    1 type  2   force =     0.00000000    0.00011247   -0.00017034
     atom    2 type  2   force =     0.00000000   -0.00011247    0.00017034
     atom    3 type  2   force =     0.00000000   -0.00011247   -0.00017034
     atom    4 type  2   force =     0.00000000    0.00011247    0.00017034
     atom    5 type  3   force =     0.00000000   -0.00072148   -0.00026263
     atom    6 type  3   force =     0.00000000    0.00072148    0.00026263
     atom    7 type  3   force =     0.00000000    0.00072148   -0.00026263
     atom    8 type  3   force =     0.00000000   -0.00072148    0.00026263
     atom    9 type  1   force =     0.00000000    0.00003272   -0.00006191
     atom   10 type  1   force =    -0.00000000   -0.00003272    0.00006191
     atom   11 type  1   force =    -0.00000000   -0.00003272   -0.00006191
     atom   12 type  1   force =     0.00000000    0.00003272    0.00006191
     atom   13 type  1   force =    -0.00000000    0.00218668    0.00049005
     atom   14 type  1   force =    -0.00000000   -0.00218668   -0.00049005
     atom   15 type  1   force =    -0.00000000   -0.00218668    0.00049005
     atom   16 type  1   force =     0.00000000    0.00218668   -0.00049005
     atom   17 type  1   force =     0.00000000   -0.00200007   -0.00342140
     atom   18 type  1   force =    -0.00000000    0.00200007    0.00342140
     atom   19 type  1   force =    -0.00000000    0.00200007   -0.00342140
     atom   20 type  1   force =     0.00000000   -0.00200007    0.00342140
     The Hubbard contrib.    to forces
     atom    1 type  2   force =     0.00000000    0.00000000    0.00000000
     atom    2 type  2   force =     0.00000000    0.00000000    0.00000000
     atom    3 type  2   force =     0.00000000    0.00000000    0.00000000
     atom    4 type  2   force =     0.00000000    0.00000000    0.00000000
     atom    5 type  3   force =     0.00000000    0.00000000    0.00000000
     atom    6 type  3   force =     0.00000000    0.00000000    0.00000000
     atom    7 type  3   force =     0.00000000    0.00000000    0.00000000
     atom    8 type  3   force =     0.00000000    0.00000000    0.00000000
     atom    9 type  1   force =     0.00000000    0.00000000    0.00000000
     atom   10 type  1   force =     0.00000000    0.00000000    0.00000000
     atom   11 type  1   force =     0.00000000    0.00000000    0.00000000
     atom   12 type  1   force =     0.00000000    0.00000000    0.00000000
     atom   13 type  1   force =     0.00000000    0.00000000    0.00000000
     atom   14 type  1   force =     0.00000000    0.00000000    0.00000000
     atom   15 type  1   force =     0.00000000    0.00000000    0.00000000
     atom   16 type  1   force =     0.00000000    0.00000000    0.00000000
     atom   17 type  1   force =     0.00000000    0.00000000    0.00000000
     atom   18 type  1   force =     0.00000000    0.00000000    0.00000000
     atom   19 type  1   force =     0.00000000    0.00000000    0.00000000
     atom   20 type  1   force =     0.00000000    0.00000000    0.00000000
     The SCF correction term to forces
     atom    1 type  2   force =     0.00000000    0.00000133   -0.00000291
     atom    2 type  2   force =    -0.00000000   -0.00000133    0.00000291
     atom    3 type  2   force =     0.00000000   -0.00000133   -0.00000291
     atom    4 type  2   force =    -0.00000000    0.00000133    0.00000291
     atom    5 type  3   force =     0.00000000    0.00000162    0.00000233
     atom    6 type  3   force =    -0.00000000   -0.00000162   -0.00000233
     atom    7 type  3   force =    -0.00000000   -0.00000162    0.00000233
     atom    8 type  3   force =     0.00000000    0.00000162   -0.00000233
     atom    9 type  1   force =    -0.00000000    0.00000083    0.00000200
     atom   10 type  1   force =     0.00000000   -0.00000083   -0.00000200
     atom   11 type  1   force =    -0.00000000   -0.00000083    0.00000200
     atom   12 type  1   force =     0.00000000    0.00000083   -0.00000200
     atom   13 type  1   force =    -0.00000000    0.00000046    0.00000085
     atom   14 type  1   force =     0.00000000   -0.00000046   -0.00000085
     atom   15 type  1   force =    -0.00000000   -0.00000046    0.00000085
     atom   16 type  1   force =    -0.00000000    0.00000046   -0.00000085
     atom   17 type  1   force =     0.00000000   -0.00000049   -0.00000122
     atom   18 type  1   force =    -0.00000000    0.00000049    0.00000122
     atom   19 type  1   force =    -0.00000000    0.00000049   -0.00000122
     atom   20 type  1   force =     0.00000000   -0.00000049    0.00000122

     Total force =     0.003519     Total SCF correction =     0.000010


     Computing stress (Cartesian axis) and pressure


     negative rho (up, down):  5.166E-01 0.000E+00
          total   stress  (Ry/bohr**3)                   (kbar)     P=       -0.76
  -0.00000577   0.00000000   0.00000000           -0.85        0.00        0.00
   0.00000000  -0.00000267   0.00000000            0.00       -0.39        0.00
   0.00000000   0.00000000  -0.00000697            0.00        0.00       -1.03

     kinetic stress (kbar)   8934.50      0.00      0.00
                                0.00   8961.80      0.00
                                0.00      0.00   8980.96

     local   stress (kbar)  -7798.47      0.00     -0.00
                                0.00  -4282.48     -0.00
                               -0.00     -0.00  -4000.14

     nonloc. stress (kbar)   7378.47      0.00      0.00
                                0.00   7374.90      0.00
                                0.00      0.00   7380.36

     hartree stress (kbar)   3489.51      0.00     -0.00
                                0.00   2105.48      0.00
                               -0.00      0.00   1813.30

     exc-cor stress (kbar)   2574.31     -0.00     -0.00
                               -0.00   2572.17     -0.00
                               -0.00     -0.00   2574.80

     corecor stress (kbar)  -5266.51      0.00      0.00
                                0.00  -5266.43      0.00
                                0.00      0.00  -5267.15

     ewald   stress (kbar)  -9312.65      0.00      0.00
                                0.00 -11465.84      0.00
                                0.00      0.00 -11483.16

     hubbard stress (kbar)      0.00      0.00      0.00
                                0.00      0.00      0.00
                                0.00      0.00      0.00

     DFT-D   stress (kbar)      0.00      0.00      0.00
                                0.00      0.00      0.00
                                0.00      0.00      0.00

     XDM     stress (kbar)      0.00      0.00      0.00
                                0.00      0.00      0.00
                                0.00      0.00      0.00

     dft-nl  stress (kbar)      0.00      0.00      0.00
                                0.00      0.00      0.00
                                0.00      0.00      0.00

     TS-vdW  stress (kbar)      0.00      0.00      0.00
                                0.00      0.00      0.00
                                0.00      0.00      0.00

     MDB     stress (kbar)      0.00      0.00      0.00
                                0.00      0.00      0.00
                                0.00      0.00      0.00

     3D-RISM stress (kbar)      0.00      0.00      0.00
                                0.00      0.00      0.00
                                0.00      0.00      0.00

     Energy error            =      4.4E-05 Ry
     Gradient error          =      7.2E-04 Ry/Bohr
     Cell gradient error     =      1.0E+00 kbar

     number of scf cycles    =   6
     number of bfgs steps    =   5

     enthalpy           old  =    -969.0399384920 Ry
     enthalpy           new  =    -969.0399825277 Ry

     CASE: enthalpy          _new < enthalpy          _old

     new trust radius        =       0.0099989870 bohr
     new conv_thr            =            1.0E-10 Ry

     new unit-cell volume =   3131.46831 a.u.^3 (   464.03573 Ang^3 )
     density =      3.93688 g/cm^3

CELL_PARAMETERS (angstrom)
   3.838916090   0.000000000   0.000000000
  -0.000000000   8.616583156   0.000000000
   0.000000000   0.000000000  14.028386309

ATOMIC_POSITIONS (crystal)
Sr               0.2500000000        0.0650405653        0.8202132301
Sr               0.7500000000        0.9349594347        0.1797867699
Sr               0.7500000000        0.4349594347        0.3202132301
Sr               0.2500000000        0.5650405653        0.6797867699
Zr               0.2500000000        0.3277848294        0.0568042813
Zr               0.7500000000        0.6722151706        0.9431957187
Zr               0.7500000000        0.1722151706        0.5568042813
Zr               0.2500000000        0.8277848294        0.4431957187
S                0.2500000000        0.2070714848        0.2155755149
S                0.7500000000        0.7929285152        0.7844244851
S                0.7500000000        0.2929285152        0.7155755149
S                0.2500000000        0.7070714848        0.2844244851
S                0.2500000000        0.3365862598        0.4854950383
S                0.7500000000        0.6634137402        0.5145049617
S                0.7500000000        0.1634137402        0.9854950383
S                0.2500000000        0.8365862598        0.0145049617
S                0.2500000000        0.4851880512        0.8942816162
S                0.7500000000        0.5148119488        0.1057183838
S                0.7500000000        0.0148119488        0.3942816162
S                0.2500000000        0.9851880512        0.6057183838



     Writing config-only to output data dir ./tmp/relax/SrZrS3_relax.save/ :
     XML data file
     NEW-OLD atomic charge density approx. for the potential
     New effective cutoffs (rho, wfc):  400.19   50.03

     negative rho (up, down):  5.169E-01 0.000E+00

     total cpu time spent up to now is      927.9 secs

     Self-consistent Calculation

     iteration #  1     ecut=    50.00 Ry     beta= 0.30
     Davidson diagonalization with overlap

---- Real-time Memory Report at c_bands before calling an iterative solver
             0 MiB given to the printing process from OS
             0 MiB allocation reported by mallinfo(arena+hblkhd)
             0 MiB available memory on the node where the printing process lives
------------------
     ethr =  1.00E-06,  avg # of iterations =  4.8

     Threshold (ethr) on eigenvalues was too large:
     Diagonalizing with lowered threshold

     Davidson diagonalization with overlap

---- Real-time Memory Report at c_bands before calling an iterative solver
             0 MiB given to the printing process from OS
             0 MiB allocation reported by mallinfo(arena+hblkhd)
             0 MiB available memory on the node where the printing process lives
------------------
     ethr =  5.95E-09,  avg # of iterations =  8.5

     negative rho (up, down):  5.169E-01 0.000E+00

     total cpu time spent up to now is      948.1 secs

     total energy              =    -969.04003867 Ry
     estimated scf accuracy    <       0.00001554 Ry

     iteration #  2     ecut=    50.00 Ry     beta= 0.30
     Davidson diagonalization with overlap

---- Real-time Memory Report at c_bands before calling an iterative solver
             0 MiB given to the printing process from OS
             0 MiB allocation reported by mallinfo(arena+hblkhd)
             0 MiB available memory on the node where the printing process lives
------------------
     ethr =  9.71E-09,  avg # of iterations =  2.0

     negative rho (up, down):  5.169E-01 0.000E+00

     total cpu time spent up to now is      953.4 secs

     total energy              =    -969.04003973 Ry
     estimated scf accuracy    <       0.00000408 Ry

     iteration #  3     ecut=    50.00 Ry     beta= 0.30
     Davidson diagonalization with overlap

---- Real-time Memory Report at c_bands before calling an iterative solver
             0 MiB given to the printing process from OS
             0 MiB allocation reported by mallinfo(arena+hblkhd)
             0 MiB available memory on the node where the printing process lives
------------------
     ethr =  2.55E-09,  avg # of iterations =  2.0

     negative rho (up, down):  5.169E-01 0.000E+00

     total cpu time spent up to now is      958.5 secs

     total energy              =    -969.04004022 Ry
     estimated scf accuracy    <       0.00000098 Ry

     iteration #  4     ecut=    50.00 Ry     beta= 0.30
     Davidson diagonalization with overlap

---- Real-time Memory Report at c_bands before calling an iterative solver
             0 MiB given to the printing process from OS
             0 MiB allocation reported by mallinfo(arena+hblkhd)
             0 MiB available memory on the node where the printing process lives
------------------
     ethr =  6.12E-10,  avg # of iterations =  3.0

     negative rho (up, down):  5.169E-01 0.000E+00

     total cpu time spent up to now is      964.3 secs

     total energy              =    -969.04004040 Ry
     estimated scf accuracy    <       0.00000017 Ry

     iteration #  5     ecut=    50.00 Ry     beta= 0.30
     Davidson diagonalization with overlap

---- Real-time Memory Report at c_bands before calling an iterative solver
             0 MiB given to the printing process from OS
             0 MiB allocation reported by mallinfo(arena+hblkhd)
             0 MiB available memory on the node where the printing process lives
------------------
     ethr =  1.07E-10,  avg # of iterations =  4.6

     negative rho (up, down):  5.169E-01 0.000E+00

     total cpu time spent up to now is      970.9 secs

     total energy              =    -969.04004045 Ry
     estimated scf accuracy    <       0.00000001 Ry

     iteration #  6     ecut=    50.00 Ry     beta= 0.30
     Davidson diagonalization with overlap

---- Real-time Memory Report at c_bands before calling an iterative solver
             0 MiB given to the printing process from OS
             0 MiB allocation reported by mallinfo(arena+hblkhd)
             0 MiB available memory on the node where the printing process lives
------------------
     ethr =  8.42E-12,  avg # of iterations =  4.9

     negative rho (up, down):  5.169E-01 0.000E+00

     total cpu time spent up to now is      977.8 secs

     total energy              =    -969.04004047 Ry
     estimated scf accuracy    <          3.5E-09 Ry

     iteration #  7     ecut=    50.00 Ry     beta= 0.30
     Davidson diagonalization with overlap

---- Real-time Memory Report at c_bands before calling an iterative solver
             0 MiB given to the printing process from OS
             0 MiB allocation reported by mallinfo(arena+hblkhd)
             0 MiB available memory on the node where the printing process lives
------------------
     ethr =  2.21E-12,  avg # of iterations =  5.6

     negative rho (up, down):  5.169E-01 0.000E+00

     total cpu time spent up to now is      985.7 secs

     total energy              =    -969.04004047 Ry
     estimated scf accuracy    <          4.0E-09 Ry

     iteration #  8     ecut=    50.00 Ry     beta= 0.30
     Davidson diagonalization with overlap

---- Real-time Memory Report at c_bands before calling an iterative solver
             0 MiB given to the printing process from OS
             0 MiB allocation reported by mallinfo(arena+hblkhd)
             0 MiB available memory on the node where the printing process lives
------------------
     ethr =  2.21E-12,  avg # of iterations =  5.2

     negative rho (up, down):  5.169E-01 0.000E+00

     total cpu time spent up to now is      992.8 secs

     total energy              =    -969.04004048 Ry
     estimated scf accuracy    <          2.4E-09 Ry

     iteration #  9     ecut=    50.00 Ry     beta= 0.30
     Davidson diagonalization with overlap

---- Real-time Memory Report at c_bands before calling an iterative solver
             0 MiB given to the printing process from OS
             0 MiB allocation reported by mallinfo(arena+hblkhd)
             0 MiB available memory on the node where the printing process lives
------------------
     ethr =  1.52E-12,  avg # of iterations =  2.6

     negative rho (up, down):  5.169E-01 0.000E+00

     total cpu time spent up to now is      998.2 secs

     total energy              =    -969.04004048 Ry
     estimated scf accuracy    <          4.0E-10 Ry

     iteration # 10     ecut=    50.00 Ry     beta= 0.30
     Davidson diagonalization with overlap

---- Real-time Memory Report at c_bands before calling an iterative solver
             0 MiB given to the printing process from OS
             0 MiB allocation reported by mallinfo(arena+hblkhd)
             0 MiB available memory on the node where the printing process lives
------------------
     ethr =  2.52E-13,  avg # of iterations =  5.6

     negative rho (up, down):  5.169E-01 0.000E+00

     total cpu time spent up to now is     1005.8 secs

     total energy              =    -969.04004048 Ry
     estimated scf accuracy    <          2.1E-10 Ry

     iteration # 11     ecut=    50.00 Ry     beta= 0.30
     Davidson diagonalization with overlap

---- Real-time Memory Report at c_bands before calling an iterative solver
             0 MiB given to the printing process from OS
             0 MiB allocation reported by mallinfo(arena+hblkhd)
             0 MiB available memory on the node where the printing process lives
------------------
     ethr =  1.32E-13,  avg # of iterations =  1.0

     negative rho (up, down):  5.169E-01 0.000E+00

     total cpu time spent up to now is     1010.1 secs

     total energy              =    -969.04004048 Ry
     estimated scf accuracy    <          1.9E-10 Ry

     iteration # 12     ecut=    50.00 Ry     beta= 0.30
     Davidson diagonalization with overlap

---- Real-time Memory Report at c_bands before calling an iterative solver
             0 MiB given to the printing process from OS
             0 MiB allocation reported by mallinfo(arena+hblkhd)
             0 MiB available memory on the node where the printing process lives
------------------
     ethr =  1.17E-13,  avg # of iterations =  2.7

     negative rho (up, down):  5.169E-01 0.000E+00

     total cpu time spent up to now is     1015.6 secs

     End of self-consistent calculation

          k = 0.0000 0.0000 0.0000 ( 18571 PWs)   bands (ev):

   -41.4131 -41.4131 -41.4086 -41.4086 -26.6636 -26.6634 -26.6620 -26.6618
   -19.5005 -19.5005 -19.4665 -19.4664 -19.4200 -19.4199 -19.3933 -19.3932
   -19.3741 -19.3741 -19.3579 -19.3579  -8.7644  -8.7578  -8.7547  -8.7465
    -8.7341  -8.7101  -8.6563  -8.6558  -8.5977  -8.5969  -8.5913  -8.5904
    -4.8803  -4.6511  -4.1022  -4.0492  -3.8125  -3.7158  -3.6786  -3.6729
    -3.5477  -3.4548  -3.3994  -3.3266   3.6438   3.8673   3.9178   3.9428
     3.9636   4.1598   4.2812   4.5463   4.7580   4.7634   4.7936   4.8259
     4.8754   4.9174   4.9288   5.4277   5.6513   5.6727   5.7097   5.9128
     5.9285   5.9824   6.2682   6.2959   6.4919   6.5696   6.6398   6.6759
     6.7404   6.8413   6.9429   7.1217   7.4444   7.4533   7.6740   7.8738

     occupation numbers 
     1.0000   1.0000   1.0000   1.0000   1.0000   1.0000   1.0000   1.0000
     1.0000   1.0000   1.0000   1.0000   1.0000   1.0000   1.0000   1.0000
     1.0000   1.0000   1.0000   1.0000   1.0000   1.0000   1.0000   1.0000
     1.0000   1.0000   1.0000   1.0000   1.0000   1.0000   1.0000   1.0000
     1.0000   1.0000   1.0000   1.0000   1.0000   1.0000   1.0000   1.0000
     1.0000   1.0000   1.0000   1.0000   1.0000   1.0000   1.0000   1.0000
     1.0000   1.0000   1.0000   1.0000   1.0000   1.0000   1.0000   1.0000
     1.0000   1.0000   1.0000   1.0000   1.0000   1.0000   1.0000   1.0000
     1.0000   1.0000   1.0000   1.0000   1.0000   1.0000   1.0000   1.0000
     1.0000   1.0000   1.0000   1.0000   1.0000   1.0000   1.0000   1.0000

          k = 0.0000 0.0000-0.1369 ( 18560 PWs)   bands (ev):

   -41.4131 -41.4131 -41.4086 -41.4086 -26.6635 -26.6635 -26.6619 -26.6619
   -19.5005 -19.5005 -19.4665 -19.4665 -19.4200 -19.4200 -19.3932 -19.3932
   -19.3741 -19.3741 -19.3579 -19.3579  -8.7610  -8.7610  -8.7523  -8.7523
    -8.7206  -8.7206  -8.6561  -8.6561  -8.5973  -8.5973  -8.5909  -8.5909
    -4.7803  -4.7803  -4.0597  -4.0597  -3.7627  -3.7627  -3.6619  -3.6619
    -3.5306  -3.5306  -3.3505  -3.3505   3.7291   3.7291   3.9368   3.9368
     4.0555   4.0555   4.5072   4.5072   4.7781   4.7781   4.8290   4.8290
     4.9011   4.9011   4.9232   4.9232   5.5328   5.5328   5.9550   5.9550
     6.1592   6.1592   6.2908   6.2908   6.6324   6.6324   6.6797   6.6797
     6.7000   6.7000   7.0278   7.0278   7.3137   7.3137   7.7695   7.7695

     occupation numbers 
     1.0000   1.0000   1.0000   1.0000   1.0000   1.0000   1.0000   1.0000
     1.0000   1.0000   1.0000   1.0000   1.0000   1.0000   1.0000   1.0000
     1.0000   1.0000   1.0000   1.0000   1.0000   1.0000   1.0000   1.0000
     1.0000   1.0000   1.0000   1.0000   1.0000   1.0000   1.0000   1.0000
     1.0000   1.0000   1.0000   1.0000   1.0000   1.0000   1.0000   1.0000
     1.0000   1.0000   1.0000   1.0000   1.0000   1.0000   1.0000   1.0000
     1.0000   1.0000   1.0000   1.0000   1.0000   1.0000   1.0000   1.0000
     1.0000   1.0000   1.0000   1.0000   1.0000   1.0000   1.0000   1.0000
     1.0000   1.0000   1.0000   1.0000   1.0000   1.0000   1.0000   1.0000
     1.0000   1.0000   1.0000   1.0000   1.0000   1.0000   1.0000   1.0000

          k = 0.0000 0.1486 0.0000 ( 18580 PWs)   bands (ev):

   -41.4131 -41.4131 -41.4086 -41.4086 -26.6632 -26.6630 -26.6624 -26.6622
   -19.5003 -19.5003 -19.4667 -19.4667 -19.4199 -19.4199 -19.3933 -19.3933
   -19.3741 -19.3741 -19.3579 -19.3579  -8.7701  -8.7615  -8.7502  -8.7389
    -8.7182  -8.6970  -8.6775  -8.6688  -8.5961  -8.5953  -8.5929  -8.5920
    -4.7620  -4.6134  -4.2057  -4.1648  -3.9432  -3.9201  -3.5535  -3.5068
    -3.4668  -3.4380  -3.3559  -3.3435   3.4583   3.5932   3.7337   3.7584
     4.0902   4.2313   4.3580   4.7578   4.7819   4.8867   4.8898   4.9035
     4.9086   5.1402   5.2323   5.2792   5.5440   5.6206   5.7980   6.0344
     6.0965   6.1154   6.1365   6.3245   6.5048   6.5529   6.7094   6.7716
     6.8046   6.8576   6.9274   7.0784   7.1516   7.2349   7.3093   7.3619

     occupation numbers 
     1.0000   1.0000   1.0000   1.0000   1.0000   1.0000   1.0000   1.0000
     1.0000   1.0000   1.0000   1.0000   1.0000   1.0000   1.0000   1.0000
     1.0000   1.0000   1.0000   1.0000   1.0000   1.0000   1.0000   1.0000
     1.0000   1.0000   1.0000   1.0000   1.0000   1.0000   1.0000   1.0000
     1.0000   1.0000   1.0000   1.0000   1.0000   1.0000   1.0000   1.0000
     1.0000   1.0000   1.0000   1.0000   1.0000   1.0000   1.0000   1.0000
     1.0000   1.0000   1.0000   1.0000   1.0000   1.0000   1.0000   1.0000
     1.0000   1.0000   1.0000   1.0000   1.0000   1.0000   1.0000   1.0000
     1.0000   1.0000   1.0000   1.0000   1.0000   1.0000   1.0000   1.0000
     1.0000   1.0000   1.0000   1.0000   1.0000   1.0000   1.0000   1.0000

          k = 0.0000 0.1486-0.1369 ( 18590 PWs)   bands (ev):

   -41.4131 -41.4131 -41.4086 -41.4086 -26.6631 -26.6631 -26.6623 -26.6623
   -19.5003 -19.5003 -19.4667 -19.4667 -19.4199 -19.4199 -19.3933 -19.3933
   -19.3741 -19.3741 -19.3579 -19.3579  -8.7630  -8.7630  -8.7494  -8.7494
    -8.7064  -8.7064  -8.6724  -8.6724  -8.5958  -8.5958  -8.5924  -8.5924
    -4.6894  -4.6894  -4.2038  -4.2038  -3.9050  -3.9050  -3.5454  -3.5454
    -3.4168  -3.4168  -3.3766  -3.3766   3.5215   3.5215   3.7212   3.7212
     4.1896   4.1896   4.6608   4.6608   4.7707   4.7707   4.8442   4.8442
     4.8979   4.8979   5.3972   5.3972   5.5389   5.5389   5.9283   5.9283
     6.1261   6.1261   6.3329   6.3329   6.5299   6.5299   6.7018   6.7018
     6.7506   6.7506   6.9875   6.9875   7.1608   7.1608   7.4042   7.4042

     occupation numbers 
     1.0000   1.0000   1.0000   1.0000   1.0000   1.0000   1.0000   1.0000
     1.0000   1.0000   1.0000   1.0000   1.0000   1.0000   1.0000   1.0000
     1.0000   1.0000   1.0000   1.0000   1.0000   1.0000   1.0000   1.0000
     1.0000   1.0000   1.0000   1.0000   1.0000   1.0000   1.0000   1.0000
     1.0000   1.0000   1.0000   1.0000   1.0000   1.0000   1.0000   1.0000
     1.0000   1.0000   1.0000   1.0000   1.0000   1.0000   1.0000   1.0000
     1.0000   1.0000   1.0000   1.0000   1.0000   1.0000   1.0000   1.0000
     1.0000   1.0000   1.0000   1.0000   1.0000   1.0000   1.0000   1.0000
     1.0000   1.0000   1.0000   1.0000   1.0000   1.0000   1.0000   1.0000
     1.0000   1.0000   1.0000   1.0000   1.0000   1.0000   1.0000   1.0000

          k = 0.1667 0.0000 0.0000 ( 18537 PWs)   bands (ev):

   -41.4115 -41.4115 -41.4076 -41.4076 -26.6585 -26.6583 -26.6570 -26.6568
   -19.4927 -19.4926 -19.4613 -19.4612 -19.4191 -19.4190 -19.4104 -19.4103
   -19.3872 -19.3872 -19.3859 -19.3859  -8.7392  -8.7362  -8.7355  -8.7252
    -8.7193  -8.6961  -8.6951  -8.6924  -8.6770  -8.6751  -8.6441  -8.6434
    -4.6937  -4.4930  -4.0105  -3.9648  -3.8333  -3.7505  -3.6874  -3.6575
    -3.5083  -3.3972  -3.3911  -3.3441   3.7952   3.8831   4.0497   4.0714
     4.0895   4.2039   4.2811   4.3270   4.4237   4.4245   4.6145   5.0281
     5.1433   5.2544   5.3707   5.4246   5.4774   5.5381   5.6387   5.7144
     5.7515   5.8082   5.8497   6.1220   6.1312   6.2467   6.3046   6.4281
     6.4506   6.6378   6.6416   6.8546   6.9511   7.2487   7.3910   7.4736

     occupation numbers 
     1.0000   1.0000   1.0000   1.0000   1.0000   1.0000   1.0000   1.0000
     1.0000   1.0000   1.0000   1.0000   1.0000   1.0000   1.0000   1.0000
     1.0000   1.0000   1.0000   1.0000   1.0000   1.0000   1.0000   1.0000
     1.0000   1.0000   1.0000   1.0000   1.0000   1.0000   1.0000   1.0000
     1.0000   1.0000   1.0000   1.0000   1.0000   1.0000   1.0000   1.0000
     1.0000   1.0000   1.0000   1.0000   1.0000   1.0000   1.0000   1.0000
     1.0000   1.0000   1.0000   1.0000   1.0000   1.0000   1.0000   1.0000
     1.0000   1.0000   1.0000   1.0000   1.0000   1.0000   1.0000   1.0000
     1.0000   1.0000   1.0000   1.0000   1.0000   1.0000   1.0000   1.0000
     1.0000   1.0000   1.0000   1.0000   1.0000   1.0000   1.0000   1.0000

          k = 0.1667 0.0000-0.1369 ( 18576 PWs)   bands (ev):

   -41.4115 -41.4115 -41.4076 -41.4076 -26.6584 -26.6584 -26.6569 -26.6569
   -19.4927 -19.4927 -19.4613 -19.4613 -19.4190 -19.4190 -19.4104 -19.4104
   -19.3872 -19.3872 -19.3859 -19.3859  -8.7369  -8.7369  -8.7329  -8.7329
    -8.7078  -8.7078  -8.6918  -8.6918  -8.6762  -8.6762  -8.6438  -8.6438
    -4.6058  -4.6058  -3.9760  -3.9760  -3.7880  -3.7880  -3.6720  -3.6720
    -3.4667  -3.4667  -3.3572  -3.3572   3.8295   3.8295   4.0417   4.0417
     4.1465   4.1465   4.2959   4.2959   4.5197   4.5197   4.7439   4.7439
     5.1875   5.1875   5.3750   5.3750   5.4893   5.4893   5.6437   5.6437
     5.8117   5.8117   6.0636   6.0636   6.2487   6.2487   6.3537   6.3537
     6.5017   6.5017   6.6690   6.6690   7.1734   7.1734   7.4360   7.4360

     occupation numbers 
     1.0000   1.0000   1.0000   1.0000   1.0000   1.0000   1.0000   1.0000
     1.0000   1.0000   1.0000   1.0000   1.0000   1.0000   1.0000   1.0000
     1.0000   1.0000   1.0000   1.0000   1.0000   1.0000   1.0000   1.0000
     1.0000   1.0000   1.0000   1.0000   1.0000   1.0000   1.0000   1.0000
     1.0000   1.0000   1.0000   1.0000   1.0000   1.0000   1.0000   1.0000
     1.0000   1.0000   1.0000   1.0000   1.0000   1.0000   1.0000   1.0000
     1.0000   1.0000   1.0000   1.0000   1.0000   1.0000   1.0000   1.0000
     1.0000   1.0000   1.0000   1.0000   1.0000   1.0000   1.0000   1.0000
     1.0000   1.0000   1.0000   1.0000   1.0000   1.0000   1.0000   1.0000
     1.0000   1.0000   1.0000   1.0000   1.0000   1.0000   1.0000   1.0000

          k = 0.1667 0.1486 0.0000 ( 18591 PWs)   bands (ev):

   -41.4115 -41.4115 -41.4076 -41.4076 -26.6581 -26.6579 -26.6573 -26.6572
   -19.4925 -19.4925 -19.4615 -19.4615 -19.4190 -19.4190 -19.4104 -19.4104
   -19.3872 -19.3872 -19.3859 -19.3859  -8.7466  -8.7408  -8.7300  -8.7229
    -8.7058  -8.6944  -8.6896  -8.6874  -8.6759  -8.6741  -8.6581  -8.6546
    -4.5958  -4.4686  -4.0801  -4.0455  -3.9390  -3.9156  -3.5355  -3.5062
    -3.4893  -3.4418  -3.3538  -3.3535   3.7094   3.8135   3.9063   3.9220
     4.1399   4.2231   4.3283   4.5123   4.5320   4.5776   4.7960   4.9535
     5.0268   5.1140   5.3291   5.3587   5.4284   5.5714   5.5800   5.6061
     5.7616   5.9192   5.9957   6.0144   6.1318   6.1805   6.4089   6.4799
     6.5945   6.6396   6.7406   6.8843   7.0849   7.2228   7.3380   7.3633

     occupation numbers 
     1.0000   1.0000   1.0000   1.0000   1.0000   1.0000   1.0000   1.0000
     1.0000   1.0000   1.0000   1.0000   1.0000   1.0000   1.0000   1.0000
     1.0000   1.0000   1.0000   1.0000   1.0000   1.0000   1.0000   1.0000
     1.0000   1.0000   1.0000   1.0000   1.0000   1.0000   1.0000   1.0000
     1.0000   1.0000   1.0000   1.0000   1.0000   1.0000   1.0000   1.0000
     1.0000   1.0000   1.0000   1.0000   1.0000   1.0000   1.0000   1.0000
     1.0000   1.0000   1.0000   1.0000   1.0000   1.0000   1.0000   1.0000
     1.0000   1.0000   1.0000   1.0000   1.0000   1.0000   1.0000   1.0000
     1.0000   1.0000   1.0000   1.0000   1.0000   1.0000   1.0000   1.0000
     1.0000   1.0000   1.0000   1.0000   1.0000   1.0000   1.0000   1.0000

          k = 0.1667 0.1486-0.1369 ( 18560 PWs)   bands (ev):

   -41.4115 -41.4115 -41.4076 -41.4076 -26.6580 -26.6580 -26.6572 -26.6572
   -19.4925 -19.4925 -19.4615 -19.4615 -19.4190 -19.4190 -19.4104 -19.4104
   -19.3872 -19.3872 -19.3859 -19.3859  -8.7413  -8.7413  -8.7304  -8.7304
    -8.6982  -8.6982  -8.6891  -8.6891  -8.6750  -8.6750  -8.6562  -8.6562
    -4.5330  -4.5330  -4.0860  -4.0860  -3.9016  -3.9016  -3.5346  -3.5346
    -3.4255  -3.4255  -3.3815  -3.3815   3.7367   3.7367   3.8836   3.8836
     4.2636   4.2636   4.4323   4.4323   4.6122   4.6122   4.7964   4.7964
     5.0097   5.0097   5.3205   5.3205   5.5102   5.5102   5.5744   5.5744
     5.8886   5.8886   6.0183   6.0183   6.2138   6.2138   6.3992   6.3992
     6.6759   6.6759   6.7805   6.7805   7.1388   7.1388   7.3275   7.3275

     occupation numbers 
     1.0000   1.0000   1.0000   1.0000   1.0000   1.0000   1.0000   1.0000
     1.0000   1.0000   1.0000   1.0000   1.0000   1.0000   1.0000   1.0000
     1.0000   1.0000   1.0000   1.0000   1.0000   1.0000   1.0000   1.0000
     1.0000   1.0000   1.0000   1.0000   1.0000   1.0000   1.0000   1.0000
     1.0000   1.0000   1.0000   1.0000   1.0000   1.0000   1.0000   1.0000
     1.0000   1.0000   1.0000   1.0000   1.0000   1.0000   1.0000   1.0000
     1.0000   1.0000   1.0000   1.0000   1.0000   1.0000   1.0000   1.0000
     1.0000   1.0000   1.0000   1.0000   1.0000   1.0000   1.0000   1.0000
     1.0000   1.0000   1.0000   1.0000   1.0000   1.0000   1.0000   1.0000
     1.0000   1.0000   1.0000   1.0000   1.0000   1.0000   1.0000   1.0000

          k = 0.3334 0.0000 0.0000 ( 18620 PWs)   bands (ev):

   -41.4081 -41.4081 -41.4058 -41.4058 -26.6483 -26.6482 -26.6469 -26.6468
   -19.4829 -19.4828 -19.4710 -19.4710 -19.4456 -19.4456 -19.4453 -19.4452
   -19.4048 -19.4048 -19.3937 -19.3937  -8.8807  -8.8802  -8.8442  -8.8434
    -8.6951  -8.6942  -8.6907  -8.6830  -8.6734  -8.6646  -8.6195  -8.6187
    -4.2635  -4.1457  -3.9227  -3.9218  -3.8438  -3.8010  -3.6278  -3.6251
    -3.3923  -3.3750  -3.3749  -3.2808   3.6320   3.7944   3.9600   4.0275
     4.0502   4.1521   4.2814   4.4168   4.5803   4.6617   4.6901   4.7488
     4.7936   4.8002   4.9342   5.1319   5.3996   5.4578   5.5224   5.5595
     5.6527   5.7046   5.7531   5.7620   5.9929   6.1880   6.2201   6.2817
     6.4153   6.4882   6.5162   6.5350   6.5984   6.6262   6.9605   6.9913

     occupation numbers 
     1.0000   1.0000   1.0000   1.0000   1.0000   1.0000   1.0000   1.0000
     1.0000   1.0000   1.0000   1.0000   1.0000   1.0000   1.0000   1.0000
     1.0000   1.0000   1.0000   1.0000   1.0000   1.0000   1.0000   1.0000
     1.0000   1.0000   1.0000   1.0000   1.0000   1.0000   1.0000   1.0000
     1.0000   1.0000   1.0000   1.0000   1.0000   1.0000   1.0000   1.0000
     1.0000   1.0000   1.0000   1.0000   1.0000   1.0000   1.0000   1.0000
     1.0000   1.0000   1.0000   1.0000   1.0000   1.0000   1.0000   1.0000
     1.0000   1.0000   1.0000   1.0000   1.0000   1.0000   1.0000   1.0000
     1.0000   1.0000   1.0000   1.0000   1.0000   1.0000   1.0000   1.0000
     1.0000   1.0000   1.0000   1.0000   1.0000   1.0000   1.0000   1.0000

          k = 0.3334 0.0000-0.1369 ( 18610 PWs)   bands (ev):

   -41.4081 -41.4081 -41.4058 -41.4058 -26.6482 -26.6482 -26.6468 -26.6468
   -19.4828 -19.4828 -19.4710 -19.4710 -19.4456 -19.4456 -19.4452 -19.4452
   -19.4048 -19.4048 -19.3937 -19.3937  -8.8805  -8.8805  -8.8438  -8.8438
    -8.6944  -8.6944  -8.6879  -8.6879  -8.6683  -8.6683  -8.6191  -8.6191
    -4.2100  -4.2100  -3.9228  -3.9228  -3.8184  -3.8184  -3.6251  -3.6251
    -3.3923  -3.3923  -3.3186  -3.3186   3.7577   3.7577   3.8650   3.8650
     4.1041   4.1041   4.3931   4.3931   4.6587   4.6587   4.7599   4.7599
     4.8061   4.8061   5.0458   5.0458   5.3657   5.3657   5.5809   5.5809
     5.7729   5.7729   5.8022   5.8022   5.8769   5.8769   6.0942   6.0942
     6.4267   6.4267   6.6180   6.6180   6.7387   6.7387   6.9919   6.9919

     occupation numbers 
     1.0000   1.0000   1.0000   1.0000   1.0000   1.0000   1.0000   1.0000
     1.0000   1.0000   1.0000   1.0000   1.0000   1.0000   1.0000   1.0000
     1.0000   1.0000   1.0000   1.0000   1.0000   1.0000   1.0000   1.0000
     1.0000   1.0000   1.0000   1.0000   1.0000   1.0000   1.0000   1.0000
     1.0000   1.0000   1.0000   1.0000   1.0000   1.0000   1.0000   1.0000
     1.0000   1.0000   1.0000   1.0000   1.0000   1.0000   1.0000   1.0000
     1.0000   1.0000   1.0000   1.0000   1.0000   1.0000   1.0000   1.0000
     1.0000   1.0000   1.0000   1.0000   1.0000   1.0000   1.0000   1.0000
     1.0000   1.0000   1.0000   1.0000   1.0000   1.0000   1.0000   1.0000
     1.0000   1.0000   1.0000   1.0000   1.0000   1.0000   1.0000   1.0000

          k = 0.3334 0.1486 0.0000 ( 18628 PWs)   bands (ev):

   -41.4081 -41.4081 -41.4058 -41.4058 -26.6479 -26.6478 -26.6472 -26.6471
   -19.4829 -19.4829 -19.4711 -19.4711 -19.4456 -19.4456 -19.4451 -19.4451
   -19.4048 -19.4048 -19.3937 -19.3937  -8.8720  -8.8712  -8.8539  -8.8528
    -8.6997  -8.6978  -8.6892  -8.6856  -8.6563  -8.6507  -8.6308  -8.6284
    -4.2242  -4.1593  -3.9529  -3.9384  -3.8215  -3.8094  -3.6171  -3.6164
    -3.4042  -3.3904  -3.3423  -3.2999   3.7223   3.7621   3.9221   3.9454
     4.2307   4.2639   4.3368   4.4021   4.4612   4.5002   4.6082   4.6384
     4.7371   4.9100   5.1035   5.2456   5.2462   5.2769   5.3944   5.4637
     5.6606   5.6839   5.7866   5.9188   6.0226   6.0246   6.2341   6.2735
     6.3203   6.3865   6.7165   6.7475   6.8479   6.8579   6.8992   7.0060

     occupation numbers 
     1.0000   1.0000   1.0000   1.0000   1.0000   1.0000   1.0000   1.0000
     1.0000   1.0000   1.0000   1.0000   1.0000   1.0000   1.0000   1.0000
     1.0000   1.0000   1.0000   1.0000   1.0000   1.0000   1.0000   1.0000
     1.0000   1.0000   1.0000   1.0000   1.0000   1.0000   1.0000   1.0000
     1.0000   1.0000   1.0000   1.0000   1.0000   1.0000   1.0000   1.0000
     1.0000   1.0000   1.0000   1.0000   1.0000   1.0000   1.0000   1.0000
     1.0000   1.0000   1.0000   1.0000   1.0000   1.0000   1.0000   1.0000
     1.0000   1.0000   1.0000   1.0000   1.0000   1.0000   1.0000   1.0000
     1.0000   1.0000   1.0000   1.0000   1.0000   1.0000   1.0000   1.0000
     1.0000   1.0000   1.0000   1.0000   1.0000   1.0000   1.0000   1.0000

          k = 0.3334 0.1486-0.1369 ( 18596 PWs)   bands (ev):

   -41.4081 -41.4081 -41.4058 -41.4058 -26.6479 -26.6479 -26.6472 -26.6472
   -19.4829 -19.4829 -19.4711 -19.4711 -19.4456 -19.4456 -19.4451 -19.4451
   -19.4048 -19.4048 -19.3937 -19.3937  -8.8716  -8.8716  -8.8533  -8.8533
    -8.6977  -8.6977  -8.6886  -8.6886  -8.6533  -8.6533  -8.6296  -8.6296
    -4.1889  -4.1889  -3.9589  -3.9589  -3.8073  -3.8073  -3.6165  -3.6165
    -3.3852  -3.3852  -3.3312  -3.3312   3.7513   3.7513   3.8711   3.8711
     4.2432   4.2432   4.3988   4.3988   4.5059   4.5059   4.6898   4.6898
     4.8479   4.8479   5.1518   5.1518   5.2595   5.2595   5.3702   5.3702
     5.6425   5.6425   5.7433   5.7433   6.1324   6.1324   6.2336   6.2336
     6.4618   6.4618   6.6333   6.6333   6.8274   6.8274   7.0212   7.0212

     occupation numbers 
     1.0000   1.0000   1.0000   1.0000   1.0000   1.0000   1.0000   1.0000
     1.0000   1.0000   1.0000   1.0000   1.0000   1.0000   1.0000   1.0000
     1.0000   1.0000   1.0000   1.0000   1.0000   1.0000   1.0000   1.0000
     1.0000   1.0000   1.0000   1.0000   1.0000   1.0000   1.0000   1.0000
     1.0000   1.0000   1.0000   1.0000   1.0000   1.0000   1.0000   1.0000
     1.0000   1.0000   1.0000   1.0000   1.0000   1.0000   1.0000   1.0000
     1.0000   1.0000   1.0000   1.0000   1.0000   1.0000   1.0000   1.0000
     1.0000   1.0000   1.0000   1.0000   1.0000   1.0000   1.0000   1.0000
     1.0000   1.0000   1.0000   1.0000   1.0000   1.0000   1.0000   1.0000
     1.0000   1.0000   1.0000   1.0000   1.0000   1.0000   1.0000   1.0000

          k =-0.5002 0.0000 0.0000 ( 18628 PWs)   bands (ev):

   -41.4056 -41.4056 -41.4056 -41.4056 -26.6431 -26.6431 -26.6418 -26.6418
   -19.4971 -19.4971 -19.4971 -19.4971 -19.4460 -19.4460 -19.4460 -19.4460
   -19.3999 -19.3999 -19.3998 -19.3998  -8.9686  -8.9686  -8.9239  -8.9239
    -8.6723  -8.6723  -8.6706  -8.6706  -8.6462  -8.6462  -8.6066  -8.6066
    -3.9862  -3.9862  -3.9847  -3.9847  -3.6821  -3.6821  -3.6697  -3.6697
    -3.3877  -3.3877  -3.2753  -3.2753   3.5489   3.5489   3.7397   3.7397
     4.0467   4.0467   4.3105   4.3105   4.5167   4.5167   4.6025   4.6025
     5.0737   5.0737   5.2225   5.2225   5.2717   5.2717   5.2787   5.2787
     5.4872   5.4872   5.8805   5.8805   5.9635   5.9635   6.0548   6.0548
     6.5701   6.5701   6.6144   6.6144   6.7293   6.7293   6.7989   6.7989

     occupation numbers 
     1.0000   1.0000   1.0000   1.0000   1.0000   1.0000   1.0000   1.0000
     1.0000   1.0000   1.0000   1.0000   1.0000   1.0000   1.0000   1.0000
     1.0000   1.0000   1.0000   1.0000   1.0000   1.0000   1.0000   1.0000
     1.0000   1.0000   1.0000   1.0000   1.0000   1.0000   1.0000   1.0000
     1.0000   1.0000   1.0000   1.0000   1.0000   1.0000   1.0000   1.0000
     1.0000   1.0000   1.0000   1.0000   1.0000   1.0000   1.0000   1.0000
     1.0000   1.0000   1.0000   1.0000   1.0000   1.0000   1.0000   1.0000
     1.0000   1.0000   1.0000   1.0000   1.0000   1.0000   1.0000   1.0000
     1.0000   1.0000   1.0000   1.0000   1.0000   1.0000   1.0000   1.0000
     1.0000   1.0000   1.0000   1.0000   1.0000   1.0000   1.0000   1.0000

          k =-0.5002 0.0000-0.1369 ( 18652 PWs)   bands (ev):

   -41.4056 -41.4056 -41.4056 -41.4056 -26.6431 -26.6431 -26.6418 -26.6418
   -19.4971 -19.4971 -19.4971 -19.4971 -19.4460 -19.4460 -19.4460 -19.4460
   -19.3999 -19.3999 -19.3998 -19.3998  -8.9686  -8.9686  -8.9239  -8.9239
    -8.6723  -8.6723  -8.6706  -8.6706  -8.6462  -8.6462  -8.6066  -8.6066
    -3.9893  -3.9893  -3.9816  -3.9816  -3.6830  -3.6830  -3.6693  -3.6693
    -3.3876  -3.3876  -3.2749  -3.2749   3.5306   3.5306   3.7720   3.7720
     4.0367   4.0367   4.2509   4.2509   4.5578   4.5578   4.6947   4.6947
     4.9945   4.9945   5.0766   5.0766   5.2424   5.2424   5.4054   5.4054
     5.6733   5.6733   5.6957   5.6957   5.9072   5.9072   6.3684   6.3684
     6.4415   6.4415   6.5116   6.5116   6.6833   6.6833   6.8605   6.8605

     occupation numbers 
     1.0000   1.0000   1.0000   1.0000   1.0000   1.0000   1.0000   1.0000
     1.0000   1.0000   1.0000   1.0000   1.0000   1.0000   1.0000   1.0000
     1.0000   1.0000   1.0000   1.0000   1.0000   1.0000   1.0000   1.0000
     1.0000   1.0000   1.0000   1.0000   1.0000   1.0000   1.0000   1.0000
     1.0000   1.0000   1.0000   1.0000   1.0000   1.0000   1.0000   1.0000
     1.0000   1.0000   1.0000   1.0000   1.0000   1.0000   1.0000   1.0000
     1.0000   1.0000   1.0000   1.0000   1.0000   1.0000   1.0000   1.0000
     1.0000   1.0000   1.0000   1.0000   1.0000   1.0000   1.0000   1.0000
     1.0000   1.0000   1.0000   1.0000   1.0000   1.0000   1.0000   1.0000
     1.0000   1.0000   1.0000   1.0000   1.0000   1.0000   1.0000   1.0000

          k =-0.5002 0.1486 0.0000 ( 18590 PWs)   bands (ev):

   -41.4056 -41.4056 -41.4056 -41.4056 -26.6428 -26.6428 -26.6421 -26.6421
   -19.4972 -19.4972 -19.4972 -19.4972 -19.4459 -19.4459 -19.4459 -19.4459
   -19.3998 -19.3998 -19.3998 -19.3998  -8.9575  -8.9575  -8.9352  -8.9352
    -8.6739  -8.6739  -8.6724  -8.6724  -8.6343  -8.6343  -8.6151  -8.6151
    -3.9859  -3.9859  -3.9847  -3.9847  -3.6802  -3.6802  -3.6752  -3.6752
    -3.3566  -3.3566  -3.3012  -3.3012   3.4755   3.4755   3.5353   3.5353
     4.2615   4.2615   4.3853   4.3853   4.6302   4.6302   4.6454   4.6454
     4.9806   4.9806   5.0574   5.0574   5.2773   5.2773   5.3778   5.3778
     5.6985   5.6985   5.7653   5.7653   6.1563   6.1563   6.1666   6.1666
     6.4064   6.4064   6.4085   6.4085   6.6699   6.6699   6.6849   6.6849

     occupation numbers 
     1.0000   1.0000   1.0000   1.0000   1.0000   1.0000   1.0000   1.0000
     1.0000   1.0000   1.0000   1.0000   1.0000   1.0000   1.0000   1.0000
     1.0000   1.0000   1.0000   1.0000   1.0000   1.0000   1.0000   1.0000
     1.0000   1.0000   1.0000   1.0000   1.0000   1.0000   1.0000   1.0000
     1.0000   1.0000   1.0000   1.0000   1.0000   1.0000   1.0000   1.0000
     1.0000   1.0000   1.0000   1.0000   1.0000   1.0000   1.0000   1.0000
     1.0000   1.0000   1.0000   1.0000   1.0000   1.0000   1.0000   1.0000
     1.0000   1.0000   1.0000   1.0000   1.0000   1.0000   1.0000   1.0000
     1.0000   1.0000   1.0000   1.0000   1.0000   1.0000   1.0000   1.0000
     1.0000   1.0000   1.0000   1.0000   1.0000   1.0000   1.0000   1.0000

          k =-0.5002 0.1486-0.1369 ( 18600 PWs)   bands (ev):

   -41.4056 -41.4056 -41.4056 -41.4056 -26.6428 -26.6428 -26.6421 -26.6421
   -19.4972 -19.4972 -19.4972 -19.4972 -19.4459 -19.4459 -19.4459 -19.4459
   -19.3998 -19.3998 -19.3998 -19.3998  -8.9575  -8.9575  -8.9352  -8.9352
    -8.6738  -8.6738  -8.6724  -8.6724  -8.6343  -8.6343  -8.6151  -8.6151
    -3.9871  -3.9871  -3.9835  -3.9835  -3.6818  -3.6818  -3.6741  -3.6741
    -3.3565  -3.3565  -3.3008  -3.3008   3.4541   3.4541   3.5481   3.5481
     4.2522   4.2522   4.3906   4.3906   4.6068   4.6068   4.6299   4.6299
     5.0666   5.0666   5.1719   5.1719   5.3055   5.3055   5.3062   5.3062
     5.6936   5.6936   5.7731   5.7731   5.9518   5.9518   6.0450   6.0450
     6.4211   6.4211   6.4531   6.4531   6.7665   6.7665   6.7721   6.7721

     occupation numbers 
     1.0000   1.0000   1.0000   1.0000   1.0000   1.0000   1.0000   1.0000
     1.0000   1.0000   1.0000   1.0000   1.0000   1.0000   1.0000   1.0000
     1.0000   1.0000   1.0000   1.0000   1.0000   1.0000   1.0000   1.0000
     1.0000   1.0000   1.0000   1.0000   1.0000   1.0000   1.0000   1.0000
     1.0000   1.0000   1.0000   1.0000   1.0000   1.0000   1.0000   1.0000
     1.0000   1.0000   1.0000   1.0000   1.0000   1.0000   1.0000   1.0000
     1.0000   1.0000   1.0000   1.0000   1.0000   1.0000   1.0000   1.0000
     1.0000   1.0000   1.0000   1.0000   1.0000   1.0000   1.0000   1.0000
     1.0000   1.0000   1.0000   1.0000   1.0000   1.0000   1.0000   1.0000
     1.0000   1.0000   1.0000   1.0000   1.0000   1.0000   1.0000   1.0000

     highest occupied level (ev):     7.8738

!    total energy              =    -969.04004048 Ry
     estimated scf accuracy    <          1.5E-11 Ry

     The total energy is the sum of the following terms:
     one-electron contribution =    -194.75085644 Ry
     hartree contribution      =     157.80384359 Ry
     xc contribution           =    -246.04021099 Ry
     ewald contribution        =    -686.05281664 Ry

     convergence has been achieved in  12 iterations

     negative rho (up, down):  5.169E-01 0.000E+00

     Forces acting on atoms (cartesian axes, Ry/au):

     atom    1 type  2   force =     0.00000000   -0.00052866   -0.00006906
     atom    2 type  2   force =    -0.00000000    0.00052866    0.00006906
     atom    3 type  2   force =     0.00000000    0.00052866   -0.00006906
     atom    4 type  2   force =     0.00000000   -0.00052866    0.00006906
     atom    5 type  3   force =    -0.00000000   -0.00079359   -0.00100251
     atom    6 type  3   force =    -0.00000000    0.00079359    0.00100251
     atom    7 type  3   force =     0.00000000    0.00079359   -0.00100251
     atom    8 type  3   force =     0.00000000   -0.00079359    0.00100251
     atom    9 type  1   force =     0.00000000    0.00044314   -0.00015051
     atom   10 type  1   force =     0.00000000   -0.00044314    0.00015051
     atom   11 type  1   force =    -0.00000000   -0.00044314   -0.00015051
     atom   12 type  1   force =     0.00000000    0.00044314    0.00015051
     atom   13 type  1   force =     0.00000000   -0.00076354   -0.00004142
     atom   14 type  1   force =    -0.00000000    0.00076354    0.00004142
     atom   15 type  1   force =     0.00000000    0.00076354   -0.00004142
     atom   16 type  1   force =     0.00000000   -0.00076354    0.00004142
     atom   17 type  1   force =    -0.00000000    0.00064634    0.00043137
     atom   18 type  1   force =     0.00000000   -0.00064634   -0.00043137
     atom   19 type  1   force =     0.00000000   -0.00064634    0.00043137
     atom   20 type  1   force =     0.00000000    0.00064634   -0.00043137
     The non-local contrib.  to forces
     atom    1 type  2   force =     0.00000000    0.00027668    0.00437876
     atom    2 type  2   force =     0.00000000   -0.00027668   -0.00437876
     atom    3 type  2   force =    -0.00000000   -0.00027668    0.00437876
     atom    4 type  2   force =     0.00000000    0.00027668   -0.00437876
     atom    5 type  3   force =    -0.00000000    0.02235140   -0.02238624
     atom    6 type  3   force =     0.00000000   -0.02235140    0.02238624
     atom    7 type  3   force =     0.00000000   -0.02235140   -0.02238624
     atom    8 type  3   force =    -0.00000000    0.02235140    0.02238624
     atom    9 type  1   force =     0.00000000    0.00454788   -0.01039280
     atom   10 type  1   force =     0.00000000   -0.00454788    0.01039280
     atom   11 type  1   force =     0.00000000   -0.00454788   -0.01039280
     atom   12 type  1   force =     0.00000000    0.00454788    0.01039280
     atom   13 type  1   force =     0.00000000   -0.04587709   -0.00332133
     atom   14 type  1   force =     0.00000000    0.04587709    0.00332133
     atom   15 type  1   force =     0.00000000    0.04587709   -0.00332133
     atom   16 type  1   force =    -0.00000000   -0.04587709    0.00332133
     atom   17 type  1   force =    -0.00000000    0.04209900    0.06839490
     atom   18 type  1   force =     0.00000000   -0.04209900   -0.06839490
     atom   19 type  1   force =     0.00000000   -0.04209900    0.06839490
     atom   20 type  1   force =     0.00000000    0.04209900   -0.06839490
     The ionic contribution  to forces
     atom    1 type  2   force =     0.00000000    0.37178510    0.07432799
     atom    2 type  2   force =     0.00000000   -0.37178510   -0.07432799
     atom    3 type  2   force =     0.00000000   -0.37178510    0.07432799
     atom    4 type  2   force =     0.00000000    0.37178510   -0.07432799
     atom    5 type  3   force =     0.00000000   -2.68551107    1.12058069
     atom    6 type  3   force =     0.00000000    2.68551107   -1.12058069
     atom    7 type  3   force =     0.00000000    2.68551107    1.12058069
     atom    8 type  3   force =     0.00000000   -2.68551107   -1.12058069
     atom    9 type  1   force =     0.00000000   -1.61770609    3.63417057
     atom   10 type  1   force =     0.00000000    1.61770609   -3.63417057
     atom   11 type  1   force =     0.00000000    1.61770609    3.63417057
     atom   12 type  1   force =     0.00000000   -1.61770609   -3.63417057
     atom   13 type  1   force =     0.00000000    3.62309624   -2.23593486
     atom   14 type  1   force =     0.00000000   -3.62309624    2.23593486
     atom   15 type  1   force =    -0.00000000   -3.62309624   -2.23593486
     atom   16 type  1   force =     0.00000000    3.62309624    2.23593486
     atom   17 type  1   force =     0.00000000   -2.95226223   -4.80725853
     atom   18 type  1   force =     0.00000000    2.95226223    4.80725853
     atom   19 type  1   force =     0.00000000    2.95226223   -4.80725853
     atom   20 type  1   force =     0.00000000   -2.95226223    4.80725853
     The local contribution  to forces
     atom    1 type  2   force =    -0.00000000   -0.37268936   -0.07860222
     atom    2 type  2   force =    -0.00000000    0.37268936    0.07860222
     atom    3 type  2   force =    -0.00000000    0.37268936   -0.07860222
     atom    4 type  2   force =    -0.00000000   -0.37268936    0.07860222
     atom    5 type  3   force =    -0.00000000    2.66309941   -1.09893878
     atom    6 type  3   force =    -0.00000000   -2.66309941    1.09893878
     atom    7 type  3   force =    -0.00000000   -2.66309941   -1.09893878
     atom    8 type  3   force =    -0.00000000    2.66309941    1.09893878
     atom    9 type  1   force =     0.00000000    1.61356032   -3.62383371
     atom   10 type  1   force =    -0.00000000   -1.61356032    3.62383371
     atom   11 type  1   force =    -0.00000000   -1.61356032   -3.62383371
     atom   12 type  1   force =     0.00000000    1.61356032    3.62383371
     atom   13 type  1   force =    -0.00000000   -3.58017477    2.23874056
     atom   14 type  1   force =    -0.00000000    3.58017477   -2.23874056
     atom   15 type  1   force =    -0.00000000    3.58017477    2.23874056
     atom   16 type  1   force =    -0.00000000   -3.58017477   -2.23874056
     atom   17 type  1   force =     0.00000000    2.91280431    4.74270503
     atom   18 type  1   force =    -0.00000000   -2.91280431   -4.74270503
     atom   19 type  1   force =    -0.00000000   -2.91280431    4.74270503
     atom   20 type  1   force =     0.00000000    2.91280431   -4.74270503
     The core correction contribution to forces
     atom    1 type  2   force =     0.00000000    0.00009893   -0.00017515
     atom    2 type  2   force =     0.00000000   -0.00009893    0.00017515
     atom    3 type  2   force =     0.00000000   -0.00009893   -0.00017515
     atom    4 type  2   force =     0.00000000    0.00009893    0.00017515
     atom    5 type  3   force =     0.00000000   -0.00072986   -0.00026060
     atom    6 type  3   force =     0.00000000    0.00072986    0.00026060
     atom    7 type  3   force =     0.00000000    0.00072986   -0.00026060
     atom    8 type  3   force =    -0.00000000   -0.00072986    0.00026060
     atom    9 type  1   force =    -0.00000000    0.00004122   -0.00009505
     atom   10 type  1   force =     0.00000000   -0.00004122    0.00009505
     atom   11 type  1   force =     0.00000000   -0.00004122   -0.00009505
     atom   12 type  1   force =    -0.00000000    0.00004122    0.00009505
     atom   13 type  1   force =    -0.00000000    0.00218893    0.00047516
     atom   14 type  1   force =    -0.00000000   -0.00218893   -0.00047516
     atom   15 type  1   force =     0.00000000   -0.00218893    0.00047516
     atom   16 type  1   force =    -0.00000000    0.00218893   -0.00047516
     atom   17 type  1   force =    -0.00000000   -0.00199452   -0.00340772
     atom   18 type  1   force =     0.00000000    0.00199452    0.00340772
     atom   19 type  1   force =     0.00000000    0.00199452   -0.00340772
     atom   20 type  1   force =    -0.00000000   -0.00199452    0.00340772
     The Hubbard contrib.    to forces
     atom    1 type  2   force =     0.00000000    0.00000000    0.00000000
     atom    2 type  2   force =     0.00000000    0.00000000    0.00000000
     atom    3 type  2   force =     0.00000000    0.00000000    0.00000000
     atom    4 type  2   force =     0.00000000    0.00000000    0.00000000
     atom    5 type  3   force =     0.00000000    0.00000000    0.00000000
     atom    6 type  3   force =     0.00000000    0.00000000    0.00000000
     atom    7 type  3   force =     0.00000000    0.00000000    0.00000000
     atom    8 type  3   force =     0.00000000    0.00000000    0.00000000
     atom    9 type  1   force =     0.00000000    0.00000000    0.00000000
     atom   10 type  1   force =     0.00000000    0.00000000    0.00000000
     atom   11 type  1   force =     0.00000000    0.00000000    0.00000000
     atom   12 type  1   force =     0.00000000    0.00000000    0.00000000
     atom   13 type  1   force =     0.00000000    0.00000000    0.00000000
     atom   14 type  1   force =     0.00000000    0.00000000    0.00000000
     atom   15 type  1   force =     0.00000000    0.00000000    0.00000000
     atom   16 type  1   force =     0.00000000    0.00000000    0.00000000
     atom   17 type  1   force =     0.00000000    0.00000000    0.00000000
     atom   18 type  1   force =     0.00000000    0.00000000    0.00000000
     atom   19 type  1   force =     0.00000000    0.00000000    0.00000000
     atom   20 type  1   force =     0.00000000    0.00000000    0.00000000
     The SCF correction term to forces
     atom    1 type  2   force =     0.00000000   -0.00000001    0.00000157
     atom    2 type  2   force =    -0.00000000    0.00000001   -0.00000157
     atom    3 type  2   force =     0.00000000    0.00000001    0.00000157
     atom    4 type  2   force =    -0.00000000   -0.00000001   -0.00000157
     atom    5 type  3   force =     0.00000000   -0.00000347    0.00000243
     atom    6 type  3   force =    -0.00000000    0.00000347   -0.00000243
     atom    7 type  3   force =     0.00000000    0.00000347    0.00000243
     atom    8 type  3   force =    -0.00000000   -0.00000347   -0.00000243
     atom    9 type  1   force =     0.00000000   -0.00000019    0.00000048
     atom   10 type  1   force =    -0.00000000    0.00000019   -0.00000048
     atom   11 type  1   force =    -0.00000000    0.00000019    0.00000048
     atom   12 type  1   force =     0.00000000   -0.00000019   -0.00000048
     atom   13 type  1   force =    -0.00000000    0.00000316   -0.00000095
     atom   14 type  1   force =     0.00000000   -0.00000316    0.00000095
     atom   15 type  1   force =    -0.00000000   -0.00000316   -0.00000095
     atom   16 type  1   force =     0.00000000    0.00000316    0.00000095
     atom   17 type  1   force =    -0.00000000   -0.00000023   -0.00000230
     atom   18 type  1   force =     0.00000000    0.00000023    0.00000230
     atom   19 type  1   force =    -0.00000000    0.00000023   -0.00000230
     atom   20 type  1   force =     0.00000000   -0.00000023    0.00000230

     Total force =     0.003648     Total SCF correction =     0.000012


     Computing stress (Cartesian axis) and pressure


     negative rho (up, down):  5.169E-01 0.000E+00
          total   stress  (Ry/bohr**3)                   (kbar)     P=       -0.82
  -0.00000393   0.00000000   0.00000000           -0.58        0.00        0.00
   0.00000000  -0.00000417   0.00000000            0.00       -0.61        0.00
   0.00000000   0.00000000  -0.00000857            0.00        0.00       -1.26

     kinetic stress (kbar)   8929.21      0.00      0.00
                                0.00   8956.10      0.00
                                0.00      0.00   8975.23

     local   stress (kbar)  -7814.10      0.00     -0.00
                                0.00  -4284.06     -0.00
                               -0.00     -0.00  -3995.92

     nonloc. stress (kbar)   7373.95      0.00      0.00
                                0.00   7370.34      0.00
                                0.00      0.00   7375.84

     hartree stress (kbar)   3496.14     -0.00      0.00
                               -0.00   2105.70     -0.00
                                0.00     -0.00   1811.22

     exc-cor stress (kbar)   2572.74      0.00     -0.00
                                0.00   2570.62     -0.00
                               -0.00     -0.00   2573.25

     corecor stress (kbar)  -5263.29      0.00     -0.00
                                0.00  -5263.21      0.00
                               -0.00      0.00  -5263.92

     ewald   stress (kbar)  -9295.22      0.00      0.00
                                0.00 -11456.10      0.00
                                0.00      0.00 -11476.96

     hubbard stress (kbar)      0.00      0.00      0.00
                                0.00      0.00      0.00
                                0.00      0.00      0.00

     DFT-D   stress (kbar)      0.00      0.00      0.00
                                0.00      0.00      0.00
                                0.00      0.00      0.00

     XDM     stress (kbar)      0.00      0.00      0.00
                                0.00      0.00      0.00
                                0.00      0.00      0.00

     dft-nl  stress (kbar)      0.00      0.00      0.00
                                0.00      0.00      0.00
                                0.00      0.00      0.00

     TS-vdW  stress (kbar)      0.00      0.00      0.00
                                0.00      0.00      0.00
                                0.00      0.00      0.00

     MDB     stress (kbar)      0.00      0.00      0.00
                                0.00      0.00      0.00
                                0.00      0.00      0.00

     3D-RISM stress (kbar)      0.00      0.00      0.00
                                0.00      0.00      0.00
                                0.00      0.00      0.00

     Energy error            =      5.8E-05 Ry
     Gradient error          =      1.0E-03 Ry/Bohr
     Cell gradient error     =      1.3E+00 kbar

     number of scf cycles    =   7
     number of bfgs steps    =   6

     enthalpy           old  =    -969.0399825277 Ry
     enthalpy           new  =    -969.0400404783 Ry

     CASE: enthalpy          _new < enthalpy          _old

     new trust radius        =       0.0149896773 bohr
     new conv_thr            =       0.0000000001 Ry

     new unit-cell volume =   3133.58422 a.u.^3 (   464.34927 Ang^3 )
     density =      3.93422 g/cm^3

CELL_PARAMETERS (angstrom)
   3.835655090   0.000000000   0.000000000
  -0.000000000   8.627838434   0.000000000
   0.000000000   0.000000000  14.031471512

ATOMIC_POSITIONS (crystal)
Sr               0.2500000000        0.0642272074        0.8199483973
Sr               0.7500000000        0.9357727926        0.1800516027
Sr               0.7500000000        0.4357727926        0.3199483973
Sr               0.2500000000        0.5642272074        0.6800516027
Zr               0.2500000000        0.3276415577        0.0566062437
Zr               0.7500000000        0.6723584423        0.9433937563
Zr               0.7500000000        0.1723584423        0.5566062437
Zr               0.2500000000        0.8276415577        0.4433937563
S                0.2500000000        0.2074392569        0.2153905088
S                0.7500000000        0.7925607431        0.7846094912
S                0.7500000000        0.2925607431        0.7153905088
S                0.2500000000        0.7074392569        0.2846094912
S                0.2500000000        0.3365195751        0.4850788602
S                0.7500000000        0.6634804249        0.5149211398
S                0.7500000000        0.1634804249        0.9850788602
S                0.2500000000        0.8365195751        0.0149211398
S                0.2500000000        0.4855803064        0.8944259141
S                0.7500000000        0.5144196936        0.1055740859
S                0.7500000000        0.0144196936        0.3944259141
S                0.2500000000        0.9855803064        0.6055740859



     Writing config-only to output data dir ./tmp/relax/SrZrS3_relax.save/ :
     XML data file
     NEW-OLD atomic charge density approx. for the potential
     New effective cutoffs (rho, wfc):  400.86   50.12

     negative rho (up, down):  5.175E-01 0.000E+00

     total cpu time spent up to now is     1022.6 secs

     Self-consistent Calculation

     iteration #  1     ecut=    50.00 Ry     beta= 0.30
     Davidson diagonalization with overlap

---- Real-time Memory Report at c_bands before calling an iterative solver
             0 MiB given to the printing process from OS
             0 MiB allocation reported by mallinfo(arena+hblkhd)
             0 MiB available memory on the node where the printing process lives
------------------
     ethr =  1.00E-06,  avg # of iterations =  6.2

     Threshold (ethr) on eigenvalues was too large:
     Diagonalizing with lowered threshold

     Davidson diagonalization with overlap

---- Real-time Memory Report at c_bands before calling an iterative solver
             0 MiB given to the printing process from OS
             0 MiB allocation reported by mallinfo(arena+hblkhd)
             0 MiB available memory on the node where the printing process lives
------------------
     ethr =  1.54E-08,  avg # of iterations =  7.1

     negative rho (up, down):  5.176E-01 0.000E+00

     total cpu time spent up to now is     1043.0 secs

     total energy              =    -969.04009533 Ry
     estimated scf accuracy    <       0.00004077 Ry

     iteration #  2     ecut=    50.00 Ry     beta= 0.30
     Davidson diagonalization with overlap

---- Real-time Memory Report at c_bands before calling an iterative solver
             0 MiB given to the printing process from OS
             0 MiB allocation reported by mallinfo(arena+hblkhd)
             0 MiB available memory on the node where the printing process lives
------------------
     ethr =  2.55E-08,  avg # of iterations =  2.1

     negative rho (up, down):  5.176E-01 0.000E+00

     total cpu time spent up to now is     1048.3 secs

     total energy              =    -969.04009895 Ry
     estimated scf accuracy    <       0.00001025 Ry

     iteration #  3     ecut=    50.00 Ry     beta= 0.30
     Davidson diagonalization with overlap

---- Real-time Memory Report at c_bands before calling an iterative solver
             0 MiB given to the printing process from OS
             0 MiB allocation reported by mallinfo(arena+hblkhd)
             0 MiB available memory on the node where the printing process lives
------------------
     ethr =  6.41E-09,  avg # of iterations =  2.1

     negative rho (up, down):  5.176E-01 0.000E+00

     total cpu time spent up to now is     1053.2 secs

     total energy              =    -969.04009987 Ry
     estimated scf accuracy    <       0.00000303 Ry

     iteration #  4     ecut=    50.00 Ry     beta= 0.30
     Davidson diagonalization with overlap

---- Real-time Memory Report at c_bands before calling an iterative solver
             0 MiB given to the printing process from OS
             0 MiB allocation reported by mallinfo(arena+hblkhd)
             0 MiB available memory on the node where the printing process lives
------------------
     ethr =  1.89E-09,  avg # of iterations =  2.4

     negative rho (up, down):  5.176E-01 0.000E+00

     total cpu time spent up to now is     1058.8 secs

     total energy              =    -969.04010033 Ry
     estimated scf accuracy    <       0.00000047 Ry

     iteration #  5     ecut=    50.00 Ry     beta= 0.30
     Davidson diagonalization with overlap

---- Real-time Memory Report at c_bands before calling an iterative solver
             0 MiB given to the printing process from OS
             0 MiB allocation reported by mallinfo(arena+hblkhd)
             0 MiB available memory on the node where the printing process lives
------------------
     ethr =  2.93E-10,  avg # of iterations =  5.6

     negative rho (up, down):  5.176E-01 0.000E+00

     total cpu time spent up to now is     1066.5 secs

     total energy              =    -969.04010040 Ry
     estimated scf accuracy    <       0.00000059 Ry

     iteration #  6     ecut=    50.00 Ry     beta= 0.30
     Davidson diagonalization with overlap

---- Real-time Memory Report at c_bands before calling an iterative solver
             0 MiB given to the printing process from OS
             0 MiB allocation reported by mallinfo(arena+hblkhd)
             0 MiB available memory on the node where the printing process lives
------------------
     ethr =  2.93E-10,  avg # of iterations =  3.7

     negative rho (up, down):  5.176E-01 0.000E+00

     total cpu time spent up to now is     1072.5 secs

     total energy              =    -969.04010054 Ry
     estimated scf accuracy    <          7.0E-09 Ry

     iteration #  7     ecut=    50.00 Ry     beta= 0.30
     Davidson diagonalization with overlap

---- Real-time Memory Report at c_bands before calling an iterative solver
             0 MiB given to the printing process from OS
             0 MiB allocation reported by mallinfo(arena+hblkhd)
             0 MiB available memory on the node where the printing process lives
------------------
     ethr =  4.38E-12,  avg # of iterations =  7.4

     negative rho (up, down):  5.176E-01 0.000E+00

     total cpu time spent up to now is     1084.1 secs

     total energy              =    -969.04010056 Ry
     estimated scf accuracy    <       0.00000004 Ry

     iteration #  8     ecut=    50.00 Ry     beta= 0.30
     Davidson diagonalization with overlap

---- Real-time Memory Report at c_bands before calling an iterative solver
             0 MiB given to the printing process from OS
             0 MiB allocation reported by mallinfo(arena+hblkhd)
             0 MiB available memory on the node where the printing process lives
------------------
     ethr =  4.38E-12,  avg # of iterations =  5.2

     negative rho (up, down):  5.176E-01 0.000E+00

     total cpu time spent up to now is     1091.6 secs

     total energy              =    -969.04010057 Ry
     estimated scf accuracy    <          4.9E-10 Ry

     iteration #  9     ecut=    50.00 Ry     beta= 0.30
     Davidson diagonalization with overlap

---- Real-time Memory Report at c_bands before calling an iterative solver
             0 MiB given to the printing process from OS
             0 MiB allocation reported by mallinfo(arena+hblkhd)
             0 MiB available memory on the node where the printing process lives
------------------
     ethr =  3.07E-13,  avg # of iterations =  6.3

     negative rho (up, down):  5.176E-01 0.000E+00

     total cpu time spent up to now is     1100.7 secs

     total energy              =    -969.04010057 Ry
     estimated scf accuracy    <          2.8E-09 Ry

     iteration # 10     ecut=    50.00 Ry     beta= 0.30
     Davidson diagonalization with overlap

---- Real-time Memory Report at c_bands before calling an iterative solver
             0 MiB given to the printing process from OS
             0 MiB allocation reported by mallinfo(arena+hblkhd)
             0 MiB available memory on the node where the printing process lives
------------------
     ethr =  3.07E-13,  avg # of iterations =  5.9

     negative rho (up, down):  5.176E-01 0.000E+00

     total cpu time spent up to now is     1108.8 secs

     End of self-consistent calculation

          k = 0.0000 0.0000 0.0000 ( 18571 PWs)   bands (ev):

   -41.4188 -41.4188 -41.4143 -41.4143 -26.6760 -26.6758 -26.6744 -26.6742
   -19.5067 -19.5067 -19.4721 -19.4721 -19.4260 -19.4260 -19.3999 -19.3998
   -19.3799 -19.3799 -19.3638 -19.3638  -8.7766  -8.7699  -8.7664  -8.7584
    -8.7461  -8.7224  -8.6688  -8.6683  -8.6096  -8.6088  -8.6033  -8.6024
    -4.8875  -4.6595  -4.1085  -4.0569  -3.8207  -3.7233  -3.6866  -3.6829
    -3.5586  -3.4670  -3.4096  -3.3387   3.6381   3.8561   3.9113   3.9358
     3.9519   4.1478   4.2694   4.5432   4.7499   4.7593   4.7896   4.8149
     4.8670   4.9156   4.9268   5.4188   5.6407   5.6633   5.6943   5.9039
     5.9286   5.9828   6.2548   6.2864   6.4852   6.5683   6.6330   6.6697
     6.7264   6.8372   6.9322   7.1194   7.4360   7.4392   7.6632   7.8616

     occupation numbers 
     1.0000   1.0000   1.0000   1.0000   1.0000   1.0000   1.0000   1.0000
     1.0000   1.0000   1.0000   1.0000   1.0000   1.0000   1.0000   1.0000
     1.0000   1.0000   1.0000   1.0000   1.0000   1.0000   1.0000   1.0000
     1.0000   1.0000   1.0000   1.0000   1.0000   1.0000   1.0000   1.0000
     1.0000   1.0000   1.0000   1.0000   1.0000   1.0000   1.0000   1.0000
     1.0000   1.0000   1.0000   1.0000   1.0000   1.0000   1.0000   1.0000
     1.0000   1.0000   1.0000   1.0000   1.0000   1.0000   1.0000   1.0000
     1.0000   1.0000   1.0000   1.0000   1.0000   1.0000   1.0000   1.0000
     1.0000   1.0000   1.0000   1.0000   1.0000   1.0000   1.0000   1.0000
     1.0000   1.0000   1.0000   1.0000   1.0000   1.0000   1.0000   1.0000

          k = 0.0000 0.0000-0.1368 ( 18560 PWs)   bands (ev):

   -41.4188 -41.4188 -41.4143 -41.4143 -26.6759 -26.6759 -26.6743 -26.6743
   -19.5067 -19.5067 -19.4721 -19.4721 -19.4260 -19.4260 -19.3999 -19.3999
   -19.3799 -19.3799 -19.3638 -19.3638  -8.7732  -8.7732  -8.7640  -8.7640
    -8.7327  -8.7327  -8.6686  -8.6686  -8.6092  -8.6092  -8.6028  -8.6028
    -4.7879  -4.7879  -4.0670  -4.0670  -3.7704  -3.7704  -3.6704  -3.6704
    -3.5426  -3.5426  -3.3617  -3.3617   3.7222   3.7222   3.9267   3.9267
     4.0449   4.0449   4.4975   4.4975   4.7740   4.7740   4.8232   4.8232
     4.8943   4.8943   4.9214   4.9214   5.5181   5.5181   5.9553   5.9553
     6.1483   6.1483   6.2816   6.2816   6.6271   6.6271   6.6676   6.6676
     6.6968   6.6968   7.0157   7.0157   7.3076   7.3076   7.7577   7.7577

     occupation numbers 
     1.0000   1.0000   1.0000   1.0000   1.0000   1.0000   1.0000   1.0000
     1.0000   1.0000   1.0000   1.0000   1.0000   1.0000   1.0000   1.0000
     1.0000   1.0000   1.0000   1.0000   1.0000   1.0000   1.0000   1.0000
     1.0000   1.0000   1.0000   1.0000   1.0000   1.0000   1.0000   1.0000
     1.0000   1.0000   1.0000   1.0000   1.0000   1.0000   1.0000   1.0000
     1.0000   1.0000   1.0000   1.0000   1.0000   1.0000   1.0000   1.0000
     1.0000   1.0000   1.0000   1.0000   1.0000   1.0000   1.0000   1.0000
     1.0000   1.0000   1.0000   1.0000   1.0000   1.0000   1.0000   1.0000
     1.0000   1.0000   1.0000   1.0000   1.0000   1.0000   1.0000   1.0000
     1.0000   1.0000   1.0000   1.0000   1.0000   1.0000   1.0000   1.0000

          k = 0.0000 0.1484 0.0000 ( 18580 PWs)   bands (ev):

   -41.4188 -41.4188 -41.4143 -41.4143 -26.6756 -26.6754 -26.6748 -26.6746
   -19.5065 -19.5065 -19.4723 -19.4723 -19.4259 -19.4259 -19.3999 -19.3999
   -19.3799 -19.3799 -19.3638 -19.3638  -8.7819  -8.7731  -8.7623  -8.7509
    -8.7305  -8.7094  -8.6899  -8.6814  -8.6080  -8.6072  -8.6049  -8.6040
    -4.7701  -4.6227  -4.2129  -4.1720  -3.9488  -3.9260  -3.5640  -3.5179
    -3.4782  -3.4472  -3.3678  -3.3551   3.4508   3.5850   3.7258   3.7510
     4.0807   4.2208   4.3508   4.7564   4.7813   4.8767   4.8845   4.8952
     4.9038   5.1292   5.2204   5.2713   5.5353   5.6097   5.7850   6.0235
     6.0855   6.1146   6.1360   6.3143   6.5041   6.5501   6.7035   6.7581
     6.7997   6.8472   6.9182   7.0736   7.1391   7.2278   7.2969   7.3498

     occupation numbers 
     1.0000   1.0000   1.0000   1.0000   1.0000   1.0000   1.0000   1.0000
     1.0000   1.0000   1.0000   1.0000   1.0000   1.0000   1.0000   1.0000
     1.0000   1.0000   1.0000   1.0000   1.0000   1.0000   1.0000   1.0000
     1.0000   1.0000   1.0000   1.0000   1.0000   1.0000   1.0000   1.0000
     1.0000   1.0000   1.0000   1.0000   1.0000   1.0000   1.0000   1.0000
     1.0000   1.0000   1.0000   1.0000   1.0000   1.0000   1.0000   1.0000
     1.0000   1.0000   1.0000   1.0000   1.0000   1.0000   1.0000   1.0000
     1.0000   1.0000   1.0000   1.0000   1.0000   1.0000   1.0000   1.0000
     1.0000   1.0000   1.0000   1.0000   1.0000   1.0000   1.0000   1.0000
     1.0000   1.0000   1.0000   1.0000   1.0000   1.0000   1.0000   1.0000

          k = 0.0000 0.1484-0.1368 ( 18590 PWs)   bands (ev):

   -41.4188 -41.4188 -41.4143 -41.4143 -26.6755 -26.6755 -26.6747 -26.6747
   -19.5065 -19.5065 -19.4723 -19.4723 -19.4259 -19.4259 -19.3999 -19.3999
   -19.3799 -19.3799 -19.3638 -19.3638  -8.7748  -8.7748  -8.7613  -8.7613
    -8.7188  -8.7188  -8.6849  -8.6849  -8.6077  -8.6077  -8.6044  -8.6044
    -4.6980  -4.6980  -4.2111  -4.2111  -3.9104  -3.9104  -3.5560  -3.5560
    -3.4288  -3.4288  -3.3871  -3.3871   3.5148   3.5148   3.7115   3.7115
     4.1796   4.1796   4.6548   4.6548   4.7697   4.7697   4.8351   4.8351
     4.8929   4.8929   5.3868   5.3868   5.5268   5.5268   5.9173   5.9173
     6.1254   6.1254   6.3214   6.3214   6.5283   6.5283   6.6895   6.6895
     6.7452   6.7452   6.9778   6.9778   7.1548   7.1548   7.3917   7.3917

     occupation numbers 
     1.0000   1.0000   1.0000   1.0000   1.0000   1.0000   1.0000   1.0000
     1.0000   1.0000   1.0000   1.0000   1.0000   1.0000   1.0000   1.0000
     1.0000   1.0000   1.0000   1.0000   1.0000   1.0000   1.0000   1.0000
     1.0000   1.0000   1.0000   1.0000   1.0000   1.0000   1.0000   1.0000
     1.0000   1.0000   1.0000   1.0000   1.0000   1.0000   1.0000   1.0000
     1.0000   1.0000   1.0000   1.0000   1.0000   1.0000   1.0000   1.0000
     1.0000   1.0000   1.0000   1.0000   1.0000   1.0000   1.0000   1.0000
     1.0000   1.0000   1.0000   1.0000   1.0000   1.0000   1.0000   1.0000
     1.0000   1.0000   1.0000   1.0000   1.0000   1.0000   1.0000   1.0000
     1.0000   1.0000   1.0000   1.0000   1.0000   1.0000   1.0000   1.0000

          k = 0.1669 0.0000 0.0000 ( 18537 PWs)   bands (ev):

   -41.4172 -41.4172 -41.4133 -41.4133 -26.6709 -26.6707 -26.6694 -26.6692
   -19.4988 -19.4988 -19.4669 -19.4668 -19.4250 -19.4250 -19.4165 -19.4164
   -19.3937 -19.3936 -19.3920 -19.3920  -8.7512  -8.7479  -8.7472  -8.7374
    -8.7312  -8.7084  -8.7076  -8.7048  -8.6895  -8.6876  -8.6565  -8.6557
    -4.7008  -4.5012  -4.0166  -3.9717  -3.8412  -3.7579  -3.6960  -3.6663
    -3.5195  -3.4072  -3.4026  -3.3557   3.7892   3.8751   4.0465   4.0644
     4.0809   4.1985   4.2694   4.3188   4.4171   4.4177   4.6040   5.0164
     5.1378   5.2522   5.3650   5.4189   5.4695   5.5342   5.6308   5.7028
     5.7401   5.7994   5.8400   6.1142   6.1222   6.2333   6.2959   6.4217
     6.4428   6.6258   6.6329   6.8416   6.9417   7.2387   7.3823   7.4649

     occupation numbers 
     1.0000   1.0000   1.0000   1.0000   1.0000   1.0000   1.0000   1.0000
     1.0000   1.0000   1.0000   1.0000   1.0000   1.0000   1.0000   1.0000
     1.0000   1.0000   1.0000   1.0000   1.0000   1.0000   1.0000   1.0000
     1.0000   1.0000   1.0000   1.0000   1.0000   1.0000   1.0000   1.0000
     1.0000   1.0000   1.0000   1.0000   1.0000   1.0000   1.0000   1.0000
     1.0000   1.0000   1.0000   1.0000   1.0000   1.0000   1.0000   1.0000
     1.0000   1.0000   1.0000   1.0000   1.0000   1.0000   1.0000   1.0000
     1.0000   1.0000   1.0000   1.0000   1.0000   1.0000   1.0000   1.0000
     1.0000   1.0000   1.0000   1.0000   1.0000   1.0000   1.0000   1.0000
     1.0000   1.0000   1.0000   1.0000   1.0000   1.0000   1.0000   1.0000

          k = 0.1669 0.0000-0.1368 ( 18576 PWs)   bands (ev):

   -41.4172 -41.4172 -41.4133 -41.4133 -26.6708 -26.6708 -26.6693 -26.6693
   -19.4988 -19.4988 -19.4668 -19.4668 -19.4250 -19.4250 -19.4164 -19.4164
   -19.3937 -19.3937 -19.3920 -19.3920  -8.7488  -8.7488  -8.7447  -8.7447
    -8.7200  -8.7200  -8.7043  -8.7043  -8.6886  -8.6886  -8.6561  -8.6561
    -4.6133  -4.6133  -3.9828  -3.9828  -3.7954  -3.7954  -3.6807  -3.6807
    -3.4782  -3.4782  -3.3680  -3.3680   3.8228   3.8228   4.0368   4.0368
     4.1356   4.1356   4.2890   4.2890   4.5106   4.5106   4.7379   4.7379
     5.1829   5.1829   5.3704   5.3704   5.4807   5.4807   5.6303   5.6303
     5.8044   5.8044   6.0543   6.0543   6.2370   6.2370   6.3487   6.3487
     6.4936   6.4936   6.6579   6.6579   7.1604   7.1604   7.4272   7.4272

     occupation numbers 
     1.0000   1.0000   1.0000   1.0000   1.0000   1.0000   1.0000   1.0000
     1.0000   1.0000   1.0000   1.0000   1.0000   1.0000   1.0000   1.0000
     1.0000   1.0000   1.0000   1.0000   1.0000   1.0000   1.0000   1.0000
     1.0000   1.0000   1.0000   1.0000   1.0000   1.0000   1.0000   1.0000
     1.0000   1.0000   1.0000   1.0000   1.0000   1.0000   1.0000   1.0000
     1.0000   1.0000   1.0000   1.0000   1.0000   1.0000   1.0000   1.0000
     1.0000   1.0000   1.0000   1.0000   1.0000   1.0000   1.0000   1.0000
     1.0000   1.0000   1.0000   1.0000   1.0000   1.0000   1.0000   1.0000
     1.0000   1.0000   1.0000   1.0000   1.0000   1.0000   1.0000   1.0000
     1.0000   1.0000   1.0000   1.0000   1.0000   1.0000   1.0000   1.0000

          k = 0.1669 0.1484 0.0000 ( 18591 PWs)   bands (ev):

   -41.4172 -41.4172 -41.4133 -41.4133 -26.6705 -26.6703 -26.6697 -26.6696
   -19.4986 -19.4986 -19.4671 -19.4670 -19.4249 -19.4249 -19.4165 -19.4165
   -19.3936 -19.3936 -19.3920 -19.3920  -8.7582  -8.7524  -8.7419  -8.7347
    -8.7180  -8.7069  -8.7021  -8.6999  -8.6882  -8.6866  -8.6704  -8.6670
    -4.6038  -4.4776  -4.0867  -4.0522  -3.9449  -3.9217  -3.5440  -3.5163
    -3.5009  -3.4516  -3.3652  -3.3649   3.7020   3.8075   3.8995   3.9141
     4.1312   4.2148   4.3196   4.5073   4.5219   4.5721   4.7897   4.9498
     5.0199   5.1062   5.3241   5.3531   5.4215   5.5628   5.5745   5.5933
     5.7537   5.9123   5.9847   6.0023   6.1222   6.1702   6.4030   6.4719
     6.5839   6.6279   6.7310   6.8745   7.0744   7.2106   7.3298   7.3504

     occupation numbers 
     1.0000   1.0000   1.0000   1.0000   1.0000   1.0000   1.0000   1.0000
     1.0000   1.0000   1.0000   1.0000   1.0000   1.0000   1.0000   1.0000
     1.0000   1.0000   1.0000   1.0000   1.0000   1.0000   1.0000   1.0000
     1.0000   1.0000   1.0000   1.0000   1.0000   1.0000   1.0000   1.0000
     1.0000   1.0000   1.0000   1.0000   1.0000   1.0000   1.0000   1.0000
     1.0000   1.0000   1.0000   1.0000   1.0000   1.0000   1.0000   1.0000
     1.0000   1.0000   1.0000   1.0000   1.0000   1.0000   1.0000   1.0000
     1.0000   1.0000   1.0000   1.0000   1.0000   1.0000   1.0000   1.0000
     1.0000   1.0000   1.0000   1.0000   1.0000   1.0000   1.0000   1.0000
     1.0000   1.0000   1.0000   1.0000   1.0000   1.0000   1.0000   1.0000

          k = 0.1669 0.1484-0.1368 ( 18560 PWs)   bands (ev):

   -41.4172 -41.4172 -41.4133 -41.4133 -26.6704 -26.6704 -26.6696 -26.6696
   -19.4986 -19.4986 -19.4670 -19.4670 -19.4249 -19.4249 -19.4165 -19.4165
   -19.3936 -19.3936 -19.3920 -19.3920  -8.7529  -8.7529  -8.7422  -8.7422
    -8.7106  -8.7106  -8.7016  -8.7016  -8.6874  -8.6874  -8.6686  -8.6686
    -4.5414  -4.5414  -4.0928  -4.0928  -3.9075  -3.9075  -3.5440  -3.5440
    -3.4371  -3.4371  -3.3921  -3.3921   3.7304   3.7304   3.8748   3.8748
     4.2550   4.2550   4.4250   4.4250   4.6048   4.6048   4.7918   4.7918
     5.0041   5.0041   5.3148   5.3148   5.5009   5.5009   5.5663   5.5663
     5.8799   5.8799   6.0076   6.0076   6.2058   6.2058   6.3899   6.3899
     6.6644   6.6644   6.7729   6.7729   7.1261   7.1261   7.3172   7.3172

     occupation numbers 
     1.0000   1.0000   1.0000   1.0000   1.0000   1.0000   1.0000   1.0000
     1.0000   1.0000   1.0000   1.0000   1.0000   1.0000   1.0000   1.0000
     1.0000   1.0000   1.0000   1.0000   1.0000   1.0000   1.0000   1.0000
     1.0000   1.0000   1.0000   1.0000   1.0000   1.0000   1.0000   1.0000
     1.0000   1.0000   1.0000   1.0000   1.0000   1.0000   1.0000   1.0000
     1.0000   1.0000   1.0000   1.0000   1.0000   1.0000   1.0000   1.0000
     1.0000   1.0000   1.0000   1.0000   1.0000   1.0000   1.0000   1.0000
     1.0000   1.0000   1.0000   1.0000   1.0000   1.0000   1.0000   1.0000
     1.0000   1.0000   1.0000   1.0000   1.0000   1.0000   1.0000   1.0000
     1.0000   1.0000   1.0000   1.0000   1.0000   1.0000   1.0000   1.0000

          k = 0.3337 0.0000 0.0000 ( 18620 PWs)   bands (ev):

   -41.4137 -41.4137 -41.4115 -41.4115 -26.6605 -26.6605 -26.6592 -26.6591
   -19.4890 -19.4890 -19.4773 -19.4773 -19.4513 -19.4513 -19.4513 -19.4513
   -19.4110 -19.4110 -19.4002 -19.4002  -8.8942  -8.8937  -8.8578  -8.8570
    -8.7068  -8.7058  -8.7023  -8.6948  -8.6855  -8.6769  -8.6316  -8.6308
    -4.2706  -4.1541  -3.9298  -3.9288  -3.8505  -3.8078  -3.6348  -3.6329
    -3.4020  -3.3854  -3.3850  -3.2908   3.6264   3.7868   3.9552   4.0188
     4.0412   4.1474   4.2775   4.4130   4.5723   4.6543   4.6848   4.7393
     4.7853   4.7901   4.9249   5.1216   5.3902   5.4512   5.5115   5.5498
     5.6395   5.6940   5.7395   5.7472   5.9879   6.1781   6.2012   6.2687
     6.4054   6.4833   6.5047   6.5264   6.5883   6.6177   6.9472   6.9876

     occupation numbers 
     1.0000   1.0000   1.0000   1.0000   1.0000   1.0000   1.0000   1.0000
     1.0000   1.0000   1.0000   1.0000   1.0000   1.0000   1.0000   1.0000
     1.0000   1.0000   1.0000   1.0000   1.0000   1.0000   1.0000   1.0000
     1.0000   1.0000   1.0000   1.0000   1.0000   1.0000   1.0000   1.0000
     1.0000   1.0000   1.0000   1.0000   1.0000   1.0000   1.0000   1.0000
     1.0000   1.0000   1.0000   1.0000   1.0000   1.0000   1.0000   1.0000
     1.0000   1.0000   1.0000   1.0000   1.0000   1.0000   1.0000   1.0000
     1.0000   1.0000   1.0000   1.0000   1.0000   1.0000   1.0000   1.0000
     1.0000   1.0000   1.0000   1.0000   1.0000   1.0000   1.0000   1.0000
     1.0000   1.0000   1.0000   1.0000   1.0000   1.0000   1.0000   1.0000

          k = 0.3337 0.0000-0.1368 ( 18610 PWs)   bands (ev):

   -41.4137 -41.4137 -41.4115 -41.4115 -26.6605 -26.6605 -26.6591 -26.6591
   -19.4890 -19.4890 -19.4773 -19.4773 -19.4513 -19.4513 -19.4513 -19.4513
   -19.4110 -19.4110 -19.4002 -19.4002  -8.8939  -8.8939  -8.8574  -8.8574
    -8.7059  -8.7059  -8.6996  -8.6996  -8.6805  -8.6805  -8.6312  -8.6312
    -4.2176  -4.2176  -3.9300  -3.9300  -3.8252  -3.8252  -3.6325  -3.6325
    -3.4024  -3.4024  -3.3285  -3.3285   3.7513   3.7513   3.8588   3.8588
     4.0973   4.0973   4.3876   4.3876   4.6530   4.6530   4.7514   4.7514
     4.7944   4.7944   5.0382   5.0382   5.3562   5.3562   5.5733   5.5733
     5.7597   5.7597   5.7950   5.7950   5.8623   5.8623   6.0831   6.0831
     6.4151   6.4151   6.6084   6.6084   6.7294   6.7294   6.9823   6.9823

     occupation numbers 
     1.0000   1.0000   1.0000   1.0000   1.0000   1.0000   1.0000   1.0000
     1.0000   1.0000   1.0000   1.0000   1.0000   1.0000   1.0000   1.0000
     1.0000   1.0000   1.0000   1.0000   1.0000   1.0000   1.0000   1.0000
     1.0000   1.0000   1.0000   1.0000   1.0000   1.0000   1.0000   1.0000
     1.0000   1.0000   1.0000   1.0000   1.0000   1.0000   1.0000   1.0000
     1.0000   1.0000   1.0000   1.0000   1.0000   1.0000   1.0000   1.0000
     1.0000   1.0000   1.0000   1.0000   1.0000   1.0000   1.0000   1.0000
     1.0000   1.0000   1.0000   1.0000   1.0000   1.0000   1.0000   1.0000
     1.0000   1.0000   1.0000   1.0000   1.0000   1.0000   1.0000   1.0000
     1.0000   1.0000   1.0000   1.0000   1.0000   1.0000   1.0000   1.0000

          k = 0.3337 0.1484 0.0000 ( 18628 PWs)   bands (ev):

   -41.4137 -41.4137 -41.4115 -41.4115 -26.6602 -26.6601 -26.6595 -26.6594
   -19.4891 -19.4891 -19.4774 -19.4774 -19.4513 -19.4513 -19.4512 -19.4512
   -19.4110 -19.4110 -19.4002 -19.4002  -8.8855  -8.8847  -8.8674  -8.8664
    -8.7112  -8.7094  -8.7008  -8.6973  -8.6684  -8.6629  -8.6430  -8.6406
    -4.2320  -4.1680  -3.9596  -3.9454  -3.8275  -3.8153  -3.6248  -3.6245
    -3.4142  -3.4004  -3.3524  -3.3099   3.7159   3.7556   3.9143   3.9371
     4.2252   4.2554   4.3327   4.3975   4.4554   4.4942   4.6004   4.6290
     4.7316   4.9006   5.0946   5.2359   5.2369   5.2677   5.3833   5.4535
     5.6474   5.6737   5.7773   5.9054   6.0145   6.0147   6.2230   6.2617
     6.3104   6.3770   6.7059   6.7358   6.8395   6.8491   6.8860   6.9950

     occupation numbers 
     1.0000   1.0000   1.0000   1.0000   1.0000   1.0000   1.0000   1.0000
     1.0000   1.0000   1.0000   1.0000   1.0000   1.0000   1.0000   1.0000
     1.0000   1.0000   1.0000   1.0000   1.0000   1.0000   1.0000   1.0000
     1.0000   1.0000   1.0000   1.0000   1.0000   1.0000   1.0000   1.0000
     1.0000   1.0000   1.0000   1.0000   1.0000   1.0000   1.0000   1.0000
     1.0000   1.0000   1.0000   1.0000   1.0000   1.0000   1.0000   1.0000
     1.0000   1.0000   1.0000   1.0000   1.0000   1.0000   1.0000   1.0000
     1.0000   1.0000   1.0000   1.0000   1.0000   1.0000   1.0000   1.0000
     1.0000   1.0000   1.0000   1.0000   1.0000   1.0000   1.0000   1.0000
     1.0000   1.0000   1.0000   1.0000   1.0000   1.0000   1.0000   1.0000

          k = 0.3337 0.1484-0.1368 ( 18596 PWs)   bands (ev):

   -41.4137 -41.4137 -41.4115 -41.4115 -26.6602 -26.6602 -26.6595 -26.6595
   -19.4891 -19.4891 -19.4774 -19.4774 -19.4513 -19.4513 -19.4512 -19.4512
   -19.4110 -19.4110 -19.4002 -19.4002  -8.8851  -8.8851  -8.8669  -8.8669
    -8.7093  -8.7093  -8.7003  -8.7003  -8.6655  -8.6655  -8.6417  -8.6417
    -4.1970  -4.1970  -3.9657  -3.9657  -3.8133  -3.8133  -3.6244  -3.6244
    -3.3954  -3.3954  -3.3411  -3.3411   3.7451   3.7451   3.8637   3.8637
     4.2354   4.2354   4.3941   4.3941   4.4991   4.4991   4.6808   4.6808
     4.8413   4.8413   5.1441   5.1441   5.2499   5.2499   5.3605   5.3605
     5.6306   5.6306   5.7316   5.7316   6.1229   6.1229   6.2240   6.2240
     6.4493   6.4493   6.6242   6.6242   6.8177   6.8177   7.0079   7.0079

     occupation numbers 
     1.0000   1.0000   1.0000   1.0000   1.0000   1.0000   1.0000   1.0000
     1.0000   1.0000   1.0000   1.0000   1.0000   1.0000   1.0000   1.0000
     1.0000   1.0000   1.0000   1.0000   1.0000   1.0000   1.0000   1.0000
     1.0000   1.0000   1.0000   1.0000   1.0000   1.0000   1.0000   1.0000
     1.0000   1.0000   1.0000   1.0000   1.0000   1.0000   1.0000   1.0000
     1.0000   1.0000   1.0000   1.0000   1.0000   1.0000   1.0000   1.0000
     1.0000   1.0000   1.0000   1.0000   1.0000   1.0000   1.0000   1.0000
     1.0000   1.0000   1.0000   1.0000   1.0000   1.0000   1.0000   1.0000
     1.0000   1.0000   1.0000   1.0000   1.0000   1.0000   1.0000   1.0000
     1.0000   1.0000   1.0000   1.0000   1.0000   1.0000   1.0000   1.0000

          k =-0.5006 0.0000 0.0000 ( 18628 PWs)   bands (ev):

   -41.4113 -41.4113 -41.4113 -41.4113 -26.6553 -26.6553 -26.6540 -26.6540
   -19.5037 -19.5037 -19.5036 -19.5036 -19.4518 -19.4518 -19.4517 -19.4517
   -19.4062 -19.4062 -19.4061 -19.4061  -8.9826  -8.9826  -8.9380  -8.9380
    -8.6837  -8.6837  -8.6823  -8.6823  -8.6583  -8.6583  -8.6186  -8.6186
    -3.9940  -3.9940  -3.9931  -3.9931  -3.6880  -3.6880  -3.6755  -3.6755
    -3.3977  -3.3977  -3.2843  -3.2843   3.5414   3.5414   3.7307   3.7307
     4.0409   4.0409   4.3068   4.3068   4.5093   4.5093   4.5911   4.5911
     5.0636   5.0636   5.2136   5.2136   5.2651   5.2651   5.2684   5.2684
     5.4762   5.4762   5.8696   5.8696   5.9480   5.9480   6.0475   6.0475
     6.5647   6.5647   6.6029   6.6029   6.7175   6.7175   6.7853   6.7853

     occupation numbers 
     1.0000   1.0000   1.0000   1.0000   1.0000   1.0000   1.0000   1.0000
     1.0000   1.0000   1.0000   1.0000   1.0000   1.0000   1.0000   1.0000
     1.0000   1.0000   1.0000   1.0000   1.0000   1.0000   1.0000   1.0000
     1.0000   1.0000   1.0000   1.0000   1.0000   1.0000   1.0000   1.0000
     1.0000   1.0000   1.0000   1.0000   1.0000   1.0000   1.0000   1.0000
     1.0000   1.0000   1.0000   1.0000   1.0000   1.0000   1.0000   1.0000
     1.0000   1.0000   1.0000   1.0000   1.0000   1.0000   1.0000   1.0000
     1.0000   1.0000   1.0000   1.0000   1.0000   1.0000   1.0000   1.0000
     1.0000   1.0000   1.0000   1.0000   1.0000   1.0000   1.0000   1.0000
     1.0000   1.0000   1.0000   1.0000   1.0000   1.0000   1.0000   1.0000

          k =-0.5006 0.0000-0.1368 ( 18652 PWs)   bands (ev):

   -41.4113 -41.4113 -41.4113 -41.4113 -26.6553 -26.6553 -26.6540 -26.6540
   -19.5036 -19.5036 -19.5036 -19.5036 -19.4518 -19.4518 -19.4517 -19.4517
   -19.4062 -19.4062 -19.4061 -19.4061  -8.9826  -8.9826  -8.9380  -8.9380
    -8.6837  -8.6837  -8.6823  -8.6823  -8.6583  -8.6583  -8.6186  -8.6186
    -3.9972  -3.9972  -3.9899  -3.9899  -3.6889  -3.6889  -3.6752  -3.6752
    -3.3976  -3.3976  -3.2839  -3.2839   3.5235   3.5235   3.7625   3.7625
     4.0306   4.0306   4.2466   4.2466   4.5463   4.5463   4.6862   4.6862
     4.9902   4.9902   5.0689   5.0689   5.2316   5.2316   5.3934   5.3934
     5.6592   5.6592   5.6831   5.6831   5.9048   5.9048   6.3537   6.3537
     6.4330   6.4330   6.4983   6.4983   6.6746   6.6746   6.8482   6.8482

     occupation numbers 
     1.0000   1.0000   1.0000   1.0000   1.0000   1.0000   1.0000   1.0000
     1.0000   1.0000   1.0000   1.0000   1.0000   1.0000   1.0000   1.0000
     1.0000   1.0000   1.0000   1.0000   1.0000   1.0000   1.0000   1.0000
     1.0000   1.0000   1.0000   1.0000   1.0000   1.0000   1.0000   1.0000
     1.0000   1.0000   1.0000   1.0000   1.0000   1.0000   1.0000   1.0000
     1.0000   1.0000   1.0000   1.0000   1.0000   1.0000   1.0000   1.0000
     1.0000   1.0000   1.0000   1.0000   1.0000   1.0000   1.0000   1.0000
     1.0000   1.0000   1.0000   1.0000   1.0000   1.0000   1.0000   1.0000
     1.0000   1.0000   1.0000   1.0000   1.0000   1.0000   1.0000   1.0000
     1.0000   1.0000   1.0000   1.0000   1.0000   1.0000   1.0000   1.0000

          k =-0.5006 0.1484 0.0000 ( 18590 PWs)   bands (ev):

   -41.4113 -41.4113 -41.4113 -41.4113 -26.6550 -26.6550 -26.6544 -26.6544
   -19.5037 -19.5037 -19.5037 -19.5037 -19.4517 -19.4517 -19.4517 -19.4517
   -19.4061 -19.4061 -19.4061 -19.4061  -8.9715  -8.9715  -8.9492  -8.9492
    -8.6854  -8.6854  -8.6840  -8.6840  -8.6464  -8.6464  -8.6272  -8.6272
    -3.9937  -3.9937  -3.9929  -3.9929  -3.6863  -3.6863  -3.6813  -3.6813
    -3.3662  -3.3662  -3.3104  -3.3104   3.4683   3.4683   3.5278   3.5278
     4.2546   4.2546   4.3799   4.3799   4.6225   4.6225   4.6362   4.6362
     4.9735   4.9735   5.0504   5.0504   5.2662   5.2662   5.3641   5.3641
     5.6863   5.6863   5.7519   5.7519   6.1456   6.1456   6.1589   6.1589
     6.3990   6.3990   6.4007   6.4007   6.6572   6.6572   6.6736   6.6736

     occupation numbers 
     1.0000   1.0000   1.0000   1.0000   1.0000   1.0000   1.0000   1.0000
     1.0000   1.0000   1.0000   1.0000   1.0000   1.0000   1.0000   1.0000
     1.0000   1.0000   1.0000   1.0000   1.0000   1.0000   1.0000   1.0000
     1.0000   1.0000   1.0000   1.0000   1.0000   1.0000   1.0000   1.0000
     1.0000   1.0000   1.0000   1.0000   1.0000   1.0000   1.0000   1.0000
     1.0000   1.0000   1.0000   1.0000   1.0000   1.0000   1.0000   1.0000
     1.0000   1.0000   1.0000   1.0000   1.0000   1.0000   1.0000   1.0000
     1.0000   1.0000   1.0000   1.0000   1.0000   1.0000   1.0000   1.0000
     1.0000   1.0000   1.0000   1.0000   1.0000   1.0000   1.0000   1.0000
     1.0000   1.0000   1.0000   1.0000   1.0000   1.0000   1.0000   1.0000

          k =-0.5006 0.1484-0.1368 ( 18600 PWs)   bands (ev):

   -41.4113 -41.4113 -41.4113 -41.4113 -26.6550 -26.6550 -26.6544 -26.6544
   -19.5037 -19.5037 -19.5037 -19.5037 -19.4517 -19.4517 -19.4517 -19.4517
   -19.4061 -19.4061 -19.4061 -19.4061  -8.9715  -8.9715  -8.9492  -8.9492
    -8.6854  -8.6854  -8.6840  -8.6840  -8.6464  -8.6464  -8.6272  -8.6272
    -3.9950  -3.9950  -3.9916  -3.9916  -3.6880  -3.6880  -3.6802  -3.6802
    -3.3660  -3.3660  -3.3099  -3.3099   3.4472   3.4472   3.5405   3.5405
     4.2452   4.2452   4.3841   4.3841   4.5976   4.5976   4.6225   4.6225
     5.0597   5.0597   5.1623   5.1623   5.2939   5.2939   5.2959   5.2959
     5.6810   5.6810   5.7623   5.7623   5.9442   5.9442   6.0358   6.0358
     6.4099   6.4099   6.4438   6.4438   6.7545   6.7545   6.7603   6.7603

     occupation numbers 
     1.0000   1.0000   1.0000   1.0000   1.0000   1.0000   1.0000   1.0000
     1.0000   1.0000   1.0000   1.0000   1.0000   1.0000   1.0000   1.0000
     1.0000   1.0000   1.0000   1.0000   1.0000   1.0000   1.0000   1.0000
     1.0000   1.0000   1.0000   1.0000   1.0000   1.0000   1.0000   1.0000
     1.0000   1.0000   1.0000   1.0000   1.0000   1.0000   1.0000   1.0000
     1.0000   1.0000   1.0000   1.0000   1.0000   1.0000   1.0000   1.0000
     1.0000   1.0000   1.0000   1.0000   1.0000   1.0000   1.0000   1.0000
     1.0000   1.0000   1.0000   1.0000   1.0000   1.0000   1.0000   1.0000
     1.0000   1.0000   1.0000   1.0000   1.0000   1.0000   1.0000   1.0000
     1.0000   1.0000   1.0000   1.0000   1.0000   1.0000   1.0000   1.0000

     highest occupied level (ev):     7.8616

!    total energy              =    -969.04010057 Ry
     estimated scf accuracy    <          9.4E-11 Ry

     The total energy is the sum of the following terms:
     one-electron contribution =    -195.44821900 Ry
     hartree contribution      =     158.10133829 Ry
     xc contribution           =    -246.04135895 Ry
     ewald contribution        =    -685.65186091 Ry

     convergence has been achieved in  10 iterations

     negative rho (up, down):  5.176E-01 0.000E+00

     Forces acting on atoms (cartesian axes, Ry/au):

     atom    1 type  2   force =     0.00000000   -0.00023969    0.00015590
     atom    2 type  2   force =     0.00000000    0.00023969   -0.00015590
     atom    3 type  2   force =     0.00000000    0.00023969    0.00015590
     atom    4 type  2   force =    -0.00000000   -0.00023969   -0.00015590
     atom    5 type  3   force =     0.00000000   -0.00082550   -0.00141931
     atom    6 type  3   force =     0.00000000    0.00082550    0.00141931
     atom    7 type  3   force =    -0.00000000    0.00082550   -0.00141931
     atom    8 type  3   force =     0.00000000   -0.00082550    0.00141931
     atom    9 type  1   force =     0.00000000    0.00024887    0.00041848
     atom   10 type  1   force =     0.00000000   -0.00024887   -0.00041848
     atom   11 type  1   force =     0.00000000   -0.00024887    0.00041848
     atom   12 type  1   force =    -0.00000000    0.00024887   -0.00041848
     atom   13 type  1   force =     0.00000000   -0.00069366    0.00011468
     atom   14 type  1   force =    -0.00000000    0.00069366   -0.00011468
     atom   15 type  1   force =     0.00000000    0.00069366    0.00011468
     atom   16 type  1   force =     0.00000000   -0.00069366   -0.00011468
     atom   17 type  1   force =     0.00000000    0.00060631    0.00018400
     atom   18 type  1   force =    -0.00000000   -0.00060631   -0.00018400
     atom   19 type  1   force =     0.00000000   -0.00060631    0.00018400
     atom   20 type  1   force =     0.00000000    0.00060631   -0.00018400
     The non-local contrib.  to forces
     atom    1 type  2   force =     0.00000000    0.00065153    0.00451756
     atom    2 type  2   force =     0.00000000   -0.00065153   -0.00451756
     atom    3 type  2   force =     0.00000000   -0.00065153    0.00451756
     atom    4 type  2   force =     0.00000000    0.00065153   -0.00451756
     atom    5 type  3   force =     0.00000000    0.02242821   -0.02247152
     atom    6 type  3   force =     0.00000000   -0.02242821    0.02247152
     atom    7 type  3   force =    -0.00000000   -0.02242821   -0.02247152
     atom    8 type  3   force =    -0.00000000    0.02242821    0.02247152
     atom    9 type  1   force =    -0.00000000    0.00424850   -0.00955497
     atom   10 type  1   force =     0.00000000   -0.00424850    0.00955497
     atom   11 type  1   force =     0.00000000   -0.00424850   -0.00955497
     atom   12 type  1   force =     0.00000000    0.00424850    0.00955497
     atom   13 type  1   force =     0.00000000   -0.04548693   -0.00308559
     atom   14 type  1   force =    -0.00000000    0.04548693    0.00308559
     atom   15 type  1   force =    -0.00000000    0.04548693   -0.00308559
     atom   16 type  1   force =     0.00000000   -0.04548693    0.00308559
     atom   17 type  1   force =     0.00000000    0.04190604    0.06792873
     atom   18 type  1   force =     0.00000000   -0.04190604   -0.06792873
     atom   19 type  1   force =    -0.00000000   -0.04190604    0.06792873
     atom   20 type  1   force =     0.00000000    0.04190604   -0.06792873
     The ionic contribution  to forces
     atom    1 type  2   force =     0.00000000    0.38962290    0.09636621
     atom    2 type  2   force =     0.00000000   -0.38962290   -0.09636621
     atom    3 type  2   force =     0.00000000   -0.38962290    0.09636621
     atom    4 type  2   force =     0.00000000    0.38962290   -0.09636621
     atom    5 type  3   force =     0.00000000   -2.71579884    1.09321664
     atom    6 type  3   force =     0.00000000    2.71579884   -1.09321664
     atom    7 type  3   force =     0.00000000    2.71579884    1.09321664
     atom    8 type  3   force =     0.00000000   -2.71579884   -1.09321664
     atom    9 type  1   force =     0.00000000   -1.61387410    3.65780077
     atom   10 type  1   force =     0.00000000    1.61387410   -3.65780077
     atom   11 type  1   force =     0.00000000    1.61387410    3.65780077
     atom   12 type  1   force =     0.00000000   -1.61387410   -3.65780077
     atom   13 type  1   force =     0.00000000    3.63056159   -2.25033789
     atom   14 type  1   force =    -0.00000000   -3.63056159    2.25033789
     atom   15 type  1   force =    -0.00000000   -3.63056159   -2.25033789
     atom   16 type  1   force =     0.00000000    3.63056159    2.25033789
     atom   17 type  1   force =     0.00000000   -2.96618092   -4.81599409
     atom   18 type  1   force =    -0.00000000    2.96618092    4.81599409
     atom   19 type  1   force =    -0.00000000    2.96618092   -4.81599409
     atom   20 type  1   force =     0.00000000   -2.96618092    4.81599409
     The local contribution  to forces
     atom    1 type  2   force =    -0.00000000   -0.39059443   -0.10055124
     atom    2 type  2   force =    -0.00000000    0.39059443    0.10055124
     atom    3 type  2   force =    -0.00000000    0.39059443   -0.10055124
     atom    4 type  2   force =    -0.00000000   -0.39059443    0.10055124
     atom    5 type  3   force =    -0.00000000    2.69330278   -1.07190685
     atom    6 type  3   force =    -0.00000000   -2.69330278    1.07190685
     atom    7 type  3   force =    -0.00000000   -2.69330278   -1.07190685
     atom    8 type  3   force =    -0.00000000    2.69330278    1.07190685
     atom    9 type  1   force =    -0.00000000    1.60981884   -3.64768260
     atom   10 type  1   force =    -0.00000000   -1.60981884    3.64768260
     atom   11 type  1   force =    -0.00000000   -1.60981884   -3.64768260
     atom   12 type  1   force =    -0.00000000    1.60981884    3.64768260
     atom   13 type  1   force =    -0.00000000   -3.58794178    2.25307979
     atom   14 type  1   force =    -0.00000000    3.58794178   -2.25307979
     atom   15 type  1   force =    -0.00000000    3.58794178    2.25307979
     atom   16 type  1   force =    -0.00000000   -3.58794178   -2.25307979
     atom   17 type  1   force =    -0.00000000    2.92686327    4.75163355
     atom   18 type  1   force =    -0.00000000   -2.92686327   -4.75163355
     atom   19 type  1   force =    -0.00000000   -2.92686327    4.75163355
     atom   20 type  1   force =    -0.00000000    2.92686327   -4.75163355
     The core correction contribution to forces
     atom    1 type  2   force =    -0.00000000    0.00007807   -0.00018267
     atom    2 type  2   force =     0.00000000   -0.00007807    0.00018267
     atom    3 type  2   force =     0.00000000   -0.00007807   -0.00018267
     atom    4 type  2   force =    -0.00000000    0.00007807    0.00018267
     atom    5 type  3   force =     0.00000000   -0.00075280   -0.00026161
     atom    6 type  3   force =     0.00000000    0.00075280    0.00026161
     atom    7 type  3   force =     0.00000000    0.00075280   -0.00026161
     atom    8 type  3   force =     0.00000000   -0.00075280    0.00026161
     atom    9 type  1   force =    -0.00000000    0.00005560   -0.00014476
     atom   10 type  1   force =     0.00000000   -0.00005560    0.00014476
     atom   11 type  1   force =     0.00000000   -0.00005560   -0.00014476
     atom   12 type  1   force =    -0.00000000    0.00005560    0.00014476
     atom   13 type  1   force =    -0.00000000    0.00216695    0.00046225
     atom   14 type  1   force =     0.00000000   -0.00216695   -0.00046225
     atom   15 type  1   force =     0.00000000   -0.00216695    0.00046225
     atom   16 type  1   force =    -0.00000000    0.00216695   -0.00046225
     atom   17 type  1   force =     0.00000000   -0.00198205   -0.00338121
     atom   18 type  1   force =     0.00000000    0.00198205    0.00338121
     atom   19 type  1   force =     0.00000000    0.00198205   -0.00338121
     atom   20 type  1   force =     0.00000000   -0.00198205    0.00338121
     The Hubbard contrib.    to forces
     atom    1 type  2   force =     0.00000000    0.00000000    0.00000000
     atom    2 type  2   force =     0.00000000    0.00000000    0.00000000
     atom    3 type  2   force =     0.00000000    0.00000000    0.00000000
     atom    4 type  2   force =     0.00000000    0.00000000    0.00000000
     atom    5 type  3   force =     0.00000000    0.00000000    0.00000000
     atom    6 type  3   force =     0.00000000    0.00000000    0.00000000
     atom    7 type  3   force =     0.00000000    0.00000000    0.00000000
     atom    8 type  3   force =     0.00000000    0.00000000    0.00000000
     atom    9 type  1   force =     0.00000000    0.00000000    0.00000000
     atom   10 type  1   force =     0.00000000    0.00000000    0.00000000
     atom   11 type  1   force =     0.00000000    0.00000000    0.00000000
     atom   12 type  1   force =     0.00000000    0.00000000    0.00000000
     atom   13 type  1   force =     0.00000000    0.00000000    0.00000000
     atom   14 type  1   force =     0.00000000    0.00000000    0.00000000
     atom   15 type  1   force =     0.00000000    0.00000000    0.00000000
     atom   16 type  1   force =     0.00000000    0.00000000    0.00000000
     atom   17 type  1   force =     0.00000000    0.00000000    0.00000000
     atom   18 type  1   force =     0.00000000    0.00000000    0.00000000
     atom   19 type  1   force =     0.00000000    0.00000000    0.00000000
     atom   20 type  1   force =     0.00000000    0.00000000    0.00000000
     The SCF correction term to forces
     atom    1 type  2   force =     0.00000000    0.00000224    0.00000603
     atom    2 type  2   force =    -0.00000000   -0.00000224   -0.00000603
     atom    3 type  2   force =     0.00000000   -0.00000224    0.00000603
     atom    4 type  2   force =    -0.00000000    0.00000224   -0.00000603
     atom    5 type  3   force =     0.00000000   -0.00000484    0.00000403
     atom    6 type  3   force =    -0.00000000    0.00000484   -0.00000403
     atom    7 type  3   force =     0.00000000    0.00000484    0.00000403
     atom    8 type  3   force =    -0.00000000   -0.00000484   -0.00000403
     atom    9 type  1   force =    -0.00000000    0.00000003    0.00000004
     atom   10 type  1   force =     0.00000000   -0.00000003   -0.00000004
     atom   11 type  1   force =    -0.00000000   -0.00000003    0.00000004
     atom   12 type  1   force =     0.00000000    0.00000003   -0.00000004
     atom   13 type  1   force =    -0.00000000    0.00000651   -0.00000388
     atom   14 type  1   force =     0.00000000   -0.00000651    0.00000388
     atom   15 type  1   force =    -0.00000000   -0.00000651   -0.00000388
     atom   16 type  1   force =     0.00000000    0.00000651    0.00000388
     atom   17 type  1   force =     0.00000000   -0.00000004   -0.00000297
     atom   18 type  1   force =    -0.00000000    0.00000004    0.00000297
     atom   19 type  1   force =     0.00000000    0.00000004   -0.00000297
     atom   20 type  1   force =    -0.00000000   -0.00000004    0.00000297

     Total force =     0.003955     Total SCF correction =     0.000024


     Computing stress (Cartesian axis) and pressure


     negative rho (up, down):  5.176E-01 0.000E+00
          total   stress  (Ry/bohr**3)                   (kbar)     P=       -0.66
   0.00000052   0.00000000   0.00000000            0.08        0.00        0.00
   0.00000000  -0.00000487   0.00000000            0.00       -0.72        0.00
   0.00000000   0.00000000  -0.00000913            0.00        0.00       -1.34

     kinetic stress (kbar)   8923.67      0.00      0.00
                                0.00   8950.00      0.00
                                0.00      0.00   8969.20

     local   stress (kbar)  -7841.33     -0.00      0.00
                               -0.00  -4287.73     -0.00
                                0.00     -0.00  -3987.04

     nonloc. stress (kbar)   7369.05      0.00      0.00
                                0.00   7365.37      0.00
                                0.00      0.00   7370.94

     hartree stress (kbar)   3507.76     -0.00     -0.00
                               -0.00   2106.94      0.00
                               -0.00      0.00   1807.31

     exc-cor stress (kbar)   2570.98      0.00      0.00
                                0.00   2568.87     -0.00
                                0.00     -0.00   2571.49

     corecor stress (kbar)  -5259.74      0.00     -0.00
                                0.00  -5259.65      0.00
                               -0.00      0.00  -5260.38

     ewald   stress (kbar)  -9270.33     -0.00     -0.00
                               -0.00 -11444.51      0.00
                               -0.00      0.00 -11472.86

     hubbard stress (kbar)      0.00      0.00      0.00
                                0.00      0.00      0.00
                                0.00      0.00      0.00

     DFT-D   stress (kbar)      0.00      0.00      0.00
                                0.00      0.00      0.00
                                0.00      0.00      0.00

     XDM     stress (kbar)      0.00      0.00      0.00
                                0.00      0.00      0.00
                                0.00      0.00      0.00

     dft-nl  stress (kbar)      0.00      0.00      0.00
                                0.00      0.00      0.00
                                0.00      0.00      0.00

     TS-vdW  stress (kbar)      0.00      0.00      0.00
                                0.00      0.00      0.00
                                0.00      0.00      0.00

     MDB     stress (kbar)      0.00      0.00      0.00
                                0.00      0.00      0.00
                                0.00      0.00      0.00

     3D-RISM stress (kbar)      0.00      0.00      0.00
                                0.00      0.00      0.00
                                0.00      0.00      0.00

     Energy error            =      6.0E-05 Ry
     Gradient error          =      1.4E-03 Ry/Bohr
     Cell gradient error     =      1.3E+00 kbar

     number of scf cycles    =   8
     number of bfgs steps    =   7

     enthalpy           old  =    -969.0400404783 Ry
     enthalpy           new  =    -969.0401005747 Ry

     CASE: enthalpy          _new < enthalpy          _old

     new trust radius        =       0.0101582018 bohr
     new conv_thr            =       0.0000000001 Ry

     new unit-cell volume =   3134.23091 a.u.^3 (   464.44510 Ang^3 )
     density =      3.93341 g/cm^3

CELL_PARAMETERS (angstrom)
   3.833730084   0.000000000   0.000000000
  -0.000000000   8.634497084   0.000000000
   0.000000000   0.000000000  14.030585949

ATOMIC_POSITIONS (crystal)
Sr               0.2500000000        0.0636700056        0.8197769923
Sr               0.7500000000        0.9363299944        0.1802230077
Sr               0.7500000000        0.4363299944        0.3197769923
Sr               0.2500000000        0.5636700056        0.6802230077
Zr               0.2500000000        0.3274993349        0.0564187606
Zr               0.7500000000        0.6725006651        0.9435812394
Zr               0.7500000000        0.1725006651        0.5564187606
Zr               0.2500000000        0.8274993349        0.4435812394
S                0.2500000000        0.2076980954        0.2152880662
S                0.7500000000        0.7923019046        0.7847119338
S                0.7500000000        0.2923019046        0.7152880662
S                0.2500000000        0.7076980954        0.2847119338
S                0.2500000000        0.3364410399        0.4848017868
S                0.7500000000        0.6635589601        0.5151982132
S                0.7500000000        0.1635589601        0.9848017868
S                0.2500000000        0.8364410399        0.0151982132
S                0.2500000000        0.4858794089        0.8945254117
S                0.7500000000        0.5141205911        0.1054745883
S                0.7500000000        0.0141205911        0.3945254117
S                0.2500000000        0.9858794089        0.6054745883



     Writing config-only to output data dir ./tmp/relax/SrZrS3_relax.save/ :
     XML data file
     NEW-OLD atomic charge density approx. for the potential
     New effective cutoffs (rho, wfc):  401.26   50.17

     negative rho (up, down):  5.179E-01 0.000E+00

     total cpu time spent up to now is     1115.7 secs

     Self-consistent Calculation

     iteration #  1     ecut=    50.00 Ry     beta= 0.30
     Davidson diagonalization with overlap

---- Real-time Memory Report at c_bands before calling an iterative solver
             0 MiB given to the printing process from OS
             0 MiB allocation reported by mallinfo(arena+hblkhd)
             0 MiB available memory on the node where the printing process lives
------------------
     ethr =  1.00E-06,  avg # of iterations =  4.0

     Threshold (ethr) on eigenvalues was too large:
     Diagonalizing with lowered threshold

     Davidson diagonalization with overlap

---- Real-time Memory Report at c_bands before calling an iterative solver
             0 MiB given to the printing process from OS
             0 MiB allocation reported by mallinfo(arena+hblkhd)
             0 MiB available memory on the node where the printing process lives
------------------
     ethr =  1.17E-08,  avg # of iterations =  8.1

     negative rho (up, down):  5.179E-01 0.000E+00

     total cpu time spent up to now is     1135.7 secs

     total energy              =    -969.04013086 Ry
     estimated scf accuracy    <       0.00002008 Ry

     iteration #  2     ecut=    50.00 Ry     beta= 0.30
     Davidson diagonalization with overlap

---- Real-time Memory Report at c_bands before calling an iterative solver
             0 MiB given to the printing process from OS
             0 MiB allocation reported by mallinfo(arena+hblkhd)
             0 MiB available memory on the node where the printing process lives
------------------
     ethr =  1.25E-08,  avg # of iterations =  2.0

     negative rho (up, down):  5.180E-01 0.000E+00

     total cpu time spent up to now is     1141.1 secs

     total energy              =    -969.04013299 Ry
     estimated scf accuracy    <       0.00000507 Ry

     iteration #  3     ecut=    50.00 Ry     beta= 0.30
     Davidson diagonalization with overlap

---- Real-time Memory Report at c_bands before calling an iterative solver
             0 MiB given to the printing process from OS
             0 MiB allocation reported by mallinfo(arena+hblkhd)
             0 MiB available memory on the node where the printing process lives
------------------
     ethr =  3.17E-09,  avg # of iterations =  1.8

     negative rho (up, down):  5.180E-01 0.000E+00

     total cpu time spent up to now is     1145.8 secs

     total energy              =    -969.04013334 Ry
     estimated scf accuracy    <       0.00000173 Ry

     iteration #  4     ecut=    50.00 Ry     beta= 0.30
     Davidson diagonalization with overlap

---- Real-time Memory Report at c_bands before calling an iterative solver
             0 MiB given to the printing process from OS
             0 MiB allocation reported by mallinfo(arena+hblkhd)
             0 MiB available memory on the node where the printing process lives
------------------
     ethr =  1.08E-09,  avg # of iterations =  2.5

     negative rho (up, down):  5.180E-01 0.000E+00

     total cpu time spent up to now is     1151.5 secs

     total energy              =    -969.04013359 Ry
     estimated scf accuracy    <       0.00000024 Ry

     iteration #  5     ecut=    50.00 Ry     beta= 0.30
     Davidson diagonalization with overlap

---- Real-time Memory Report at c_bands before calling an iterative solver
             0 MiB given to the printing process from OS
             0 MiB allocation reported by mallinfo(arena+hblkhd)
             0 MiB available memory on the node where the printing process lives
------------------
     ethr =  1.51E-10,  avg # of iterations =  5.9

     negative rho (up, down):  5.180E-01 0.000E+00

     total cpu time spent up to now is     1159.7 secs

     total energy              =    -969.04013364 Ry
     estimated scf accuracy    <       0.00000035 Ry

     iteration #  6     ecut=    50.00 Ry     beta= 0.30
     Davidson diagonalization with overlap

---- Real-time Memory Report at c_bands before calling an iterative solver
             0 MiB given to the printing process from OS
             0 MiB allocation reported by mallinfo(arena+hblkhd)
             0 MiB available memory on the node where the printing process lives
------------------
     ethr =  1.51E-10,  avg # of iterations =  4.0

     negative rho (up, down):  5.180E-01 0.000E+00

     total cpu time spent up to now is     1165.8 secs

     total energy              =    -969.04013372 Ry
     estimated scf accuracy    <          5.0E-09 Ry

     iteration #  7     ecut=    50.00 Ry     beta= 0.30
     Davidson diagonalization with overlap

---- Real-time Memory Report at c_bands before calling an iterative solver
             0 MiB given to the printing process from OS
             0 MiB allocation reported by mallinfo(arena+hblkhd)
             0 MiB available memory on the node where the printing process lives
------------------
     ethr =  3.15E-12,  avg # of iterations =  6.5

     negative rho (up, down):  5.180E-01 0.000E+00

     total cpu time spent up to now is     1175.5 secs

     total energy              =    -969.04013373 Ry
     estimated scf accuracy    <       0.00000002 Ry

     iteration #  8     ecut=    50.00 Ry     beta= 0.30
     Davidson diagonalization with overlap

---- Real-time Memory Report at c_bands before calling an iterative solver
             0 MiB given to the printing process from OS
             0 MiB allocation reported by mallinfo(arena+hblkhd)
             0 MiB available memory on the node where the printing process lives
------------------
     ethr =  3.15E-12,  avg # of iterations =  5.3

     negative rho (up, down):  5.180E-01 0.000E+00

     total cpu time spent up to now is     1183.2 secs

     total energy              =    -969.04013373 Ry
     estimated scf accuracy    <          1.4E-09 Ry

     iteration #  9     ecut=    50.00 Ry     beta= 0.30
     Davidson diagonalization with overlap

---- Real-time Memory Report at c_bands before calling an iterative solver
             0 MiB given to the printing process from OS
             0 MiB allocation reported by mallinfo(arena+hblkhd)
             0 MiB available memory on the node where the printing process lives
------------------
     ethr =  8.98E-13,  avg # of iterations =  2.5

     negative rho (up, down):  5.180E-01 0.000E+00

     total cpu time spent up to now is     1188.6 secs

     total energy              =    -969.04013373 Ry
     estimated scf accuracy    <          3.5E-10 Ry

     iteration # 10     ecut=    50.00 Ry     beta= 0.30
     Davidson diagonalization with overlap

---- Real-time Memory Report at c_bands before calling an iterative solver
             0 MiB given to the printing process from OS
             0 MiB allocation reported by mallinfo(arena+hblkhd)
             0 MiB available memory on the node where the printing process lives
------------------
     ethr =  2.22E-13,  avg # of iterations =  4.6

     negative rho (up, down):  5.180E-01 0.000E+00

     total cpu time spent up to now is     1195.2 secs

     End of self-consistent calculation

          k = 0.0000 0.0000 0.0000 ( 18571 PWs)   bands (ev):

   -41.4193 -41.4193 -41.4149 -41.4149 -26.6801 -26.6799 -26.6785 -26.6783
   -19.5077 -19.5077 -19.4729 -19.4728 -19.4267 -19.4267 -19.4009 -19.4008
   -19.3807 -19.3807 -19.3646 -19.3646  -8.7807  -8.7741  -8.7704  -8.7625
    -8.7502  -8.7267  -8.6730  -8.6724  -8.6134  -8.6126  -8.6071  -8.6062
    -4.8908  -4.6634  -4.1098  -4.0599  -3.8249  -3.7268  -3.6904  -3.6892
    -3.5622  -3.4711  -3.4121  -3.3433   3.6364   3.8506   3.9077   3.9334
     3.9469   4.1418   4.2638   4.5439   4.7450   4.7563   4.7869   4.8091
     4.8632   4.9145   4.9256   5.4161   5.6369   5.6597   5.6881   5.9020
     5.9292   5.9836   6.2487   6.2826   6.4847   6.5688   6.6313   6.6687
     6.7200   6.8380   6.9282   7.1195   7.4339   7.4346   7.6570   7.8553

     occupation numbers 
     1.0000   1.0000   1.0000   1.0000   1.0000   1.0000   1.0000   1.0000
     1.0000   1.0000   1.0000   1.0000   1.0000   1.0000   1.0000   1.0000
     1.0000   1.0000   1.0000   1.0000   1.0000   1.0000   1.0000   1.0000
     1.0000   1.0000   1.0000   1.0000   1.0000   1.0000   1.0000   1.0000
     1.0000   1.0000   1.0000   1.0000   1.0000   1.0000   1.0000   1.0000
     1.0000   1.0000   1.0000   1.0000   1.0000   1.0000   1.0000   1.0000
     1.0000   1.0000   1.0000   1.0000   1.0000   1.0000   1.0000   1.0000
     1.0000   1.0000   1.0000   1.0000   1.0000   1.0000   1.0000   1.0000
     1.0000   1.0000   1.0000   1.0000   1.0000   1.0000   1.0000   1.0000
     1.0000   1.0000   1.0000   1.0000   1.0000   1.0000   1.0000   1.0000

          k = 0.0000 0.0000-0.1369 ( 18560 PWs)   bands (ev):

   -41.4193 -41.4193 -41.4149 -41.4149 -26.6800 -26.6800 -26.6784 -26.6784
   -19.5077 -19.5077 -19.4728 -19.4728 -19.4267 -19.4267 -19.4009 -19.4009
   -19.3807 -19.3807 -19.3646 -19.3646  -8.7773  -8.7773  -8.7680  -8.7680
    -8.7370  -8.7370  -8.6727  -8.6727  -8.6130  -8.6130  -8.6066  -8.6066
    -4.7914  -4.7914  -4.0695  -4.0695  -3.7740  -3.7740  -3.6751  -3.6751
    -3.5467  -3.5467  -3.3654  -3.3654   3.7197   3.7197   3.9215   3.9215
     4.0394   4.0394   4.4939   4.4939   4.7712   4.7712   4.8216   4.8216
     4.8912   4.8912   4.9202   4.9202   5.5118   5.5118   5.9559   5.9559
     6.1440   6.1440   6.2785   6.2785   6.6258   6.6258   6.6628   6.6628
     6.6976   6.6976   7.0122   7.0122   7.3065   7.3065   7.7512   7.7512

     occupation numbers 
     1.0000   1.0000   1.0000   1.0000   1.0000   1.0000   1.0000   1.0000
     1.0000   1.0000   1.0000   1.0000   1.0000   1.0000   1.0000   1.0000
     1.0000   1.0000   1.0000   1.0000   1.0000   1.0000   1.0000   1.0000
     1.0000   1.0000   1.0000   1.0000   1.0000   1.0000   1.0000   1.0000
     1.0000   1.0000   1.0000   1.0000   1.0000   1.0000   1.0000   1.0000
     1.0000   1.0000   1.0000   1.0000   1.0000   1.0000   1.0000   1.0000
     1.0000   1.0000   1.0000   1.0000   1.0000   1.0000   1.0000   1.0000
     1.0000   1.0000   1.0000   1.0000   1.0000   1.0000   1.0000   1.0000
     1.0000   1.0000   1.0000   1.0000   1.0000   1.0000   1.0000   1.0000
     1.0000   1.0000   1.0000   1.0000   1.0000   1.0000   1.0000   1.0000

          k = 0.0000 0.1483 0.0000 ( 18580 PWs)   bands (ev):

   -41.4193 -41.4193 -41.4149 -41.4149 -26.6797 -26.6795 -26.6789 -26.6787
   -19.5075 -19.5075 -19.4731 -19.4731 -19.4266 -19.4266 -19.4009 -19.4009
   -19.3807 -19.3807 -19.3647 -19.3646  -8.7859  -8.7771  -8.7664  -8.7550
    -8.7347  -8.7138  -8.6941  -8.6856  -8.6118  -8.6110  -8.6087  -8.6078
    -4.7738  -4.6270  -4.2169  -4.1752  -3.9497  -3.9276  -3.5671  -3.5234
    -3.4824  -3.4519  -3.3717  -3.3599   3.4471   3.5806   3.7225   3.7480
     4.0770   4.2163   4.3488   4.7552   4.7806   4.8726   4.8815   4.8918
     4.9009   5.1234   5.2154   5.2690   5.5323   5.6070   5.7780   6.0198
     6.0803   6.1140   6.1357   6.3098   6.5050   6.5503   6.7030   6.7535
     6.8000   6.8431   6.9152   7.0734   7.1334   7.2268   7.2906   7.3452

     occupation numbers 
     1.0000   1.0000   1.0000   1.0000   1.0000   1.0000   1.0000   1.0000
     1.0000   1.0000   1.0000   1.0000   1.0000   1.0000   1.0000   1.0000
     1.0000   1.0000   1.0000   1.0000   1.0000   1.0000   1.0000   1.0000
     1.0000   1.0000   1.0000   1.0000   1.0000   1.0000   1.0000   1.0000
     1.0000   1.0000   1.0000   1.0000   1.0000   1.0000   1.0000   1.0000
     1.0000   1.0000   1.0000   1.0000   1.0000   1.0000   1.0000   1.0000
     1.0000   1.0000   1.0000   1.0000   1.0000   1.0000   1.0000   1.0000
     1.0000   1.0000   1.0000   1.0000   1.0000   1.0000   1.0000   1.0000
     1.0000   1.0000   1.0000   1.0000   1.0000   1.0000   1.0000   1.0000
     1.0000   1.0000   1.0000   1.0000   1.0000   1.0000   1.0000   1.0000

          k = 0.0000 0.1483-0.1369 ( 18590 PWs)   bands (ev):

   -41.4193 -41.4193 -41.4149 -41.4149 -26.6796 -26.6796 -26.6788 -26.6788
   -19.5075 -19.5075 -19.4731 -19.4731 -19.4266 -19.4266 -19.4009 -19.4009
   -19.3807 -19.3807 -19.3646 -19.3646  -8.7788  -8.7788  -8.7653  -8.7653
    -8.7230  -8.7230  -8.6891  -8.6891  -8.6115  -8.6115  -8.6082  -8.6082
    -4.7019  -4.7019  -4.2148  -4.2148  -3.9114  -3.9114  -3.5605  -3.5605
    -3.4337  -3.4337  -3.3910  -3.3910   3.5116   3.5116   3.7070   3.7070
     4.1752   4.1752   4.6540   4.6540   4.7687   4.7687   4.8313   4.8313
     4.8899   4.8899   5.3822   5.3822   5.5216   5.5216   5.9130   5.9130
     6.1250   6.1250   6.3166   6.3166   6.5289   6.5289   6.6844   6.6844
     6.7450   6.7450   6.9735   6.9735   7.1542   7.1542   7.3868   7.3868

     occupation numbers 
     1.0000   1.0000   1.0000   1.0000   1.0000   1.0000   1.0000   1.0000
     1.0000   1.0000   1.0000   1.0000   1.0000   1.0000   1.0000   1.0000
     1.0000   1.0000   1.0000   1.0000   1.0000   1.0000   1.0000   1.0000
     1.0000   1.0000   1.0000   1.0000   1.0000   1.0000   1.0000   1.0000
     1.0000   1.0000   1.0000   1.0000   1.0000   1.0000   1.0000   1.0000
     1.0000   1.0000   1.0000   1.0000   1.0000   1.0000   1.0000   1.0000
     1.0000   1.0000   1.0000   1.0000   1.0000   1.0000   1.0000   1.0000
     1.0000   1.0000   1.0000   1.0000   1.0000   1.0000   1.0000   1.0000
     1.0000   1.0000   1.0000   1.0000   1.0000   1.0000   1.0000   1.0000
     1.0000   1.0000   1.0000   1.0000   1.0000   1.0000   1.0000   1.0000

          k = 0.1669 0.0000 0.0000 ( 18537 PWs)   bands (ev):

   -41.4177 -41.4177 -41.4139 -41.4139 -26.6749 -26.6748 -26.6734 -26.6732
   -19.4998 -19.4998 -19.4676 -19.4676 -19.4257 -19.4257 -19.4174 -19.4174
   -19.3947 -19.3947 -19.3930 -19.3930  -8.7552  -8.7519  -8.7512  -8.7415
    -8.7353  -8.7127  -8.7118  -8.7089  -8.6937  -8.6918  -8.6606  -8.6597
    -4.7038  -4.5048  -4.0176  -3.9736  -3.8454  -3.7615  -3.7010  -3.6722
    -3.5232  -3.4097  -3.4061  -3.3597   3.7873   3.8712   4.0467   4.0600
     4.0783   4.1970   4.2630   4.3148   4.4136   4.4151   4.5986   5.0108
     5.1354   5.2508   5.3637   5.4165   5.4647   5.5338   5.6283   5.6980
     5.7336   5.7964   5.8376   6.1113   6.1191   6.2267   6.2924   6.4209
     6.4404   6.6213   6.6311   6.8370   6.9386   7.2361   7.3788   7.4610

     occupation numbers 
     1.0000   1.0000   1.0000   1.0000   1.0000   1.0000   1.0000   1.0000
     1.0000   1.0000   1.0000   1.0000   1.0000   1.0000   1.0000   1.0000
     1.0000   1.0000   1.0000   1.0000   1.0000   1.0000   1.0000   1.0000
     1.0000   1.0000   1.0000   1.0000   1.0000   1.0000   1.0000   1.0000
     1.0000   1.0000   1.0000   1.0000   1.0000   1.0000   1.0000   1.0000
     1.0000   1.0000   1.0000   1.0000   1.0000   1.0000   1.0000   1.0000
     1.0000   1.0000   1.0000   1.0000   1.0000   1.0000   1.0000   1.0000
     1.0000   1.0000   1.0000   1.0000   1.0000   1.0000   1.0000   1.0000
     1.0000   1.0000   1.0000   1.0000   1.0000   1.0000   1.0000   1.0000
     1.0000   1.0000   1.0000   1.0000   1.0000   1.0000   1.0000   1.0000

          k = 0.1669 0.0000-0.1369 ( 18576 PWs)   bands (ev):

   -41.4177 -41.4177 -41.4139 -41.4139 -26.6748 -26.6748 -26.6733 -26.6733
   -19.4998 -19.4998 -19.4676 -19.4676 -19.4257 -19.4257 -19.4174 -19.4174
   -19.3947 -19.3947 -19.3930 -19.3930  -8.7528  -8.7528  -8.7487  -8.7487
    -8.7242  -8.7242  -8.7085  -8.7085  -8.6928  -8.6928  -8.6602  -8.6602
    -4.6164  -4.6164  -3.9846  -3.9846  -3.7991  -3.7991  -3.6858  -3.6858
    -3.4821  -3.4821  -3.3712  -3.3712   3.8205   3.8205   4.0346   4.0346
     4.1300   4.1300   4.2864   4.2864   4.5061   4.5061   4.7365   4.7365
     5.1805   5.1805   5.3693   5.3693   5.4754   5.4754   5.6250   5.6250
     5.8018   5.8018   6.0499   6.0499   6.2322   6.2322   6.3490   6.3490
     6.4911   6.4911   6.6538   6.6538   7.1561   7.1561   7.4234   7.4234

     occupation numbers 
     1.0000   1.0000   1.0000   1.0000   1.0000   1.0000   1.0000   1.0000
     1.0000   1.0000   1.0000   1.0000   1.0000   1.0000   1.0000   1.0000
     1.0000   1.0000   1.0000   1.0000   1.0000   1.0000   1.0000   1.0000
     1.0000   1.0000   1.0000   1.0000   1.0000   1.0000   1.0000   1.0000
     1.0000   1.0000   1.0000   1.0000   1.0000   1.0000   1.0000   1.0000
     1.0000   1.0000   1.0000   1.0000   1.0000   1.0000   1.0000   1.0000
     1.0000   1.0000   1.0000   1.0000   1.0000   1.0000   1.0000   1.0000
     1.0000   1.0000   1.0000   1.0000   1.0000   1.0000   1.0000   1.0000
     1.0000   1.0000   1.0000   1.0000   1.0000   1.0000   1.0000   1.0000
     1.0000   1.0000   1.0000   1.0000   1.0000   1.0000   1.0000   1.0000

          k = 0.1669 0.1483 0.0000 ( 18591 PWs)   bands (ev):

   -41.4177 -41.4177 -41.4139 -41.4139 -26.6745 -26.6744 -26.6738 -26.6736
   -19.4997 -19.4997 -19.4678 -19.4678 -19.4257 -19.4256 -19.4174 -19.4174
   -19.3947 -19.3946 -19.3930 -19.3930  -8.7622  -8.7563  -8.7459  -8.7388
    -8.7222  -8.7110  -8.7063  -8.7042  -8.6924  -8.6908  -8.6746  -8.6711
    -4.6072  -4.4815  -4.0905  -4.0550  -3.9460  -3.9237  -3.5483  -3.5224
    -3.5054  -3.4542  -3.3688  -3.3688   3.6985   3.8047   3.8971   3.9109
     4.1274   4.2110   4.3164   4.5050   4.5167   4.5697   4.7865   4.9475
     5.0160   5.1032   5.3223   5.3525   5.4194   5.5595   5.5715   5.5881
     5.7511   5.9110   5.9806   5.9964   6.1184   6.1663   6.4031   6.4698
     6.5798   6.6224   6.7271   6.8712   7.0705   7.2062   7.3265   7.3444

     occupation numbers 
     1.0000   1.0000   1.0000   1.0000   1.0000   1.0000   1.0000   1.0000
     1.0000   1.0000   1.0000   1.0000   1.0000   1.0000   1.0000   1.0000
     1.0000   1.0000   1.0000   1.0000   1.0000   1.0000   1.0000   1.0000
     1.0000   1.0000   1.0000   1.0000   1.0000   1.0000   1.0000   1.0000
     1.0000   1.0000   1.0000   1.0000   1.0000   1.0000   1.0000   1.0000
     1.0000   1.0000   1.0000   1.0000   1.0000   1.0000   1.0000   1.0000
     1.0000   1.0000   1.0000   1.0000   1.0000   1.0000   1.0000   1.0000
     1.0000   1.0000   1.0000   1.0000   1.0000   1.0000   1.0000   1.0000
     1.0000   1.0000   1.0000   1.0000   1.0000   1.0000   1.0000   1.0000
     1.0000   1.0000   1.0000   1.0000   1.0000   1.0000   1.0000   1.0000

          k = 0.1669 0.1483-0.1369 ( 18560 PWs)   bands (ev):

   -41.4177 -41.4177 -41.4139 -41.4139 -26.6745 -26.6745 -26.6737 -26.6737
   -19.4997 -19.4997 -19.4678 -19.4678 -19.4256 -19.4256 -19.4174 -19.4174
   -19.3946 -19.3946 -19.3930 -19.3930  -8.7569  -8.7569  -8.7462  -8.7462
    -8.7148  -8.7148  -8.7058  -8.7058  -8.6916  -8.6916  -8.6727  -8.6727
    -4.5450  -4.5450  -4.0962  -4.0962  -3.9089  -3.9089  -3.5492  -3.5492
    -3.4413  -3.4413  -3.3953  -3.3953   3.7277   3.7277   3.8709   3.8709
     4.2510   4.2510   4.4219   4.4219   4.6015   4.6015   4.7900   4.7900
     5.0016   5.0016   5.3134   5.3134   5.4971   5.4971   5.5623   5.5623
     5.8769   5.8769   6.0036   6.0036   6.2033   6.2033   6.3867   6.3867
     6.6594   6.6594   6.7706   6.7706   7.1214   7.1214   7.3126   7.3126

     occupation numbers 
     1.0000   1.0000   1.0000   1.0000   1.0000   1.0000   1.0000   1.0000
     1.0000   1.0000   1.0000   1.0000   1.0000   1.0000   1.0000   1.0000
     1.0000   1.0000   1.0000   1.0000   1.0000   1.0000   1.0000   1.0000
     1.0000   1.0000   1.0000   1.0000   1.0000   1.0000   1.0000   1.0000
     1.0000   1.0000   1.0000   1.0000   1.0000   1.0000   1.0000   1.0000
     1.0000   1.0000   1.0000   1.0000   1.0000   1.0000   1.0000   1.0000
     1.0000   1.0000   1.0000   1.0000   1.0000   1.0000   1.0000   1.0000
     1.0000   1.0000   1.0000   1.0000   1.0000   1.0000   1.0000   1.0000
     1.0000   1.0000   1.0000   1.0000   1.0000   1.0000   1.0000   1.0000
     1.0000   1.0000   1.0000   1.0000   1.0000   1.0000   1.0000   1.0000

          k = 0.3339 0.0000 0.0000 ( 18620 PWs)   bands (ev):

   -41.4142 -41.4142 -41.4120 -41.4120 -26.6645 -26.6644 -26.6632 -26.6631
   -19.4901 -19.4901 -19.4785 -19.4785 -19.4524 -19.4524 -19.4521 -19.4520
   -19.4118 -19.4117 -19.4012 -19.4011  -8.8990  -8.8985  -8.8627  -8.8619
    -8.7108  -8.7096  -8.7060  -8.6988  -8.6895  -8.6811  -8.6356  -8.6347
    -4.2731  -4.1571  -3.9316  -3.9306  -3.8547  -3.8118  -3.6392  -3.6380
    -3.4044  -3.3885  -3.3879  -3.2934   3.6245   3.7840   3.9528   4.0154
     4.0372   4.1456   4.2756   4.4117   4.5693   4.6510   4.6832   4.7349
     4.7815   4.7845   4.9211   5.1173   5.3871   5.4501   5.5068   5.5467
     5.6330   5.6894   5.7336   5.7418   5.9886   6.1732   6.1917   6.2616
     6.4023   6.4825   6.5002   6.5236   6.5852   6.6144   6.9412   6.9870

     occupation numbers 
     1.0000   1.0000   1.0000   1.0000   1.0000   1.0000   1.0000   1.0000
     1.0000   1.0000   1.0000   1.0000   1.0000   1.0000   1.0000   1.0000
     1.0000   1.0000   1.0000   1.0000   1.0000   1.0000   1.0000   1.0000
     1.0000   1.0000   1.0000   1.0000   1.0000   1.0000   1.0000   1.0000
     1.0000   1.0000   1.0000   1.0000   1.0000   1.0000   1.0000   1.0000
     1.0000   1.0000   1.0000   1.0000   1.0000   1.0000   1.0000   1.0000
     1.0000   1.0000   1.0000   1.0000   1.0000   1.0000   1.0000   1.0000
     1.0000   1.0000   1.0000   1.0000   1.0000   1.0000   1.0000   1.0000
     1.0000   1.0000   1.0000   1.0000   1.0000   1.0000   1.0000   1.0000
     1.0000   1.0000   1.0000   1.0000   1.0000   1.0000   1.0000   1.0000

          k = 0.3339 0.0000-0.1369 ( 18610 PWs)   bands (ev):

   -41.4142 -41.4142 -41.4120 -41.4120 -26.6645 -26.6645 -26.6631 -26.6631
   -19.4901 -19.4901 -19.4785 -19.4785 -19.4524 -19.4524 -19.4521 -19.4521
   -19.4118 -19.4118 -19.4012 -19.4012  -8.8988  -8.8988  -8.8623  -8.8623
    -8.7098  -8.7098  -8.7034  -8.7034  -8.6846  -8.6846  -8.6352  -8.6352
    -4.2202  -4.2202  -3.9320  -3.9320  -3.8292  -3.8292  -3.6373  -3.6373
    -3.4053  -3.4053  -3.3311  -3.3311   3.7490   3.7490   3.8562   3.8562
     4.0944   4.0944   4.3847   4.3847   4.6511   4.6511   4.7474   4.7474
     4.7884   4.7884   5.0361   5.0361   5.3525   5.3525   5.5714   5.5714
     5.7550   5.7550   5.7933   5.7933   5.8554   5.8554   6.0781   6.0781
     6.4084   6.4084   6.6062   6.6062   6.7256   6.7256   6.9786   6.9786

     occupation numbers 
     1.0000   1.0000   1.0000   1.0000   1.0000   1.0000   1.0000   1.0000
     1.0000   1.0000   1.0000   1.0000   1.0000   1.0000   1.0000   1.0000
     1.0000   1.0000   1.0000   1.0000   1.0000   1.0000   1.0000   1.0000
     1.0000   1.0000   1.0000   1.0000   1.0000   1.0000   1.0000   1.0000
     1.0000   1.0000   1.0000   1.0000   1.0000   1.0000   1.0000   1.0000
     1.0000   1.0000   1.0000   1.0000   1.0000   1.0000   1.0000   1.0000
     1.0000   1.0000   1.0000   1.0000   1.0000   1.0000   1.0000   1.0000
     1.0000   1.0000   1.0000   1.0000   1.0000   1.0000   1.0000   1.0000
     1.0000   1.0000   1.0000   1.0000   1.0000   1.0000   1.0000   1.0000
     1.0000   1.0000   1.0000   1.0000   1.0000   1.0000   1.0000   1.0000

          k = 0.3339 0.1483 0.0000 ( 18628 PWs)   bands (ev):

   -41.4142 -41.4142 -41.4120 -41.4120 -26.6642 -26.6641 -26.6635 -26.6634
   -19.4902 -19.4902 -19.4786 -19.4786 -19.4523 -19.4523 -19.4521 -19.4521
   -19.4118 -19.4117 -19.4012 -19.4011  -8.8904  -8.8895  -8.8723  -8.8712
    -8.7151  -8.7133  -8.7047  -8.7013  -8.6724  -8.6670  -8.6469  -8.6446
    -4.2347  -4.1711  -3.9620  -3.9477  -3.8304  -3.8184  -3.6299  -3.6298
    -3.4169  -3.4032  -3.3552  -3.3125   3.7135   3.7529   3.9109   3.9336
     4.2229   4.2515   4.3313   4.3960   4.4527   4.4911   4.5966   4.6248
     4.7303   4.8961   5.0911   5.2313   5.2334   5.2642   5.3780   5.4494
     5.6427   5.6704   5.7743   5.9004   6.0108   6.0129   6.2186   6.2566
     6.3076   6.3742   6.7019   6.7299   6.8352   6.8455   6.8802   6.9908

     occupation numbers 
     1.0000   1.0000   1.0000   1.0000   1.0000   1.0000   1.0000   1.0000
     1.0000   1.0000   1.0000   1.0000   1.0000   1.0000   1.0000   1.0000
     1.0000   1.0000   1.0000   1.0000   1.0000   1.0000   1.0000   1.0000
     1.0000   1.0000   1.0000   1.0000   1.0000   1.0000   1.0000   1.0000
     1.0000   1.0000   1.0000   1.0000   1.0000   1.0000   1.0000   1.0000
     1.0000   1.0000   1.0000   1.0000   1.0000   1.0000   1.0000   1.0000
     1.0000   1.0000   1.0000   1.0000   1.0000   1.0000   1.0000   1.0000
     1.0000   1.0000   1.0000   1.0000   1.0000   1.0000   1.0000   1.0000
     1.0000   1.0000   1.0000   1.0000   1.0000   1.0000   1.0000   1.0000
     1.0000   1.0000   1.0000   1.0000   1.0000   1.0000   1.0000   1.0000

          k = 0.3339 0.1483-0.1369 ( 18596 PWs)   bands (ev):

   -41.4142 -41.4142 -41.4120 -41.4120 -26.6641 -26.6641 -26.6635 -26.6635
   -19.4902 -19.4902 -19.4786 -19.4786 -19.4523 -19.4523 -19.4521 -19.4521
   -19.4118 -19.4118 -19.4012 -19.4012  -8.8900  -8.8900  -8.8718  -8.8718
    -8.7132  -8.7132  -8.7042  -8.7042  -8.6696  -8.6696  -8.6457  -8.6457
    -4.1999  -4.1999  -3.9681  -3.9681  -3.8163  -3.8163  -3.6296  -3.6296
    -3.3983  -3.3983  -3.3436  -3.3436   3.7427   3.7427   3.8607   3.8607
     4.2318   4.2318   4.3917   4.3917   4.4960   4.4960   4.6768   4.6768
     4.8392   4.8392   5.1416   5.1416   5.2456   5.2456   5.3567   5.3567
     5.6262   5.6262   5.7273   5.7273   6.1202   6.1202   6.2204   6.2204
     6.4445   6.4445   6.6211   6.6211   6.8122   6.8122   7.0022   7.0022

     occupation numbers 
     1.0000   1.0000   1.0000   1.0000   1.0000   1.0000   1.0000   1.0000
     1.0000   1.0000   1.0000   1.0000   1.0000   1.0000   1.0000   1.0000
     1.0000   1.0000   1.0000   1.0000   1.0000   1.0000   1.0000   1.0000
     1.0000   1.0000   1.0000   1.0000   1.0000   1.0000   1.0000   1.0000
     1.0000   1.0000   1.0000   1.0000   1.0000   1.0000   1.0000   1.0000
     1.0000   1.0000   1.0000   1.0000   1.0000   1.0000   1.0000   1.0000
     1.0000   1.0000   1.0000   1.0000   1.0000   1.0000   1.0000   1.0000
     1.0000   1.0000   1.0000   1.0000   1.0000   1.0000   1.0000   1.0000
     1.0000   1.0000   1.0000   1.0000   1.0000   1.0000   1.0000   1.0000
     1.0000   1.0000   1.0000   1.0000   1.0000   1.0000   1.0000   1.0000

          k =-0.5008 0.0000 0.0000 ( 18628 PWs)   bands (ev):

   -41.4118 -41.4118 -41.4118 -41.4118 -26.6593 -26.6593 -26.6580 -26.6580
   -19.5050 -19.5050 -19.5050 -19.5050 -19.4526 -19.4526 -19.4526 -19.4526
   -19.4070 -19.4070 -19.4069 -19.4069  -8.9877  -8.9877  -8.9432  -8.9432
    -8.6875  -8.6875  -8.6863  -8.6863  -8.6623  -8.6623  -8.6225  -8.6225
    -3.9964  -3.9964  -3.9961  -3.9961  -3.6920  -3.6920  -3.6793  -3.6793
    -3.4004  -3.4004  -3.2863  -3.2863   3.5380   3.5380   3.7269   3.7269
     4.0377   4.0377   4.3052   4.3052   4.5071   4.5071   4.5859   4.5859
     5.0597   5.0597   5.2101   5.2101   5.2633   5.2633   5.2640   5.2640
     5.4722   5.4722   5.8661   5.8661   5.9406   5.9406   6.0465   6.0465
     6.5639   6.5639   6.5985   6.5985   6.7107   6.7107   6.7783   6.7783

     occupation numbers 
     1.0000   1.0000   1.0000   1.0000   1.0000   1.0000   1.0000   1.0000
     1.0000   1.0000   1.0000   1.0000   1.0000   1.0000   1.0000   1.0000
     1.0000   1.0000   1.0000   1.0000   1.0000   1.0000   1.0000   1.0000
     1.0000   1.0000   1.0000   1.0000   1.0000   1.0000   1.0000   1.0000
     1.0000   1.0000   1.0000   1.0000   1.0000   1.0000   1.0000   1.0000
     1.0000   1.0000   1.0000   1.0000   1.0000   1.0000   1.0000   1.0000
     1.0000   1.0000   1.0000   1.0000   1.0000   1.0000   1.0000   1.0000
     1.0000   1.0000   1.0000   1.0000   1.0000   1.0000   1.0000   1.0000
     1.0000   1.0000   1.0000   1.0000   1.0000   1.0000   1.0000   1.0000
     1.0000   1.0000   1.0000   1.0000   1.0000   1.0000   1.0000   1.0000

          k =-0.5008 0.0000-0.1369 ( 18652 PWs)   bands (ev):

   -41.4118 -41.4118 -41.4118 -41.4118 -26.6593 -26.6593 -26.6580 -26.6580
   -19.5050 -19.5050 -19.5050 -19.5050 -19.4526 -19.4526 -19.4526 -19.4526
   -19.4070 -19.4070 -19.4069 -19.4069  -8.9877  -8.9877  -8.9432  -8.9432
    -8.6875  -8.6875  -8.6863  -8.6863  -8.6623  -8.6623  -8.6224  -8.6224
    -3.9998  -3.9998  -3.9928  -3.9928  -3.6928  -3.6928  -3.6790  -3.6790
    -3.4002  -3.4002  -3.2858  -3.2858   3.5209   3.5209   3.7575   3.7575
     4.0274   4.0274   4.2450   4.2450   4.5409   4.5409   4.6831   4.6831
     4.9902   4.9902   5.0663   5.0663   5.2269   5.2269   5.3877   5.3877
     5.6538   5.6538   5.6783   5.6783   5.9059   5.9059   6.3475   6.3475
     6.4310   6.4310   6.4927   6.4927   6.6694   6.6694   6.8418   6.8418

     occupation numbers 
     1.0000   1.0000   1.0000   1.0000   1.0000   1.0000   1.0000   1.0000
     1.0000   1.0000   1.0000   1.0000   1.0000   1.0000   1.0000   1.0000
     1.0000   1.0000   1.0000   1.0000   1.0000   1.0000   1.0000   1.0000
     1.0000   1.0000   1.0000   1.0000   1.0000   1.0000   1.0000   1.0000
     1.0000   1.0000   1.0000   1.0000   1.0000   1.0000   1.0000   1.0000
     1.0000   1.0000   1.0000   1.0000   1.0000   1.0000   1.0000   1.0000
     1.0000   1.0000   1.0000   1.0000   1.0000   1.0000   1.0000   1.0000
     1.0000   1.0000   1.0000   1.0000   1.0000   1.0000   1.0000   1.0000
     1.0000   1.0000   1.0000   1.0000   1.0000   1.0000   1.0000   1.0000
     1.0000   1.0000   1.0000   1.0000   1.0000   1.0000   1.0000   1.0000

          k =-0.5008 0.1483 0.0000 ( 18590 PWs)   bands (ev):

   -41.4118 -41.4118 -41.4118 -41.4118 -26.6590 -26.6590 -26.6583 -26.6583
   -19.5051 -19.5051 -19.5051 -19.5051 -19.4525 -19.4525 -19.4525 -19.4525
   -19.4070 -19.4070 -19.4069 -19.4069  -8.9767  -8.9767  -8.9544  -8.9544
    -8.6892  -8.6892  -8.6879  -8.6879  -8.6503  -8.6503  -8.6311  -8.6311
    -3.9962  -3.9962  -3.9957  -3.9957  -3.6904  -3.6904  -3.6852  -3.6852
    -3.3687  -3.3687  -3.3125  -3.3125   3.4649   3.4649   3.5243   3.5243
     4.2519   4.2519   4.3781   4.3781   4.6195   4.6195   4.6320   4.6320
     4.9711   4.9711   5.0483   5.0483   5.2613   5.2613   5.3580   5.3580
     5.6810   5.6810   5.7451   5.7451   6.1421   6.1421   6.1576   6.1576
     6.3975   6.3975   6.3985   6.3985   6.6504   6.6504   6.6683   6.6683

     occupation numbers 
     1.0000   1.0000   1.0000   1.0000   1.0000   1.0000   1.0000   1.0000
     1.0000   1.0000   1.0000   1.0000   1.0000   1.0000   1.0000   1.0000
     1.0000   1.0000   1.0000   1.0000   1.0000   1.0000   1.0000   1.0000
     1.0000   1.0000   1.0000   1.0000   1.0000   1.0000   1.0000   1.0000
     1.0000   1.0000   1.0000   1.0000   1.0000   1.0000   1.0000   1.0000
     1.0000   1.0000   1.0000   1.0000   1.0000   1.0000   1.0000   1.0000
     1.0000   1.0000   1.0000   1.0000   1.0000   1.0000   1.0000   1.0000
     1.0000   1.0000   1.0000   1.0000   1.0000   1.0000   1.0000   1.0000
     1.0000   1.0000   1.0000   1.0000   1.0000   1.0000   1.0000   1.0000
     1.0000   1.0000   1.0000   1.0000   1.0000   1.0000   1.0000   1.0000

          k =-0.5008 0.1483-0.1369 ( 18600 PWs)   bands (ev):

   -41.4118 -41.4118 -41.4118 -41.4118 -26.6590 -26.6590 -26.6583 -26.6583
   -19.5051 -19.5051 -19.5051 -19.5051 -19.4525 -19.4525 -19.4525 -19.4525
   -19.4070 -19.4070 -19.4069 -19.4069  -8.9767  -8.9767  -8.9544  -8.9544
    -8.6892  -8.6892  -8.6879  -8.6879  -8.6503  -8.6503  -8.6311  -8.6311
    -3.9976  -3.9976  -3.9943  -3.9943  -3.6920  -3.6920  -3.6842  -3.6842
    -3.3685  -3.3685  -3.3120  -3.3120   3.4442   3.4442   3.5368   3.5368
     4.2422   4.2422   4.3819   4.3819   4.5933   4.5933   4.6198   4.6198
     5.0576   5.0576   5.1585   5.1585   5.2889   5.2889   5.2917   5.2917
     5.6758   5.6758   5.7580   5.7580   5.9425   5.9425   6.0331   6.0331
     6.4050   6.4050   6.4403   6.4403   6.7491   6.7491   6.7551   6.7551

     occupation numbers 
     1.0000   1.0000   1.0000   1.0000   1.0000   1.0000   1.0000   1.0000
     1.0000   1.0000   1.0000   1.0000   1.0000   1.0000   1.0000   1.0000
     1.0000   1.0000   1.0000   1.0000   1.0000   1.0000   1.0000   1.0000
     1.0000   1.0000   1.0000   1.0000   1.0000   1.0000   1.0000   1.0000
     1.0000   1.0000   1.0000   1.0000   1.0000   1.0000   1.0000   1.0000
     1.0000   1.0000   1.0000   1.0000   1.0000   1.0000   1.0000   1.0000
     1.0000   1.0000   1.0000   1.0000   1.0000   1.0000   1.0000   1.0000
     1.0000   1.0000   1.0000   1.0000   1.0000   1.0000   1.0000   1.0000
     1.0000   1.0000   1.0000   1.0000   1.0000   1.0000   1.0000   1.0000
     1.0000   1.0000   1.0000   1.0000   1.0000   1.0000   1.0000   1.0000

     highest occupied level (ev):     7.8553

!    total energy              =    -969.04013374 Ry
     estimated scf accuracy    <          7.3E-12 Ry

     The total energy is the sum of the following terms:
     one-electron contribution =    -195.83836214 Ry
     hartree contribution      =     158.28085061 Ry
     xc contribution           =    -246.04499808 Ry
     ewald contribution        =    -685.43762412 Ry

     convergence has been achieved in  10 iterations

     negative rho (up, down):  5.180E-01 0.000E+00

     Forces acting on atoms (cartesian axes, Ry/au):

     atom    1 type  2   force =     0.00000000   -0.00006755    0.00021298
     atom    2 type  2   force =     0.00000000    0.00006755   -0.00021298
     atom    3 type  2   force =     0.00000000    0.00006755    0.00021298
     atom    4 type  2   force =    -0.00000000   -0.00006755   -0.00021298
     atom    5 type  3   force =     0.00000000   -0.00065655   -0.00139810
     atom    6 type  3   force =     0.00000000    0.00065655    0.00139810
     atom    7 type  3   force =     0.00000000    0.00065655   -0.00139810
     atom    8 type  3   force =     0.00000000   -0.00065655    0.00139810
     atom    9 type  1   force =     0.00000000    0.00011690    0.00071865
     atom   10 type  1   force =    -0.00000000   -0.00011690   -0.00071865
     atom   11 type  1   force =    -0.00000000   -0.00011690    0.00071865
     atom   12 type  1   force =     0.00000000    0.00011690   -0.00071865
     atom   13 type  1   force =     0.00000000   -0.00041152    0.00007491
     atom   14 type  1   force =    -0.00000000    0.00041152   -0.00007491
     atom   15 type  1   force =    -0.00000000    0.00041152    0.00007491
     atom   16 type  1   force =     0.00000000   -0.00041152   -0.00007491
     atom   17 type  1   force =     0.00000000    0.00053278   -0.00004089
     atom   18 type  1   force =    -0.00000000   -0.00053278    0.00004089
     atom   19 type  1   force =    -0.00000000   -0.00053278   -0.00004089
     atom   20 type  1   force =     0.00000000    0.00053278    0.00004089
     The non-local contrib.  to forces
     atom    1 type  2   force =     0.00000000    0.00088886    0.00462790
     atom    2 type  2   force =     0.00000000   -0.00088886   -0.00462790
     atom    3 type  2   force =     0.00000000   -0.00088886    0.00462790
     atom    4 type  2   force =    -0.00000000    0.00088886   -0.00462790
     atom    5 type  3   force =     0.00000000    0.02265477   -0.02230901
     atom    6 type  3   force =     0.00000000   -0.02265477    0.02230901
     atom    7 type  3   force =     0.00000000   -0.02265477   -0.02230901
     atom    8 type  3   force =     0.00000000    0.02265477    0.02230901
     atom    9 type  1   force =     0.00000000    0.00406427   -0.00916810
     atom   10 type  1   force =    -0.00000000   -0.00406427    0.00916810
     atom   11 type  1   force =     0.00000000   -0.00406427   -0.00916810
     atom   12 type  1   force =     0.00000000    0.00406427    0.00916810
     atom   13 type  1   force =     0.00000000   -0.04479858   -0.00308116
     atom   14 type  1   force =     0.00000000    0.04479858    0.00308116
     atom   15 type  1   force =     0.00000000    0.04479858   -0.00308116
     atom   16 type  1   force =     0.00000000   -0.04479858    0.00308116
     atom   17 type  1   force =     0.00000000    0.04172075    0.06759488
     atom   18 type  1   force =     0.00000000   -0.04172075   -0.06759488
     atom   19 type  1   force =    -0.00000000   -0.04172075    0.06759488
     atom   20 type  1   force =    -0.00000000    0.04172075   -0.06759488
     The ionic contribution  to forces
     atom    1 type  2   force =     0.00000000    0.39981438    0.10806141
     atom    2 type  2   force =     0.00000000   -0.39981438   -0.10806141
     atom    3 type  2   force =     0.00000000   -0.39981438    0.10806141
     atom    4 type  2   force =     0.00000000    0.39981438   -0.10806141
     atom    5 type  3   force =     0.00000000   -2.73609705    1.07904421
     atom    6 type  3   force =     0.00000000    2.73609705   -1.07904421
     atom    7 type  3   force =     0.00000000    2.73609705    1.07904421
     atom    8 type  3   force =     0.00000000   -2.73609705   -1.07904421
     atom    9 type  1   force =     0.00000000   -1.60966106    3.67182315
     atom   10 type  1   force =     0.00000000    1.60966106   -3.67182315
     atom   11 type  1   force =     0.00000000    1.60966106    3.67182315
     atom   12 type  1   force =     0.00000000   -1.60966106   -3.67182315
     atom   13 type  1   force =     0.00000000    3.63792442   -2.26068463
     atom   14 type  1   force =     0.00000000   -3.63792442    2.26068463
     atom   15 type  1   force =    -0.00000000   -3.63792442   -2.26068463
     atom   16 type  1   force =     0.00000000    3.63792442    2.26068463
     atom   17 type  1   force =     0.00000000   -2.97018251   -4.82442796
     atom   18 type  1   force =     0.00000000    2.97018251    4.82442796
     atom   19 type  1   force =     0.00000000    2.97018251   -4.82442796
     atom   20 type  1   force =     0.00000000   -2.97018251    4.82442796
     The local contribution  to forces
     atom    1 type  2   force =    -0.00000000   -0.40083694   -0.11228681
     atom    2 type  2   force =    -0.00000000    0.40083694    0.11228681
     atom    3 type  2   force =    -0.00000000    0.40083694   -0.11228681
     atom    4 type  2   force =    -0.00000000   -0.40083694    0.11228681
     atom    5 type  3   force =    -0.00000000    2.71356382   -1.05786454
     atom    6 type  3   force =    -0.00000000   -2.71356382    1.05786454
     atom    7 type  3   force =    -0.00000000   -2.71356382   -1.05786454
     atom    8 type  3   force =    -0.00000000    2.71356382    1.05786454
     atom    9 type  1   force =    -0.00000000    1.60564988   -3.66176978
     atom   10 type  1   force =    -0.00000000   -1.60564988    3.66176978
     atom   11 type  1   force =    -0.00000000   -1.60564988   -3.66176978
     atom   12 type  1   force =    -0.00000000    1.60564988    3.66176978
     atom   13 type  1   force =    -0.00000000   -3.59566455    2.26337798
     atom   14 type  1   force =    -0.00000000    3.59566455   -2.26337798
     atom   15 type  1   force =    -0.00000000    3.59566455    2.26337798
     atom   16 type  1   force =    -0.00000000   -3.59566455   -2.26337798
     atom   17 type  1   force =    -0.00000000    2.93096790    4.76015469
     atom   18 type  1   force =    -0.00000000   -2.93096790   -4.76015469
     atom   19 type  1   force =    -0.00000000   -2.93096790    4.76015469
     atom   20 type  1   force =    -0.00000000    2.93096790   -4.76015469
     The core correction contribution to forces
     atom    1 type  2   force =     0.00000000    0.00006500   -0.00018814
     atom    2 type  2   force =     0.00000000   -0.00006500    0.00018814
     atom    3 type  2   force =     0.00000000   -0.00006500   -0.00018814
     atom    4 type  2   force =     0.00000000    0.00006500    0.00018814
     atom    5 type  3   force =     0.00000000   -0.00077943   -0.00026769
     atom    6 type  3   force =     0.00000000    0.00077943    0.00026769
     atom    7 type  3   force =     0.00000000    0.00077943   -0.00026769
     atom    8 type  3   force =     0.00000000   -0.00077943    0.00026769
     atom    9 type  1   force =    -0.00000000    0.00006361   -0.00016766
     atom   10 type  1   force =     0.00000000   -0.00006361    0.00016766
     atom   11 type  1   force =     0.00000000   -0.00006361   -0.00016766
     atom   12 type  1   force =    -0.00000000    0.00006361    0.00016766
     atom   13 type  1   force =     0.00000000    0.00212726    0.00046290
     atom   14 type  1   force =     0.00000000   -0.00212726   -0.00046290
     atom   15 type  1   force =     0.00000000   -0.00212726    0.00046290
     atom   16 type  1   force =     0.00000000    0.00212726   -0.00046290
     atom   17 type  1   force =     0.00000000   -0.00197194   -0.00336153
     atom   18 type  1   force =     0.00000000    0.00197194    0.00336153
     atom   19 type  1   force =     0.00000000    0.00197194   -0.00336153
     atom   20 type  1   force =     0.00000000   -0.00197194    0.00336153
     The Hubbard contrib.    to forces
     atom    1 type  2   force =     0.00000000    0.00000000    0.00000000
     atom    2 type  2   force =     0.00000000    0.00000000    0.00000000
     atom    3 type  2   force =     0.00000000    0.00000000    0.00000000
     atom    4 type  2   force =     0.00000000    0.00000000    0.00000000
     atom    5 type  3   force =     0.00000000    0.00000000    0.00000000
     atom    6 type  3   force =     0.00000000    0.00000000    0.00000000
     atom    7 type  3   force =     0.00000000    0.00000000    0.00000000
     atom    8 type  3   force =     0.00000000    0.00000000    0.00000000
     atom    9 type  1   force =     0.00000000    0.00000000    0.00000000
     atom   10 type  1   force =     0.00000000    0.00000000    0.00000000
     atom   11 type  1   force =     0.00000000    0.00000000    0.00000000
     atom   12 type  1   force =     0.00000000    0.00000000    0.00000000
     atom   13 type  1   force =     0.00000000    0.00000000    0.00000000
     atom   14 type  1   force =     0.00000000    0.00000000    0.00000000
     atom   15 type  1   force =     0.00000000    0.00000000    0.00000000
     atom   16 type  1   force =     0.00000000    0.00000000    0.00000000
     atom   17 type  1   force =     0.00000000    0.00000000    0.00000000
     atom   18 type  1   force =     0.00000000    0.00000000    0.00000000
     atom   19 type  1   force =     0.00000000    0.00000000    0.00000000
     atom   20 type  1   force =     0.00000000    0.00000000    0.00000000
     The SCF correction term to forces
     atom    1 type  2   force =    -0.00000000    0.00000115   -0.00000137
     atom    2 type  2   force =     0.00000000   -0.00000115    0.00000137
     atom    3 type  2   force =     0.00000000   -0.00000115   -0.00000137
     atom    4 type  2   force =    -0.00000000    0.00000115    0.00000137
     atom    5 type  3   force =     0.00000000    0.00000134   -0.00000106
     atom    6 type  3   force =    -0.00000000   -0.00000134    0.00000106
     atom    7 type  3   force =    -0.00000000   -0.00000134   -0.00000106
     atom    8 type  3   force =     0.00000000    0.00000134    0.00000106
     atom    9 type  1   force =    -0.00000000    0.00000021    0.00000104
     atom   10 type  1   force =     0.00000000   -0.00000021   -0.00000104
     atom   11 type  1   force =    -0.00000000   -0.00000021    0.00000104
     atom   12 type  1   force =     0.00000000    0.00000021   -0.00000104
     atom   13 type  1   force =    -0.00000000   -0.00000007   -0.00000016
     atom   14 type  1   force =     0.00000000    0.00000007    0.00000016
     atom   15 type  1   force =     0.00000000    0.00000007   -0.00000016
     atom   16 type  1   force =    -0.00000000   -0.00000007    0.00000016
     atom   17 type  1   force =     0.00000000   -0.00000142   -0.00000098
     atom   18 type  1   force =    -0.00000000    0.00000142    0.00000098
     atom   19 type  1   force =    -0.00000000    0.00000142   -0.00000098
     atom   20 type  1   force =     0.00000000   -0.00000142    0.00000098

     Total force =     0.003702     Total SCF correction =     0.000006


     Computing stress (Cartesian axis) and pressure


     negative rho (up, down):  5.180E-01 0.000E+00
          total   stress  (Ry/bohr**3)                   (kbar)     P=       -0.36
   0.00000442   0.00000000   0.00000000            0.65        0.00        0.00
   0.00000000  -0.00000395   0.00000000            0.00       -0.58        0.00
   0.00000000   0.00000000  -0.00000785            0.00        0.00       -1.15

     kinetic stress (kbar)   8922.29      0.00      0.00
                                0.00   8948.35      0.00
                                0.00      0.00   8967.72

     local   stress (kbar)  -7860.97      0.00      0.00
                                0.00  -4291.35     -0.00
                                0.00     -0.00  -3979.17

     nonloc. stress (kbar)   7367.65      0.00      0.00
                                0.00   7363.92      0.00
                                0.00      0.00   7369.53

     hartree stress (kbar)   3516.16      0.00     -0.00
                                0.00   2108.66      0.00
                               -0.00      0.00   1804.09

     exc-cor stress (kbar)   2570.40     -0.00     -0.00
                               -0.00   2568.29     -0.00
                               -0.00     -0.00   2570.91

     corecor stress (kbar)  -5258.67      0.00     -0.00
                                0.00  -5258.57      0.00
                               -0.00      0.00  -5259.30

     ewald   stress (kbar)  -9256.22      0.00      0.00
                                0.00 -11439.86      0.00
                                0.00      0.00 -11474.92

     hubbard stress (kbar)      0.00      0.00      0.00
                                0.00      0.00      0.00
                                0.00      0.00      0.00

     DFT-D   stress (kbar)      0.00      0.00      0.00
                                0.00      0.00      0.00
                                0.00      0.00      0.00

     XDM     stress (kbar)      0.00      0.00      0.00
                                0.00      0.00      0.00
                                0.00      0.00      0.00

     dft-nl  stress (kbar)      0.00      0.00      0.00
                                0.00      0.00      0.00
                                0.00      0.00      0.00

     TS-vdW  stress (kbar)      0.00      0.00      0.00
                                0.00      0.00      0.00
                                0.00      0.00      0.00

     MDB     stress (kbar)      0.00      0.00      0.00
                                0.00      0.00      0.00
                                0.00      0.00      0.00

     3D-RISM stress (kbar)      0.00      0.00      0.00
                                0.00      0.00      0.00
                                0.00      0.00      0.00

     Energy error            =      3.3E-05 Ry
     Gradient error          =      1.4E-03 Ry/Bohr
     Cell gradient error     =      1.2E+00 kbar

     number of scf cycles    =   9
     number of bfgs steps    =   8

     enthalpy           old  =    -969.0401005747 Ry
     enthalpy           new  =    -969.0401337356 Ry

     CASE: enthalpy          _new < enthalpy          _old

     new trust radius        =       0.0097402109 bohr
     new conv_thr            =       0.0000000001 Ry

     new unit-cell volume =   3134.15078 a.u.^3 (   464.43323 Ang^3 )
     density =      3.93351 g/cm^3

CELL_PARAMETERS (angstrom)
   3.832615994   0.000000000   0.000000000
  -0.000000000   8.639748608   0.000000000
   0.000000000   0.000000000  14.025775136

ATOMIC_POSITIONS (crystal)
Sr               0.2500000000        0.0631285848        0.8196222773
Sr               0.7500000000        0.9368714152        0.1803777227
Sr               0.7500000000        0.4368714152        0.3196222773
Sr               0.2500000000        0.5631285848        0.6803777227
Zr               0.2500000000        0.3273082368        0.0561664881
Zr               0.7500000000        0.6726917632        0.9438335119
Zr               0.7500000000        0.1726917632        0.5561664881
Zr               0.2500000000        0.8273082368        0.4438335119
S                0.2500000000        0.2079584826        0.2152283503
S                0.7500000000        0.7920415174        0.7847716497
S                0.7500000000        0.2920415174        0.7152283503
S                0.2500000000        0.7079584826        0.2847716497
S                0.2500000000        0.3363368875        0.4845366711
S                0.7500000000        0.6636631125        0.5154633289
S                0.7500000000        0.1636631125        0.9845366711
S                0.2500000000        0.8363368875        0.0154633289
S                0.2500000000        0.4862154996        0.8946172237
S                0.7500000000        0.5137845004        0.1053827763
S                0.7500000000        0.0137845004        0.3946172237
S                0.2500000000        0.9862154996        0.6053827763



     Writing config-only to output data dir ./tmp/relax/SrZrS3_relax.save/ :
     XML data file
     NEW-OLD atomic charge density approx. for the potential
     New effective cutoffs (rho, wfc):  401.49   50.20

     negative rho (up, down):  5.188E-01 0.000E+00

     total cpu time spent up to now is     1202.0 secs

     Self-consistent Calculation

     iteration #  1     ecut=    50.00 Ry     beta= 0.30
     Davidson diagonalization with overlap

---- Real-time Memory Report at c_bands before calling an iterative solver
             0 MiB given to the printing process from OS
             0 MiB allocation reported by mallinfo(arena+hblkhd)
             0 MiB available memory on the node where the printing process lives
------------------
     ethr =  1.00E-06,  avg # of iterations =  4.0

     Threshold (ethr) on eigenvalues was too large:
     Diagonalizing with lowered threshold

     Davidson diagonalization with overlap

---- Real-time Memory Report at c_bands before calling an iterative solver
             0 MiB given to the printing process from OS
             0 MiB allocation reported by mallinfo(arena+hblkhd)
             0 MiB available memory on the node where the printing process lives
------------------
     ethr =  1.56E-08,  avg # of iterations =  7.2

     negative rho (up, down):  5.188E-01 0.000E+00

     total cpu time spent up to now is     1221.3 secs

     total energy              =    -969.04016778 Ry
     estimated scf accuracy    <       0.00002166 Ry

     iteration #  2     ecut=    50.00 Ry     beta= 0.30
     Davidson diagonalization with overlap

---- Real-time Memory Report at c_bands before calling an iterative solver
             0 MiB given to the printing process from OS
             0 MiB allocation reported by mallinfo(arena+hblkhd)
             0 MiB available memory on the node where the printing process lives
------------------
     ethr =  1.35E-08,  avg # of iterations =  2.6

     negative rho (up, down):  5.188E-01 0.000E+00

     total cpu time spent up to now is     1226.7 secs

     total energy              =    -969.04017013 Ry
     estimated scf accuracy    <       0.00000577 Ry

     iteration #  3     ecut=    50.00 Ry     beta= 0.30
     Davidson diagonalization with overlap

---- Real-time Memory Report at c_bands before calling an iterative solver
             0 MiB given to the printing process from OS
             0 MiB allocation reported by mallinfo(arena+hblkhd)
             0 MiB available memory on the node where the printing process lives
------------------
     ethr =  3.61E-09,  avg # of iterations =  1.9

     negative rho (up, down):  5.188E-01 0.000E+00

     total cpu time spent up to now is     1231.5 secs

     total energy              =    -969.04017046 Ry
     estimated scf accuracy    <       0.00000205 Ry

     iteration #  4     ecut=    50.00 Ry     beta= 0.30
     Davidson diagonalization with overlap

---- Real-time Memory Report at c_bands before calling an iterative solver
             0 MiB given to the printing process from OS
             0 MiB allocation reported by mallinfo(arena+hblkhd)
             0 MiB available memory on the node where the printing process lives
------------------
     ethr =  1.28E-09,  avg # of iterations =  2.8

     negative rho (up, down):  5.188E-01 0.000E+00

     total cpu time spent up to now is     1237.5 secs

     total energy              =    -969.04017075 Ry
     estimated scf accuracy    <       0.00000022 Ry

     iteration #  5     ecut=    50.00 Ry     beta= 0.30
     Davidson diagonalization with overlap

---- Real-time Memory Report at c_bands before calling an iterative solver
             0 MiB given to the printing process from OS
             0 MiB allocation reported by mallinfo(arena+hblkhd)
             0 MiB available memory on the node where the printing process lives
------------------
     ethr =  1.41E-10,  avg # of iterations =  5.9

     negative rho (up, down):  5.188E-01 0.000E+00

     total cpu time spent up to now is     1245.3 secs

     total energy              =    -969.04017084 Ry
     estimated scf accuracy    <       0.00000012 Ry

     iteration #  6     ecut=    50.00 Ry     beta= 0.30
     Davidson diagonalization with overlap

---- Real-time Memory Report at c_bands before calling an iterative solver
             0 MiB given to the printing process from OS
             0 MiB allocation reported by mallinfo(arena+hblkhd)
             0 MiB available memory on the node where the printing process lives
------------------
     ethr =  7.76E-11,  avg # of iterations =  3.1

     negative rho (up, down):  5.188E-01 0.000E+00

     total cpu time spent up to now is     1251.0 secs

     total energy              =    -969.04017087 Ry
     estimated scf accuracy    <          7.7E-09 Ry

     iteration #  7     ecut=    50.00 Ry     beta= 0.30
     Davidson diagonalization with overlap

---- Real-time Memory Report at c_bands before calling an iterative solver
             0 MiB given to the printing process from OS
             0 MiB allocation reported by mallinfo(arena+hblkhd)
             0 MiB available memory on the node where the printing process lives
------------------
     ethr =  4.81E-12,  avg # of iterations =  6.3

     negative rho (up, down):  5.188E-01 0.000E+00

     total cpu time spent up to now is     1260.2 secs

     total energy              =    -969.04017087 Ry
     estimated scf accuracy    <       0.00000001 Ry

     iteration #  8     ecut=    50.00 Ry     beta= 0.30
     Davidson diagonalization with overlap

---- Real-time Memory Report at c_bands before calling an iterative solver
             0 MiB given to the printing process from OS
             0 MiB allocation reported by mallinfo(arena+hblkhd)
             0 MiB available memory on the node where the printing process lives
------------------
     ethr =  4.81E-12,  avg # of iterations =  3.8

     negative rho (up, down):  5.188E-01 0.000E+00

     total cpu time spent up to now is     1266.5 secs

     total energy              =    -969.04017088 Ry
     estimated scf accuracy    <          5.1E-10 Ry

     iteration #  9     ecut=    50.00 Ry     beta= 0.30
     Davidson diagonalization with overlap

---- Real-time Memory Report at c_bands before calling an iterative solver
             0 MiB given to the printing process from OS
             0 MiB allocation reported by mallinfo(arena+hblkhd)
             0 MiB available memory on the node where the printing process lives
------------------
     ethr =  3.19E-13,  avg # of iterations =  7.4

     negative rho (up, down):  5.188E-01 0.000E+00

     total cpu time spent up to now is     1276.5 secs

     total energy              =    -969.04017088 Ry
     estimated scf accuracy    <          5.4E-09 Ry

     iteration # 10     ecut=    50.00 Ry     beta= 0.30
     Davidson diagonalization with overlap

---- Real-time Memory Report at c_bands before calling an iterative solver
             0 MiB given to the printing process from OS
             0 MiB allocation reported by mallinfo(arena+hblkhd)
             0 MiB available memory on the node where the printing process lives
------------------
     ethr =  3.19E-13,  avg # of iterations =  5.5

     negative rho (up, down):  5.188E-01 0.000E+00

     total cpu time spent up to now is     1284.1 secs

     total energy              =    -969.04017088 Ry
     estimated scf accuracy    <          5.5E-10 Ry

     iteration # 11     ecut=    50.00 Ry     beta= 0.30
     Davidson diagonalization with overlap

---- Real-time Memory Report at c_bands before calling an iterative solver
             0 MiB given to the printing process from OS
             0 MiB allocation reported by mallinfo(arena+hblkhd)
             0 MiB available memory on the node where the printing process lives
------------------
     ethr =  3.19E-13,  avg # of iterations =  4.8

     negative rho (up, down):  5.188E-01 0.000E+00

     total cpu time spent up to now is     1290.8 secs

     End of self-consistent calculation

          k = 0.0000 0.0000 0.0000 ( 18571 PWs)   bands (ev):

   -41.4176 -41.4176 -41.4132 -41.4132 -26.6795 -26.6793 -26.6779 -26.6777
   -19.5068 -19.5068 -19.4717 -19.4717 -19.4250 -19.4249 -19.3993 -19.3993
   -19.3796 -19.3796 -19.3635 -19.3635  -8.7804  -8.7738  -8.7702  -8.7624
    -8.7501  -8.7267  -8.6726  -8.6719  -8.6127  -8.6119  -8.6064  -8.6055
    -4.8926  -4.6657  -4.1084  -4.0611  -3.8281  -3.7291  -3.6953  -3.6927
    -3.5615  -3.4704  -3.4098  -3.3438   3.6367   3.8471   3.9048   3.9335
     3.9448   4.1380   4.2607   4.5470   4.7404   4.7521   4.7831   4.8051
     4.8614   4.9124   4.9235   5.4172   5.6367   5.6588   5.6869   5.9045
     5.9288   5.9834   6.2455   6.2818   6.4885   6.5696   6.6320   6.6708
     6.7168   6.8421   6.9274   7.1202   7.4351   7.4352   7.6513   7.8508

     occupation numbers 
     1.0000   1.0000   1.0000   1.0000   1.0000   1.0000   1.0000   1.0000
     1.0000   1.0000   1.0000   1.0000   1.0000   1.0000   1.0000   1.0000
     1.0000   1.0000   1.0000   1.0000   1.0000   1.0000   1.0000   1.0000
     1.0000   1.0000   1.0000   1.0000   1.0000   1.0000   1.0000   1.0000
     1.0000   1.0000   1.0000   1.0000   1.0000   1.0000   1.0000   1.0000
     1.0000   1.0000   1.0000   1.0000   1.0000   1.0000   1.0000   1.0000
     1.0000   1.0000   1.0000   1.0000   1.0000   1.0000   1.0000   1.0000
     1.0000   1.0000   1.0000   1.0000   1.0000   1.0000   1.0000   1.0000
     1.0000   1.0000   1.0000   1.0000   1.0000   1.0000   1.0000   1.0000
     1.0000   1.0000   1.0000   1.0000   1.0000   1.0000   1.0000   1.0000

          k = 0.0000 0.0000-0.1369 ( 18560 PWs)   bands (ev):

   -41.4176 -41.4176 -41.4132 -41.4132 -26.6794 -26.6794 -26.6778 -26.6778
   -19.5068 -19.5068 -19.4717 -19.4717 -19.4250 -19.4250 -19.3993 -19.3993
   -19.3796 -19.3796 -19.3635 -19.3635  -8.7770  -8.7770  -8.7679  -8.7679
    -8.7369  -8.7369  -8.6723  -8.6723  -8.6123  -8.6123  -8.6059  -8.6059
    -4.7933  -4.7933  -4.0699  -4.0699  -3.7766  -3.7766  -3.6790  -3.6790
    -3.5461  -3.5461  -3.3645  -3.3645   3.7194   3.7194   3.9181   3.9181
     4.0356   4.0356   4.4935   4.4935   4.7672   4.7672   4.8220   4.8220
     4.8896   4.8896   4.9181   4.9181   5.5098   5.5098   5.9557   5.9557
     6.1428   6.1428   6.2787   6.2787   6.6259   6.6259   6.6614   6.6614
     6.7009   6.7009   7.0134   7.0134   7.3079   7.3079   7.7458   7.7458

     occupation numbers 
     1.0000   1.0000   1.0000   1.0000   1.0000   1.0000   1.0000   1.0000
     1.0000   1.0000   1.0000   1.0000   1.0000   1.0000   1.0000   1.0000
     1.0000   1.0000   1.0000   1.0000   1.0000   1.0000   1.0000   1.0000
     1.0000   1.0000   1.0000   1.0000   1.0000   1.0000   1.0000   1.0000
     1.0000   1.0000   1.0000   1.0000   1.0000   1.0000   1.0000   1.0000
     1.0000   1.0000   1.0000   1.0000   1.0000   1.0000   1.0000   1.0000
     1.0000   1.0000   1.0000   1.0000   1.0000   1.0000   1.0000   1.0000
     1.0000   1.0000   1.0000   1.0000   1.0000   1.0000   1.0000   1.0000
     1.0000   1.0000   1.0000   1.0000   1.0000   1.0000   1.0000   1.0000
     1.0000   1.0000   1.0000   1.0000   1.0000   1.0000   1.0000   1.0000

          k = 0.0000 0.1482 0.0000 ( 18580 PWs)   bands (ev):

   -41.4176 -41.4176 -41.4132 -41.4132 -26.6791 -26.6789 -26.6783 -26.6781
   -19.5066 -19.5066 -19.4719 -19.4719 -19.4249 -19.4249 -19.3993 -19.3993
   -19.3795 -19.3795 -19.3635 -19.3635  -8.7856  -8.7769  -8.7661  -8.7548
    -8.7345  -8.7137  -8.6937  -8.6853  -8.6111  -8.6103  -8.6079  -8.6071
    -4.7760  -4.6293  -4.2206  -4.1772  -3.9481  -3.9272  -3.5657  -3.5271
    -3.4833  -3.4549  -3.3709  -3.3614   3.4446   3.5773   3.7209   3.7471
     4.0760   4.2144   4.3499   4.7526   4.7783   4.8711   4.8779   4.8903
     4.8975   5.1191   5.2141   5.2704   5.5323   5.6093   5.7725   6.0201
     6.0770   6.1120   6.1341   6.3074   6.5061   6.5515   6.7056   6.7536
     6.8036   6.8420   6.9155   7.0755   7.1302   7.2292   7.2861   7.3441

     occupation numbers 
     1.0000   1.0000   1.0000   1.0000   1.0000   1.0000   1.0000   1.0000
     1.0000   1.0000   1.0000   1.0000   1.0000   1.0000   1.0000   1.0000
     1.0000   1.0000   1.0000   1.0000   1.0000   1.0000   1.0000   1.0000
     1.0000   1.0000   1.0000   1.0000   1.0000   1.0000   1.0000   1.0000
     1.0000   1.0000   1.0000   1.0000   1.0000   1.0000   1.0000   1.0000
     1.0000   1.0000   1.0000   1.0000   1.0000   1.0000   1.0000   1.0000
     1.0000   1.0000   1.0000   1.0000   1.0000   1.0000   1.0000   1.0000
     1.0000   1.0000   1.0000   1.0000   1.0000   1.0000   1.0000   1.0000
     1.0000   1.0000   1.0000   1.0000   1.0000   1.0000   1.0000   1.0000
     1.0000   1.0000   1.0000   1.0000   1.0000   1.0000   1.0000   1.0000

          k = 0.0000 0.1482-0.1369 ( 18590 PWs)   bands (ev):

   -41.4176 -41.4176 -41.4132 -41.4132 -26.6790 -26.6790 -26.6782 -26.6782
   -19.5066 -19.5066 -19.4719 -19.4719 -19.4249 -19.4249 -19.3993 -19.3993
   -19.3795 -19.3795 -19.3635 -19.3635  -8.7786  -8.7786  -8.7651  -8.7651
    -8.7229  -8.7229  -8.6888  -8.6888  -8.6107  -8.6107  -8.6074  -8.6074
    -4.7041  -4.7041  -4.2177  -4.2177  -3.9101  -3.9101  -3.5623  -3.5623
    -3.4353  -3.4353  -3.3914  -3.3914   3.5096   3.5096   3.7043   3.7043
     4.1732   4.1732   4.6565   4.6565   4.7661   4.7661   4.8298   4.8298
     4.8864   4.8864   5.3802   5.3802   5.5195   5.5195   5.9120   5.9120
     6.1231   6.1231   6.3148   6.3148   6.5302   6.5302   6.6826   6.6826
     6.7479   6.7479   6.9712   6.9712   7.1567   7.1567   7.3856   7.3856

     occupation numbers 
     1.0000   1.0000   1.0000   1.0000   1.0000   1.0000   1.0000   1.0000
     1.0000   1.0000   1.0000   1.0000   1.0000   1.0000   1.0000   1.0000
     1.0000   1.0000   1.0000   1.0000   1.0000   1.0000   1.0000   1.0000
     1.0000   1.0000   1.0000   1.0000   1.0000   1.0000   1.0000   1.0000
     1.0000   1.0000   1.0000   1.0000   1.0000   1.0000   1.0000   1.0000
     1.0000   1.0000   1.0000   1.0000   1.0000   1.0000   1.0000   1.0000
     1.0000   1.0000   1.0000   1.0000   1.0000   1.0000   1.0000   1.0000
     1.0000   1.0000   1.0000   1.0000   1.0000   1.0000   1.0000   1.0000
     1.0000   1.0000   1.0000   1.0000   1.0000   1.0000   1.0000   1.0000
     1.0000   1.0000   1.0000   1.0000   1.0000   1.0000   1.0000   1.0000

          k = 0.1670 0.0000 0.0000 ( 18537 PWs)   bands (ev):

   -41.4160 -41.4160 -41.4122 -41.4122 -26.6743 -26.6741 -26.6728 -26.6726
   -19.4989 -19.4988 -19.4665 -19.4664 -19.4241 -19.4240 -19.4162 -19.4161
   -19.3933 -19.3933 -19.3920 -19.3919  -8.7548  -8.7517  -8.7510  -8.7413
    -8.7351  -8.7126  -8.7113  -8.7085  -8.6932  -8.6913  -8.6602  -8.6592
    -4.7054  -4.5068  -4.0158  -3.9732  -3.8489  -3.7642  -3.7053  -3.6784
    -3.5224  -3.4074  -3.4051  -3.3597   3.7875   3.8684   4.0491   4.0570
     4.0776   4.1973   4.2578   4.3122   4.4113   4.4136   4.5945   5.0076
     5.1336   5.2483   5.3653   5.4149   5.4597   5.5352   5.6285   5.6968
     5.7281   5.7958   5.8399   6.1104   6.1190   6.2222   6.2909   6.4240
     6.4408   6.6208   6.6337   6.8366   6.9388   7.2375   7.3770   7.4586

     occupation numbers 
     1.0000   1.0000   1.0000   1.0000   1.0000   1.0000   1.0000   1.0000
     1.0000   1.0000   1.0000   1.0000   1.0000   1.0000   1.0000   1.0000
     1.0000   1.0000   1.0000   1.0000   1.0000   1.0000   1.0000   1.0000
     1.0000   1.0000   1.0000   1.0000   1.0000   1.0000   1.0000   1.0000
     1.0000   1.0000   1.0000   1.0000   1.0000   1.0000   1.0000   1.0000
     1.0000   1.0000   1.0000   1.0000   1.0000   1.0000   1.0000   1.0000
     1.0000   1.0000   1.0000   1.0000   1.0000   1.0000   1.0000   1.0000
     1.0000   1.0000   1.0000   1.0000   1.0000   1.0000   1.0000   1.0000
     1.0000   1.0000   1.0000   1.0000   1.0000   1.0000   1.0000   1.0000
     1.0000   1.0000   1.0000   1.0000   1.0000   1.0000   1.0000   1.0000

          k = 0.1670 0.0000-0.1369 ( 18576 PWs)   bands (ev):

   -41.4160 -41.4160 -41.4122 -41.4122 -26.6742 -26.6742 -26.6727 -26.6727
   -19.4989 -19.4989 -19.4665 -19.4665 -19.4240 -19.4240 -19.4162 -19.4162
   -19.3933 -19.3933 -19.3919 -19.3919  -8.7524  -8.7524  -8.7485  -8.7485
    -8.7240  -8.7240  -8.7081  -8.7081  -8.6923  -8.6923  -8.6597  -8.6597
    -4.6181  -4.6181  -3.9840  -3.9840  -3.8020  -3.8020  -3.6907  -3.6907
    -3.4816  -3.4816  -3.3699  -3.3699   3.8203   3.8203   4.0332   4.0332
     4.1260   4.1260   4.2852   4.2852   4.5031   4.5031   4.7375   4.7375
     5.1783   5.1783   5.3698   5.3698   5.4702   5.4702   5.6237   5.6237
     5.8010   5.8010   6.0472   6.0472   6.2308   6.2308   6.3530   6.3530
     6.4915   6.4915   6.6532   6.6532   7.1565   7.1565   7.4212   7.4212

     occupation numbers 
     1.0000   1.0000   1.0000   1.0000   1.0000   1.0000   1.0000   1.0000
     1.0000   1.0000   1.0000   1.0000   1.0000   1.0000   1.0000   1.0000
     1.0000   1.0000   1.0000   1.0000   1.0000   1.0000   1.0000   1.0000
     1.0000   1.0000   1.0000   1.0000   1.0000   1.0000   1.0000   1.0000
     1.0000   1.0000   1.0000   1.0000   1.0000   1.0000   1.0000   1.0000
     1.0000   1.0000   1.0000   1.0000   1.0000   1.0000   1.0000   1.0000
     1.0000   1.0000   1.0000   1.0000   1.0000   1.0000   1.0000   1.0000
     1.0000   1.0000   1.0000   1.0000   1.0000   1.0000   1.0000   1.0000
     1.0000   1.0000   1.0000   1.0000   1.0000   1.0000   1.0000   1.0000
     1.0000   1.0000   1.0000   1.0000   1.0000   1.0000   1.0000   1.0000

          k = 0.1670 0.1482 0.0000 ( 18591 PWs)   bands (ev):

   -41.4160 -41.4160 -41.4122 -41.4122 -26.6739 -26.6737 -26.6731 -26.6730
   -19.4987 -19.4987 -19.4667 -19.4667 -19.4240 -19.4240 -19.4162 -19.4162
   -19.3933 -19.3932 -19.3920 -19.3919  -8.7619  -8.7561  -8.7456  -8.7385
    -8.7219  -8.7106  -8.7059  -8.7040  -8.6919  -8.6904  -8.6741  -8.6707
    -4.6089  -4.4834  -4.0943  -4.0567  -3.9444  -3.9239  -3.5516  -3.5283
    -3.5059  -3.4524  -3.3684  -3.3677   3.6962   3.8028   3.8968   3.9098
     4.1258   4.2089   4.3157   4.5035   4.5128   4.5682   4.7837   4.9444
     5.0123   5.1026   5.3214   5.3553   5.4199   5.5586   5.5686   5.5863
     5.7508   5.9131   5.9800   5.9925   6.1171   6.1654   6.4072   6.4708
     6.5786   6.6194   6.7258   6.8714   7.0697   7.2055   7.3251   7.3408

     occupation numbers 
     1.0000   1.0000   1.0000   1.0000   1.0000   1.0000   1.0000   1.0000
     1.0000   1.0000   1.0000   1.0000   1.0000   1.0000   1.0000   1.0000
     1.0000   1.0000   1.0000   1.0000   1.0000   1.0000   1.0000   1.0000
     1.0000   1.0000   1.0000   1.0000   1.0000   1.0000   1.0000   1.0000
     1.0000   1.0000   1.0000   1.0000   1.0000   1.0000   1.0000   1.0000
     1.0000   1.0000   1.0000   1.0000   1.0000   1.0000   1.0000   1.0000
     1.0000   1.0000   1.0000   1.0000   1.0000   1.0000   1.0000   1.0000
     1.0000   1.0000   1.0000   1.0000   1.0000   1.0000   1.0000   1.0000
     1.0000   1.0000   1.0000   1.0000   1.0000   1.0000   1.0000   1.0000
     1.0000   1.0000   1.0000   1.0000   1.0000   1.0000   1.0000   1.0000

          k = 0.1670 0.1482-0.1369 ( 18560 PWs)   bands (ev):

   -41.4160 -41.4160 -41.4122 -41.4122 -26.6738 -26.6738 -26.6730 -26.6730
   -19.4987 -19.4987 -19.4667 -19.4667 -19.4240 -19.4240 -19.4162 -19.4162
   -19.3932 -19.3932 -19.3919 -19.3919  -8.7566  -8.7566  -8.7459  -8.7459
    -8.7144  -8.7144  -8.7054  -8.7054  -8.6911  -8.6911  -8.6723  -8.6723
    -4.5467  -4.5467  -4.0989  -4.0989  -3.9082  -3.9082  -3.5536  -3.5536
    -3.4415  -3.4415  -3.3940  -3.3940   3.7263   3.7263   3.8689   3.8689
     4.2488   4.2488   4.4204   4.4204   4.5996   4.5996   4.7889   4.7889
     4.9999   4.9999   5.3142   5.3142   5.4958   5.4958   5.5591   5.5591
     5.8765   5.8765   6.0032   6.0032   6.2038   6.2038   6.3867   6.3867
     6.6571   6.6571   6.7709   6.7709   7.1207   7.1207   7.3100   7.3100

     occupation numbers 
     1.0000   1.0000   1.0000   1.0000   1.0000   1.0000   1.0000   1.0000
     1.0000   1.0000   1.0000   1.0000   1.0000   1.0000   1.0000   1.0000
     1.0000   1.0000   1.0000   1.0000   1.0000   1.0000   1.0000   1.0000
     1.0000   1.0000   1.0000   1.0000   1.0000   1.0000   1.0000   1.0000
     1.0000   1.0000   1.0000   1.0000   1.0000   1.0000   1.0000   1.0000
     1.0000   1.0000   1.0000   1.0000   1.0000   1.0000   1.0000   1.0000
     1.0000   1.0000   1.0000   1.0000   1.0000   1.0000   1.0000   1.0000
     1.0000   1.0000   1.0000   1.0000   1.0000   1.0000   1.0000   1.0000
     1.0000   1.0000   1.0000   1.0000   1.0000   1.0000   1.0000   1.0000
     1.0000   1.0000   1.0000   1.0000   1.0000   1.0000   1.0000   1.0000

          k = 0.3340 0.0000 0.0000 ( 18620 PWs)   bands (ev):

   -41.4125 -41.4125 -41.4103 -41.4103 -26.6638 -26.6637 -26.6625 -26.6624
   -19.4892 -19.4892 -19.4777 -19.4777 -19.4515 -19.4515 -19.4509 -19.4508
   -19.4101 -19.4101 -19.3996 -19.3995  -8.8990  -8.8985  -8.8627  -8.8619
    -8.7106  -8.7093  -8.7055  -8.6986  -8.6890  -8.6809  -8.6350  -8.6341
    -4.2735  -4.1578  -3.9308  -3.9299  -3.8592  -3.8158  -3.6441  -3.6436
    -3.4024  -3.3874  -3.3865  -3.2915   3.6240   3.7831   3.9506   4.0143
     4.0353   4.1446   4.2740   4.4113   4.5683   4.6487   4.6834   4.7325
     4.7793   4.7797   4.9196   5.1154   5.3874   5.4525   5.5050   5.5473
     5.6292   5.6875   5.7313   5.7418   5.9933   6.1699   6.1859   6.2559
     6.4029   6.4837   6.4995   6.5236   6.5858   6.6133   6.9380   6.9880

     occupation numbers 
     1.0000   1.0000   1.0000   1.0000   1.0000   1.0000   1.0000   1.0000
     1.0000   1.0000   1.0000   1.0000   1.0000   1.0000   1.0000   1.0000
     1.0000   1.0000   1.0000   1.0000   1.0000   1.0000   1.0000   1.0000
     1.0000   1.0000   1.0000   1.0000   1.0000   1.0000   1.0000   1.0000
     1.0000   1.0000   1.0000   1.0000   1.0000   1.0000   1.0000   1.0000
     1.0000   1.0000   1.0000   1.0000   1.0000   1.0000   1.0000   1.0000
     1.0000   1.0000   1.0000   1.0000   1.0000   1.0000   1.0000   1.0000
     1.0000   1.0000   1.0000   1.0000   1.0000   1.0000   1.0000   1.0000
     1.0000   1.0000   1.0000   1.0000   1.0000   1.0000   1.0000   1.0000
     1.0000   1.0000   1.0000   1.0000   1.0000   1.0000   1.0000   1.0000

          k = 0.3340 0.0000-0.1369 ( 18610 PWs)   bands (ev):

   -41.4125 -41.4125 -41.4103 -41.4103 -26.6638 -26.6638 -26.6624 -26.6624
   -19.4892 -19.4892 -19.4777 -19.4777 -19.4515 -19.4515 -19.4509 -19.4509
   -19.4101 -19.4101 -19.3996 -19.3996  -8.8987  -8.8987  -8.8623  -8.8623
    -8.7096  -8.7096  -8.7030  -8.7030  -8.6843  -8.6843  -8.6345  -8.6345
    -4.2207  -4.2207  -3.9316  -3.9316  -3.8332  -3.8332  -3.6425  -3.6425
    -3.4039  -3.4039  -3.3293  -3.3293   3.7486   3.7486   3.8548   3.8548
     4.0929   4.0929   4.3820   4.3820   4.6507   4.6507   4.7449   4.7449
     4.7842   4.7842   5.0370   5.0370   5.3515   5.3515   5.5729   5.5729
     5.7550   5.7550   5.7947   5.7947   5.8518   5.8518   6.0755   6.0755
     6.4026   6.4026   6.6083   6.6083   6.7244   6.7244   6.9775   6.9775

     occupation numbers 
     1.0000   1.0000   1.0000   1.0000   1.0000   1.0000   1.0000   1.0000
     1.0000   1.0000   1.0000   1.0000   1.0000   1.0000   1.0000   1.0000
     1.0000   1.0000   1.0000   1.0000   1.0000   1.0000   1.0000   1.0000
     1.0000   1.0000   1.0000   1.0000   1.0000   1.0000   1.0000   1.0000
     1.0000   1.0000   1.0000   1.0000   1.0000   1.0000   1.0000   1.0000
     1.0000   1.0000   1.0000   1.0000   1.0000   1.0000   1.0000   1.0000
     1.0000   1.0000   1.0000   1.0000   1.0000   1.0000   1.0000   1.0000
     1.0000   1.0000   1.0000   1.0000   1.0000   1.0000   1.0000   1.0000
     1.0000   1.0000   1.0000   1.0000   1.0000   1.0000   1.0000   1.0000
     1.0000   1.0000   1.0000   1.0000   1.0000   1.0000   1.0000   1.0000

          k = 0.3340 0.1482 0.0000 ( 18628 PWs)   bands (ev):

   -41.4125 -41.4125 -41.4103 -41.4103 -26.6635 -26.6634 -26.6628 -26.6627
   -19.4892 -19.4892 -19.4778 -19.4778 -19.4514 -19.4514 -19.4509 -19.4509
   -19.4101 -19.4101 -19.3996 -19.3995  -8.8904  -8.8895  -8.8723  -8.8712
    -8.7148  -8.7131  -8.7043  -8.7010  -8.6720  -8.6667  -8.6464  -8.6441
    -4.2352  -4.1718  -3.9628  -3.9479  -3.8328  -3.8211  -3.6358  -3.6352
    -3.4151  -3.4017  -3.3536  -3.3107   3.7125   3.7516   3.9092   3.9319
     4.2216   4.2490   4.3310   4.3959   4.4507   4.4885   4.5939   4.6227
     4.7313   4.8932   5.0900   5.2295   5.2319   5.2632   5.3749   5.4483
     5.6427   5.6712   5.7746   5.8998   6.0103   6.0148   6.2173   6.2544
     6.3088   6.3753   6.7006   6.7257   6.8322   6.8439   6.8776   6.9895

     occupation numbers 
     1.0000   1.0000   1.0000   1.0000   1.0000   1.0000   1.0000   1.0000
     1.0000   1.0000   1.0000   1.0000   1.0000   1.0000   1.0000   1.0000
     1.0000   1.0000   1.0000   1.0000   1.0000   1.0000   1.0000   1.0000
     1.0000   1.0000   1.0000   1.0000   1.0000   1.0000   1.0000   1.0000
     1.0000   1.0000   1.0000   1.0000   1.0000   1.0000   1.0000   1.0000
     1.0000   1.0000   1.0000   1.0000   1.0000   1.0000   1.0000   1.0000
     1.0000   1.0000   1.0000   1.0000   1.0000   1.0000   1.0000   1.0000
     1.0000   1.0000   1.0000   1.0000   1.0000   1.0000   1.0000   1.0000
     1.0000   1.0000   1.0000   1.0000   1.0000   1.0000   1.0000   1.0000
     1.0000   1.0000   1.0000   1.0000   1.0000   1.0000   1.0000   1.0000

          k = 0.3340 0.1482-0.1369 ( 18596 PWs)   bands (ev):

   -41.4125 -41.4125 -41.4103 -41.4103 -26.6634 -26.6634 -26.6628 -26.6628
   -19.4892 -19.4892 -19.4778 -19.4778 -19.4514 -19.4514 -19.4509 -19.4509
   -19.4101 -19.4101 -19.3996 -19.3996  -8.8899  -8.8899  -8.8717  -8.8717
    -8.7129  -8.7129  -8.7039  -8.7039  -8.6692  -8.6692  -8.6452  -8.6452
    -4.2004  -4.2004  -3.9689  -3.9689  -3.8187  -3.8187  -3.6353  -3.6353
    -3.3968  -3.3968  -3.3417  -3.3417   3.7417   3.7417   3.8594   3.8594
     4.2295   4.2295   4.3895   4.3895   4.4940   4.4940   4.6746   4.6746
     4.8393   4.8393   5.1418   5.1418   5.2434   5.2434   5.3559   5.3559
     5.6257   5.6257   5.7271   5.7271   6.1213   6.1213   6.2197   6.2197
     6.4434   6.4434   6.6210   6.6210   6.8073   6.8073   7.0000   7.0000

     occupation numbers 
     1.0000   1.0000   1.0000   1.0000   1.0000   1.0000   1.0000   1.0000
     1.0000   1.0000   1.0000   1.0000   1.0000   1.0000   1.0000   1.0000
     1.0000   1.0000   1.0000   1.0000   1.0000   1.0000   1.0000   1.0000
     1.0000   1.0000   1.0000   1.0000   1.0000   1.0000   1.0000   1.0000
     1.0000   1.0000   1.0000   1.0000   1.0000   1.0000   1.0000   1.0000
     1.0000   1.0000   1.0000   1.0000   1.0000   1.0000   1.0000   1.0000
     1.0000   1.0000   1.0000   1.0000   1.0000   1.0000   1.0000   1.0000
     1.0000   1.0000   1.0000   1.0000   1.0000   1.0000   1.0000   1.0000
     1.0000   1.0000   1.0000   1.0000   1.0000   1.0000   1.0000   1.0000
     1.0000   1.0000   1.0000   1.0000   1.0000   1.0000   1.0000   1.0000

          k =-0.5010 0.0000 0.0000 ( 18628 PWs)   bands (ev):

   -41.4101 -41.4101 -41.4101 -41.4101 -26.6586 -26.6586 -26.6573 -26.6573
   -19.5043 -19.5043 -19.5043 -19.5043 -19.4515 -19.4515 -19.4515 -19.4515
   -19.4053 -19.4053 -19.4052 -19.4052  -8.9879  -8.9879  -8.9434  -8.9434
    -8.6871  -8.6871  -8.6861  -8.6861  -8.6618  -8.6618  -8.6218  -8.6218
    -3.9968  -3.9968  -3.9964  -3.9964  -3.6967  -3.6967  -3.6835  -3.6835
    -3.3986  -3.3986  -3.2838  -3.2838   3.5360   3.5360   3.7253   3.7253
     4.0346   4.0346   4.3041   4.3041   4.5076   4.5076   4.5832   4.5832
     5.0586   5.0586   5.2091   5.2091   5.2622   5.2622   5.2639   5.2639
     5.4721   5.4721   5.8670   5.8670   5.9366   5.9366   6.0495   6.0495
     6.5657   6.5657   6.5978   6.5978   6.7046   6.7046   6.7734   6.7734

     occupation numbers 
     1.0000   1.0000   1.0000   1.0000   1.0000   1.0000   1.0000   1.0000
     1.0000   1.0000   1.0000   1.0000   1.0000   1.0000   1.0000   1.0000
     1.0000   1.0000   1.0000   1.0000   1.0000   1.0000   1.0000   1.0000
     1.0000   1.0000   1.0000   1.0000   1.0000   1.0000   1.0000   1.0000
     1.0000   1.0000   1.0000   1.0000   1.0000   1.0000   1.0000   1.0000
     1.0000   1.0000   1.0000   1.0000   1.0000   1.0000   1.0000   1.0000
     1.0000   1.0000   1.0000   1.0000   1.0000   1.0000   1.0000   1.0000
     1.0000   1.0000   1.0000   1.0000   1.0000   1.0000   1.0000   1.0000
     1.0000   1.0000   1.0000   1.0000   1.0000   1.0000   1.0000   1.0000
     1.0000   1.0000   1.0000   1.0000   1.0000   1.0000   1.0000   1.0000

          k =-0.5010 0.0000-0.1369 ( 18652 PWs)   bands (ev):

   -41.4101 -41.4101 -41.4101 -41.4101 -26.6586 -26.6586 -26.6573 -26.6573
   -19.5043 -19.5043 -19.5043 -19.5043 -19.4515 -19.4515 -19.4515 -19.4515
   -19.4053 -19.4053 -19.4052 -19.4052  -8.9879  -8.9879  -8.9434  -8.9434
    -8.6871  -8.6871  -8.6860  -8.6860  -8.6618  -8.6618  -8.6218  -8.6218
    -3.9998  -3.9998  -3.9933  -3.9933  -3.6975  -3.6975  -3.6834  -3.6834
    -3.3984  -3.3984  -3.2834  -3.2834   3.5201   3.5201   3.7539   3.7539
     4.0248   4.0248   4.2443   4.2443   4.5379   4.5379   4.6826   4.6826
     4.9929   4.9929   5.0663   5.0663   5.2250   5.2250   5.3845   5.3845
     5.6532   5.6532   5.6775   5.6775   5.9093   5.9093   6.3451   6.3451
     6.4331   6.4331   6.4906   6.4906   6.6643   6.6643   6.8373   6.8373

     occupation numbers 
     1.0000   1.0000   1.0000   1.0000   1.0000   1.0000   1.0000   1.0000
     1.0000   1.0000   1.0000   1.0000   1.0000   1.0000   1.0000   1.0000
     1.0000   1.0000   1.0000   1.0000   1.0000   1.0000   1.0000   1.0000
     1.0000   1.0000   1.0000   1.0000   1.0000   1.0000   1.0000   1.0000
     1.0000   1.0000   1.0000   1.0000   1.0000   1.0000   1.0000   1.0000
     1.0000   1.0000   1.0000   1.0000   1.0000   1.0000   1.0000   1.0000
     1.0000   1.0000   1.0000   1.0000   1.0000   1.0000   1.0000   1.0000
     1.0000   1.0000   1.0000   1.0000   1.0000   1.0000   1.0000   1.0000
     1.0000   1.0000   1.0000   1.0000   1.0000   1.0000   1.0000   1.0000
     1.0000   1.0000   1.0000   1.0000   1.0000   1.0000   1.0000   1.0000

          k =-0.5010 0.1482 0.0000 ( 18590 PWs)   bands (ev):

   -41.4101 -41.4101 -41.4101 -41.4101 -26.6582 -26.6582 -26.6576 -26.6576
   -19.5044 -19.5044 -19.5044 -19.5044 -19.4515 -19.4515 -19.4515 -19.4515
   -19.4053 -19.4053 -19.4053 -19.4053  -8.9769  -8.9769  -8.9546  -8.9546
    -8.6889  -8.6889  -8.6877  -8.6877  -8.6498  -8.6498  -8.6304  -8.6304
    -3.9963  -3.9963  -3.9961  -3.9961  -3.6950  -3.6950  -3.6896  -3.6896
    -3.3668  -3.3668  -3.3102  -3.3102   3.4629   3.4629   3.5221   3.5221
     4.2511   4.2511   4.3779   4.3779   4.6185   4.6185   4.6297   4.6297
     4.9709   4.9709   5.0486   5.0486   5.2592   5.2592   5.3554   5.3554
     5.6789   5.6789   5.7410   5.7410   6.1426   6.1426   6.1602   6.1602
     6.3992   6.3992   6.3995   6.3995   6.6453   6.6453   6.6651   6.6651

     occupation numbers 
     1.0000   1.0000   1.0000   1.0000   1.0000   1.0000   1.0000   1.0000
     1.0000   1.0000   1.0000   1.0000   1.0000   1.0000   1.0000   1.0000
     1.0000   1.0000   1.0000   1.0000   1.0000   1.0000   1.0000   1.0000
     1.0000   1.0000   1.0000   1.0000   1.0000   1.0000   1.0000   1.0000
     1.0000   1.0000   1.0000   1.0000   1.0000   1.0000   1.0000   1.0000
     1.0000   1.0000   1.0000   1.0000   1.0000   1.0000   1.0000   1.0000
     1.0000   1.0000   1.0000   1.0000   1.0000   1.0000   1.0000   1.0000
     1.0000   1.0000   1.0000   1.0000   1.0000   1.0000   1.0000   1.0000
     1.0000   1.0000   1.0000   1.0000   1.0000   1.0000   1.0000   1.0000
     1.0000   1.0000   1.0000   1.0000   1.0000   1.0000   1.0000   1.0000

          k =-0.5010 0.1482-0.1369 ( 18600 PWs)   bands (ev):

   -41.4101 -41.4101 -41.4101 -41.4101 -26.6582 -26.6582 -26.6576 -26.6576
   -19.5044 -19.5044 -19.5044 -19.5044 -19.4515 -19.4515 -19.4515 -19.4515
   -19.4053 -19.4053 -19.4053 -19.4053  -8.9769  -8.9769  -8.9546  -8.9546
    -8.6889  -8.6889  -8.6877  -8.6877  -8.6498  -8.6498  -8.6304  -8.6304
    -3.9977  -3.9977  -3.9947  -3.9947  -3.6966  -3.6966  -3.6886  -3.6886
    -3.3666  -3.3666  -3.3097  -3.3097   3.4427   3.4427   3.5344   3.5344
     4.2408   4.2408   4.3817   4.3817   4.5906   4.5906   4.6189   4.6189
     5.0578   5.0578   5.1571   5.1571   5.2872   5.2872   5.2903   5.2903
     5.6741   5.6741   5.7569   5.7569   5.9441   5.9441   6.0338   6.0338
     6.4025   6.4025   6.4393   6.4393   6.7464   6.7464   6.7527   6.7527

     occupation numbers 
     1.0000   1.0000   1.0000   1.0000   1.0000   1.0000   1.0000   1.0000
     1.0000   1.0000   1.0000   1.0000   1.0000   1.0000   1.0000   1.0000
     1.0000   1.0000   1.0000   1.0000   1.0000   1.0000   1.0000   1.0000
     1.0000   1.0000   1.0000   1.0000   1.0000   1.0000   1.0000   1.0000
     1.0000   1.0000   1.0000   1.0000   1.0000   1.0000   1.0000   1.0000
     1.0000   1.0000   1.0000   1.0000   1.0000   1.0000   1.0000   1.0000
     1.0000   1.0000   1.0000   1.0000   1.0000   1.0000   1.0000   1.0000
     1.0000   1.0000   1.0000   1.0000   1.0000   1.0000   1.0000   1.0000
     1.0000   1.0000   1.0000   1.0000   1.0000   1.0000   1.0000   1.0000
     1.0000   1.0000   1.0000   1.0000   1.0000   1.0000   1.0000   1.0000

     highest occupied level (ev):     7.8508

!    total energy              =    -969.04017088 Ry
     estimated scf accuracy    <          6.5E-11 Ry

     The total energy is the sum of the following terms:
     one-electron contribution =    -196.11345430 Ry
     hartree contribution      =     158.42010389 Ry
     xc contribution           =    -246.05063002 Ry
     ewald contribution        =    -685.29619045 Ry

     convergence has been achieved in  11 iterations

     negative rho (up, down):  5.188E-01 0.000E+00

     Forces acting on atoms (cartesian axes, Ry/au):

     atom    1 type  2   force =     0.00000000    0.00005898    0.00015190
     atom    2 type  2   force =     0.00000000   -0.00005898   -0.00015190
     atom    3 type  2   force =     0.00000000   -0.00005898    0.00015190
     atom    4 type  2   force =     0.00000000    0.00005898   -0.00015190
     atom    5 type  3   force =     0.00000000   -0.00029538   -0.00096360
     atom    6 type  3   force =     0.00000000    0.00029538    0.00096360
     atom    7 type  3   force =     0.00000000    0.00029538   -0.00096360
     atom    8 type  3   force =    -0.00000000   -0.00029538    0.00096360
     atom    9 type  1   force =     0.00000000    0.00001830    0.00082280
     atom   10 type  1   force =     0.00000000   -0.00001830   -0.00082280
     atom   11 type  1   force =     0.00000000   -0.00001830    0.00082280
     atom   12 type  1   force =     0.00000000    0.00001830   -0.00082280
     atom   13 type  1   force =     0.00000000    0.00008693   -0.00009950
     atom   14 type  1   force =     0.00000000   -0.00008693    0.00009950
     atom   15 type  1   force =     0.00000000   -0.00008693   -0.00009950
     atom   16 type  1   force =     0.00000000    0.00008693    0.00009950
     atom   17 type  1   force =     0.00000000    0.00042836   -0.00027511
     atom   18 type  1   force =     0.00000000   -0.00042836    0.00027511
     atom   19 type  1   force =     0.00000000   -0.00042836   -0.00027511
     atom   20 type  1   force =     0.00000000    0.00042836    0.00027511
     The non-local contrib.  to forces
     atom    1 type  2   force =     0.00000000    0.00108580    0.00475186
     atom    2 type  2   force =    -0.00000000   -0.00108580   -0.00475186
     atom    3 type  2   force =    -0.00000000   -0.00108580    0.00475186
     atom    4 type  2   force =     0.00000000    0.00108580   -0.00475186
     atom    5 type  3   force =     0.00000000    0.02307646   -0.02184626
     atom    6 type  3   force =     0.00000000   -0.02307646    0.02184626
     atom    7 type  3   force =     0.00000000   -0.02307646   -0.02184626
     atom    8 type  3   force =     0.00000000    0.02307646    0.02184626
     atom    9 type  1   force =     0.00000000    0.00395355   -0.00914738
     atom   10 type  1   force =     0.00000000   -0.00395355    0.00914738
     atom   11 type  1   force =     0.00000000   -0.00395355   -0.00914738
     atom   12 type  1   force =     0.00000000    0.00395355    0.00914738
     atom   13 type  1   force =     0.00000000   -0.04372137   -0.00321604
     atom   14 type  1   force =     0.00000000    0.04372137    0.00321604
     atom   15 type  1   force =     0.00000000    0.04372137   -0.00321604
     atom   16 type  1   force =     0.00000000   -0.04372137    0.00321604
     atom   17 type  1   force =    -0.00000000    0.04151864    0.06732825
     atom   18 type  1   force =     0.00000000   -0.04151864   -0.06732825
     atom   19 type  1   force =     0.00000000   -0.04151864    0.06732825
     atom   20 type  1   force =    -0.00000000    0.04151864   -0.06732825
     The ionic contribution  to forces
     atom    1 type  2   force =     0.00000000    0.40661875    0.11537676
     atom    2 type  2   force =     0.00000000   -0.40661875   -0.11537676
     atom    3 type  2   force =     0.00000000   -0.40661875    0.11537676
     atom    4 type  2   force =     0.00000000    0.40661875   -0.11537676
     atom    5 type  3   force =     0.00000000   -2.75534642    1.07071078
     atom    6 type  3   force =     0.00000000    2.75534642   -1.07071078
     atom    7 type  3   force =     0.00000000    2.75534642    1.07071078
     atom    8 type  3   force =     0.00000000   -2.75534642   -1.07071078
     atom    9 type  1   force =     0.00000000   -1.60328969    3.68136478
     atom   10 type  1   force =     0.00000000    1.60328969   -3.68136478
     atom   11 type  1   force =     0.00000000    1.60328969    3.68136478
     atom   12 type  1   force =     0.00000000   -1.60328969   -3.68136478
     atom   13 type  1   force =     0.00000000    3.64633543   -2.27013364
     atom   14 type  1   force =     0.00000000   -3.64633543    2.27013364
     atom   15 type  1   force =     0.00000000   -3.64633543   -2.27013364
     atom   16 type  1   force =     0.00000000    3.64633543    2.27013364
     atom   17 type  1   force =     0.00000000   -2.96588869   -4.83460221
     atom   18 type  1   force =     0.00000000    2.96588869    4.83460221
     atom   19 type  1   force =     0.00000000    2.96588869   -4.83460221
     atom   20 type  1   force =     0.00000000   -2.96588869    4.83460221
     The local contribution  to forces
     atom    1 type  2   force =    -0.00000000   -0.40770114   -0.11978641
     atom    2 type  2   force =    -0.00000000    0.40770114    0.11978641
     atom    3 type  2   force =    -0.00000000    0.40770114   -0.11978641
     atom    4 type  2   force =    -0.00000000   -0.40770114    0.11978641
     atom    5 type  3   force =    -0.00000000    2.73279867   -1.04955118
     atom    6 type  3   force =    -0.00000000   -2.73279867    1.04955118
     atom    7 type  3   force =    -0.00000000   -2.73279867   -1.04955118
     atom    8 type  3   force =    -0.00000000    2.73279867    1.04955118
     atom    9 type  1   force =    -0.00000000    1.59928888   -3.67122727
     atom   10 type  1   force =    -0.00000000   -1.59928888    3.67122727
     atom   11 type  1   force =    -0.00000000   -1.59928888   -3.67122727
     atom   12 type  1   force =    -0.00000000    1.59928888    3.67122727
     atom   13 type  1   force =    -0.00000000   -3.60459724    2.27278208
     atom   14 type  1   force =    -0.00000000    3.60459724   -2.27278208
     atom   15 type  1   force =    -0.00000000    3.60459724    2.27278208
     atom   16 type  1   force =    -0.00000000   -3.60459724   -2.27278208
     atom   17 type  1   force =    -0.00000000    2.92676206    4.77034820
     atom   18 type  1   force =    -0.00000000   -2.92676206   -4.77034820
     atom   19 type  1   force =    -0.00000000   -2.92676206    4.77034820
     atom   20 type  1   force =    -0.00000000    2.92676206   -4.77034820
     The core correction contribution to forces
     atom    1 type  2   force =     0.00000000    0.00005431   -0.00019389
     atom    2 type  2   force =     0.00000000   -0.00005431    0.00019389
     atom    3 type  2   force =     0.00000000   -0.00005431   -0.00019389
     atom    4 type  2   force =     0.00000000    0.00005431    0.00019389
     atom    5 type  3   force =     0.00000000   -0.00081837   -0.00028197
     atom    6 type  3   force =     0.00000000    0.00081837    0.00028197
     atom    7 type  3   force =     0.00000000    0.00081837   -0.00028197
     atom    8 type  3   force =     0.00000000   -0.00081837    0.00028197
     atom    9 type  1   force =    -0.00000000    0.00006666   -0.00016868
     atom   10 type  1   force =     0.00000000   -0.00006666    0.00016868
     atom   11 type  1   force =     0.00000000   -0.00006666   -0.00016868
     atom   12 type  1   force =    -0.00000000    0.00006666    0.00016868
     atom   13 type  1   force =    -0.00000000    0.00206480    0.00047196
     atom   14 type  1   force =     0.00000000   -0.00206480   -0.00047196
     atom   15 type  1   force =     0.00000000   -0.00206480    0.00047196
     atom   16 type  1   force =    -0.00000000    0.00206480   -0.00047196
     atom   17 type  1   force =    -0.00000000   -0.00196301   -0.00334487
     atom   18 type  1   force =     0.00000000    0.00196301    0.00334487
     atom   19 type  1   force =     0.00000000    0.00196301   -0.00334487
     atom   20 type  1   force =    -0.00000000   -0.00196301    0.00334487
     The Hubbard contrib.    to forces
     atom    1 type  2   force =     0.00000000    0.00000000    0.00000000
     atom    2 type  2   force =     0.00000000    0.00000000    0.00000000
     atom    3 type  2   force =     0.00000000    0.00000000    0.00000000
     atom    4 type  2   force =     0.00000000    0.00000000    0.00000000
     atom    5 type  3   force =     0.00000000    0.00000000    0.00000000
     atom    6 type  3   force =     0.00000000    0.00000000    0.00000000
     atom    7 type  3   force =     0.00000000    0.00000000    0.00000000
     atom    8 type  3   force =     0.00000000    0.00000000    0.00000000
     atom    9 type  1   force =     0.00000000    0.00000000    0.00000000
     atom   10 type  1   force =     0.00000000    0.00000000    0.00000000
     atom   11 type  1   force =     0.00000000    0.00000000    0.00000000
     atom   12 type  1   force =     0.00000000    0.00000000    0.00000000
     atom   13 type  1   force =     0.00000000    0.00000000    0.00000000
     atom   14 type  1   force =     0.00000000    0.00000000    0.00000000
     atom   15 type  1   force =     0.00000000    0.00000000    0.00000000
     atom   16 type  1   force =     0.00000000    0.00000000    0.00000000
     atom   17 type  1   force =     0.00000000    0.00000000    0.00000000
     atom   18 type  1   force =     0.00000000    0.00000000    0.00000000
     atom   19 type  1   force =     0.00000000    0.00000000    0.00000000
     atom   20 type  1   force =     0.00000000    0.00000000    0.00000000
     The SCF correction term to forces
     atom    1 type  2   force =    -0.00000000    0.00000126    0.00000358
     atom    2 type  2   force =     0.00000000   -0.00000126   -0.00000358
     atom    3 type  2   force =     0.00000000   -0.00000126    0.00000358
     atom    4 type  2   force =    -0.00000000    0.00000126   -0.00000358
     atom    5 type  3   force =     0.00000000   -0.00000572    0.00000504
     atom    6 type  3   force =    -0.00000000    0.00000572   -0.00000504
     atom    7 type  3   force =    -0.00000000    0.00000572    0.00000504
     atom    8 type  3   force =     0.00000000   -0.00000572   -0.00000504
     atom    9 type  1   force =     0.00000000   -0.00000111    0.00000136
     atom   10 type  1   force =    -0.00000000    0.00000111   -0.00000136
     atom   11 type  1   force =     0.00000000    0.00000111    0.00000136
     atom   12 type  1   force =    -0.00000000   -0.00000111   -0.00000136
     atom   13 type  1   force =    -0.00000000    0.00000532   -0.00000386
     atom   14 type  1   force =     0.00000000   -0.00000532    0.00000386
     atom   15 type  1   force =     0.00000000   -0.00000532   -0.00000386
     atom   16 type  1   force =    -0.00000000    0.00000532    0.00000386
     atom   17 type  1   force =     0.00000000   -0.00000063   -0.00000448
     atom   18 type  1   force =    -0.00000000    0.00000063    0.00000448
     atom   19 type  1   force =    -0.00000000    0.00000063   -0.00000448
     atom   20 type  1   force =     0.00000000   -0.00000063    0.00000448

     Total force =     0.002826     Total SCF correction =     0.000024


     Computing stress (Cartesian axis) and pressure


     negative rho (up, down):  5.188E-01 0.000E+00
          total   stress  (Ry/bohr**3)                   (kbar)     P=        0.06
   0.00000820   0.00000000   0.00000000            1.21        0.00        0.00
   0.00000000  -0.00000183   0.00000000            0.00       -0.27        0.00
   0.00000000   0.00000000  -0.00000505            0.00        0.00       -0.74

     kinetic stress (kbar)   8922.93      0.00      0.00
                                0.00   8948.94      0.00
                                0.00      0.00   8968.65

     local   stress (kbar)  -7879.19      0.00      0.00
                                0.00  -4295.71     -0.00
                                0.00     -0.00  -3970.55

     nonloc. stress (kbar)   7368.00      0.00      0.00
                                0.00   7364.22      0.00
                                0.00      0.00   7369.86

     hartree stress (kbar)   3523.89      0.00     -0.00
                                0.00   2111.10      0.00
                               -0.00      0.00   1800.65

     exc-cor stress (kbar)   2570.40      0.00     -0.00
                                0.00   2568.28     -0.00
                               -0.00     -0.00   2570.91

     corecor stress (kbar)  -5258.82     -0.00     -0.00
                               -0.00  -5258.72      0.00
                               -0.00      0.00  -5259.45

     ewald   stress (kbar)  -9246.01      0.00      0.00
                                0.00 -11438.37      0.00
                                0.00      0.00 -11480.81

     hubbard stress (kbar)      0.00      0.00      0.00
                                0.00      0.00      0.00
                                0.00      0.00      0.00

     DFT-D   stress (kbar)      0.00      0.00      0.00
                                0.00      0.00      0.00
                                0.00      0.00      0.00

     XDM     stress (kbar)      0.00      0.00      0.00
                                0.00      0.00      0.00
                                0.00      0.00      0.00

     dft-nl  stress (kbar)      0.00      0.00      0.00
                                0.00      0.00      0.00
                                0.00      0.00      0.00

     TS-vdW  stress (kbar)      0.00      0.00      0.00
                                0.00      0.00      0.00
                                0.00      0.00      0.00

     MDB     stress (kbar)      0.00      0.00      0.00
                                0.00      0.00      0.00
                                0.00      0.00      0.00

     3D-RISM stress (kbar)      0.00      0.00      0.00
                                0.00      0.00      0.00
                                0.00      0.00      0.00

     Energy error            =      3.7E-05 Ry
     Gradient error          =      9.6E-04 Ry/Bohr
     Cell gradient error     =      1.2E+00 kbar

     number of scf cycles    =  10
     number of bfgs steps    =   9

     enthalpy           old  =    -969.0401337356 Ry
     enthalpy           new  =    -969.0401708813 Ry

     CASE: enthalpy          _new < enthalpy          _old

     new trust radius        =       0.0073059874 bohr
     new conv_thr            =            1.0E-10 Ry

     new unit-cell volume =   3133.64638 a.u.^3 (   464.35848 Ang^3 )
     density =      3.93414 g/cm^3

CELL_PARAMETERS (angstrom)
   3.833175945   0.000000000   0.000000000
  -0.000000000   8.642045457   0.000000000
   0.000000000   0.000000000  14.017742716

ATOMIC_POSITIONS (crystal)
Sr               0.2500000000        0.0627606435        0.8195285210
Sr               0.7500000000        0.9372393565        0.1804714790
Sr               0.7500000000        0.4372393565        0.3195285210
Sr               0.2500000000        0.5627606435        0.6804714790
Zr               0.2500000000        0.3271241777        0.0559152382
Zr               0.7500000000        0.6728758223        0.9440847618
Zr               0.7500000000        0.1728758223        0.5559152382
Zr               0.2500000000        0.8271241777        0.4440847618
S                0.2500000000        0.2081477512        0.2152420235
S                0.7500000000        0.7918522488        0.7847579765
S                0.7500000000        0.2918522488        0.7152420235
S                0.2500000000        0.7081477512        0.2847579765
S                0.2500000000        0.3362559644        0.4843528579
S                0.7500000000        0.6637440356        0.5156471421
S                0.7500000000        0.1637440356        0.9843528579
S                0.2500000000        0.8362559644        0.0156471421
S                0.2500000000        0.4865072163        0.8946670391
S                0.7500000000        0.5134927837        0.1053329609
S                0.7500000000        0.0134927837        0.3946670391
S                0.2500000000        0.9865072163        0.6053329609



     Writing config-only to output data dir ./tmp/relax/SrZrS3_relax.save/ :
     XML data file
     NEW-OLD atomic charge density approx. for the potential
     New effective cutoffs (rho, wfc):  401.37   50.18

     negative rho (up, down):  5.194E-01 0.000E+00

     total cpu time spent up to now is     1297.7 secs

     Self-consistent Calculation

     iteration #  1     ecut=    50.00 Ry     beta= 0.30
     Davidson diagonalization with overlap

---- Real-time Memory Report at c_bands before calling an iterative solver
             0 MiB given to the printing process from OS
             0 MiB allocation reported by mallinfo(arena+hblkhd)
             0 MiB available memory on the node where the printing process lives
------------------
     ethr =  1.00E-06,  avg # of iterations =  4.1

     Threshold (ethr) on eigenvalues was too large:
     Diagonalizing with lowered threshold

     Davidson diagonalization with overlap

---- Real-time Memory Report at c_bands before calling an iterative solver
             0 MiB given to the printing process from OS
             0 MiB allocation reported by mallinfo(arena+hblkhd)
             0 MiB available memory on the node where the printing process lives
------------------
     ethr =  9.49E-09,  avg # of iterations =  7.1

     negative rho (up, down):  5.194E-01 0.000E+00

     total cpu time spent up to now is     1316.3 secs

     total energy              =    -969.04020209 Ry
     estimated scf accuracy    <       0.00001483 Ry

     iteration #  2     ecut=    50.00 Ry     beta= 0.30
     Davidson diagonalization with overlap

---- Real-time Memory Report at c_bands before calling an iterative solver
             0 MiB given to the printing process from OS
             0 MiB allocation reported by mallinfo(arena+hblkhd)
             0 MiB available memory on the node where the printing process lives
------------------
     ethr =  9.27E-09,  avg # of iterations =  2.8

     negative rho (up, down):  5.195E-01 0.000E+00

     total cpu time spent up to now is     1321.7 secs

     total energy              =    -969.04020331 Ry
     estimated scf accuracy    <       0.00000425 Ry

     iteration #  3     ecut=    50.00 Ry     beta= 0.30
     Davidson diagonalization with overlap

---- Real-time Memory Report at c_bands before calling an iterative solver
             0 MiB given to the printing process from OS
             0 MiB allocation reported by mallinfo(arena+hblkhd)
             0 MiB available memory on the node where the printing process lives
------------------
     ethr =  2.66E-09,  avg # of iterations =  2.0

     negative rho (up, down):  5.195E-01 0.000E+00

     total cpu time spent up to now is     1326.5 secs

     total energy              =    -969.04020353 Ry
     estimated scf accuracy    <       0.00000134 Ry

     iteration #  4     ecut=    50.00 Ry     beta= 0.30
     Davidson diagonalization with overlap

---- Real-time Memory Report at c_bands before calling an iterative solver
             0 MiB given to the printing process from OS
             0 MiB allocation reported by mallinfo(arena+hblkhd)
             0 MiB available memory on the node where the printing process lives
------------------
     ethr =  8.37E-10,  avg # of iterations =  3.1

     negative rho (up, down):  5.195E-01 0.000E+00

     total cpu time spent up to now is     1332.4 secs

     total energy              =    -969.04020373 Ry
     estimated scf accuracy    <       0.00000008 Ry

     iteration #  5     ecut=    50.00 Ry     beta= 0.30
     Davidson diagonalization with overlap

---- Real-time Memory Report at c_bands before calling an iterative solver
             0 MiB given to the printing process from OS
             0 MiB allocation reported by mallinfo(arena+hblkhd)
             0 MiB available memory on the node where the printing process lives
------------------
     ethr =  5.01E-11,  avg # of iterations =  5.8

     negative rho (up, down):  5.195E-01 0.000E+00

     total cpu time spent up to now is     1340.5 secs

     total energy              =    -969.04020378 Ry
     estimated scf accuracy    <       0.00000003 Ry

     iteration #  6     ecut=    50.00 Ry     beta= 0.30
     Davidson diagonalization with overlap

---- Real-time Memory Report at c_bands before calling an iterative solver
             0 MiB given to the printing process from OS
             0 MiB allocation reported by mallinfo(arena+hblkhd)
             0 MiB available memory on the node where the printing process lives
------------------
     ethr =  2.02E-11,  avg # of iterations =  5.1

     negative rho (up, down):  5.195E-01 0.000E+00

     total cpu time spent up to now is     1346.8 secs

     total energy              =    -969.04020379 Ry
     estimated scf accuracy    <          6.9E-09 Ry

     iteration #  7     ecut=    50.00 Ry     beta= 0.30
     Davidson diagonalization with overlap

---- Real-time Memory Report at c_bands before calling an iterative solver
             0 MiB given to the printing process from OS
             0 MiB allocation reported by mallinfo(arena+hblkhd)
             0 MiB available memory on the node where the printing process lives
------------------
     ethr =  4.32E-12,  avg # of iterations =  3.8

     negative rho (up, down):  5.195E-01 0.000E+00

     total cpu time spent up to now is     1352.8 secs

     total energy              =    -969.04020379 Ry
     estimated scf accuracy    <          7.0E-10 Ry

     iteration #  8     ecut=    50.00 Ry     beta= 0.30
     Davidson diagonalization with overlap

---- Real-time Memory Report at c_bands before calling an iterative solver
             0 MiB given to the printing process from OS
             0 MiB allocation reported by mallinfo(arena+hblkhd)
             0 MiB available memory on the node where the printing process lives
------------------
     ethr =  4.39E-13,  avg # of iterations =  6.4

     negative rho (up, down):  5.195E-01 0.000E+00

     total cpu time spent up to now is     1361.4 secs

     total energy              =    -969.04020379 Ry
     estimated scf accuracy    <          1.1E-09 Ry

     iteration #  9     ecut=    50.00 Ry     beta= 0.30
     Davidson diagonalization with overlap

---- Real-time Memory Report at c_bands before calling an iterative solver
             0 MiB given to the printing process from OS
             0 MiB allocation reported by mallinfo(arena+hblkhd)
             0 MiB available memory on the node where the printing process lives
------------------
     ethr =  4.39E-13,  avg # of iterations =  5.9

     negative rho (up, down):  5.195E-01 0.000E+00

     total cpu time spent up to now is     1368.4 secs

     total energy              =    -969.04020379 Ry
     estimated scf accuracy    <          2.5E-10 Ry

     iteration # 10     ecut=    50.00 Ry     beta= 0.30
     Davidson diagonalization with overlap

---- Real-time Memory Report at c_bands before calling an iterative solver
             0 MiB given to the printing process from OS
             0 MiB allocation reported by mallinfo(arena+hblkhd)
             0 MiB available memory on the node where the printing process lives
------------------
     ethr =  1.56E-13,  avg # of iterations =  2.6

     negative rho (up, down):  5.195E-01 0.000E+00

     total cpu time spent up to now is     1374.0 secs

     End of self-consistent calculation

          k = 0.0000 0.0000 0.0000 ( 18571 PWs)   bands (ev):

   -41.4162 -41.4162 -41.4118 -41.4118 -26.6750 -26.6748 -26.6734 -26.6732
   -19.5061 -19.5061 -19.4709 -19.4708 -19.4232 -19.4231 -19.3975 -19.3974
   -19.3788 -19.3788 -19.3627 -19.3627  -8.7764  -8.7699  -8.7668  -8.7588
    -8.7466  -8.7231  -8.6684  -8.6677  -8.6084  -8.6076  -8.6021  -8.6012
    -4.8934  -4.6665  -4.1058  -4.0613  -3.8305  -3.7306  -3.7001  -3.6934
    -3.5574  -3.4659  -3.4041  -3.3408   3.6381   3.8457   3.9031   3.9353
     3.9451   4.1369   4.2603   4.5508   4.7367   4.7464   4.7777   4.8037
     4.8615   4.9086   4.9199   5.4213   5.6395   5.6602   5.6907   5.9099
     5.9258   5.9805   6.2453   6.2838   6.4946   6.5686   6.6332   6.6736
     6.7165   6.8470   6.9293   7.1197   7.4380   7.4396   7.6468   7.8485

     occupation numbers 
     1.0000   1.0000   1.0000   1.0000   1.0000   1.0000   1.0000   1.0000
     1.0000   1.0000   1.0000   1.0000   1.0000   1.0000   1.0000   1.0000
     1.0000   1.0000   1.0000   1.0000   1.0000   1.0000   1.0000   1.0000
     1.0000   1.0000   1.0000   1.0000   1.0000   1.0000   1.0000   1.0000
     1.0000   1.0000   1.0000   1.0000   1.0000   1.0000   1.0000   1.0000
     1.0000   1.0000   1.0000   1.0000   1.0000   1.0000   1.0000   1.0000
     1.0000   1.0000   1.0000   1.0000   1.0000   1.0000   1.0000   1.0000
     1.0000   1.0000   1.0000   1.0000   1.0000   1.0000   1.0000   1.0000
     1.0000   1.0000   1.0000   1.0000   1.0000   1.0000   1.0000   1.0000
     1.0000   1.0000   1.0000   1.0000   1.0000   1.0000   1.0000   1.0000

          k = 0.0000 0.0000-0.1370 ( 18560 PWs)   bands (ev):

   -41.4162 -41.4162 -41.4118 -41.4118 -26.6749 -26.6749 -26.6733 -26.6733
   -19.5061 -19.5061 -19.4709 -19.4709 -19.4232 -19.4232 -19.3974 -19.3974
   -19.3788 -19.3788 -19.3627 -19.3627  -8.7730  -8.7730  -8.7645  -8.7645
    -8.7334  -8.7334  -8.6681  -8.6681  -8.6081  -8.6081  -8.6016  -8.6016
    -4.7940  -4.7940  -4.0691  -4.0691  -3.7784  -3.7784  -3.6817  -3.6817
    -3.5418  -3.5418  -3.3601  -3.3601   3.7206   3.7206   3.9169   3.9169
     4.0337   4.0337   4.4956   4.4956   4.7616   4.7616   4.8234   4.8234
     4.8897   4.8897   4.9144   4.9144   5.5123   5.5123   5.9527   5.9527
     6.1444   6.1444   6.2814   6.2814   6.6257   6.6257   6.6631   6.6631
     6.7042   6.7042   7.0180   7.0180   7.3100   7.3100   7.7420   7.7420

     occupation numbers 
     1.0000   1.0000   1.0000   1.0000   1.0000   1.0000   1.0000   1.0000
     1.0000   1.0000   1.0000   1.0000   1.0000   1.0000   1.0000   1.0000
     1.0000   1.0000   1.0000   1.0000   1.0000   1.0000   1.0000   1.0000
     1.0000   1.0000   1.0000   1.0000   1.0000   1.0000   1.0000   1.0000
     1.0000   1.0000   1.0000   1.0000   1.0000   1.0000   1.0000   1.0000
     1.0000   1.0000   1.0000   1.0000   1.0000   1.0000   1.0000   1.0000
     1.0000   1.0000   1.0000   1.0000   1.0000   1.0000   1.0000   1.0000
     1.0000   1.0000   1.0000   1.0000   1.0000   1.0000   1.0000   1.0000
     1.0000   1.0000   1.0000   1.0000   1.0000   1.0000   1.0000   1.0000
     1.0000   1.0000   1.0000   1.0000   1.0000   1.0000   1.0000   1.0000

          k = 0.0000 0.1481 0.0000 ( 18580 PWs)   bands (ev):

   -41.4162 -41.4162 -41.4118 -41.4118 -26.6746 -26.6744 -26.6738 -26.6736
   -19.5059 -19.5059 -19.4711 -19.4711 -19.4231 -19.4231 -19.3975 -19.3975
   -19.3788 -19.3788 -19.3627 -19.3627  -8.7820  -8.7734  -8.7623  -8.7512
    -8.7306  -8.7099  -8.6896  -8.6813  -8.6068  -8.6060  -8.6037  -8.6028
    -4.7767  -4.6298  -4.2236  -4.1783  -3.9454  -3.9258  -3.5609  -3.5288
    -3.4824  -3.4549  -3.3664  -3.3598   3.4434   3.5754   3.7209   3.7478
     4.0774   4.2151   4.3528   4.7478   4.7737   4.8716   4.8733   4.8904
     4.8930   5.1172   5.2162   5.2745   5.5347   5.6154   5.7696   6.0236
     6.0759   6.1075   6.1300   6.3071   6.5052   6.5516   6.7092   6.7577
     6.8080   6.8434   6.9180   7.0778   7.1294   7.2330   7.2839   7.3460

     occupation numbers 
     1.0000   1.0000   1.0000   1.0000   1.0000   1.0000   1.0000   1.0000
     1.0000   1.0000   1.0000   1.0000   1.0000   1.0000   1.0000   1.0000
     1.0000   1.0000   1.0000   1.0000   1.0000   1.0000   1.0000   1.0000
     1.0000   1.0000   1.0000   1.0000   1.0000   1.0000   1.0000   1.0000
     1.0000   1.0000   1.0000   1.0000   1.0000   1.0000   1.0000   1.0000
     1.0000   1.0000   1.0000   1.0000   1.0000   1.0000   1.0000   1.0000
     1.0000   1.0000   1.0000   1.0000   1.0000   1.0000   1.0000   1.0000
     1.0000   1.0000   1.0000   1.0000   1.0000   1.0000   1.0000   1.0000
     1.0000   1.0000   1.0000   1.0000   1.0000   1.0000   1.0000   1.0000
     1.0000   1.0000   1.0000   1.0000   1.0000   1.0000   1.0000   1.0000

          k = 0.0000 0.1481-0.1370 ( 18590 PWs)   bands (ev):

   -41.4162 -41.4162 -41.4118 -41.4118 -26.6745 -26.6745 -26.6737 -26.6737
   -19.5059 -19.5059 -19.4711 -19.4711 -19.4231 -19.4231 -19.3975 -19.3975
   -19.3788 -19.3788 -19.3627 -19.3627  -8.7749  -8.7749  -8.7614  -8.7614
    -8.7191  -8.7191  -8.6847  -8.6847  -8.6065  -8.6065  -8.6032  -8.6032
    -4.7047  -4.7047  -4.2199  -4.2199  -3.9077  -3.9077  -3.5617  -3.5617
    -3.4338  -3.4338  -3.3887  -3.3887   3.5088   3.5088   3.7036   3.7036
     4.1735   4.1735   4.6610   4.6610   4.7615   4.7615   4.8306   4.8306
     4.8820   4.8820   5.3807   5.3807   5.5207   5.5207   5.9141   5.9141
     6.1188   6.1188   6.3159   6.3159   6.5299   6.5299   6.6836   6.6836
     6.7515   6.7515   6.9705   6.9705   7.1600   7.1600   7.3875   7.3875

     occupation numbers 
     1.0000   1.0000   1.0000   1.0000   1.0000   1.0000   1.0000   1.0000
     1.0000   1.0000   1.0000   1.0000   1.0000   1.0000   1.0000   1.0000
     1.0000   1.0000   1.0000   1.0000   1.0000   1.0000   1.0000   1.0000
     1.0000   1.0000   1.0000   1.0000   1.0000   1.0000   1.0000   1.0000
     1.0000   1.0000   1.0000   1.0000   1.0000   1.0000   1.0000   1.0000
     1.0000   1.0000   1.0000   1.0000   1.0000   1.0000   1.0000   1.0000
     1.0000   1.0000   1.0000   1.0000   1.0000   1.0000   1.0000   1.0000
     1.0000   1.0000   1.0000   1.0000   1.0000   1.0000   1.0000   1.0000
     1.0000   1.0000   1.0000   1.0000   1.0000   1.0000   1.0000   1.0000
     1.0000   1.0000   1.0000   1.0000   1.0000   1.0000   1.0000   1.0000

          k = 0.1670 0.0000 0.0000 ( 18537 PWs)   bands (ev):

   -41.4146 -41.4146 -41.4108 -41.4108 -26.6698 -26.6697 -26.6683 -26.6682
   -19.4981 -19.4981 -19.4657 -19.4657 -19.4224 -19.4223 -19.4151 -19.4150
   -19.3917 -19.3917 -19.3910 -19.3910  -8.7508  -8.7481  -8.7475  -8.7374
    -8.7315  -8.7090  -8.7070  -8.7043  -8.6889  -8.6870  -8.6560  -8.6550
    -4.7059  -4.5073  -4.0129  -3.9719  -3.8517  -3.7662  -3.7084  -3.6838
    -3.5180  -3.4018  -3.4004  -3.3562   3.7889   3.8666   4.0523   4.0557
     4.0779   4.1982   4.2545   4.3110   4.4099   4.4128   4.5920   5.0067
     5.1322   5.2444   5.3688   5.4133   5.4552   5.5367   5.6304   5.6989
     5.7241   5.7965   5.8455   6.1108   6.1209   6.2202   6.2906   6.4293
     6.4431   6.6236   6.6390   6.8394   6.9414   7.2412   7.3764   7.4575

     occupation numbers 
     1.0000   1.0000   1.0000   1.0000   1.0000   1.0000   1.0000   1.0000
     1.0000   1.0000   1.0000   1.0000   1.0000   1.0000   1.0000   1.0000
     1.0000   1.0000   1.0000   1.0000   1.0000   1.0000   1.0000   1.0000
     1.0000   1.0000   1.0000   1.0000   1.0000   1.0000   1.0000   1.0000
     1.0000   1.0000   1.0000   1.0000   1.0000   1.0000   1.0000   1.0000
     1.0000   1.0000   1.0000   1.0000   1.0000   1.0000   1.0000   1.0000
     1.0000   1.0000   1.0000   1.0000   1.0000   1.0000   1.0000   1.0000
     1.0000   1.0000   1.0000   1.0000   1.0000   1.0000   1.0000   1.0000
     1.0000   1.0000   1.0000   1.0000   1.0000   1.0000   1.0000   1.0000
     1.0000   1.0000   1.0000   1.0000   1.0000   1.0000   1.0000   1.0000

          k = 0.1670 0.0000-0.1370 ( 18576 PWs)   bands (ev):

   -41.4146 -41.4146 -41.4108 -41.4108 -26.6698 -26.6698 -26.6682 -26.6682
   -19.4981 -19.4981 -19.4657 -19.4657 -19.4224 -19.4224 -19.4150 -19.4150
   -19.3917 -19.3917 -19.3910 -19.3910  -8.7486  -8.7486  -8.7449  -8.7449
    -8.7203  -8.7203  -8.7040  -8.7040  -8.6880  -8.6880  -8.6555  -8.6555
    -4.6185  -4.6185  -3.9823  -3.9823  -3.8042  -3.8042  -3.6946  -3.6946
    -3.4777  -3.4777  -3.3651  -3.3651   3.8213   3.8213   4.0322   4.0322
     4.1238   4.1238   4.2849   4.2849   4.5017   4.5017   4.7400   4.7400
     5.1757   5.1757   5.3706   5.3706   5.4655   5.4655   5.6261   5.6261
     5.8011   5.8011   6.0456   6.0456   6.2324   6.2324   6.3584   6.3584
     6.4937   6.4937   6.6553   6.6553   7.1604   7.1604   7.4201   7.4201

     occupation numbers 
     1.0000   1.0000   1.0000   1.0000   1.0000   1.0000   1.0000   1.0000
     1.0000   1.0000   1.0000   1.0000   1.0000   1.0000   1.0000   1.0000
     1.0000   1.0000   1.0000   1.0000   1.0000   1.0000   1.0000   1.0000
     1.0000   1.0000   1.0000   1.0000   1.0000   1.0000   1.0000   1.0000
     1.0000   1.0000   1.0000   1.0000   1.0000   1.0000   1.0000   1.0000
     1.0000   1.0000   1.0000   1.0000   1.0000   1.0000   1.0000   1.0000
     1.0000   1.0000   1.0000   1.0000   1.0000   1.0000   1.0000   1.0000
     1.0000   1.0000   1.0000   1.0000   1.0000   1.0000   1.0000   1.0000
     1.0000   1.0000   1.0000   1.0000   1.0000   1.0000   1.0000   1.0000
     1.0000   1.0000   1.0000   1.0000   1.0000   1.0000   1.0000   1.0000

          k = 0.1670 0.1481 0.0000 ( 18591 PWs)   bands (ev):

   -41.4146 -41.4146 -41.4108 -41.4108 -26.6695 -26.6693 -26.6687 -26.6685
   -19.4979 -19.4979 -19.4659 -19.4659 -19.4223 -19.4223 -19.4151 -19.4150
   -19.3917 -19.3917 -19.3910 -19.3910  -8.7583  -8.7526  -8.7417  -8.7348
    -8.7179  -8.7064  -8.7017  -8.7001  -8.6878  -8.6861  -8.6699  -8.6666
    -4.6094  -4.4836  -4.0977  -4.0577  -3.9419  -3.9230  -3.5540  -3.5329
    -3.5027  -3.4473  -3.3645  -3.3631   3.6951   3.8018   3.8978   3.9103
     4.1259   4.2084   4.3164   4.5024   4.5102   4.5672   4.7810   4.9403
     5.0092   5.1038   5.3201   5.3602   5.4219   5.5596   5.5655   5.5878
     5.7517   5.9168   5.9824   5.9910   6.1176   6.1667   6.4133   6.4738
     6.5798   6.6191   6.7268   6.8739   7.0711   7.2074   7.3249   7.3397

     occupation numbers 
     1.0000   1.0000   1.0000   1.0000   1.0000   1.0000   1.0000   1.0000
     1.0000   1.0000   1.0000   1.0000   1.0000   1.0000   1.0000   1.0000
     1.0000   1.0000   1.0000   1.0000   1.0000   1.0000   1.0000   1.0000
     1.0000   1.0000   1.0000   1.0000   1.0000   1.0000   1.0000   1.0000
     1.0000   1.0000   1.0000   1.0000   1.0000   1.0000   1.0000   1.0000
     1.0000   1.0000   1.0000   1.0000   1.0000   1.0000   1.0000   1.0000
     1.0000   1.0000   1.0000   1.0000   1.0000   1.0000   1.0000   1.0000
     1.0000   1.0000   1.0000   1.0000   1.0000   1.0000   1.0000   1.0000
     1.0000   1.0000   1.0000   1.0000   1.0000   1.0000   1.0000   1.0000
     1.0000   1.0000   1.0000   1.0000   1.0000   1.0000   1.0000   1.0000

          k = 0.1670 0.1481-0.1370 ( 18560 PWs)   bands (ev):

   -41.4146 -41.4146 -41.4108 -41.4108 -26.6694 -26.6694 -26.6686 -26.6686
   -19.4979 -19.4979 -19.4659 -19.4659 -19.4223 -19.4223 -19.4151 -19.4151
   -19.3917 -19.3917 -19.3910 -19.3910  -8.7530  -8.7530  -8.7422  -8.7422
    -8.7104  -8.7104  -8.7013  -8.7013  -8.6869  -8.6869  -8.6682  -8.6682
    -4.5470  -4.5470  -4.1010  -4.1010  -3.9064  -3.9064  -3.5569  -3.5569
    -3.4383  -3.4383  -3.3893  -3.3893   3.7258   3.7258   3.8685   3.8685
     4.2481   4.2481   4.4197   4.4197   4.5988   4.5988   4.7880   4.7880
     4.9989   4.9989   5.3157   5.3157   5.4965   5.4965   5.5568   5.5568
     5.8778   5.8778   6.0056   6.0056   6.2062   6.2062   6.3889   6.3889
     6.6574   6.6574   6.7730   6.7730   7.1230   7.1230   7.3091   7.3091

     occupation numbers 
     1.0000   1.0000   1.0000   1.0000   1.0000   1.0000   1.0000   1.0000
     1.0000   1.0000   1.0000   1.0000   1.0000   1.0000   1.0000   1.0000
     1.0000   1.0000   1.0000   1.0000   1.0000   1.0000   1.0000   1.0000
     1.0000   1.0000   1.0000   1.0000   1.0000   1.0000   1.0000   1.0000
     1.0000   1.0000   1.0000   1.0000   1.0000   1.0000   1.0000   1.0000
     1.0000   1.0000   1.0000   1.0000   1.0000   1.0000   1.0000   1.0000
     1.0000   1.0000   1.0000   1.0000   1.0000   1.0000   1.0000   1.0000
     1.0000   1.0000   1.0000   1.0000   1.0000   1.0000   1.0000   1.0000
     1.0000   1.0000   1.0000   1.0000   1.0000   1.0000   1.0000   1.0000
     1.0000   1.0000   1.0000   1.0000   1.0000   1.0000   1.0000   1.0000

          k = 0.3339 0.0000 0.0000 ( 18620 PWs)   bands (ev):

   -41.4111 -41.4111 -41.4089 -41.4089 -26.6594 -26.6593 -26.6581 -26.6580
   -19.4883 -19.4883 -19.4769 -19.4769 -19.4508 -19.4508 -19.4500 -19.4500
   -19.4083 -19.4083 -19.3978 -19.3977  -8.8946  -8.8941  -8.8583  -8.8575
    -8.7071  -8.7058  -8.7016  -8.6951  -8.6850  -8.6772  -8.6308  -8.6299
    -4.2730  -4.1572  -3.9287  -3.9280  -3.8634  -3.8193  -3.6488  -3.6487
    -3.3971  -3.3829  -3.3822  -3.2866   3.6242   3.7837   3.9484   4.0148
     4.0352   4.1441   4.2722   4.4111   4.5686   4.6470   4.6846   4.7319
     4.7761   4.7786   4.9198   5.1158   5.3902   5.4567   5.5057   5.5510
     5.6286   5.6882   5.7327   5.7467   5.9998   6.1682   6.1848   6.2523
     6.4059   6.4862   6.5020   6.5250   6.5892   6.6140   6.9374   6.9894

     occupation numbers 
     1.0000   1.0000   1.0000   1.0000   1.0000   1.0000   1.0000   1.0000
     1.0000   1.0000   1.0000   1.0000   1.0000   1.0000   1.0000   1.0000
     1.0000   1.0000   1.0000   1.0000   1.0000   1.0000   1.0000   1.0000
     1.0000   1.0000   1.0000   1.0000   1.0000   1.0000   1.0000   1.0000
     1.0000   1.0000   1.0000   1.0000   1.0000   1.0000   1.0000   1.0000
     1.0000   1.0000   1.0000   1.0000   1.0000   1.0000   1.0000   1.0000
     1.0000   1.0000   1.0000   1.0000   1.0000   1.0000   1.0000   1.0000
     1.0000   1.0000   1.0000   1.0000   1.0000   1.0000   1.0000   1.0000
     1.0000   1.0000   1.0000   1.0000   1.0000   1.0000   1.0000   1.0000
     1.0000   1.0000   1.0000   1.0000   1.0000   1.0000   1.0000   1.0000

          k = 0.3339 0.0000-0.1370 ( 18610 PWs)   bands (ev):

   -41.4111 -41.4111 -41.4089 -41.4089 -26.6594 -26.6594 -26.6580 -26.6580
   -19.4883 -19.4883 -19.4769 -19.4769 -19.4508 -19.4508 -19.4500 -19.4500
   -19.4083 -19.4083 -19.3977 -19.3977  -8.8944  -8.8944  -8.8579  -8.8579
    -8.7060  -8.7060  -8.6993  -8.6993  -8.6805  -8.6805  -8.6303  -8.6303
    -4.2201  -4.2201  -3.9301  -3.9301  -3.8367  -3.8367  -3.6474  -3.6474
    -3.3993  -3.3993  -3.3244  -3.3244   3.7491   3.7491   3.8541   3.8541
     4.0925   4.0925   4.3794   4.3794   4.6510   4.6510   4.7437   4.7437
     4.7820   4.7820   5.0399   5.0399   5.3528   5.3528   5.5768   5.5768
     5.7594   5.7594   5.7979   5.7979   5.8520   5.8520   6.0751   6.0751
     6.3985   6.3985   6.6133   6.6133   6.7252   6.7252   6.9783   6.9783

     occupation numbers 
     1.0000   1.0000   1.0000   1.0000   1.0000   1.0000   1.0000   1.0000
     1.0000   1.0000   1.0000   1.0000   1.0000   1.0000   1.0000   1.0000
     1.0000   1.0000   1.0000   1.0000   1.0000   1.0000   1.0000   1.0000
     1.0000   1.0000   1.0000   1.0000   1.0000   1.0000   1.0000   1.0000
     1.0000   1.0000   1.0000   1.0000   1.0000   1.0000   1.0000   1.0000
     1.0000   1.0000   1.0000   1.0000   1.0000   1.0000   1.0000   1.0000
     1.0000   1.0000   1.0000   1.0000   1.0000   1.0000   1.0000   1.0000
     1.0000   1.0000   1.0000   1.0000   1.0000   1.0000   1.0000   1.0000
     1.0000   1.0000   1.0000   1.0000   1.0000   1.0000   1.0000   1.0000
     1.0000   1.0000   1.0000   1.0000   1.0000   1.0000   1.0000   1.0000

          k = 0.3339 0.1481 0.0000 ( 18628 PWs)   bands (ev):

   -41.4111 -41.4111 -41.4089 -41.4089 -26.6591 -26.6590 -26.6584 -26.6583
   -19.4883 -19.4883 -19.4770 -19.4770 -19.4507 -19.4507 -19.4500 -19.4500
   -19.4083 -19.4083 -19.3977 -19.3977  -8.8860  -8.8851  -8.8679  -8.8668
    -8.7112  -8.7096  -8.7006  -8.6975  -8.6679  -8.6627  -8.6422  -8.6399
    -4.2347  -4.1710  -3.9628  -3.9472  -3.8350  -3.8237  -3.6412  -3.6402
    -3.4101  -3.3970  -3.3488  -3.3058   3.7123   3.7512   3.9089   3.9314
     4.2210   4.2480   4.3309   4.3963   4.4491   4.4865   4.5921   4.6223
     4.7332   4.8920   5.0905   5.2303   5.2320   5.2639   5.3745   5.4499
     5.6470   5.6752   5.7776   5.9031   6.0125   6.0190   6.2185   6.2549
     6.3131   6.3792   6.7012   6.7234   6.8309   6.8437   6.8781   6.9907

     occupation numbers 
     1.0000   1.0000   1.0000   1.0000   1.0000   1.0000   1.0000   1.0000
     1.0000   1.0000   1.0000   1.0000   1.0000   1.0000   1.0000   1.0000
     1.0000   1.0000   1.0000   1.0000   1.0000   1.0000   1.0000   1.0000
     1.0000   1.0000   1.0000   1.0000   1.0000   1.0000   1.0000   1.0000
     1.0000   1.0000   1.0000   1.0000   1.0000   1.0000   1.0000   1.0000
     1.0000   1.0000   1.0000   1.0000   1.0000   1.0000   1.0000   1.0000
     1.0000   1.0000   1.0000   1.0000   1.0000   1.0000   1.0000   1.0000
     1.0000   1.0000   1.0000   1.0000   1.0000   1.0000   1.0000   1.0000
     1.0000   1.0000   1.0000   1.0000   1.0000   1.0000   1.0000   1.0000
     1.0000   1.0000   1.0000   1.0000   1.0000   1.0000   1.0000   1.0000

          k = 0.3339 0.1481-0.1370 ( 18596 PWs)   bands (ev):

   -41.4111 -41.4111 -41.4089 -41.4089 -26.6590 -26.6590 -26.6583 -26.6583
   -19.4883 -19.4883 -19.4770 -19.4770 -19.4507 -19.4507 -19.4500 -19.4500
   -19.4083 -19.4083 -19.3977 -19.3977  -8.8856  -8.8856  -8.8674  -8.8674
    -8.7093  -8.7093  -8.7003  -8.7003  -8.6652  -8.6652  -8.6410  -8.6410
    -4.1997  -4.1997  -3.9688  -3.9688  -3.8208  -3.8208  -3.6405  -3.6405
    -3.3920  -3.3920  -3.3367  -3.3367   3.7415   3.7415   3.8592   3.8592
     4.2284   4.2284   4.3874   4.3874   4.4927   4.4927   4.6738   4.6738
     4.8407   4.8407   5.1439   5.1439   5.2430   5.2430   5.3574   5.3574
     5.6286   5.6286   5.7303   5.7303   6.1253   6.1253   6.2213   6.2213
     6.4454   6.4454   6.6229   6.6229   6.8038   6.8038   7.0008   7.0008

     occupation numbers 
     1.0000   1.0000   1.0000   1.0000   1.0000   1.0000   1.0000   1.0000
     1.0000   1.0000   1.0000   1.0000   1.0000   1.0000   1.0000   1.0000
     1.0000   1.0000   1.0000   1.0000   1.0000   1.0000   1.0000   1.0000
     1.0000   1.0000   1.0000   1.0000   1.0000   1.0000   1.0000   1.0000
     1.0000   1.0000   1.0000   1.0000   1.0000   1.0000   1.0000   1.0000
     1.0000   1.0000   1.0000   1.0000   1.0000   1.0000   1.0000   1.0000
     1.0000   1.0000   1.0000   1.0000   1.0000   1.0000   1.0000   1.0000
     1.0000   1.0000   1.0000   1.0000   1.0000   1.0000   1.0000   1.0000
     1.0000   1.0000   1.0000   1.0000   1.0000   1.0000   1.0000   1.0000
     1.0000   1.0000   1.0000   1.0000   1.0000   1.0000   1.0000   1.0000

          k =-0.5009 0.0000 0.0000 ( 18628 PWs)   bands (ev):

   -41.4087 -41.4087 -41.4087 -41.4087 -26.6542 -26.6542 -26.6529 -26.6529
   -19.5035 -19.5035 -19.5035 -19.5035 -19.4508 -19.4508 -19.4508 -19.4508
   -19.4034 -19.4034 -19.4034 -19.4034  -8.9835  -8.9835  -8.9389  -8.9389
    -8.6835  -8.6835  -8.6826  -8.6826  -8.6578  -8.6578  -8.6176  -8.6176
    -3.9960  -3.9960  -3.9951  -3.9951  -3.7016  -3.7016  -3.6880  -3.6880
    -3.3938  -3.3938  -3.2785  -3.2785   3.5350   3.5350   3.7257   3.7257
     4.0320   4.0320   4.3030   4.3030   4.5096   4.5096   4.5828   4.5828
     5.0601   5.0601   5.2101   5.2101   5.2628   5.2628   5.2657   5.2657
     5.4752   5.4752   5.8715   5.8715   5.9363   5.9363   6.0548   6.0548
     6.5689   6.5689   6.5998   6.5998   6.7000   6.7000   6.7715   6.7715

     occupation numbers 
     1.0000   1.0000   1.0000   1.0000   1.0000   1.0000   1.0000   1.0000
     1.0000   1.0000   1.0000   1.0000   1.0000   1.0000   1.0000   1.0000
     1.0000   1.0000   1.0000   1.0000   1.0000   1.0000   1.0000   1.0000
     1.0000   1.0000   1.0000   1.0000   1.0000   1.0000   1.0000   1.0000
     1.0000   1.0000   1.0000   1.0000   1.0000   1.0000   1.0000   1.0000
     1.0000   1.0000   1.0000   1.0000   1.0000   1.0000   1.0000   1.0000
     1.0000   1.0000   1.0000   1.0000   1.0000   1.0000   1.0000   1.0000
     1.0000   1.0000   1.0000   1.0000   1.0000   1.0000   1.0000   1.0000
     1.0000   1.0000   1.0000   1.0000   1.0000   1.0000   1.0000   1.0000
     1.0000   1.0000   1.0000   1.0000   1.0000   1.0000   1.0000   1.0000

          k =-0.5009 0.0000-0.1370 ( 18652 PWs)   bands (ev):

   -41.4087 -41.4087 -41.4087 -41.4087 -26.6542 -26.6542 -26.6529 -26.6529
   -19.5035 -19.5035 -19.5035 -19.5035 -19.4508 -19.4508 -19.4508 -19.4508
   -19.4034 -19.4034 -19.4034 -19.4034  -8.9835  -8.9835  -8.9389  -8.9389
    -8.6835  -8.6835  -8.6826  -8.6826  -8.6578  -8.6578  -8.6176  -8.6176
    -3.9986  -3.9986  -3.9925  -3.9925  -3.7023  -3.7023  -3.6879  -3.6879
    -3.3936  -3.3936  -3.2781  -3.2781   3.5205   3.5205   3.7518   3.7518
     4.0228   4.0228   4.2437   4.2437   4.5374   4.5374   4.6839   4.6839
     4.9963   4.9963   5.0680   5.0680   5.2261   5.2261   5.3841   5.3841
     5.6571   5.6571   5.6802   5.6802   5.9130   5.9130   6.3462   6.3462
     6.4379   6.4379   6.4917   6.4917   6.6601   6.6601   6.8352   6.8352

     occupation numbers 
     1.0000   1.0000   1.0000   1.0000   1.0000   1.0000   1.0000   1.0000
     1.0000   1.0000   1.0000   1.0000   1.0000   1.0000   1.0000   1.0000
     1.0000   1.0000   1.0000   1.0000   1.0000   1.0000   1.0000   1.0000
     1.0000   1.0000   1.0000   1.0000   1.0000   1.0000   1.0000   1.0000
     1.0000   1.0000   1.0000   1.0000   1.0000   1.0000   1.0000   1.0000
     1.0000   1.0000   1.0000   1.0000   1.0000   1.0000   1.0000   1.0000
     1.0000   1.0000   1.0000   1.0000   1.0000   1.0000   1.0000   1.0000
     1.0000   1.0000   1.0000   1.0000   1.0000   1.0000   1.0000   1.0000
     1.0000   1.0000   1.0000   1.0000   1.0000   1.0000   1.0000   1.0000
     1.0000   1.0000   1.0000   1.0000   1.0000   1.0000   1.0000   1.0000

          k =-0.5009 0.1481 0.0000 ( 18590 PWs)   bands (ev):

   -41.4087 -41.4087 -41.4087 -41.4087 -26.6538 -26.6538 -26.6532 -26.6532
   -19.5036 -19.5036 -19.5036 -19.5036 -19.4507 -19.4507 -19.4507 -19.4507
   -19.4034 -19.4034 -19.4034 -19.4034  -8.9725  -8.9725  -8.9502  -8.9502
    -8.6853  -8.6853  -8.6842  -8.6842  -8.6457  -8.6457  -8.6263  -8.6263
    -3.9952  -3.9952  -3.9951  -3.9951  -3.6998  -3.6998  -3.6942  -3.6942
    -3.3619  -3.3619  -3.3051  -3.3051   3.4618   3.4618   3.5212   3.5212
     4.2516   4.2516   4.3784   4.3784   4.6191   4.6191   4.6294   4.6294
     4.9720   4.9720   5.0502   5.0502   5.2597   5.2597   5.3562   5.3562
     5.6801   5.6801   5.7400   5.7400   6.1463   6.1463   6.1650   6.1650
     6.4019   6.4019   6.4037   6.4037   6.6424   6.6424   6.6645   6.6645

     occupation numbers 
     1.0000   1.0000   1.0000   1.0000   1.0000   1.0000   1.0000   1.0000
     1.0000   1.0000   1.0000   1.0000   1.0000   1.0000   1.0000   1.0000
     1.0000   1.0000   1.0000   1.0000   1.0000   1.0000   1.0000   1.0000
     1.0000   1.0000   1.0000   1.0000   1.0000   1.0000   1.0000   1.0000
     1.0000   1.0000   1.0000   1.0000   1.0000   1.0000   1.0000   1.0000
     1.0000   1.0000   1.0000   1.0000   1.0000   1.0000   1.0000   1.0000
     1.0000   1.0000   1.0000   1.0000   1.0000   1.0000   1.0000   1.0000
     1.0000   1.0000   1.0000   1.0000   1.0000   1.0000   1.0000   1.0000
     1.0000   1.0000   1.0000   1.0000   1.0000   1.0000   1.0000   1.0000
     1.0000   1.0000   1.0000   1.0000   1.0000   1.0000   1.0000   1.0000

          k =-0.5009 0.1481-0.1370 ( 18600 PWs)   bands (ev):

   -41.4087 -41.4087 -41.4087 -41.4087 -26.6538 -26.6538 -26.6532 -26.6532
   -19.5036 -19.5036 -19.5036 -19.5036 -19.4507 -19.4507 -19.4507 -19.4507
   -19.4034 -19.4034 -19.4034 -19.4034  -8.9725  -8.9725  -8.9502  -8.9502
    -8.6853  -8.6853  -8.6842  -8.6842  -8.6457  -8.6457  -8.6263  -8.6263
    -3.9965  -3.9965  -3.9937  -3.9937  -3.7014  -3.7014  -3.6932  -3.6932
    -3.3617  -3.3617  -3.3046  -3.3046   3.4421   3.4421   3.5330   3.5330
     4.2408   4.2408   4.3825   4.3825   4.5897   4.5897   4.6192   4.6192
     5.0593   5.0593   5.1576   5.1576   5.2885   5.2885   5.2915   5.2915
     5.6758   5.6758   5.7587   5.7587   5.9478   5.9478   6.0370   6.0370
     6.4022   6.4022   6.4402   6.4402   6.7466   6.7466   6.7532   6.7532

     occupation numbers 
     1.0000   1.0000   1.0000   1.0000   1.0000   1.0000   1.0000   1.0000
     1.0000   1.0000   1.0000   1.0000   1.0000   1.0000   1.0000   1.0000
     1.0000   1.0000   1.0000   1.0000   1.0000   1.0000   1.0000   1.0000
     1.0000   1.0000   1.0000   1.0000   1.0000   1.0000   1.0000   1.0000
     1.0000   1.0000   1.0000   1.0000   1.0000   1.0000   1.0000   1.0000
     1.0000   1.0000   1.0000   1.0000   1.0000   1.0000   1.0000   1.0000
     1.0000   1.0000   1.0000   1.0000   1.0000   1.0000   1.0000   1.0000
     1.0000   1.0000   1.0000   1.0000   1.0000   1.0000   1.0000   1.0000
     1.0000   1.0000   1.0000   1.0000   1.0000   1.0000   1.0000   1.0000
     1.0000   1.0000   1.0000   1.0000   1.0000   1.0000   1.0000   1.0000

     highest occupied level (ev):     7.8485

!    total energy              =    -969.04020379 Ry
     estimated scf accuracy    <          4.9E-11 Ry

     The total energy is the sum of the following terms:
     one-electron contribution =    -196.18878885 Ry
     hartree contribution      =     158.46887046 Ry
     xc contribution           =    -246.05512203 Ry
     ewald contribution        =    -685.26516338 Ry

     convergence has been achieved in  10 iterations

     negative rho (up, down):  5.195E-01 0.000E+00

     Forces acting on atoms (cartesian axes, Ry/au):

     atom    1 type  2   force =     0.00000000    0.00008817   -0.00000355
     atom    2 type  2   force =     0.00000000   -0.00008817    0.00000355
     atom    3 type  2   force =     0.00000000   -0.00008817   -0.00000355
     atom    4 type  2   force =     0.00000000    0.00008817    0.00000355
     atom    5 type  3   force =     0.00000000    0.00009732   -0.00020070
     atom    6 type  3   force =     0.00000000   -0.00009732    0.00020070
     atom    7 type  3   force =     0.00000000   -0.00009732   -0.00020070
     atom    8 type  3   force =     0.00000000    0.00009732    0.00020070
     atom    9 type  1   force =     0.00000000    0.00000264    0.00062224
     atom   10 type  1   force =     0.00000000   -0.00000264   -0.00062224
     atom   11 type  1   force =     0.00000000   -0.00000264    0.00062224
     atom   12 type  1   force =     0.00000000    0.00000264   -0.00062224
     atom   13 type  1   force =     0.00000000    0.00057682   -0.00030699
     atom   14 type  1   force =    -0.00000000   -0.00057682    0.00030699
     atom   15 type  1   force =     0.00000000   -0.00057682   -0.00030699
     atom   16 type  1   force =     0.00000000    0.00057682    0.00030699
     atom   17 type  1   force =     0.00000000    0.00033986   -0.00039087
     atom   18 type  1   force =     0.00000000   -0.00033986    0.00039087
     atom   19 type  1   force =    -0.00000000   -0.00033986   -0.00039087
     atom   20 type  1   force =     0.00000000    0.00033986    0.00039087
     The non-local contrib.  to forces
     atom    1 type  2   force =     0.00000000    0.00116902    0.00485532
     atom    2 type  2   force =     0.00000000   -0.00116902   -0.00485532
     atom    3 type  2   force =     0.00000000   -0.00116902    0.00485532
     atom    4 type  2   force =     0.00000000    0.00116902   -0.00485532
     atom    5 type  3   force =     0.00000000    0.02354598   -0.02117217
     atom    6 type  3   force =     0.00000000   -0.02354598    0.02117217
     atom    7 type  3   force =     0.00000000   -0.02354598   -0.02117217
     atom    8 type  3   force =    -0.00000000    0.02354598    0.02117217
     atom    9 type  1   force =     0.00000000    0.00398120   -0.00961908
     atom   10 type  1   force =     0.00000000   -0.00398120    0.00961908
     atom   11 type  1   force =    -0.00000000   -0.00398120   -0.00961908
     atom   12 type  1   force =    -0.00000000    0.00398120    0.00961908
     atom   13 type  1   force =     0.00000000   -0.04271959   -0.00336374
     atom   14 type  1   force =     0.00000000    0.04271959    0.00336374
     atom   15 type  1   force =     0.00000000    0.04271959   -0.00336374
     atom   16 type  1   force =    -0.00000000   -0.04271959    0.00336374
     atom   17 type  1   force =     0.00000000    0.04138298    0.06728666
     atom   18 type  1   force =     0.00000000   -0.04138298   -0.06728666
     atom   19 type  1   force =    -0.00000000   -0.04138298    0.06728666
     atom   20 type  1   force =     0.00000000    0.04138298   -0.06728666
     The ionic contribution  to forces
     atom    1 type  2   force =     0.00000000    0.40717543    0.11642522
     atom    2 type  2   force =     0.00000000   -0.40717543   -0.11642522
     atom    3 type  2   force =     0.00000000   -0.40717543    0.11642522
     atom    4 type  2   force =     0.00000000    0.40717543   -0.11642522
     atom    5 type  3   force =     0.00000000   -2.76792906    1.06977811
     atom    6 type  3   force =     0.00000000    2.76792906   -1.06977811
     atom    7 type  3   force =     0.00000000    2.76792906    1.06977811
     atom    8 type  3   force =     0.00000000   -2.76792906   -1.06977811
     atom    9 type  1   force =     0.00000000   -1.59644992    3.68212062
     atom   10 type  1   force =     0.00000000    1.59644992   -3.68212062
     atom   11 type  1   force =     0.00000000    1.59644992    3.68212062
     atom   12 type  1   force =     0.00000000   -1.59644992   -3.68212062
     atom   13 type  1   force =     0.00000000    3.65104204   -2.27427615
     atom   14 type  1   force =     0.00000000   -3.65104204    2.27427615
     atom   15 type  1   force =     0.00000000   -3.65104204   -2.27427615
     atom   16 type  1   force =     0.00000000    3.65104204    2.27427615
     atom   17 type  1   force =     0.00000000   -2.95275598   -4.84192910
     atom   18 type  1   force =     0.00000000    2.95275598    4.84192910
     atom   19 type  1   force =    -0.00000000    2.95275598   -4.84192910
     atom   20 type  1   force =     0.00000000   -2.95275598    4.84192910
     The local contribution  to forces
     atom    1 type  2   force =    -0.00000000   -0.40830618   -0.12109113
     atom    2 type  2   force =    -0.00000000    0.40830618    0.12109113
     atom    3 type  2   force =    -0.00000000    0.40830618   -0.12109113
     atom    4 type  2   force =    -0.00000000   -0.40830618    0.12109113
     atom    5 type  3   force =    -0.00000000    2.74534559   -1.04850240
     atom    6 type  3   force =    -0.00000000   -2.74534559    1.04850240
     atom    7 type  3   force =    -0.00000000   -2.74534559   -1.04850240
     atom    8 type  3   force =    -0.00000000    2.74534559    1.04850240
     atom    9 type  1   force =    -0.00000000    1.59241103   -3.67173934
     atom   10 type  1   force =    -0.00000000   -1.59241103    3.67173934
     atom   11 type  1   force =    -0.00000000   -1.59241103   -3.67173934
     atom   12 type  1   force =    -0.00000000    1.59241103    3.67173934
     atom   13 type  1   force =    -0.00000000   -3.60975827    2.27685211
     atom   14 type  1   force =    -0.00000000    3.60975827   -2.27685211
     atom   15 type  1   force =    -0.00000000    3.60975827    2.27685211
     atom   16 type  1   force =    -0.00000000   -3.60975827   -2.27685211
     atom   17 type  1   force =    -0.00000000    2.91367403    4.77759462
     atom   18 type  1   force =    -0.00000000   -2.91367403   -4.77759462
     atom   19 type  1   force =    -0.00000000   -2.91367403    4.77759462
     atom   20 type  1   force =    -0.00000000    2.91367403   -4.77759462
     The core correction contribution to forces
     atom    1 type  2   force =     0.00000000    0.00005007   -0.00019819
     atom    2 type  2   force =     0.00000000   -0.00005007    0.00019819
     atom    3 type  2   force =     0.00000000   -0.00005007   -0.00019819
     atom    4 type  2   force =     0.00000000    0.00005007    0.00019819
     atom    5 type  3   force =     0.00000000   -0.00085777   -0.00030240
     atom    6 type  3   force =     0.00000000    0.00085777    0.00030240
     atom    7 type  3   force =     0.00000000    0.00085777   -0.00030240
     atom    8 type  3   force =     0.00000000   -0.00085777    0.00030240
     atom    9 type  1   force =    -0.00000000    0.00006199   -0.00014043
     atom   10 type  1   force =     0.00000000   -0.00006199    0.00014043
     atom   11 type  1   force =     0.00000000   -0.00006199   -0.00014043
     atom   12 type  1   force =    -0.00000000    0.00006199    0.00014043
     atom   13 type  1   force =     0.00000000    0.00200674    0.00048130
     atom   14 type  1   force =     0.00000000   -0.00200674   -0.00048130
     atom   15 type  1   force =     0.00000000   -0.00200674    0.00048130
     atom   16 type  1   force =     0.00000000    0.00200674   -0.00048130
     atom   17 type  1   force =     0.00000000   -0.00195964   -0.00334068
     atom   18 type  1   force =     0.00000000    0.00195964    0.00334068
     atom   19 type  1   force =     0.00000000    0.00195964   -0.00334068
     atom   20 type  1   force =    -0.00000000   -0.00195964    0.00334068
     The Hubbard contrib.    to forces
     atom    1 type  2   force =     0.00000000    0.00000000    0.00000000
     atom    2 type  2   force =     0.00000000    0.00000000    0.00000000
     atom    3 type  2   force =     0.00000000    0.00000000    0.00000000
     atom    4 type  2   force =     0.00000000    0.00000000    0.00000000
     atom    5 type  3   force =     0.00000000    0.00000000    0.00000000
     atom    6 type  3   force =     0.00000000    0.00000000    0.00000000
     atom    7 type  3   force =     0.00000000    0.00000000    0.00000000
     atom    8 type  3   force =     0.00000000    0.00000000    0.00000000
     atom    9 type  1   force =     0.00000000    0.00000000    0.00000000
     atom   10 type  1   force =     0.00000000    0.00000000    0.00000000
     atom   11 type  1   force =     0.00000000    0.00000000    0.00000000
     atom   12 type  1   force =     0.00000000    0.00000000    0.00000000
     atom   13 type  1   force =     0.00000000    0.00000000    0.00000000
     atom   14 type  1   force =     0.00000000    0.00000000    0.00000000
     atom   15 type  1   force =     0.00000000    0.00000000    0.00000000
     atom   16 type  1   force =     0.00000000    0.00000000    0.00000000
     atom   17 type  1   force =     0.00000000    0.00000000    0.00000000
     atom   18 type  1   force =     0.00000000    0.00000000    0.00000000
     atom   19 type  1   force =     0.00000000    0.00000000    0.00000000
     atom   20 type  1   force =     0.00000000    0.00000000    0.00000000
     The SCF correction term to forces
     atom    1 type  2   force =    -0.00000000   -0.00000018    0.00000523
     atom    2 type  2   force =     0.00000000    0.00000018   -0.00000523
     atom    3 type  2   force =    -0.00000000    0.00000018    0.00000523
     atom    4 type  2   force =     0.00000000   -0.00000018   -0.00000523
     atom    5 type  3   force =     0.00000000   -0.00000743   -0.00000184
     atom    6 type  3   force =     0.00000000    0.00000743    0.00000184
     atom    7 type  3   force =     0.00000000    0.00000743   -0.00000184
     atom    8 type  3   force =     0.00000000   -0.00000743    0.00000184
     atom    9 type  1   force =     0.00000000   -0.00000166    0.00000046
     atom   10 type  1   force =    -0.00000000    0.00000166   -0.00000046
     atom   11 type  1   force =     0.00000000    0.00000166    0.00000046
     atom   12 type  1   force =    -0.00000000   -0.00000166   -0.00000046
     atom   13 type  1   force =     0.00000000    0.00000591   -0.00000052
     atom   14 type  1   force =    -0.00000000   -0.00000591    0.00000052
     atom   15 type  1   force =    -0.00000000   -0.00000591   -0.00000052
     atom   16 type  1   force =     0.00000000    0.00000591    0.00000052
     atom   17 type  1   force =    -0.00000000   -0.00000154   -0.00000238
     atom   18 type  1   force =     0.00000000    0.00000154    0.00000238
     atom   19 type  1   force =     0.00000000    0.00000154   -0.00000238
     atom   20 type  1   force =    -0.00000000   -0.00000154    0.00000238

     Total force =     0.002135     Total SCF correction =     0.000023


     Computing stress (Cartesian axis) and pressure


     negative rho (up, down):  5.195E-01 0.000E+00
          total   stress  (Ry/bohr**3)                   (kbar)     P=        0.38
   0.00000941   0.00000000   0.00000000            1.38        0.00        0.00
   0.00000000   0.00000039   0.00000000            0.00        0.06        0.00
   0.00000000   0.00000000  -0.00000197            0.00        0.00       -0.29

     kinetic stress (kbar)   8924.43      0.00      0.00
                                0.00   8950.69      0.00
                                0.00      0.00   8970.86

     local   stress (kbar)  -7887.79      0.00     -0.00
                                0.00  -4298.59     -0.00
                               -0.00     -0.00  -3965.69

     nonloc. stress (kbar)   7369.28      0.00      0.00
                                0.00   7365.51      0.00
                                0.00      0.00   7371.14

     hartree stress (kbar)   3527.42     -0.00      0.00
                               -0.00   2113.09     -0.00
                                0.00     -0.00   1798.61

     exc-cor stress (kbar)   2570.76      0.00      0.00
                                0.00   2568.62     -0.00
                                0.00     -0.00   2571.28

     corecor stress (kbar)  -5259.67     -0.00      0.00
                               -0.00  -5259.58      0.00
                                0.00      0.00  -5260.31

     ewald   stress (kbar)  -9243.04     -0.00     -0.00
                               -0.00 -11439.69      0.00
                               -0.00      0.00 -11486.18

     hubbard stress (kbar)      0.00      0.00      0.00
                                0.00      0.00      0.00
                                0.00      0.00      0.00

     DFT-D   stress (kbar)      0.00      0.00      0.00
                                0.00      0.00      0.00
                                0.00      0.00      0.00

     XDM     stress (kbar)      0.00      0.00      0.00
                                0.00      0.00      0.00
                                0.00      0.00      0.00

     dft-nl  stress (kbar)      0.00      0.00      0.00
                                0.00      0.00      0.00
                                0.00      0.00      0.00

     TS-vdW  stress (kbar)      0.00      0.00      0.00
                                0.00      0.00      0.00
                                0.00      0.00      0.00

     MDB     stress (kbar)      0.00      0.00      0.00
                                0.00      0.00      0.00
                                0.00      0.00      0.00

     3D-RISM stress (kbar)      0.00      0.00      0.00
                                0.00      0.00      0.00
                                0.00      0.00      0.00

     Energy error            =      3.3E-05 Ry
     Gradient error          =      6.2E-04 Ry/Bohr
     Cell gradient error     =      1.4E+00 kbar

     number of scf cycles    =  11
     number of bfgs steps    =  10

     enthalpy           old  =    -969.0401708813 Ry
     enthalpy           new  =    -969.0402037935 Ry

     CASE: enthalpy          _new < enthalpy          _old

     new trust radius        =       0.0058211728 bohr
     new conv_thr            =            1.0E-10 Ry

     new unit-cell volume =   3133.42741 a.u.^3 (   464.32604 Ang^3 )
     density =      3.93442 g/cm^3

CELL_PARAMETERS (angstrom)
   3.835070657   0.000000000   0.000000000
  -0.000000000   8.641665460   0.000000000
   0.000000000   0.000000000  14.010454292

ATOMIC_POSITIONS (crystal)
Sr               0.2500000000        0.0626473394        0.8195070501
Sr               0.7500000000        0.9373526606        0.1804929499
Sr               0.7500000000        0.4373526606        0.3195070501
Sr               0.2500000000        0.5626473394        0.6804929499
Zr               0.2500000000        0.3270249872        0.0557702137
Zr               0.7500000000        0.6729750128        0.9442297863
Zr               0.7500000000        0.1729750128        0.5557702137
Zr               0.2500000000        0.8270249872        0.4442297863
S                0.2500000000        0.2082215328        0.2153048356
S                0.7500000000        0.7917784672        0.7846951644
S                0.7500000000        0.2917784672        0.7153048356
S                0.2500000000        0.7082215328        0.2846951644
S                0.2500000000        0.3362505774        0.4842828307
S                0.7500000000        0.6637494226        0.5157171693
S                0.7500000000        0.1637494226        0.9842828307
S                0.2500000000        0.8362505774        0.0157171693
S                0.2500000000        0.4866723985        0.8946626917
S                0.7500000000        0.5133276015        0.1053373083
S                0.7500000000        0.0133276015        0.3946626917
S                0.2500000000        0.9866723985        0.6053373083



     Writing config-only to output data dir ./tmp/relax/SrZrS3_relax.save/ :
     XML data file
     NEW-OLD atomic charge density approx. for the potential
     New effective cutoffs (rho, wfc):  400.98   50.13

     negative rho (up, down):  5.198E-01 0.000E+00

     total cpu time spent up to now is     1381.0 secs

     Self-consistent Calculation

     iteration #  1     ecut=    50.00 Ry     beta= 0.30
     Davidson diagonalization with overlap

---- Real-time Memory Report at c_bands before calling an iterative solver
             0 MiB given to the printing process from OS
             0 MiB allocation reported by mallinfo(arena+hblkhd)
             0 MiB available memory on the node where the printing process lives
------------------
     ethr =  1.00E-06,  avg # of iterations =  3.0

     Threshold (ethr) on eigenvalues was too large:
     Diagonalizing with lowered threshold

     Davidson diagonalization with overlap

---- Real-time Memory Report at c_bands before calling an iterative solver
             0 MiB given to the printing process from OS
             0 MiB allocation reported by mallinfo(arena+hblkhd)
             0 MiB available memory on the node where the printing process lives
------------------
     ethr =  6.66E-09,  avg # of iterations =  7.7

     negative rho (up, down):  5.198E-01 0.000E+00

     total cpu time spent up to now is     1398.8 secs

     total energy              =    -969.04022317 Ry
     estimated scf accuracy    <       0.00000705 Ry

     iteration #  2     ecut=    50.00 Ry     beta= 0.30
     Davidson diagonalization with overlap

---- Real-time Memory Report at c_bands before calling an iterative solver
             0 MiB given to the printing process from OS
             0 MiB allocation reported by mallinfo(arena+hblkhd)
             0 MiB available memory on the node where the printing process lives
------------------
     ethr =  4.40E-09,  avg # of iterations =  3.3

     negative rho (up, down):  5.198E-01 0.000E+00

     total cpu time spent up to now is     1405.9 secs

     total energy              =    -969.04022421 Ry
     estimated scf accuracy    <       0.00000147 Ry

     iteration #  3     ecut=    50.00 Ry     beta= 0.30
     Davidson diagonalization with overlap

---- Real-time Memory Report at c_bands before calling an iterative solver
             0 MiB given to the printing process from OS
             0 MiB allocation reported by mallinfo(arena+hblkhd)
             0 MiB available memory on the node where the printing process lives
------------------
     ethr =  9.19E-10,  avg # of iterations =  2.8

     negative rho (up, down):  5.198E-01 0.000E+00

     total cpu time spent up to now is     1410.9 secs

     total energy              =    -969.04022428 Ry
     estimated scf accuracy    <       0.00000061 Ry

     iteration #  4     ecut=    50.00 Ry     beta= 0.30
     Davidson diagonalization with overlap

---- Real-time Memory Report at c_bands before calling an iterative solver
             0 MiB given to the printing process from OS
             0 MiB allocation reported by mallinfo(arena+hblkhd)
             0 MiB available memory on the node where the printing process lives
------------------
     ethr =  3.79E-10,  avg # of iterations =  2.9

     negative rho (up, down):  5.198E-01 0.000E+00

     total cpu time spent up to now is     1416.7 secs

     total energy              =    -969.04022438 Ry
     estimated scf accuracy    <       0.00000007 Ry

     iteration #  5     ecut=    50.00 Ry     beta= 0.30
     Davidson diagonalization with overlap

---- Real-time Memory Report at c_bands before calling an iterative solver
             0 MiB given to the printing process from OS
             0 MiB allocation reported by mallinfo(arena+hblkhd)
             0 MiB available memory on the node where the printing process lives
------------------
     ethr =  4.38E-11,  avg # of iterations =  5.4

     negative rho (up, down):  5.198E-01 0.000E+00

     total cpu time spent up to now is     1424.3 secs

     total energy              =    -969.04022440 Ry
     estimated scf accuracy    <       0.00000003 Ry

     iteration #  6     ecut=    50.00 Ry     beta= 0.30
     Davidson diagonalization with overlap

---- Real-time Memory Report at c_bands before calling an iterative solver
             0 MiB given to the printing process from OS
             0 MiB allocation reported by mallinfo(arena+hblkhd)
             0 MiB available memory on the node where the printing process lives
------------------
     ethr =  1.65E-11,  avg # of iterations =  4.6

     negative rho (up, down):  5.198E-01 0.000E+00

     total cpu time spent up to now is     1430.6 secs

     total energy              =    -969.04022441 Ry
     estimated scf accuracy    <          6.2E-09 Ry

     iteration #  7     ecut=    50.00 Ry     beta= 0.30
     Davidson diagonalization with overlap

---- Real-time Memory Report at c_bands before calling an iterative solver
             0 MiB given to the printing process from OS
             0 MiB allocation reported by mallinfo(arena+hblkhd)
             0 MiB available memory on the node where the printing process lives
------------------
     ethr =  3.89E-12,  avg # of iterations =  4.6

     negative rho (up, down):  5.198E-01 0.000E+00

     total cpu time spent up to now is     1437.0 secs

     total energy              =    -969.04022442 Ry
     estimated scf accuracy    <          9.7E-10 Ry

     iteration #  8     ecut=    50.00 Ry     beta= 0.30
     Davidson diagonalization with overlap

---- Real-time Memory Report at c_bands before calling an iterative solver
             0 MiB given to the printing process from OS
             0 MiB allocation reported by mallinfo(arena+hblkhd)
             0 MiB available memory on the node where the printing process lives
------------------
     ethr =  6.08E-13,  avg # of iterations =  3.5

     negative rho (up, down):  5.198E-01 0.000E+00

     total cpu time spent up to now is     1443.0 secs

     total energy              =    -969.04022442 Ry
     estimated scf accuracy    <          2.3E-10 Ry

     iteration #  9     ecut=    50.00 Ry     beta= 0.30
     Davidson diagonalization with overlap

---- Real-time Memory Report at c_bands before calling an iterative solver
             0 MiB given to the printing process from OS
             0 MiB allocation reported by mallinfo(arena+hblkhd)
             0 MiB available memory on the node where the printing process lives
------------------
     ethr =  1.42E-13,  avg # of iterations =  5.1

     negative rho (up, down):  5.198E-01 0.000E+00

     total cpu time spent up to now is     1450.1 secs

     End of self-consistent calculation

          k = 0.0000 0.0000 0.0000 ( 18571 PWs)   bands (ev):

   -41.4179 -41.4179 -41.4135 -41.4135 -26.6711 -26.6709 -26.6695 -26.6693
   -19.5079 -19.5079 -19.4727 -19.4727 -19.4242 -19.4241 -19.3984 -19.3983
   -19.3807 -19.3807 -19.3646 -19.3646  -8.7729  -8.7665  -8.7638  -8.7555
    -8.7434  -8.7199  -8.6647  -8.6640  -8.6049  -8.6041  -8.5986  -8.5977
    -4.8940  -4.6668  -4.1049  -4.0620  -3.8325  -3.7318  -3.7024  -3.6936
    -3.5541  -3.4621  -3.3998  -3.3379   3.6391   3.8451   3.9024   3.9368
     3.9457   4.1370   4.2608   4.5524   4.7347   4.7407   4.7723   4.8039
     4.8623   4.9043   4.9157   5.4249   5.6418   5.6614   5.6950   5.9134
     5.9207   5.9754   6.2457   6.2860   6.4987   6.5649   6.6321   6.6737
     6.7168   6.8483   6.9311   7.1167   7.4387   7.4428   7.6442   7.8475

     occupation numbers 
     1.0000   1.0000   1.0000   1.0000   1.0000   1.0000   1.0000   1.0000
     1.0000   1.0000   1.0000   1.0000   1.0000   1.0000   1.0000   1.0000
     1.0000   1.0000   1.0000   1.0000   1.0000   1.0000   1.0000   1.0000
     1.0000   1.0000   1.0000   1.0000   1.0000   1.0000   1.0000   1.0000
     1.0000   1.0000   1.0000   1.0000   1.0000   1.0000   1.0000   1.0000
     1.0000   1.0000   1.0000   1.0000   1.0000   1.0000   1.0000   1.0000
     1.0000   1.0000   1.0000   1.0000   1.0000   1.0000   1.0000   1.0000
     1.0000   1.0000   1.0000   1.0000   1.0000   1.0000   1.0000   1.0000
     1.0000   1.0000   1.0000   1.0000   1.0000   1.0000   1.0000   1.0000
     1.0000   1.0000   1.0000   1.0000   1.0000   1.0000   1.0000   1.0000

          k = 0.0000 0.0000-0.1370 ( 18560 PWs)   bands (ev):

   -41.4179 -41.4179 -41.4135 -41.4135 -26.6710 -26.6710 -26.6694 -26.6694
   -19.5079 -19.5079 -19.4727 -19.4727 -19.4242 -19.4242 -19.3984 -19.3984
   -19.3807 -19.3807 -19.3646 -19.3646  -8.7694  -8.7694  -8.7614  -8.7614
    -8.7302  -8.7302  -8.6643  -8.6643  -8.6045  -8.6045  -8.5981  -8.5981
    -4.7944  -4.7944  -4.0693  -4.0693  -3.7798  -3.7798  -3.6830  -3.6830
    -3.5381  -3.5381  -3.3565  -3.3565   3.7214   3.7214   3.9168   3.9168
     4.0330   4.0330   4.4974   4.4974   4.7561   4.7561   4.8239   4.8239
     4.8903   4.8903   4.9102   4.9102   5.5157   5.5157   5.9476   5.9476
     6.1461   6.1461   6.2837   6.2837   6.6233   6.6233   6.6649   6.6649
     6.7041   6.7041   7.0211   7.0211   7.3097   7.3097   7.7400   7.7400

     occupation numbers 
     1.0000   1.0000   1.0000   1.0000   1.0000   1.0000   1.0000   1.0000
     1.0000   1.0000   1.0000   1.0000   1.0000   1.0000   1.0000   1.0000
     1.0000   1.0000   1.0000   1.0000   1.0000   1.0000   1.0000   1.0000
     1.0000   1.0000   1.0000   1.0000   1.0000   1.0000   1.0000   1.0000
     1.0000   1.0000   1.0000   1.0000   1.0000   1.0000   1.0000   1.0000
     1.0000   1.0000   1.0000   1.0000   1.0000   1.0000   1.0000   1.0000
     1.0000   1.0000   1.0000   1.0000   1.0000   1.0000   1.0000   1.0000
     1.0000   1.0000   1.0000   1.0000   1.0000   1.0000   1.0000   1.0000
     1.0000   1.0000   1.0000   1.0000   1.0000   1.0000   1.0000   1.0000
     1.0000   1.0000   1.0000   1.0000   1.0000   1.0000   1.0000   1.0000

          k = 0.0000 0.1481 0.0000 ( 18580 PWs)   bands (ev):

   -41.4179 -41.4179 -41.4135 -41.4135 -26.6707 -26.6705 -26.6699 -26.6697
   -19.5077 -19.5077 -19.4730 -19.4729 -19.4241 -19.4241 -19.3984 -19.3984
   -19.3807 -19.3807 -19.3646 -19.3646  -8.7788  -8.7703  -8.7589  -8.7480
    -8.7271  -8.7065  -8.6859  -8.6776  -8.6033  -8.6025  -8.6001  -8.5993
    -4.7772  -4.6300  -4.2256  -4.1792  -3.9446  -3.9255  -3.5571  -3.5293
    -3.4820  -3.4537  -3.3627  -3.3580   3.4428   3.5747   3.7212   3.7485
     4.0787   4.2160   4.3546   4.7426   4.7687   4.8687   4.8719   4.8885
     4.8905   5.1172   5.2186   5.2782   5.5365   5.6203   5.7687   6.0266
     6.0757   6.1019   6.1245   6.3074   6.5012   6.5487   6.7097   6.7611
     6.8091   6.8447   6.9197   7.0772   7.1294   7.2339   7.2830   7.3475

     occupation numbers 
     1.0000   1.0000   1.0000   1.0000   1.0000   1.0000   1.0000   1.0000
     1.0000   1.0000   1.0000   1.0000   1.0000   1.0000   1.0000   1.0000
     1.0000   1.0000   1.0000   1.0000   1.0000   1.0000   1.0000   1.0000
     1.0000   1.0000   1.0000   1.0000   1.0000   1.0000   1.0000   1.0000
     1.0000   1.0000   1.0000   1.0000   1.0000   1.0000   1.0000   1.0000
     1.0000   1.0000   1.0000   1.0000   1.0000   1.0000   1.0000   1.0000
     1.0000   1.0000   1.0000   1.0000   1.0000   1.0000   1.0000   1.0000
     1.0000   1.0000   1.0000   1.0000   1.0000   1.0000   1.0000   1.0000
     1.0000   1.0000   1.0000   1.0000   1.0000   1.0000   1.0000   1.0000
     1.0000   1.0000   1.0000   1.0000   1.0000   1.0000   1.0000   1.0000

          k = 0.0000 0.1481-0.1370 ( 18590 PWs)   bands (ev):

   -41.4179 -41.4179 -41.4135 -41.4135 -26.6706 -26.6706 -26.6698 -26.6698
   -19.5077 -19.5077 -19.4730 -19.4730 -19.4241 -19.4241 -19.3984 -19.3984
   -19.3807 -19.3807 -19.3646 -19.3646  -8.7717  -8.7717  -8.7582  -8.7582
    -8.7156  -8.7156  -8.6810  -8.6810  -8.6030  -8.6030  -8.5997  -8.5997
    -4.7050  -4.7050  -4.2214  -4.2214  -3.9070  -3.9070  -3.5607  -3.5607
    -3.4322  -3.4322  -3.3862  -3.3862   3.5084   3.5084   3.7037   3.7037
     4.1742   4.1742   4.6638   4.6638   4.7563   4.7563   4.8315   4.8315
     4.8773   4.8773   5.3815   5.3815   5.5225   5.5225   5.9164   5.9164
     6.1132   6.1132   6.3175   6.3175   6.5266   6.5266   6.6848   6.6848
     6.7520   6.7520   6.9701   6.9701   7.1604   7.1604   7.3892   7.3892

     occupation numbers 
     1.0000   1.0000   1.0000   1.0000   1.0000   1.0000   1.0000   1.0000
     1.0000   1.0000   1.0000   1.0000   1.0000   1.0000   1.0000   1.0000
     1.0000   1.0000   1.0000   1.0000   1.0000   1.0000   1.0000   1.0000
     1.0000   1.0000   1.0000   1.0000   1.0000   1.0000   1.0000   1.0000
     1.0000   1.0000   1.0000   1.0000   1.0000   1.0000   1.0000   1.0000
     1.0000   1.0000   1.0000   1.0000   1.0000   1.0000   1.0000   1.0000
     1.0000   1.0000   1.0000   1.0000   1.0000   1.0000   1.0000   1.0000
     1.0000   1.0000   1.0000   1.0000   1.0000   1.0000   1.0000   1.0000
     1.0000   1.0000   1.0000   1.0000   1.0000   1.0000   1.0000   1.0000
     1.0000   1.0000   1.0000   1.0000   1.0000   1.0000   1.0000   1.0000

          k = 0.1669 0.0000 0.0000 ( 18537 PWs)   bands (ev):

   -41.4163 -41.4163 -41.4124 -41.4124 -26.6659 -26.6658 -26.6644 -26.6642
   -19.4999 -19.4999 -19.4676 -19.4676 -19.4235 -19.4234 -19.4166 -19.4166
   -19.3929 -19.3929 -19.3927 -19.3927  -8.7473  -8.7450  -8.7445  -8.7339
    -8.7283  -8.7058  -8.7032  -8.7006  -8.6851  -8.6831  -8.6523  -8.6513
    -4.7066  -4.5077  -4.0121  -3.9720  -3.8539  -3.7677  -3.7099  -3.6867
    -3.5146  -3.3977  -3.3968  -3.3531   3.7894   3.8651   4.0539   4.0550
     4.0779   4.1978   4.2528   4.3103   4.4088   4.4121   4.5906   5.0066
     5.1305   5.2403   5.3715   5.4111   5.4521   5.5363   5.6313   5.7009
     5.7219   5.7963   5.8496   6.1102   6.1216   6.2191   6.2897   6.4328
     6.4446   6.6260   6.6424   6.8414   6.9431   7.2429   7.3755   7.4565

     occupation numbers 
     1.0000   1.0000   1.0000   1.0000   1.0000   1.0000   1.0000   1.0000
     1.0000   1.0000   1.0000   1.0000   1.0000   1.0000   1.0000   1.0000
     1.0000   1.0000   1.0000   1.0000   1.0000   1.0000   1.0000   1.0000
     1.0000   1.0000   1.0000   1.0000   1.0000   1.0000   1.0000   1.0000
     1.0000   1.0000   1.0000   1.0000   1.0000   1.0000   1.0000   1.0000
     1.0000   1.0000   1.0000   1.0000   1.0000   1.0000   1.0000   1.0000
     1.0000   1.0000   1.0000   1.0000   1.0000   1.0000   1.0000   1.0000
     1.0000   1.0000   1.0000   1.0000   1.0000   1.0000   1.0000   1.0000
     1.0000   1.0000   1.0000   1.0000   1.0000   1.0000   1.0000   1.0000
     1.0000   1.0000   1.0000   1.0000   1.0000   1.0000   1.0000   1.0000

          k = 0.1669 0.0000-0.1370 ( 18576 PWs)   bands (ev):

   -41.4163 -41.4163 -41.4124 -41.4124 -26.6659 -26.6659 -26.6643 -26.6643
   -19.4999 -19.4999 -19.4676 -19.4676 -19.4235 -19.4235 -19.4166 -19.4166
   -19.3929 -19.3929 -19.3927 -19.3927  -8.7453  -8.7453  -8.7417  -8.7417
    -8.7170  -8.7170  -8.7002  -8.7002  -8.6842  -8.6842  -8.6518  -8.6518
    -4.6190  -4.6190  -3.9823  -3.9823  -3.8058  -3.8058  -3.6965  -3.6965
    -3.4743  -3.4743  -3.3614  -3.3614   3.8217   3.8217   4.0311   4.0311
     4.1227   4.1227   4.2840   4.2840   4.5010   4.5010   4.7415   4.7415
     5.1734   5.1734   5.3700   5.3700   5.4624   5.4624   5.6287   5.6287
     5.8003   5.8003   6.0441   6.0441   6.2341   6.2341   6.3609   6.3609
     6.4950   6.4950   6.6570   6.6570   7.1631   7.1631   7.4190   7.4190

     occupation numbers 
     1.0000   1.0000   1.0000   1.0000   1.0000   1.0000   1.0000   1.0000
     1.0000   1.0000   1.0000   1.0000   1.0000   1.0000   1.0000   1.0000
     1.0000   1.0000   1.0000   1.0000   1.0000   1.0000   1.0000   1.0000
     1.0000   1.0000   1.0000   1.0000   1.0000   1.0000   1.0000   1.0000
     1.0000   1.0000   1.0000   1.0000   1.0000   1.0000   1.0000   1.0000
     1.0000   1.0000   1.0000   1.0000   1.0000   1.0000   1.0000   1.0000
     1.0000   1.0000   1.0000   1.0000   1.0000   1.0000   1.0000   1.0000
     1.0000   1.0000   1.0000   1.0000   1.0000   1.0000   1.0000   1.0000
     1.0000   1.0000   1.0000   1.0000   1.0000   1.0000   1.0000   1.0000
     1.0000   1.0000   1.0000   1.0000   1.0000   1.0000   1.0000   1.0000

          k = 0.1669 0.1481 0.0000 ( 18591 PWs)   bands (ev):

   -41.4163 -41.4163 -41.4124 -41.4124 -26.6656 -26.6654 -26.6648 -26.6646
   -19.4998 -19.4998 -19.4678 -19.4678 -19.4234 -19.4234 -19.4166 -19.4166
   -19.3929 -19.3929 -19.3927 -19.3927  -8.7551  -8.7496  -8.7384  -8.7316
    -8.7144  -8.7026  -8.6979  -8.6965  -8.6841  -8.6823  -8.6662  -8.6630
    -4.6099  -4.4839  -4.1001  -4.0589  -3.9412  -3.9230  -3.5555  -3.5355
    -3.4998  -3.4435  -3.3613  -3.3595   3.6944   3.8011   3.8982   3.9105
     4.1260   4.2081   4.3163   4.5016   4.5083   4.5661   4.7785   4.9364
     5.0068   5.1049   5.3179   5.3636   5.4228   5.5601   5.5624   5.5897
     5.7512   5.9187   5.9843   5.9905   6.1177   6.1674   6.4168   6.4755
     6.5805   6.6197   6.7276   6.8753   7.0720   7.2085   7.3245   7.3393

     occupation numbers 
     1.0000   1.0000   1.0000   1.0000   1.0000   1.0000   1.0000   1.0000
     1.0000   1.0000   1.0000   1.0000   1.0000   1.0000   1.0000   1.0000
     1.0000   1.0000   1.0000   1.0000   1.0000   1.0000   1.0000   1.0000
     1.0000   1.0000   1.0000   1.0000   1.0000   1.0000   1.0000   1.0000
     1.0000   1.0000   1.0000   1.0000   1.0000   1.0000   1.0000   1.0000
     1.0000   1.0000   1.0000   1.0000   1.0000   1.0000   1.0000   1.0000
     1.0000   1.0000   1.0000   1.0000   1.0000   1.0000   1.0000   1.0000
     1.0000   1.0000   1.0000   1.0000   1.0000   1.0000   1.0000   1.0000
     1.0000   1.0000   1.0000   1.0000   1.0000   1.0000   1.0000   1.0000
     1.0000   1.0000   1.0000   1.0000   1.0000   1.0000   1.0000   1.0000

          k = 0.1669 0.1481-0.1370 ( 18560 PWs)   bands (ev):

   -41.4163 -41.4163 -41.4124 -41.4124 -26.6655 -26.6655 -26.6647 -26.6647
   -19.4998 -19.4998 -19.4678 -19.4678 -19.4234 -19.4234 -19.4166 -19.4166
   -19.3929 -19.3929 -19.3927 -19.3927  -8.7499  -8.7499  -8.7389  -8.7389
    -8.7068  -8.7068  -8.6976  -8.6976  -8.6832  -8.6832  -8.6645  -8.6645
    -4.5474  -4.5474  -4.1027  -4.1027  -3.9061  -3.9061  -3.5586  -3.5586
    -3.4355  -3.4355  -3.3857  -3.3857   3.7253   3.7253   3.8683   3.8683
     4.2478   4.2478   4.4188   4.4188   4.5979   4.5979   4.7868   4.7868
     4.9979   4.9979   5.3159   5.3159   5.4968   5.4968   5.5547   5.5547
     5.8780   5.8780   6.0075   6.0075   6.2075   6.2075   6.3902   6.3902
     6.6581   6.6581   6.7740   6.7740   7.1246   7.1246   7.3083   7.3083

     occupation numbers 
     1.0000   1.0000   1.0000   1.0000   1.0000   1.0000   1.0000   1.0000
     1.0000   1.0000   1.0000   1.0000   1.0000   1.0000   1.0000   1.0000
     1.0000   1.0000   1.0000   1.0000   1.0000   1.0000   1.0000   1.0000
     1.0000   1.0000   1.0000   1.0000   1.0000   1.0000   1.0000   1.0000
     1.0000   1.0000   1.0000   1.0000   1.0000   1.0000   1.0000   1.0000
     1.0000   1.0000   1.0000   1.0000   1.0000   1.0000   1.0000   1.0000
     1.0000   1.0000   1.0000   1.0000   1.0000   1.0000   1.0000   1.0000
     1.0000   1.0000   1.0000   1.0000   1.0000   1.0000   1.0000   1.0000
     1.0000   1.0000   1.0000   1.0000   1.0000   1.0000   1.0000   1.0000
     1.0000   1.0000   1.0000   1.0000   1.0000   1.0000   1.0000   1.0000

          k = 0.3338 0.0000 0.0000 ( 18620 PWs)   bands (ev):

   -41.4128 -41.4128 -41.4106 -41.4106 -26.6556 -26.6555 -26.6542 -26.6541
   -19.4900 -19.4900 -19.4786 -19.4786 -19.4525 -19.4525 -19.4518 -19.4518
   -19.4093 -19.4093 -19.3987 -19.3987  -8.8902  -8.8897  -8.8538  -8.8530
    -8.7042  -8.7028  -8.6984  -8.6921  -8.6815  -8.6738  -8.6272  -8.6263
    -4.2737  -4.1575  -3.9283  -3.9278  -3.8663  -3.8216  -3.6523  -3.6517
    -3.3935  -3.3796  -3.3791  -3.2831   3.6235   3.7837   3.9465   4.0148
     4.0353   4.1434   4.2703   4.4104   4.5684   4.6453   4.6849   4.7314
     4.7736   4.7781   4.9199   5.1166   5.3923   5.4589   5.5067   5.5541
     5.6295   5.6895   5.7347   5.7515   6.0035   6.1676   6.1859   6.2506
     6.4078   6.4877   6.5044   6.5252   6.5915   6.6147   6.9371   6.9898

     occupation numbers 
     1.0000   1.0000   1.0000   1.0000   1.0000   1.0000   1.0000   1.0000
     1.0000   1.0000   1.0000   1.0000   1.0000   1.0000   1.0000   1.0000
     1.0000   1.0000   1.0000   1.0000   1.0000   1.0000   1.0000   1.0000
     1.0000   1.0000   1.0000   1.0000   1.0000   1.0000   1.0000   1.0000
     1.0000   1.0000   1.0000   1.0000   1.0000   1.0000   1.0000   1.0000
     1.0000   1.0000   1.0000   1.0000   1.0000   1.0000   1.0000   1.0000
     1.0000   1.0000   1.0000   1.0000   1.0000   1.0000   1.0000   1.0000
     1.0000   1.0000   1.0000   1.0000   1.0000   1.0000   1.0000   1.0000
     1.0000   1.0000   1.0000   1.0000   1.0000   1.0000   1.0000   1.0000
     1.0000   1.0000   1.0000   1.0000   1.0000   1.0000   1.0000   1.0000

          k = 0.3338 0.0000-0.1370 ( 18610 PWs)   bands (ev):

   -41.4128 -41.4128 -41.4106 -41.4106 -26.6555 -26.6555 -26.6542 -26.6542
   -19.4900 -19.4900 -19.4786 -19.4786 -19.4525 -19.4525 -19.4518 -19.4518
   -19.4093 -19.4093 -19.3987 -19.3987  -8.8900  -8.8900  -8.8534  -8.8534
    -8.7031  -8.7031  -8.6962  -8.6962  -8.6771  -8.6771  -8.6267  -8.6267
    -4.2206  -4.2206  -3.9300  -3.9300  -3.8391  -3.8391  -3.6506  -3.6506
    -3.3959  -3.3959  -3.3210  -3.3210   3.7489   3.7489   3.8532   3.8532
     4.0920   4.0920   4.3773   4.3773   4.6505   4.6505   4.7428   4.7428
     4.7807   4.7807   5.0421   5.0421   5.3540   5.3540   5.5794   5.5794
     5.7633   5.7633   5.7997   5.7997   5.8534   5.8534   6.0752   6.0752
     6.3963   6.3963   6.6167   6.6167   6.7258   6.7258   6.9788   6.9788

     occupation numbers 
     1.0000   1.0000   1.0000   1.0000   1.0000   1.0000   1.0000   1.0000
     1.0000   1.0000   1.0000   1.0000   1.0000   1.0000   1.0000   1.0000
     1.0000   1.0000   1.0000   1.0000   1.0000   1.0000   1.0000   1.0000
     1.0000   1.0000   1.0000   1.0000   1.0000   1.0000   1.0000   1.0000
     1.0000   1.0000   1.0000   1.0000   1.0000   1.0000   1.0000   1.0000
     1.0000   1.0000   1.0000   1.0000   1.0000   1.0000   1.0000   1.0000
     1.0000   1.0000   1.0000   1.0000   1.0000   1.0000   1.0000   1.0000
     1.0000   1.0000   1.0000   1.0000   1.0000   1.0000   1.0000   1.0000
     1.0000   1.0000   1.0000   1.0000   1.0000   1.0000   1.0000   1.0000
     1.0000   1.0000   1.0000   1.0000   1.0000   1.0000   1.0000   1.0000

          k = 0.3338 0.1481 0.0000 ( 18628 PWs)   bands (ev):

   -41.4128 -41.4128 -41.4106 -41.4106 -26.6552 -26.6551 -26.6546 -26.6545
   -19.4900 -19.4900 -19.4787 -19.4787 -19.4524 -19.4524 -19.4519 -19.4518
   -19.4093 -19.4093 -19.3987 -19.3987  -8.8816  -8.8807  -8.8635  -8.8624
    -8.7082  -8.7066  -8.6975  -8.6944  -8.6644  -8.6593  -8.6387  -8.6364
    -4.2351  -4.1712  -3.9634  -3.9474  -3.8372  -3.8260  -3.6445  -3.6433
    -3.4065  -3.3937  -3.3453  -3.3024   3.7116   3.7503   3.9084   3.9306
     4.2203   4.2473   4.3301   4.3959   4.4476   4.4850   4.5906   4.6221
     4.7337   4.8913   5.0907   5.2314   5.2319   5.2641   5.3751   5.4516
     5.6510   5.6786   5.7799   5.9062   6.0144   6.0214   6.2196   6.2557
     6.3167   6.3822   6.7015   6.7223   6.8303   6.8438   6.8787   6.9918

     occupation numbers 
     1.0000   1.0000   1.0000   1.0000   1.0000   1.0000   1.0000   1.0000
     1.0000   1.0000   1.0000   1.0000   1.0000   1.0000   1.0000   1.0000
     1.0000   1.0000   1.0000   1.0000   1.0000   1.0000   1.0000   1.0000
     1.0000   1.0000   1.0000   1.0000   1.0000   1.0000   1.0000   1.0000
     1.0000   1.0000   1.0000   1.0000   1.0000   1.0000   1.0000   1.0000
     1.0000   1.0000   1.0000   1.0000   1.0000   1.0000   1.0000   1.0000
     1.0000   1.0000   1.0000   1.0000   1.0000   1.0000   1.0000   1.0000
     1.0000   1.0000   1.0000   1.0000   1.0000   1.0000   1.0000   1.0000
     1.0000   1.0000   1.0000   1.0000   1.0000   1.0000   1.0000   1.0000
     1.0000   1.0000   1.0000   1.0000   1.0000   1.0000   1.0000   1.0000

          k = 0.3338 0.1481-0.1370 ( 18596 PWs)   bands (ev):

   -41.4128 -41.4128 -41.4106 -41.4106 -26.6552 -26.6552 -26.6545 -26.6545
   -19.4900 -19.4900 -19.4787 -19.4787 -19.4524 -19.4524 -19.4518 -19.4518
   -19.4093 -19.4093 -19.3987 -19.3987  -8.8812  -8.8812  -8.8629  -8.8629
    -8.7064  -8.7064  -8.6972  -8.6972  -8.6617  -8.6617  -8.6375  -8.6375
    -4.2000  -4.2000  -3.9694  -3.9694  -3.8229  -3.8229  -3.6437  -3.6437
    -3.3886  -3.3886  -3.3333  -3.3333   3.7408   3.7408   3.8586   3.8586
     4.2276   4.2276   4.3857   4.3857   4.4914   4.4914   4.6733   4.6733
     4.8411   4.8411   5.1454   5.1454   5.2428   5.2428   5.3587   5.3587
     5.6313   5.6313   5.7332   5.7332   6.1285   6.1285   6.2226   6.2226
     6.4472   6.4472   6.6238   6.6238   6.8019   6.8019   7.0019   7.0019

     occupation numbers 
     1.0000   1.0000   1.0000   1.0000   1.0000   1.0000   1.0000   1.0000
     1.0000   1.0000   1.0000   1.0000   1.0000   1.0000   1.0000   1.0000
     1.0000   1.0000   1.0000   1.0000   1.0000   1.0000   1.0000   1.0000
     1.0000   1.0000   1.0000   1.0000   1.0000   1.0000   1.0000   1.0000
     1.0000   1.0000   1.0000   1.0000   1.0000   1.0000   1.0000   1.0000
     1.0000   1.0000   1.0000   1.0000   1.0000   1.0000   1.0000   1.0000
     1.0000   1.0000   1.0000   1.0000   1.0000   1.0000   1.0000   1.0000
     1.0000   1.0000   1.0000   1.0000   1.0000   1.0000   1.0000   1.0000
     1.0000   1.0000   1.0000   1.0000   1.0000   1.0000   1.0000   1.0000
     1.0000   1.0000   1.0000   1.0000   1.0000   1.0000   1.0000   1.0000

          k =-0.5007 0.0000 0.0000 ( 18628 PWs)   bands (ev):

   -41.4104 -41.4104 -41.4104 -41.4104 -26.6504 -26.6504 -26.6491 -26.6491
   -19.5050 -19.5050 -19.5050 -19.5050 -19.4528 -19.4528 -19.4527 -19.4527
   -19.4044 -19.4044 -19.4043 -19.4043  -8.9788  -8.9788  -8.9342  -8.9342
    -8.6805  -8.6805  -8.6796  -8.6796  -8.6543  -8.6543  -8.6140  -8.6140
    -3.9963  -3.9963  -3.9952  -3.9952  -3.7051  -3.7051  -3.6914  -3.6914
    -3.3904  -3.3904  -3.2751  -3.2751   3.5341   3.5341   3.7262   3.7262
     4.0302   4.0302   4.3018   4.3018   4.5106   4.5106   4.5828   4.5828
     5.0617   5.0617   5.2108   5.2108   5.2633   5.2633   5.2665   5.2665
     5.4781   5.4781   5.8753   5.8753   5.9377   5.9377   6.0579   6.0579
     6.5708   6.5708   6.6012   6.6012   6.6974   6.6974   6.7712   6.7712

     occupation numbers 
     1.0000   1.0000   1.0000   1.0000   1.0000   1.0000   1.0000   1.0000
     1.0000   1.0000   1.0000   1.0000   1.0000   1.0000   1.0000   1.0000
     1.0000   1.0000   1.0000   1.0000   1.0000   1.0000   1.0000   1.0000
     1.0000   1.0000   1.0000   1.0000   1.0000   1.0000   1.0000   1.0000
     1.0000   1.0000   1.0000   1.0000   1.0000   1.0000   1.0000   1.0000
     1.0000   1.0000   1.0000   1.0000   1.0000   1.0000   1.0000   1.0000
     1.0000   1.0000   1.0000   1.0000   1.0000   1.0000   1.0000   1.0000
     1.0000   1.0000   1.0000   1.0000   1.0000   1.0000   1.0000   1.0000
     1.0000   1.0000   1.0000   1.0000   1.0000   1.0000   1.0000   1.0000
     1.0000   1.0000   1.0000   1.0000   1.0000   1.0000   1.0000   1.0000

          k =-0.5007 0.0000-0.1370 ( 18652 PWs)   bands (ev):

   -41.4104 -41.4104 -41.4104 -41.4104 -26.6504 -26.6504 -26.6491 -26.6491
   -19.5050 -19.5050 -19.5050 -19.5050 -19.4528 -19.4528 -19.4528 -19.4528
   -19.4044 -19.4044 -19.4043 -19.4043  -8.9788  -8.9788  -8.9342  -8.9342
    -8.6805  -8.6805  -8.6796  -8.6796  -8.6544  -8.6544  -8.6140  -8.6140
    -3.9986  -3.9986  -3.9927  -3.9927  -3.7059  -3.7059  -3.6913  -3.6913
    -3.3902  -3.3902  -3.2747  -3.2747   3.5206   3.5206   3.7508   3.7508
     4.0214   4.0214   4.2428   4.2428   4.5374   4.5374   4.6846   4.6846
     4.9976   4.9976   5.0690   5.0690   5.2279   5.2279   5.3847   5.3847
     5.6613   5.6613   5.6828   5.6828   5.9143   5.9143   6.3475   6.3475
     6.4412   6.4412   6.4930   6.4930   6.6575   6.6575   6.8346   6.8346

     occupation numbers 
     1.0000   1.0000   1.0000   1.0000   1.0000   1.0000   1.0000   1.0000
     1.0000   1.0000   1.0000   1.0000   1.0000   1.0000   1.0000   1.0000
     1.0000   1.0000   1.0000   1.0000   1.0000   1.0000   1.0000   1.0000
     1.0000   1.0000   1.0000   1.0000   1.0000   1.0000   1.0000   1.0000
     1.0000   1.0000   1.0000   1.0000   1.0000   1.0000   1.0000   1.0000
     1.0000   1.0000   1.0000   1.0000   1.0000   1.0000   1.0000   1.0000
     1.0000   1.0000   1.0000   1.0000   1.0000   1.0000   1.0000   1.0000
     1.0000   1.0000   1.0000   1.0000   1.0000   1.0000   1.0000   1.0000
     1.0000   1.0000   1.0000   1.0000   1.0000   1.0000   1.0000   1.0000
     1.0000   1.0000   1.0000   1.0000   1.0000   1.0000   1.0000   1.0000

          k =-0.5007 0.1481 0.0000 ( 18590 PWs)   bands (ev):

   -41.4104 -41.4104 -41.4104 -41.4104 -26.6500 -26.6500 -26.6494 -26.6494
   -19.5050 -19.5050 -19.5050 -19.5050 -19.4527 -19.4527 -19.4527 -19.4527
   -19.4044 -19.4044 -19.4043 -19.4043  -8.9678  -8.9678  -8.9455  -8.9455
    -8.6823  -8.6823  -8.6812  -8.6812  -8.6423  -8.6423  -8.6228  -8.6228
    -3.9954  -3.9954  -3.9952  -3.9952  -3.7032  -3.7032  -3.6975  -3.6975
    -3.3586  -3.3586  -3.3018  -3.3018   3.4610   3.4610   3.5206   3.5206
     4.2520   4.2520   4.3781   4.3781   4.6193   4.6193   4.6295   4.6295
     4.9722   4.9722   5.0505   5.0505   5.2606   5.2606   5.3578   5.3578
     5.6821   5.6821   5.7405   5.7405   6.1492   6.1492   6.1677   6.1677
     6.4036   6.4036   6.4062   6.4062   6.6411   6.6411   6.6649   6.6649

     occupation numbers 
     1.0000   1.0000   1.0000   1.0000   1.0000   1.0000   1.0000   1.0000
     1.0000   1.0000   1.0000   1.0000   1.0000   1.0000   1.0000   1.0000
     1.0000   1.0000   1.0000   1.0000   1.0000   1.0000   1.0000   1.0000
     1.0000   1.0000   1.0000   1.0000   1.0000   1.0000   1.0000   1.0000
     1.0000   1.0000   1.0000   1.0000   1.0000   1.0000   1.0000   1.0000
     1.0000   1.0000   1.0000   1.0000   1.0000   1.0000   1.0000   1.0000
     1.0000   1.0000   1.0000   1.0000   1.0000   1.0000   1.0000   1.0000
     1.0000   1.0000   1.0000   1.0000   1.0000   1.0000   1.0000   1.0000
     1.0000   1.0000   1.0000   1.0000   1.0000   1.0000   1.0000   1.0000
     1.0000   1.0000   1.0000   1.0000   1.0000   1.0000   1.0000   1.0000

          k =-0.5007 0.1481-0.1370 ( 18600 PWs)   bands (ev):

   -41.4104 -41.4104 -41.4104 -41.4104 -26.6500 -26.6500 -26.6494 -26.6494
   -19.5050 -19.5050 -19.5050 -19.5050 -19.4527 -19.4527 -19.4527 -19.4527
   -19.4044 -19.4044 -19.4043 -19.4043  -8.9678  -8.9678  -8.9455  -8.9455
    -8.6823  -8.6823  -8.6812  -8.6812  -8.6423  -8.6423  -8.6228  -8.6228
    -3.9966  -3.9966  -3.9939  -3.9939  -3.7048  -3.7048  -3.6966  -3.6966
    -3.3584  -3.3584  -3.3013  -3.3013   3.4416   3.4416   3.5322   3.5322
     4.2409   4.2409   4.3825   4.3825   4.5895   4.5895   4.6189   4.6189
     5.0599   5.0599   5.1580   5.1580   5.2903   5.2903   5.2926   5.2926
     5.6781   5.6781   5.7606   5.7606   5.9504   5.9504   6.0391   6.0391
     6.4021   6.4021   6.4409   6.4409   6.7474   6.7474   6.7542   6.7542

     occupation numbers 
     1.0000   1.0000   1.0000   1.0000   1.0000   1.0000   1.0000   1.0000
     1.0000   1.0000   1.0000   1.0000   1.0000   1.0000   1.0000   1.0000
     1.0000   1.0000   1.0000   1.0000   1.0000   1.0000   1.0000   1.0000
     1.0000   1.0000   1.0000   1.0000   1.0000   1.0000   1.0000   1.0000
     1.0000   1.0000   1.0000   1.0000   1.0000   1.0000   1.0000   1.0000
     1.0000   1.0000   1.0000   1.0000   1.0000   1.0000   1.0000   1.0000
     1.0000   1.0000   1.0000   1.0000   1.0000   1.0000   1.0000   1.0000
     1.0000   1.0000   1.0000   1.0000   1.0000   1.0000   1.0000   1.0000
     1.0000   1.0000   1.0000   1.0000   1.0000   1.0000   1.0000   1.0000
     1.0000   1.0000   1.0000   1.0000   1.0000   1.0000   1.0000   1.0000

     highest occupied level (ev):     7.8475

!    total energy              =    -969.04022442 Ry
     estimated scf accuracy    <          5.6E-11 Ry

     The total energy is the sum of the following terms:
     one-electron contribution =    -196.11203233 Ry
     hartree contribution      =     158.43408712 Ry
     xc contribution           =    -246.05541162 Ry
     ewald contribution        =    -685.30686759 Ry

     convergence has been achieved in   9 iterations

     negative rho (up, down):  5.198E-01 0.000E+00

     Forces acting on atoms (cartesian axes, Ry/au):

     atom    1 type  2   force =     0.00000000    0.00003495   -0.00012555
     atom    2 type  2   force =     0.00000000   -0.00003495    0.00012555
     atom    3 type  2   force =     0.00000000   -0.00003495   -0.00012555
     atom    4 type  2   force =     0.00000000    0.00003495    0.00012555
     atom    5 type  3   force =     0.00000000    0.00025686    0.00040065
     atom    6 type  3   force =     0.00000000   -0.00025686   -0.00040065
     atom    7 type  3   force =     0.00000000   -0.00025686    0.00040065
     atom    8 type  3   force =    -0.00000000    0.00025686   -0.00040065
     atom    9 type  1   force =     0.00000000    0.00005010    0.00028053
     atom   10 type  1   force =    -0.00000000   -0.00005010   -0.00028053
     atom   11 type  1   force =    -0.00000000   -0.00005010    0.00028053
     atom   12 type  1   force =     0.00000000    0.00005010   -0.00028053
     atom   13 type  1   force =     0.00000000    0.00073185   -0.00037022
     atom   14 type  1   force =     0.00000000   -0.00073185    0.00037022
     atom   15 type  1   force =     0.00000000   -0.00073185   -0.00037022
     atom   16 type  1   force =     0.00000000    0.00073185    0.00037022
     atom   17 type  1   force =     0.00000000    0.00030302   -0.00031929
     atom   18 type  1   force =    -0.00000000   -0.00030302    0.00031929
     atom   19 type  1   force =     0.00000000   -0.00030302   -0.00031929
     atom   20 type  1   force =     0.00000000    0.00030302    0.00031929
     The non-local contrib.  to forces
     atom    1 type  2   force =     0.00000000    0.00113419    0.00490256
     atom    2 type  2   force =     0.00000000   -0.00113419   -0.00490256
     atom    3 type  2   force =     0.00000000   -0.00113419    0.00490256
     atom    4 type  2   force =     0.00000000    0.00113419   -0.00490256
     atom    5 type  3   force =     0.00000000    0.02379214   -0.02064783
     atom    6 type  3   force =     0.00000000   -0.02379214    0.02064783
     atom    7 type  3   force =    -0.00000000   -0.02379214   -0.02064783
     atom    8 type  3   force =     0.00000000    0.02379214    0.02064783
     atom    9 type  1   force =    -0.00000000    0.00409016   -0.01025052
     atom   10 type  1   force =     0.00000000   -0.00409016    0.01025052
     atom   11 type  1   force =     0.00000000   -0.00409016   -0.01025052
     atom   12 type  1   force =    -0.00000000    0.00409016    0.01025052
     atom   13 type  1   force =     0.00000000   -0.04241828   -0.00334339
     atom   14 type  1   force =     0.00000000    0.04241828    0.00334339
     atom   15 type  1   force =     0.00000000    0.04241828   -0.00334339
     atom   16 type  1   force =     0.00000000   -0.04241828    0.00334339
     atom   17 type  1   force =     0.00000000    0.04135707    0.06747695
     atom   18 type  1   force =     0.00000000   -0.04135707   -0.06747695
     atom   19 type  1   force =    -0.00000000   -0.04135707    0.06747695
     atom   20 type  1   force =     0.00000000    0.04135707   -0.06747695
     The ionic contribution  to forces
     atom    1 type  2   force =     0.00000000    0.40315360    0.11420617
     atom    2 type  2   force =     0.00000000   -0.40315360   -0.11420617
     atom    3 type  2   force =     0.00000000   -0.40315360    0.11420617
     atom    4 type  2   force =     0.00000000    0.40315360   -0.11420617
     atom    5 type  3   force =     0.00000000   -2.77116492    1.07113112
     atom    6 type  3   force =     0.00000000    2.77116492   -1.07113112
     atom    7 type  3   force =     0.00000000    2.77116492    1.07113112
     atom    8 type  3   force =     0.00000000   -2.77116492   -1.07113112
     atom    9 type  1   force =     0.00000000   -1.59248858    3.67649465
     atom   10 type  1   force =     0.00000000    1.59248858   -3.67649465
     atom   11 type  1   force =     0.00000000    1.59248858    3.67649465
     atom   12 type  1   force =     0.00000000   -1.59248858   -3.67649465
     atom   13 type  1   force =     0.00000000    3.64833286   -2.27167851
     atom   14 type  1   force =     0.00000000   -3.64833286    2.27167851
     atom   15 type  1   force =     0.00000000   -3.64833286   -2.27167851
     atom   16 type  1   force =     0.00000000    3.64833286    2.27167851
     atom   17 type  1   force =     0.00000000   -2.93887245   -4.84198043
     atom   18 type  1   force =     0.00000000    2.93887245    4.84198043
     atom   19 type  1   force =     0.00000000    2.93887245   -4.84198043
     atom   20 type  1   force =     0.00000000   -2.93887245    4.84198043
     The local contribution  to forces
     atom    1 type  2   force =    -0.00000000   -0.40430694   -0.11903660
     atom    2 type  2   force =    -0.00000000    0.40430694    0.11903660
     atom    3 type  2   force =    -0.00000000    0.40430694   -0.11903660
     atom    4 type  2   force =    -0.00000000   -0.40430694    0.11903660
     atom    5 type  3   force =    -0.00000000    2.74850498   -1.04975756
     atom    6 type  3   force =    -0.00000000   -2.74850498    1.04975756
     atom    7 type  3   force =    -0.00000000   -2.74850498   -1.04975756
     atom    8 type  3   force =    -0.00000000    2.74850498    1.04975756
     atom    9 type  1   force =    -0.00000000    1.58839317   -3.66585840
     atom   10 type  1   force =    -0.00000000   -1.58839317    3.66585840
     atom   11 type  1   force =    -0.00000000   -1.58839317   -3.66585840
     atom   12 type  1   force =    -0.00000000    1.58839317    3.66585840
     atom   13 type  1   force =    -0.00000000   -3.60717027    2.27417093
     atom   14 type  1   force =    -0.00000000    3.60717027   -2.27417093
     atom   15 type  1   force =    -0.00000000    3.60717027    2.27417093
     atom   16 type  1   force =    -0.00000000   -3.60717027   -2.27417093
     atom   17 type  1   force =    -0.00000000    2.89977879    4.77753008
     atom   18 type  1   force =    -0.00000000   -2.89977879   -4.77753008
     atom   19 type  1   force =    -0.00000000   -2.89977879    4.77753008
     atom   20 type  1   force =    -0.00000000    2.89977879   -4.77753008
     The core correction contribution to forces
     atom    1 type  2   force =     0.00000000    0.00005226   -0.00019988
     atom    2 type  2   force =     0.00000000   -0.00005226    0.00019988
     atom    3 type  2   force =     0.00000000   -0.00005226   -0.00019988
     atom    4 type  2   force =     0.00000000    0.00005226    0.00019988
     atom    5 type  3   force =     0.00000000   -0.00087836   -0.00032081
     atom    6 type  3   force =     0.00000000    0.00087836    0.00032081
     atom    7 type  3   force =     0.00000000    0.00087836   -0.00032081
     atom    8 type  3   force =     0.00000000   -0.00087836    0.00032081
     atom    9 type  1   force =     0.00000000    0.00005419   -0.00010294
     atom   10 type  1   force =     0.00000000   -0.00005419    0.00010294
     atom   11 type  1   force =     0.00000000   -0.00005419   -0.00010294
     atom   12 type  1   force =     0.00000000    0.00005419    0.00010294
     atom   13 type  1   force =    -0.00000000    0.00198964    0.00047997
     atom   14 type  1   force =     0.00000000   -0.00198964   -0.00047997
     atom   15 type  1   force =     0.00000000   -0.00198964    0.00047997
     atom   16 type  1   force =    -0.00000000    0.00198964   -0.00047997
     atom   17 type  1   force =    -0.00000000   -0.00196204   -0.00335043
     atom   18 type  1   force =     0.00000000    0.00196204    0.00335043
     atom   19 type  1   force =     0.00000000    0.00196204   -0.00335043
     atom   20 type  1   force =    -0.00000000   -0.00196204    0.00335043
     The Hubbard contrib.    to forces
     atom    1 type  2   force =     0.00000000    0.00000000    0.00000000
     atom    2 type  2   force =     0.00000000    0.00000000    0.00000000
     atom    3 type  2   force =     0.00000000    0.00000000    0.00000000
     atom    4 type  2   force =     0.00000000    0.00000000    0.00000000
     atom    5 type  3   force =     0.00000000    0.00000000    0.00000000
     atom    6 type  3   force =     0.00000000    0.00000000    0.00000000
     atom    7 type  3   force =     0.00000000    0.00000000    0.00000000
     atom    8 type  3   force =     0.00000000    0.00000000    0.00000000
     atom    9 type  1   force =     0.00000000    0.00000000    0.00000000
     atom   10 type  1   force =     0.00000000    0.00000000    0.00000000
     atom   11 type  1   force =     0.00000000    0.00000000    0.00000000
     atom   12 type  1   force =     0.00000000    0.00000000    0.00000000
     atom   13 type  1   force =     0.00000000    0.00000000    0.00000000
     atom   14 type  1   force =     0.00000000    0.00000000    0.00000000
     atom   15 type  1   force =     0.00000000    0.00000000    0.00000000
     atom   16 type  1   force =     0.00000000    0.00000000    0.00000000
     atom   17 type  1   force =     0.00000000    0.00000000    0.00000000
     atom   18 type  1   force =     0.00000000    0.00000000    0.00000000
     atom   19 type  1   force =     0.00000000    0.00000000    0.00000000
     atom   20 type  1   force =     0.00000000    0.00000000    0.00000000
     The SCF correction term to forces
     atom    1 type  2   force =     0.00000000    0.00000183    0.00000219
     atom    2 type  2   force =    -0.00000000   -0.00000183   -0.00000219
     atom    3 type  2   force =     0.00000000   -0.00000183    0.00000219
     atom    4 type  2   force =     0.00000000    0.00000183   -0.00000219
     atom    5 type  3   force =    -0.00000000    0.00000302   -0.00000428
     atom    6 type  3   force =     0.00000000   -0.00000302    0.00000428
     atom    7 type  3   force =    -0.00000000   -0.00000302   -0.00000428
     atom    8 type  3   force =     0.00000000    0.00000302    0.00000428
     atom    9 type  1   force =    -0.00000000    0.00000115   -0.00000226
     atom   10 type  1   force =     0.00000000   -0.00000115    0.00000226
     atom   11 type  1   force =    -0.00000000   -0.00000115   -0.00000226
     atom   12 type  1   force =     0.00000000    0.00000115    0.00000226
     atom   13 type  1   force =     0.00000000   -0.00000209    0.00000078
     atom   14 type  1   force =    -0.00000000    0.00000209   -0.00000078
     atom   15 type  1   force =     0.00000000    0.00000209    0.00000078
     atom   16 type  1   force =    -0.00000000   -0.00000209   -0.00000078
     atom   17 type  1   force =     0.00000000    0.00000165    0.00000453
     atom   18 type  1   force =    -0.00000000   -0.00000165   -0.00000453
     atom   19 type  1   force =     0.00000000   -0.00000165    0.00000453
     atom   20 type  1   force =    -0.00000000    0.00000165   -0.00000453

     Total force =     0.002183     Total SCF correction =     0.000017


     Computing stress (Cartesian axis) and pressure


     negative rho (up, down):  5.198E-01 0.000E+00
          total   stress  (Ry/bohr**3)                   (kbar)     P=        0.39
   0.00000704   0.00000000   0.00000000            1.04        0.00        0.00
   0.00000000   0.00000122   0.00000000            0.00        0.18        0.00
   0.00000000   0.00000000  -0.00000037            0.00        0.00       -0.06

     kinetic stress (kbar)   8924.64      0.00      0.00
                                0.00   8951.35      0.00
                                0.00      0.00   8971.91

     local   stress (kbar)  -7883.77     -0.00     -0.00
                               -0.00  -4297.85     -0.00
                               -0.00     -0.00  -3968.00

     nonloc. stress (kbar)   7369.77      0.00      0.00
                                0.00   7366.03      0.00
                                0.00      0.00   7371.66

     hartree stress (kbar)   3525.53      0.00     -0.00
                                0.00   2113.31      0.00
                               -0.00      0.00   1799.17

     exc-cor stress (kbar)   2570.94      0.00      0.00
                                0.00   2568.78     -0.00
                                0.00     -0.00   2571.47

     corecor stress (kbar)  -5260.04     -0.00     -0.00
                               -0.00  -5259.94      0.00
                               -0.00      0.00  -5260.68

     ewald   stress (kbar)  -9246.03      0.00     -0.00
                                0.00 -11441.50      0.00
                               -0.00      0.00 -11485.58

     hubbard stress (kbar)      0.00      0.00      0.00
                                0.00      0.00      0.00
                                0.00      0.00      0.00

     DFT-D   stress (kbar)      0.00      0.00      0.00
                                0.00      0.00      0.00
                                0.00      0.00      0.00

     XDM     stress (kbar)      0.00      0.00      0.00
                                0.00      0.00      0.00
                                0.00      0.00      0.00

     dft-nl  stress (kbar)      0.00      0.00      0.00
                                0.00      0.00      0.00
                                0.00      0.00      0.00

     TS-vdW  stress (kbar)      0.00      0.00      0.00
                                0.00      0.00      0.00
                                0.00      0.00      0.00

     MDB     stress (kbar)      0.00      0.00      0.00
                                0.00      0.00      0.00
                                0.00      0.00      0.00

     3D-RISM stress (kbar)      0.00      0.00      0.00
                                0.00      0.00      0.00
                                0.00      0.00      0.00

     Energy error            =      2.1E-05 Ry
     Gradient error          =      7.3E-04 Ry/Bohr
     Cell gradient error     =      1.0E+00 kbar

     number of scf cycles    =  12
     number of bfgs steps    =  11

     enthalpy           old  =    -969.0402037935 Ry
     enthalpy           new  =    -969.0402244175 Ry

     CASE: enthalpy          _new < enthalpy          _old

     new trust radius        =       0.0060638003 bohr
     new conv_thr            =            1.0E-10 Ry

     new unit-cell volume =   3133.75016 a.u.^3 (   464.37386 Ang^3 )
     density =      3.93401 g/cm^3

CELL_PARAMETERS (angstrom)
   3.837147858   0.000000000   0.000000000
  -0.000000000   8.640957354   0.000000000
   0.000000000   0.000000000  14.005459837

ATOMIC_POSITIONS (crystal)
Sr               0.2500000000        0.0626291611        0.8195040610
Sr               0.7500000000        0.9373708389        0.1804959390
Sr               0.7500000000        0.4373708389        0.3195040610
Sr               0.2500000000        0.5626291611        0.6804959390
Zr               0.2500000000        0.3269897813        0.0557148972
Zr               0.7500000000        0.6730102187        0.9442851028
Zr               0.7500000000        0.1730102187        0.5557148972
Zr               0.2500000000        0.8269897813        0.4442851028
S                0.2500000000        0.2082501076        0.2153644169
S                0.7500000000        0.7917498924        0.7846355831
S                0.7500000000        0.2917498924        0.7153644169
S                0.2500000000        0.7082501076        0.2846355831
S                0.2500000000        0.3363039847        0.4842495380
S                0.7500000000        0.6636960153        0.5157504620
S                0.7500000000        0.1636960153        0.9842495380
S                0.2500000000        0.8363039847        0.0157504620
S                0.2500000000        0.4867750817        0.8946385185
S                0.7500000000        0.5132249183        0.1053614815
S                0.7500000000        0.0132249183        0.3946385185
S                0.2500000000        0.9867750817        0.6053614815



     Writing config-only to output data dir ./tmp/relax/SrZrS3_relax.save/ :
     XML data file
     NEW-OLD atomic charge density approx. for the potential
     New effective cutoffs (rho, wfc):  400.55   50.08

     negative rho (up, down):  5.199E-01 0.000E+00

     total cpu time spent up to now is     1823.1 secs

     Self-consistent Calculation

     iteration #  1     ecut=    50.00 Ry     beta= 0.30
     Davidson diagonalization with overlap

---- Real-time Memory Report at c_bands before calling an iterative solver
             0 MiB given to the printing process from OS
             0 MiB allocation reported by mallinfo(arena+hblkhd)
             0 MiB available memory on the node where the printing process lives
------------------
     ethr =  1.00E-06,  avg # of iterations =  2.0

     Threshold (ethr) on eigenvalues was too large:
     Diagonalizing with lowered threshold

     Davidson diagonalization with overlap

---- Real-time Memory Report at c_bands before calling an iterative solver
             0 MiB given to the printing process from OS
             0 MiB allocation reported by mallinfo(arena+hblkhd)
             0 MiB available memory on the node where the printing process lives
------------------
     ethr =  3.68E-09,  avg # of iterations =  7.8

     negative rho (up, down):  5.199E-01 0.000E+00

     total cpu time spent up to now is     1838.2 secs

     total energy              =    -969.04023533 Ry
     estimated scf accuracy    <       0.00000530 Ry

     iteration #  2     ecut=    50.00 Ry     beta= 0.30
     Davidson diagonalization with overlap

---- Real-time Memory Report at c_bands before calling an iterative solver
             0 MiB given to the printing process from OS
             0 MiB allocation reported by mallinfo(arena+hblkhd)
             0 MiB available memory on the node where the printing process lives
------------------
     ethr =  3.31E-09,  avg # of iterations =  3.5

     negative rho (up, down):  5.199E-01 0.000E+00

     total cpu time spent up to now is     1843.5 secs

     total energy              =    -969.04023646 Ry
     estimated scf accuracy    <       0.00000063 Ry

     iteration #  3     ecut=    50.00 Ry     beta= 0.30
     Davidson diagonalization with overlap

---- Real-time Memory Report at c_bands before calling an iterative solver
             0 MiB given to the printing process from OS
             0 MiB allocation reported by mallinfo(arena+hblkhd)
             0 MiB available memory on the node where the printing process lives
------------------
     ethr =  3.91E-10,  avg # of iterations =  2.8

     negative rho (up, down):  5.199E-01 0.000E+00

     total cpu time spent up to now is     1848.8 secs

     total energy              =    -969.04023645 Ry
     estimated scf accuracy    <       0.00000030 Ry

     iteration #  4     ecut=    50.00 Ry     beta= 0.30
     Davidson diagonalization with overlap

---- Real-time Memory Report at c_bands before calling an iterative solver
             0 MiB given to the printing process from OS
             0 MiB allocation reported by mallinfo(arena+hblkhd)
             0 MiB available memory on the node where the printing process lives
------------------
     ethr =  1.89E-10,  avg # of iterations =  4.5

     negative rho (up, down):  5.199E-01 0.000E+00

     total cpu time spent up to now is     1855.5 secs

     total energy              =    -969.04023647 Ry
     estimated scf accuracy    <       0.00000025 Ry

     iteration #  5     ecut=    50.00 Ry     beta= 0.30
     Davidson diagonalization with overlap

---- Real-time Memory Report at c_bands before calling an iterative solver
             0 MiB given to the printing process from OS
             0 MiB allocation reported by mallinfo(arena+hblkhd)
             0 MiB available memory on the node where the printing process lives
------------------
     ethr =  1.58E-10,  avg # of iterations =  4.2

     negative rho (up, down):  5.199E-01 0.000E+00

     total cpu time spent up to now is     1861.4 secs

     total energy              =    -969.04023654 Ry
     estimated scf accuracy    <       0.00000002 Ry

     iteration #  6     ecut=    50.00 Ry     beta= 0.30
     Davidson diagonalization with overlap

---- Real-time Memory Report at c_bands before calling an iterative solver
             0 MiB given to the printing process from OS
             0 MiB allocation reported by mallinfo(arena+hblkhd)
             0 MiB available memory on the node where the printing process lives
------------------
     ethr =  1.29E-11,  avg # of iterations =  4.4

     negative rho (up, down):  5.199E-01 0.000E+00

     total cpu time spent up to now is     1867.5 secs

     total energy              =    -969.04023654 Ry
     estimated scf accuracy    <          2.5E-09 Ry

     iteration #  7     ecut=    50.00 Ry     beta= 0.30
     Davidson diagonalization with overlap

---- Real-time Memory Report at c_bands before calling an iterative solver
             0 MiB given to the printing process from OS
             0 MiB allocation reported by mallinfo(arena+hblkhd)
             0 MiB available memory on the node where the printing process lives
------------------
     ethr =  1.53E-12,  avg # of iterations =  4.1

     negative rho (up, down):  5.199E-01 0.000E+00

     total cpu time spent up to now is     1874.4 secs

     total energy              =    -969.04023655 Ry
     estimated scf accuracy    <          4.2E-10 Ry

     iteration #  8     ecut=    50.00 Ry     beta= 0.30
     Davidson diagonalization with overlap

---- Real-time Memory Report at c_bands before calling an iterative solver
             0 MiB given to the printing process from OS
             0 MiB allocation reported by mallinfo(arena+hblkhd)
             0 MiB available memory on the node where the printing process lives
------------------
     ethr =  2.59E-13,  avg # of iterations =  5.4

     negative rho (up, down):  5.199E-01 0.000E+00

     total cpu time spent up to now is     1882.0 secs

     total energy              =    -969.04023655 Ry
     estimated scf accuracy    <          3.0E-10 Ry

     iteration #  9     ecut=    50.00 Ry     beta= 0.30
     Davidson diagonalization with overlap

---- Real-time Memory Report at c_bands before calling an iterative solver
             0 MiB given to the printing process from OS
             0 MiB allocation reported by mallinfo(arena+hblkhd)
             0 MiB available memory on the node where the printing process lives
------------------
     ethr =  1.88E-13,  avg # of iterations =  2.0

     negative rho (up, down):  5.199E-01 0.000E+00

     total cpu time spent up to now is     1886.9 secs

     total energy              =    -969.04023655 Ry
     estimated scf accuracy    <          1.7E-10 Ry

     iteration # 10     ecut=    50.00 Ry     beta= 0.30
     Davidson diagonalization with overlap

---- Real-time Memory Report at c_bands before calling an iterative solver
             0 MiB given to the printing process from OS
             0 MiB allocation reported by mallinfo(arena+hblkhd)
             0 MiB available memory on the node where the printing process lives
------------------
     ethr =  1.05E-13,  avg # of iterations =  5.1

     negative rho (up, down):  5.199E-01 0.000E+00

     total cpu time spent up to now is     1894.0 secs

     total energy              =    -969.04023655 Ry
     estimated scf accuracy    <          1.0E-10 Ry

     iteration # 11     ecut=    50.00 Ry     beta= 0.30
     Davidson diagonalization with overlap

---- Real-time Memory Report at c_bands before calling an iterative solver
             0 MiB given to the printing process from OS
             0 MiB allocation reported by mallinfo(arena+hblkhd)
             0 MiB available memory on the node where the printing process lives
------------------
     ethr =  1.00E-13,  avg # of iterations =  1.5

     negative rho (up, down):  5.199E-01 0.000E+00

     total cpu time spent up to now is     1898.6 secs

     End of self-consistent calculation

          k = 0.0000 0.0000 0.0000 ( 18571 PWs)   bands (ev):

   -41.4222 -41.4222 -41.4178 -41.4178 -26.6700 -26.6698 -26.6684 -26.6682
   -19.5121 -19.5120 -19.4769 -19.4769 -19.4278 -19.4278 -19.4021 -19.4020
   -19.3850 -19.3850 -19.3688 -19.3688  -8.7720  -8.7658  -8.7632  -8.7548
    -8.7428  -8.7191  -8.6637  -8.6630  -8.6042  -8.6034  -8.5979  -8.5969
    -4.8952  -4.6676  -4.1062  -4.0639  -3.8347  -3.7334  -3.7034  -3.6941
    -3.5537  -3.4616  -3.3993  -3.3376   3.6389   3.8438   3.9018   3.9366
     3.9446   4.1364   4.2602   4.5515   4.7335   4.7359   4.7677   4.8040
     4.8625   4.9006   4.9121   5.4261   5.6418   5.6610   5.6963   5.9136
     5.9153   5.9700   6.2446   6.2869   6.4994   6.5597   6.6283   6.6702
     6.7155   6.8454   6.9310   7.1123   7.4361   7.4422   7.6424   7.8461

     occupation numbers 
     1.0000   1.0000   1.0000   1.0000   1.0000   1.0000   1.0000   1.0000
     1.0000   1.0000   1.0000   1.0000   1.0000   1.0000   1.0000   1.0000
     1.0000   1.0000   1.0000   1.0000   1.0000   1.0000   1.0000   1.0000
     1.0000   1.0000   1.0000   1.0000   1.0000   1.0000   1.0000   1.0000
     1.0000   1.0000   1.0000   1.0000   1.0000   1.0000   1.0000   1.0000
     1.0000   1.0000   1.0000   1.0000   1.0000   1.0000   1.0000   1.0000
     1.0000   1.0000   1.0000   1.0000   1.0000   1.0000   1.0000   1.0000
     1.0000   1.0000   1.0000   1.0000   1.0000   1.0000   1.0000   1.0000
     1.0000   1.0000   1.0000   1.0000   1.0000   1.0000   1.0000   1.0000
     1.0000   1.0000   1.0000   1.0000   1.0000   1.0000   1.0000   1.0000

          k = 0.0000 0.0000-0.1371 ( 18560 PWs)   bands (ev):

   -41.4222 -41.4222 -41.4178 -41.4178 -26.6699 -26.6699 -26.6683 -26.6683
   -19.5121 -19.5121 -19.4769 -19.4769 -19.4278 -19.4278 -19.4020 -19.4020
   -19.3850 -19.3850 -19.3688 -19.3688  -8.7686  -8.7686  -8.7609  -8.7609
    -8.7295  -8.7295  -8.6634  -8.6634  -8.6038  -8.6038  -8.5974  -8.5974
    -4.7954  -4.7954  -4.0710  -4.0710  -3.7816  -3.7816  -3.6838  -3.6838
    -3.5377  -3.5377  -3.3560  -3.3560   3.7208   3.7208   3.9160   3.9160
     4.0321   4.0321   4.4973   4.4973   4.7513   4.7513   4.8229   4.8229
     4.8904   4.8904   4.9065   4.9065   5.5166   5.5166   5.9422   5.9422
     6.1460   6.1460   6.2838   6.2838   6.6188   6.6188   6.6648   6.6648
     6.7005   6.7005   7.0206   7.0206   7.3065   7.3065   7.7383   7.7383

     occupation numbers 
     1.0000   1.0000   1.0000   1.0000   1.0000   1.0000   1.0000   1.0000
     1.0000   1.0000   1.0000   1.0000   1.0000   1.0000   1.0000   1.0000
     1.0000   1.0000   1.0000   1.0000   1.0000   1.0000   1.0000   1.0000
     1.0000   1.0000   1.0000   1.0000   1.0000   1.0000   1.0000   1.0000
     1.0000   1.0000   1.0000   1.0000   1.0000   1.0000   1.0000   1.0000
     1.0000   1.0000   1.0000   1.0000   1.0000   1.0000   1.0000   1.0000
     1.0000   1.0000   1.0000   1.0000   1.0000   1.0000   1.0000   1.0000
     1.0000   1.0000   1.0000   1.0000   1.0000   1.0000   1.0000   1.0000
     1.0000   1.0000   1.0000   1.0000   1.0000   1.0000   1.0000   1.0000
     1.0000   1.0000   1.0000   1.0000   1.0000   1.0000   1.0000   1.0000

          k = 0.0000 0.1481 0.0000 ( 18580 PWs)   bands (ev):

   -41.4222 -41.4222 -41.4178 -41.4178 -26.6696 -26.6694 -26.6688 -26.6686
   -19.5118 -19.5118 -19.4771 -19.4771 -19.4278 -19.4278 -19.4021 -19.4021
   -19.3849 -19.3849 -19.3689 -19.3689  -8.7781  -8.7698  -8.7581  -8.7473
    -8.7263  -8.7057  -8.6850  -8.6767  -8.6026  -8.6018  -8.5994  -8.5986
    -4.7785  -4.6310  -4.2271  -4.1805  -3.9461  -3.9268  -3.5566  -3.5302
    -3.4828  -3.4538  -3.3623  -3.3582   3.4420   3.5740   3.7208   3.7481
     4.0781   4.2155   4.3541   4.7381   4.7645   4.8643   4.8708   4.8843
     4.8894   5.1174   5.2188   5.2798   5.5364   5.6216   5.7677   6.0269
     6.0750   6.0968   6.1195   6.3068   6.4957   6.5437   6.7066   6.7615
     6.8063   6.8443   6.9193   7.0737   7.1283   7.2312   7.2817   7.3466

     occupation numbers 
     1.0000   1.0000   1.0000   1.0000   1.0000   1.0000   1.0000   1.0000
     1.0000   1.0000   1.0000   1.0000   1.0000   1.0000   1.0000   1.0000
     1.0000   1.0000   1.0000   1.0000   1.0000   1.0000   1.0000   1.0000
     1.0000   1.0000   1.0000   1.0000   1.0000   1.0000   1.0000   1.0000
     1.0000   1.0000   1.0000   1.0000   1.0000   1.0000   1.0000   1.0000
     1.0000   1.0000   1.0000   1.0000   1.0000   1.0000   1.0000   1.0000
     1.0000   1.0000   1.0000   1.0000   1.0000   1.0000   1.0000   1.0000
     1.0000   1.0000   1.0000   1.0000   1.0000   1.0000   1.0000   1.0000
     1.0000   1.0000   1.0000   1.0000   1.0000   1.0000   1.0000   1.0000
     1.0000   1.0000   1.0000   1.0000   1.0000   1.0000   1.0000   1.0000

          k = 0.0000 0.1481-0.1371 ( 18590 PWs)   bands (ev):

   -41.4222 -41.4222 -41.4178 -41.4178 -26.6695 -26.6695 -26.6687 -26.6687
   -19.5118 -19.5118 -19.4771 -19.4771 -19.4278 -19.4278 -19.4021 -19.4021
   -19.3849 -19.3849 -19.3689 -19.3689  -8.7711  -8.7711  -8.7575  -8.7575
    -8.7148  -8.7148  -8.6801  -8.6801  -8.6023  -8.6023  -8.5989  -8.5989
    -4.7061  -4.7061  -4.2229  -4.2229  -3.9083  -3.9083  -3.5610  -3.5610
    -3.4324  -3.4324  -3.3862  -3.3862   3.5077   3.5077   3.7030   3.7030
     4.1735   4.1735   4.6640   4.6640   4.7520   4.7520   4.8313   4.8313
     4.8731   4.8731   5.3809   5.3809   5.5228   5.5228   5.9167   5.9167
     6.1082   6.1082   6.3175   6.3175   6.5213   6.5213   6.6842   6.6842
     6.7489   6.7489   6.9688   6.9688   7.1573   7.1573   7.3887   7.3887

     occupation numbers 
     1.0000   1.0000   1.0000   1.0000   1.0000   1.0000   1.0000   1.0000
     1.0000   1.0000   1.0000   1.0000   1.0000   1.0000   1.0000   1.0000
     1.0000   1.0000   1.0000   1.0000   1.0000   1.0000   1.0000   1.0000
     1.0000   1.0000   1.0000   1.0000   1.0000   1.0000   1.0000   1.0000
     1.0000   1.0000   1.0000   1.0000   1.0000   1.0000   1.0000   1.0000
     1.0000   1.0000   1.0000   1.0000   1.0000   1.0000   1.0000   1.0000
     1.0000   1.0000   1.0000   1.0000   1.0000   1.0000   1.0000   1.0000
     1.0000   1.0000   1.0000   1.0000   1.0000   1.0000   1.0000   1.0000
     1.0000   1.0000   1.0000   1.0000   1.0000   1.0000   1.0000   1.0000
     1.0000   1.0000   1.0000   1.0000   1.0000   1.0000   1.0000   1.0000

          k = 0.1668 0.0000 0.0000 ( 18537 PWs)   bands (ev):

   -41.4206 -41.4206 -41.4168 -41.4168 -26.6649 -26.6647 -26.6634 -26.6632
   -19.5041 -19.5041 -19.4718 -19.4718 -19.4272 -19.4272 -19.4206 -19.4205
   -19.3968 -19.3967 -19.3967 -19.3967  -8.7466  -8.7444  -8.7440  -8.7330
    -8.7277  -8.7051  -8.7021  -8.6996  -8.6840  -8.6821  -8.6514  -8.6504
    -4.7081  -4.5089  -4.0139  -3.9741  -3.8560  -3.7693  -3.7107  -3.6878
    -3.5144  -3.3974  -3.3964  -3.3529   3.7886   3.8633   4.0536   4.0536
     4.0768   4.1958   4.2511   4.3091   4.4072   4.4109   4.5888   5.0053
     5.1285   5.2370   5.3727   5.4081   5.4500   5.5339   5.6303   5.7005
     5.7199   5.7943   5.8500   6.1079   6.1198   6.2173   6.2873   6.4335
     6.4442   6.6256   6.6422   6.8402   6.9424   7.2414   7.3734   7.4547

     occupation numbers 
     1.0000   1.0000   1.0000   1.0000   1.0000   1.0000   1.0000   1.0000
     1.0000   1.0000   1.0000   1.0000   1.0000   1.0000   1.0000   1.0000
     1.0000   1.0000   1.0000   1.0000   1.0000   1.0000   1.0000   1.0000
     1.0000   1.0000   1.0000   1.0000   1.0000   1.0000   1.0000   1.0000
     1.0000   1.0000   1.0000   1.0000   1.0000   1.0000   1.0000   1.0000
     1.0000   1.0000   1.0000   1.0000   1.0000   1.0000   1.0000   1.0000
     1.0000   1.0000   1.0000   1.0000   1.0000   1.0000   1.0000   1.0000
     1.0000   1.0000   1.0000   1.0000   1.0000   1.0000   1.0000   1.0000
     1.0000   1.0000   1.0000   1.0000   1.0000   1.0000   1.0000   1.0000
     1.0000   1.0000   1.0000   1.0000   1.0000   1.0000   1.0000   1.0000

          k = 0.1668 0.0000-0.1371 ( 18576 PWs)   bands (ev):

   -41.4206 -41.4206 -41.4168 -41.4168 -26.6648 -26.6648 -26.6633 -26.6633
   -19.5041 -19.5041 -19.4718 -19.4718 -19.4272 -19.4272 -19.4206 -19.4206
   -19.3967 -19.3967 -19.3967 -19.3967  -8.7447  -8.7447  -8.7410  -8.7410
    -8.7162  -8.7162  -8.6993  -8.6993  -8.6831  -8.6831  -8.6509  -8.6509
    -4.6204  -4.6204  -3.9843  -3.9843  -3.8076  -3.8076  -3.6974  -3.6974
    -3.4741  -3.4741  -3.3611  -3.3611   3.8207   3.8207   4.0297   4.0297
     4.1212   4.1212   4.2819   4.2819   4.4998   4.4998   4.7413   4.7413
     5.1713   5.1713   5.3679   5.3679   5.4601   5.4601   5.6288   5.6288
     5.7979   5.7979   6.0415   6.0415   6.2337   6.2337   6.3597   6.3597
     6.4943   6.4943   6.6563   6.6563   7.1626   7.1626   7.4169   7.4169

     occupation numbers 
     1.0000   1.0000   1.0000   1.0000   1.0000   1.0000   1.0000   1.0000
     1.0000   1.0000   1.0000   1.0000   1.0000   1.0000   1.0000   1.0000
     1.0000   1.0000   1.0000   1.0000   1.0000   1.0000   1.0000   1.0000
     1.0000   1.0000   1.0000   1.0000   1.0000   1.0000   1.0000   1.0000
     1.0000   1.0000   1.0000   1.0000   1.0000   1.0000   1.0000   1.0000
     1.0000   1.0000   1.0000   1.0000   1.0000   1.0000   1.0000   1.0000
     1.0000   1.0000   1.0000   1.0000   1.0000   1.0000   1.0000   1.0000
     1.0000   1.0000   1.0000   1.0000   1.0000   1.0000   1.0000   1.0000
     1.0000   1.0000   1.0000   1.0000   1.0000   1.0000   1.0000   1.0000
     1.0000   1.0000   1.0000   1.0000   1.0000   1.0000   1.0000   1.0000

          k = 0.1668 0.1481 0.0000 ( 18591 PWs)   bands (ev):

   -41.4206 -41.4206 -41.4168 -41.4168 -26.6645 -26.6643 -26.6637 -26.6636
   -19.5039 -19.5039 -19.4720 -19.4720 -19.4272 -19.4271 -19.4206 -19.4206
   -19.3968 -19.3967 -19.3967 -19.3967  -8.7545  -8.7491  -8.7377  -8.7310
    -8.7135  -8.7015  -8.6969  -8.6957  -8.6831  -8.6813  -8.6653  -8.6621
    -4.6115  -4.4853  -4.1018  -4.0606  -3.9428  -3.9244  -3.5565  -3.5370
    -3.4998  -3.4432  -3.3612  -3.3591   3.6932   3.8001   3.8972   3.9095
     4.1248   4.2069   4.3142   4.5006   4.5060   4.5645   4.7760   4.9333
     5.0048   5.1047   5.3146   5.3644   5.4218   5.5589   5.5594   5.5895
     5.7487   5.9177   5.9838   5.9889   6.1158   6.1659   6.4167   6.4749
     6.5793   6.6195   6.7267   6.8742   7.0708   7.2069   7.3229   7.3378

     occupation numbers 
     1.0000   1.0000   1.0000   1.0000   1.0000   1.0000   1.0000   1.0000
     1.0000   1.0000   1.0000   1.0000   1.0000   1.0000   1.0000   1.0000
     1.0000   1.0000   1.0000   1.0000   1.0000   1.0000   1.0000   1.0000
     1.0000   1.0000   1.0000   1.0000   1.0000   1.0000   1.0000   1.0000
     1.0000   1.0000   1.0000   1.0000   1.0000   1.0000   1.0000   1.0000
     1.0000   1.0000   1.0000   1.0000   1.0000   1.0000   1.0000   1.0000
     1.0000   1.0000   1.0000   1.0000   1.0000   1.0000   1.0000   1.0000
     1.0000   1.0000   1.0000   1.0000   1.0000   1.0000   1.0000   1.0000
     1.0000   1.0000   1.0000   1.0000   1.0000   1.0000   1.0000   1.0000
     1.0000   1.0000   1.0000   1.0000   1.0000   1.0000   1.0000   1.0000

          k = 0.1668 0.1481-0.1371 ( 18560 PWs)   bands (ev):

   -41.4206 -41.4206 -41.4168 -41.4168 -26.6644 -26.6644 -26.6636 -26.6636
   -19.5039 -19.5039 -19.4720 -19.4720 -19.4271 -19.4271 -19.4206 -19.4206
   -19.3967 -19.3967 -19.3967 -19.3967  -8.7493  -8.7493  -8.7383  -8.7383
    -8.7059  -8.7059  -8.6966  -8.6966  -8.6822  -8.6822  -8.6636  -8.6636
    -4.5489  -4.5489  -4.1045  -4.1045  -3.9076  -3.9076  -3.5598  -3.5598
    -3.4354  -3.4354  -3.3855  -3.3855   3.7242   3.7242   3.8670   3.8670
     4.2467   4.2467   4.4169   4.4169   4.5962   4.5962   4.7852   4.7852
     4.9966   4.9966   5.3142   5.3142   5.4955   5.4955   5.5524   5.5524
     5.8762   5.8762   6.0070   6.0070   6.2067   6.2067   6.3893   6.3893
     6.6574   6.6574   6.7729   6.7729   7.1235   7.1235   7.3065   7.3065

     occupation numbers 
     1.0000   1.0000   1.0000   1.0000   1.0000   1.0000   1.0000   1.0000
     1.0000   1.0000   1.0000   1.0000   1.0000   1.0000   1.0000   1.0000
     1.0000   1.0000   1.0000   1.0000   1.0000   1.0000   1.0000   1.0000
     1.0000   1.0000   1.0000   1.0000   1.0000   1.0000   1.0000   1.0000
     1.0000   1.0000   1.0000   1.0000   1.0000   1.0000   1.0000   1.0000
     1.0000   1.0000   1.0000   1.0000   1.0000   1.0000   1.0000   1.0000
     1.0000   1.0000   1.0000   1.0000   1.0000   1.0000   1.0000   1.0000
     1.0000   1.0000   1.0000   1.0000   1.0000   1.0000   1.0000   1.0000
     1.0000   1.0000   1.0000   1.0000   1.0000   1.0000   1.0000   1.0000
     1.0000   1.0000   1.0000   1.0000   1.0000   1.0000   1.0000   1.0000

          k = 0.3336 0.0000 0.0000 ( 18620 PWs)   bands (ev):

   -41.4172 -41.4172 -41.4150 -41.4150 -26.6546 -26.6545 -26.6532 -26.6531
   -19.4941 -19.4941 -19.4825 -19.4825 -19.4565 -19.4565 -19.4560 -19.4560
   -19.4130 -19.4130 -19.4024 -19.4024  -8.8885  -8.8880  -8.8521  -8.8513
    -8.7037  -8.7024  -8.6979  -8.6916  -8.6807  -8.6732  -8.6264  -8.6255
    -4.2759  -4.1596  -3.9302  -3.9299  -3.8680  -3.8232  -3.6542  -3.6534
    -3.3935  -3.3796  -3.3793  -3.2833   3.6216   3.7823   3.9448   4.0131
     4.0342   4.1425   4.2684   4.4093   4.5665   4.6430   4.6838   4.7298
     4.7715   4.7766   4.9184   5.1160   5.3919   5.4581   5.5060   5.5546
     5.6295   5.6898   5.7347   5.7529   6.0033   6.1668   6.1856   6.2491
     6.4072   6.4879   6.5045   6.5232   6.5910   6.6141   6.9351   6.9890

     occupation numbers 
     1.0000   1.0000   1.0000   1.0000   1.0000   1.0000   1.0000   1.0000
     1.0000   1.0000   1.0000   1.0000   1.0000   1.0000   1.0000   1.0000
     1.0000   1.0000   1.0000   1.0000   1.0000   1.0000   1.0000   1.0000
     1.0000   1.0000   1.0000   1.0000   1.0000   1.0000   1.0000   1.0000
     1.0000   1.0000   1.0000   1.0000   1.0000   1.0000   1.0000   1.0000
     1.0000   1.0000   1.0000   1.0000   1.0000   1.0000   1.0000   1.0000
     1.0000   1.0000   1.0000   1.0000   1.0000   1.0000   1.0000   1.0000
     1.0000   1.0000   1.0000   1.0000   1.0000   1.0000   1.0000   1.0000
     1.0000   1.0000   1.0000   1.0000   1.0000   1.0000   1.0000   1.0000
     1.0000   1.0000   1.0000   1.0000   1.0000   1.0000   1.0000   1.0000

          k = 0.3336 0.0000-0.1371 ( 18610 PWs)   bands (ev):

   -41.4172 -41.4172 -41.4150 -41.4150 -26.6545 -26.6545 -26.6532 -26.6532
   -19.4941 -19.4941 -19.4825 -19.4825 -19.4565 -19.4565 -19.4560 -19.4560
   -19.4130 -19.4130 -19.4024 -19.4024  -8.8883  -8.8883  -8.8517  -8.8517
    -8.7026  -8.7026  -8.6956  -8.6956  -8.6764  -8.6764  -8.6260  -8.6260
    -4.2227  -4.2227  -3.9320  -3.9320  -3.8407  -3.8407  -3.6525  -3.6525
    -3.3959  -3.3959  -3.3212  -3.3212   3.7472   3.7472   3.8515   3.8515
     4.0909   4.0909   4.3755   4.3755   4.6487   4.6487   4.7411   4.7411
     4.7788   4.7788   5.0421   5.0421   5.3535   5.3535   5.5796   5.5796
     5.7641   5.7641   5.7993   5.7993   5.8535   5.8535   6.0742   6.0742
     6.3945   6.3945   6.6167   6.6167   6.7251   6.7251   6.9777   6.9777

     occupation numbers 
     1.0000   1.0000   1.0000   1.0000   1.0000   1.0000   1.0000   1.0000
     1.0000   1.0000   1.0000   1.0000   1.0000   1.0000   1.0000   1.0000
     1.0000   1.0000   1.0000   1.0000   1.0000   1.0000   1.0000   1.0000
     1.0000   1.0000   1.0000   1.0000   1.0000   1.0000   1.0000   1.0000
     1.0000   1.0000   1.0000   1.0000   1.0000   1.0000   1.0000   1.0000
     1.0000   1.0000   1.0000   1.0000   1.0000   1.0000   1.0000   1.0000
     1.0000   1.0000   1.0000   1.0000   1.0000   1.0000   1.0000   1.0000
     1.0000   1.0000   1.0000   1.0000   1.0000   1.0000   1.0000   1.0000
     1.0000   1.0000   1.0000   1.0000   1.0000   1.0000   1.0000   1.0000
     1.0000   1.0000   1.0000   1.0000   1.0000   1.0000   1.0000   1.0000

          k = 0.3336 0.1481 0.0000 ( 18628 PWs)   bands (ev):

   -41.4172 -41.4172 -41.4150 -41.4150 -26.6542 -26.6541 -26.6536 -26.6535
   -19.4941 -19.4941 -19.4826 -19.4826 -19.4564 -19.4564 -19.4560 -19.4560
   -19.4130 -19.4130 -19.4024 -19.4024  -8.8798  -8.8790  -8.8617  -8.8606
    -8.7078  -8.7062  -8.6970  -8.6940  -8.6637  -8.6586  -8.6379  -8.6356
    -4.2373  -4.1733  -3.9649  -3.9491  -3.8396  -3.8282  -3.6461  -3.6448
    -3.4065  -3.3938  -3.3454  -3.3025   3.7099   3.7485   3.9070   3.9284
     4.2191   4.2460   4.3287   4.3946   4.4459   4.4837   4.5885   4.6207
     4.7322   4.8900   5.0893   5.2304   5.2310   5.2627   5.3749   5.4518
     5.6519   5.6795   5.7797   5.9064   6.0141   6.0208   6.2188   6.2551
     6.3174   6.3825   6.7001   6.7210   6.8291   6.8429   6.8774   6.9913

     occupation numbers 
     1.0000   1.0000   1.0000   1.0000   1.0000   1.0000   1.0000   1.0000
     1.0000   1.0000   1.0000   1.0000   1.0000   1.0000   1.0000   1.0000
     1.0000   1.0000   1.0000   1.0000   1.0000   1.0000   1.0000   1.0000
     1.0000   1.0000   1.0000   1.0000   1.0000   1.0000   1.0000   1.0000
     1.0000   1.0000   1.0000   1.0000   1.0000   1.0000   1.0000   1.0000
     1.0000   1.0000   1.0000   1.0000   1.0000   1.0000   1.0000   1.0000
     1.0000   1.0000   1.0000   1.0000   1.0000   1.0000   1.0000   1.0000
     1.0000   1.0000   1.0000   1.0000   1.0000   1.0000   1.0000   1.0000
     1.0000   1.0000   1.0000   1.0000   1.0000   1.0000   1.0000   1.0000
     1.0000   1.0000   1.0000   1.0000   1.0000   1.0000   1.0000   1.0000

          k = 0.3336 0.1481-0.1371 ( 18596 PWs)   bands (ev):

   -41.4172 -41.4172 -41.4150 -41.4150 -26.6542 -26.6542 -26.6535 -26.6535
   -19.4941 -19.4941 -19.4826 -19.4826 -19.4564 -19.4564 -19.4560 -19.4560
   -19.4130 -19.4130 -19.4024 -19.4024  -8.8794  -8.8794  -8.8612  -8.8612
    -8.7059  -8.7059  -8.6967  -8.6967  -8.6610  -8.6610  -8.6367  -8.6367
    -4.2021  -4.2021  -3.9711  -3.9711  -3.8252  -3.8252  -3.6453  -3.6453
    -3.3886  -3.3886  -3.3334  -3.3334   3.7390   3.7390   3.8568   3.8568
     4.2263   4.2263   4.3842   4.3842   4.4895   4.4895   4.6718   4.6718
     4.8399   4.8399   5.1450   5.1450   5.2416   5.2416   5.3582   5.3582
     5.6315   5.6315   5.7336   5.7336   6.1289   6.1289   6.2221   6.2221
     6.4467   6.4467   6.6227   6.6227   6.8006   6.8006   7.0011   7.0011

     occupation numbers 
     1.0000   1.0000   1.0000   1.0000   1.0000   1.0000   1.0000   1.0000
     1.0000   1.0000   1.0000   1.0000   1.0000   1.0000   1.0000   1.0000
     1.0000   1.0000   1.0000   1.0000   1.0000   1.0000   1.0000   1.0000
     1.0000   1.0000   1.0000   1.0000   1.0000   1.0000   1.0000   1.0000
     1.0000   1.0000   1.0000   1.0000   1.0000   1.0000   1.0000   1.0000
     1.0000   1.0000   1.0000   1.0000   1.0000   1.0000   1.0000   1.0000
     1.0000   1.0000   1.0000   1.0000   1.0000   1.0000   1.0000   1.0000
     1.0000   1.0000   1.0000   1.0000   1.0000   1.0000   1.0000   1.0000
     1.0000   1.0000   1.0000   1.0000   1.0000   1.0000   1.0000   1.0000
     1.0000   1.0000   1.0000   1.0000   1.0000   1.0000   1.0000   1.0000

          k =-0.5004 0.0000 0.0000 ( 18628 PWs)   bands (ev):

   -41.4148 -41.4148 -41.4148 -41.4148 -26.6494 -26.6494 -26.6481 -26.6481
   -19.5087 -19.5087 -19.5086 -19.5086 -19.4570 -19.4570 -19.4570 -19.4570
   -19.4081 -19.4081 -19.4080 -19.4080  -8.9768  -8.9768  -8.9321  -8.9321
    -8.6801  -8.6801  -8.6792  -8.6792  -8.6537  -8.6537  -8.6133  -8.6133
    -3.9983  -3.9983  -3.9973  -3.9973  -3.7073  -3.7073  -3.6936  -3.6936
    -3.3906  -3.3906  -3.2754  -3.2754   3.5325   3.5325   3.7254   3.7254
     4.0288   4.0288   4.3005   4.3005   4.5094   4.5094   4.5814   4.5814
     5.0617   5.0617   5.2100   5.2100   5.2622   5.2622   5.2653   5.2653
     5.4786   5.4786   5.8760   5.8760   5.9380   5.9380   6.0577   6.0577
     6.5710   6.5710   6.6002   6.6002   6.6956   6.6956   6.7702   6.7702

     occupation numbers 
     1.0000   1.0000   1.0000   1.0000   1.0000   1.0000   1.0000   1.0000
     1.0000   1.0000   1.0000   1.0000   1.0000   1.0000   1.0000   1.0000
     1.0000   1.0000   1.0000   1.0000   1.0000   1.0000   1.0000   1.0000
     1.0000   1.0000   1.0000   1.0000   1.0000   1.0000   1.0000   1.0000
     1.0000   1.0000   1.0000   1.0000   1.0000   1.0000   1.0000   1.0000
     1.0000   1.0000   1.0000   1.0000   1.0000   1.0000   1.0000   1.0000
     1.0000   1.0000   1.0000   1.0000   1.0000   1.0000   1.0000   1.0000
     1.0000   1.0000   1.0000   1.0000   1.0000   1.0000   1.0000   1.0000
     1.0000   1.0000   1.0000   1.0000   1.0000   1.0000   1.0000   1.0000
     1.0000   1.0000   1.0000   1.0000   1.0000   1.0000   1.0000   1.0000

          k =-0.5004 0.0000-0.1371 ( 18652 PWs)   bands (ev):

   -41.4148 -41.4148 -41.4148 -41.4148 -26.6494 -26.6494 -26.6481 -26.6481
   -19.5086 -19.5086 -19.5086 -19.5086 -19.4570 -19.4570 -19.4570 -19.4570
   -19.4081 -19.4081 -19.4080 -19.4080  -8.9768  -8.9768  -8.9321  -8.9321
    -8.6801  -8.6801  -8.6792  -8.6792  -8.6537  -8.6537  -8.6133  -8.6133
    -4.0008  -4.0008  -3.9947  -3.9947  -3.7081  -3.7081  -3.6935  -3.6935
    -3.3903  -3.3903  -3.2750  -3.2750   3.5193   3.5193   3.7495   3.7495
     4.0201   4.0201   4.2413   4.2413   4.5362   4.5362   4.6834   4.6834
     4.9962   4.9962   5.0682   5.0682   5.2285   5.2285   5.3844   5.3844
     5.6626   5.6626   5.6826   5.6826   5.9134   5.9134   6.3464   6.3464
     6.4416   6.4416   6.4923   6.4923   6.6559   6.6559   6.8338   6.8338

     occupation numbers 
     1.0000   1.0000   1.0000   1.0000   1.0000   1.0000   1.0000   1.0000
     1.0000   1.0000   1.0000   1.0000   1.0000   1.0000   1.0000   1.0000
     1.0000   1.0000   1.0000   1.0000   1.0000   1.0000   1.0000   1.0000
     1.0000   1.0000   1.0000   1.0000   1.0000   1.0000   1.0000   1.0000
     1.0000   1.0000   1.0000   1.0000   1.0000   1.0000   1.0000   1.0000
     1.0000   1.0000   1.0000   1.0000   1.0000   1.0000   1.0000   1.0000
     1.0000   1.0000   1.0000   1.0000   1.0000   1.0000   1.0000   1.0000
     1.0000   1.0000   1.0000   1.0000   1.0000   1.0000   1.0000   1.0000
     1.0000   1.0000   1.0000   1.0000   1.0000   1.0000   1.0000   1.0000
     1.0000   1.0000   1.0000   1.0000   1.0000   1.0000   1.0000   1.0000

          k =-0.5004 0.1481 0.0000 ( 18590 PWs)   bands (ev):

   -41.4148 -41.4148 -41.4148 -41.4148 -26.6491 -26.6491 -26.6484 -26.6484
   -19.5087 -19.5087 -19.5087 -19.5087 -19.4570 -19.4570 -19.4569 -19.4569
   -19.4080 -19.4080 -19.4080 -19.4080  -8.9657  -8.9657  -8.9434  -8.9434
    -8.6819  -8.6819  -8.6808  -8.6808  -8.6416  -8.6416  -8.6221  -8.6221
    -3.9975  -3.9975  -3.9973  -3.9973  -3.7054  -3.7054  -3.6996  -3.6996
    -3.3589  -3.3589  -3.3021  -3.3021   3.4596   3.4596   3.5194   3.5194
     4.2512   4.2512   4.3767   4.3767   4.6183   4.6183   4.6287   4.6287
     4.9707   4.9707   5.0487   5.0487   5.2601   5.2601   5.3576   5.3576
     5.6826   5.6826   5.7405   5.7405   6.1493   6.1493   6.1672   6.1672
     6.4031   6.4031   6.4059   6.4059   6.6398   6.6398   6.6647   6.6647

     occupation numbers 
     1.0000   1.0000   1.0000   1.0000   1.0000   1.0000   1.0000   1.0000
     1.0000   1.0000   1.0000   1.0000   1.0000   1.0000   1.0000   1.0000
     1.0000   1.0000   1.0000   1.0000   1.0000   1.0000   1.0000   1.0000
     1.0000   1.0000   1.0000   1.0000   1.0000   1.0000   1.0000   1.0000
     1.0000   1.0000   1.0000   1.0000   1.0000   1.0000   1.0000   1.0000
     1.0000   1.0000   1.0000   1.0000   1.0000   1.0000   1.0000   1.0000
     1.0000   1.0000   1.0000   1.0000   1.0000   1.0000   1.0000   1.0000
     1.0000   1.0000   1.0000   1.0000   1.0000   1.0000   1.0000   1.0000
     1.0000   1.0000   1.0000   1.0000   1.0000   1.0000   1.0000   1.0000
     1.0000   1.0000   1.0000   1.0000   1.0000   1.0000   1.0000   1.0000

          k =-0.5004 0.1481-0.1371 ( 18600 PWs)   bands (ev):

   -41.4148 -41.4148 -41.4148 -41.4148 -26.6491 -26.6491 -26.6484 -26.6484
   -19.5087 -19.5087 -19.5087 -19.5087 -19.4570 -19.4570 -19.4569 -19.4569
   -19.4080 -19.4080 -19.4080 -19.4080  -8.9657  -8.9657  -8.9434  -8.9434
    -8.6819  -8.6819  -8.6808  -8.6808  -8.6416  -8.6416  -8.6221  -8.6221
    -3.9987  -3.9987  -3.9960  -3.9960  -3.7069  -3.7069  -3.6988  -3.6988
    -3.3586  -3.3586  -3.3016  -3.3016   3.4402   3.4402   3.5309   3.5309
     4.2401   4.2401   4.3812   4.3812   4.5885   4.5885   4.6173   4.6173
     5.0586   5.0586   5.1568   5.1568   5.2903   5.2903   5.2921   5.2921
     5.6785   5.6785   5.7606   5.7606   5.9506   5.9506   6.0388   6.0388
     6.4007   6.4007   6.4401   6.4401   6.7471   6.7471   6.7539   6.7539

     occupation numbers 
     1.0000   1.0000   1.0000   1.0000   1.0000   1.0000   1.0000   1.0000
     1.0000   1.0000   1.0000   1.0000   1.0000   1.0000   1.0000   1.0000
     1.0000   1.0000   1.0000   1.0000   1.0000   1.0000   1.0000   1.0000
     1.0000   1.0000   1.0000   1.0000   1.0000   1.0000   1.0000   1.0000
     1.0000   1.0000   1.0000   1.0000   1.0000   1.0000   1.0000   1.0000
     1.0000   1.0000   1.0000   1.0000   1.0000   1.0000   1.0000   1.0000
     1.0000   1.0000   1.0000   1.0000   1.0000   1.0000   1.0000   1.0000
     1.0000   1.0000   1.0000   1.0000   1.0000   1.0000   1.0000   1.0000
     1.0000   1.0000   1.0000   1.0000   1.0000   1.0000   1.0000   1.0000
     1.0000   1.0000   1.0000   1.0000   1.0000   1.0000   1.0000   1.0000

     highest occupied level (ev):     7.8461

!    total energy              =    -969.04023655 Ry
     estimated scf accuracy    <          4.7E-11 Ry

     The total energy is the sum of the following terms:
     one-electron contribution =    -196.03123265 Ry
     hartree contribution      =     158.38436350 Ry
     xc contribution           =    -246.05276847 Ry
     ewald contribution        =    -685.34059892 Ry

     convergence has been achieved in  11 iterations

     negative rho (up, down):  5.199E-01 0.000E+00

     Forces acting on atoms (cartesian axes, Ry/au):

     atom    1 type  2   force =     0.00000000   -0.00002460   -0.00014432
     atom    2 type  2   force =     0.00000000    0.00002460    0.00014432
     atom    3 type  2   force =    -0.00000000    0.00002460   -0.00014432
     atom    4 type  2   force =     0.00000000   -0.00002460    0.00014432
     atom    5 type  3   force =    -0.00000000    0.00018244    0.00062319
     atom    6 type  3   force =     0.00000000   -0.00018244   -0.00062319
     atom    7 type  3   force =     0.00000000   -0.00018244    0.00062319
     atom    8 type  3   force =     0.00000000    0.00018244   -0.00062319
     atom    9 type  1   force =     0.00000000    0.00008967    0.00002162
     atom   10 type  1   force =     0.00000000   -0.00008967   -0.00002162
     atom   11 type  1   force =     0.00000000   -0.00008967    0.00002162
     atom   12 type  1   force =     0.00000000    0.00008967   -0.00002162
     atom   13 type  1   force =     0.00000000    0.00057278   -0.00027105
     atom   14 type  1   force =    -0.00000000   -0.00057278    0.00027105
     atom   15 type  1   force =     0.00000000   -0.00057278   -0.00027105
     atom   16 type  1   force =     0.00000000    0.00057278    0.00027105
     atom   17 type  1   force =     0.00000000    0.00028635   -0.00014759
     atom   18 type  1   force =     0.00000000   -0.00028635    0.00014759
     atom   19 type  1   force =     0.00000000   -0.00028635   -0.00014759
     atom   20 type  1   force =     0.00000000    0.00028635    0.00014759
     The non-local contrib.  to forces
     atom    1 type  2   force =     0.00000000    0.00107257    0.00491624
     atom    2 type  2   force =     0.00000000   -0.00107257   -0.00491624
     atom    3 type  2   force =     0.00000000   -0.00107257    0.00491624
     atom    4 type  2   force =     0.00000000    0.00107257   -0.00491624
     atom    5 type  3   force =     0.00000000    0.02380576   -0.02039105
     atom    6 type  3   force =    -0.00000000   -0.02380576    0.02039105
     atom    7 type  3   force =     0.00000000   -0.02380576   -0.02039105
     atom    8 type  3   force =     0.00000000    0.02380576    0.02039105
     atom    9 type  1   force =     0.00000000    0.00416450   -0.01068465
     atom   10 type  1   force =     0.00000000   -0.00416450    0.01068465
     atom   11 type  1   force =     0.00000000   -0.00416450   -0.01068465
     atom   12 type  1   force =     0.00000000    0.00416450    0.01068465
     atom   13 type  1   force =     0.00000000   -0.04272153   -0.00313584
     atom   14 type  1   force =     0.00000000    0.04272153    0.00313584
     atom   15 type  1   force =    -0.00000000    0.04272153   -0.00313584
     atom   16 type  1   force =    -0.00000000   -0.04272153    0.00313584
     atom   17 type  1   force =     0.00000000    0.04135583    0.06773124
     atom   18 type  1   force =    -0.00000000   -0.04135583   -0.06773124
     atom   19 type  1   force =     0.00000000   -0.04135583    0.06773124
     atom   20 type  1   force =     0.00000000    0.04135583   -0.06773124
     The ionic contribution  to forces
     atom    1 type  2   force =     0.00000000    0.39928300    0.11380593
     atom    2 type  2   force =     0.00000000   -0.39928300   -0.11380593
     atom    3 type  2   force =     0.00000000   -0.39928300    0.11380593
     atom    4 type  2   force =     0.00000000    0.39928300   -0.11380593
     atom    5 type  3   force =     0.00000000   -2.77069920    1.06790819
     atom    6 type  3   force =     0.00000000    2.77069920   -1.06790819
     atom    7 type  3   force =     0.00000000    2.77069920    1.06790819
     atom    8 type  3   force =     0.00000000   -2.77069920   -1.06790819
     atom    9 type  1   force =     0.00000000   -1.59146023    3.67143715
     atom   10 type  1   force =     0.00000000    1.59146023   -3.67143715
     atom   11 type  1   force =     0.00000000    1.59146023    3.67143715
     atom   12 type  1   force =     0.00000000   -1.59146023   -3.67143715
     atom   13 type  1   force =     0.00000000    3.64060930   -2.26651687
     atom   14 type  1   force =     0.00000000   -3.64060930    2.26651687
     atom   15 type  1   force =     0.00000000   -3.64060930   -2.26651687
     atom   16 type  1   force =     0.00000000    3.64060930    2.26651687
     atom   17 type  1   force =     0.00000000   -2.93006242   -4.83660685
     atom   18 type  1   force =     0.00000000    2.93006242    4.83660685
     atom   19 type  1   force =     0.00000000    2.93006242   -4.83660685
     atom   20 type  1   force =     0.00000000   -2.93006242    4.83660685
     The local contribution  to forces
     atom    1 type  2   force =    -0.00000000   -0.40043555   -0.11866558
     atom    2 type  2   force =    -0.00000000    0.40043555    0.11866558
     atom    3 type  2   force =    -0.00000000    0.40043555   -0.11866558
     atom    4 type  2   force =    -0.00000000   -0.40043555    0.11866558
     atom    5 type  3   force =    -0.00000000    2.74796197   -1.04656185
     atom    6 type  3   force =    -0.00000000   -2.74796197    1.04656185
     atom    7 type  3   force =    -0.00000000   -2.74796197   -1.04656185
     atom    8 type  3   force =    -0.00000000    2.74796197    1.04656185
     atom    9 type  1   force =    -0.00000000    1.58733752   -3.66065603
     atom   10 type  1   force =    -0.00000000   -1.58733752    3.66065603
     atom   11 type  1   force =    -0.00000000   -1.58733752   -3.66065603
     atom   12 type  1   force =    -0.00000000    1.58733752    3.66065603
     atom   13 type  1   force =    -0.00000000   -3.59932612    2.26891595
     atom   14 type  1   force =    -0.00000000    3.59932612   -2.26891595
     atom   15 type  1   force =    -0.00000000    3.59932612    2.26891595
     atom   16 type  1   force =    -0.00000000   -3.59932612   -2.26891595
     atom   17 type  1   force =    -0.00000000    2.89095899    4.77209753
     atom   18 type  1   force =    -0.00000000   -2.89095899   -4.77209753
     atom   19 type  1   force =    -0.00000000   -2.89095899    4.77209753
     atom   20 type  1   force =    -0.00000000    2.89095899   -4.77209753
     The core correction contribution to forces
     atom    1 type  2   force =     0.00000000    0.00005579   -0.00020029
     atom    2 type  2   force =     0.00000000   -0.00005579    0.00020029
     atom    3 type  2   force =     0.00000000   -0.00005579   -0.00020029
     atom    4 type  2   force =     0.00000000    0.00005579    0.00020029
     atom    5 type  3   force =     0.00000000   -0.00088199   -0.00033452
     atom    6 type  3   force =     0.00000000    0.00088199    0.00033452
     atom    7 type  3   force =     0.00000000    0.00088199   -0.00033452
     atom    8 type  3   force =     0.00000000   -0.00088199    0.00033452
     atom    9 type  1   force =    -0.00000000    0.00004962   -0.00007760
     atom   10 type  1   force =     0.00000000   -0.00004962    0.00007760
     atom   11 type  1   force =     0.00000000   -0.00004962   -0.00007760
     atom   12 type  1   force =    -0.00000000    0.00004962    0.00007760
     atom   13 type  1   force =    -0.00000000    0.00200786    0.00046727
     atom   14 type  1   force =     0.00000000   -0.00200786   -0.00046727
     atom   15 type  1   force =     0.00000000   -0.00200786    0.00046727
     atom   16 type  1   force =    -0.00000000    0.00200786   -0.00046727
     atom   17 type  1   force =    -0.00000000   -0.00196429   -0.00336469
     atom   18 type  1   force =     0.00000000    0.00196429    0.00336469
     atom   19 type  1   force =     0.00000000    0.00196429   -0.00336469
     atom   20 type  1   force =    -0.00000000   -0.00196429    0.00336469
     The Hubbard contrib.    to forces
     atom    1 type  2   force =     0.00000000    0.00000000    0.00000000
     atom    2 type  2   force =     0.00000000    0.00000000    0.00000000
     atom    3 type  2   force =     0.00000000    0.00000000    0.00000000
     atom    4 type  2   force =     0.00000000    0.00000000    0.00000000
     atom    5 type  3   force =     0.00000000    0.00000000    0.00000000
     atom    6 type  3   force =     0.00000000    0.00000000    0.00000000
     atom    7 type  3   force =     0.00000000    0.00000000    0.00000000
     atom    8 type  3   force =     0.00000000    0.00000000    0.00000000
     atom    9 type  1   force =     0.00000000    0.00000000    0.00000000
     atom   10 type  1   force =     0.00000000    0.00000000    0.00000000
     atom   11 type  1   force =     0.00000000    0.00000000    0.00000000
     atom   12 type  1   force =     0.00000000    0.00000000    0.00000000
     atom   13 type  1   force =     0.00000000    0.00000000    0.00000000
     atom   14 type  1   force =     0.00000000    0.00000000    0.00000000
     atom   15 type  1   force =     0.00000000    0.00000000    0.00000000
     atom   16 type  1   force =     0.00000000    0.00000000    0.00000000
     atom   17 type  1   force =     0.00000000    0.00000000    0.00000000
     atom   18 type  1   force =     0.00000000    0.00000000    0.00000000
     atom   19 type  1   force =     0.00000000    0.00000000    0.00000000
     atom   20 type  1   force =     0.00000000    0.00000000    0.00000000
     The SCF correction term to forces
     atom    1 type  2   force =     0.00000000   -0.00000042   -0.00000061
     atom    2 type  2   force =    -0.00000000    0.00000042    0.00000061
     atom    3 type  2   force =    -0.00000000    0.00000042   -0.00000061
     atom    4 type  2   force =    -0.00000000   -0.00000042    0.00000061
     atom    5 type  3   force =    -0.00000000   -0.00000409    0.00000241
     atom    6 type  3   force =     0.00000000    0.00000409   -0.00000241
     atom    7 type  3   force =     0.00000000    0.00000409    0.00000241
     atom    8 type  3   force =    -0.00000000   -0.00000409   -0.00000241
     atom    9 type  1   force =    -0.00000000   -0.00000175    0.00000275
     atom   10 type  1   force =     0.00000000    0.00000175   -0.00000275
     atom   11 type  1   force =     0.00000000    0.00000175    0.00000275
     atom   12 type  1   force =    -0.00000000   -0.00000175   -0.00000275
     atom   13 type  1   force =    -0.00000000    0.00000328   -0.00000156
     atom   14 type  1   force =     0.00000000   -0.00000328    0.00000156
     atom   15 type  1   force =    -0.00000000   -0.00000328   -0.00000156
     atom   16 type  1   force =     0.00000000    0.00000328    0.00000156
     atom   17 type  1   force =    -0.00000000   -0.00000175   -0.00000481
     atom   18 type  1   force =     0.00000000    0.00000175    0.00000481
     atom   19 type  1   force =    -0.00000000    0.00000175   -0.00000481
     atom   20 type  1   force =     0.00000000   -0.00000175    0.00000481

     Total force =     0.001956     Total SCF correction =     0.000017


     Computing stress (Cartesian axis) and pressure


     negative rho (up, down):  5.199E-01 0.000E+00
          total   stress  (Ry/bohr**3)                   (kbar)     P=        0.18
   0.00000300   0.00000000   0.00000000            0.44        0.00        0.00
   0.00000000   0.00000086   0.00000000            0.00        0.13        0.00
   0.00000000   0.00000000  -0.00000011            0.00        0.00       -0.02

     kinetic stress (kbar)   8923.12      0.00      0.00
                                0.00   8950.24      0.00
                                0.00      0.00   8971.11

     local   stress (kbar)  -7874.57     -0.00     -0.00
                               -0.00  -4294.44     -0.00
                               -0.00     -0.00  -3974.86

     nonloc. stress (kbar)   7368.90      0.00      0.00
                                0.00   7365.22      0.00
                                0.00      0.00   7370.84

     hartree stress (kbar)   3521.49      0.00      0.00
                                0.00   2112.09      0.00
                                0.00      0.00   1801.33

     exc-cor stress (kbar)   2570.70      0.00      0.00
                                0.00   2568.54     -0.00
                                0.00     -0.00   2571.25

     corecor stress (kbar)  -5259.48     -0.00      0.00
                               -0.00  -5259.40      0.00
                                0.00      0.00  -5260.14

     ewald   stress (kbar)  -9249.72     -0.00     -0.00
                               -0.00 -11442.12      0.00
                               -0.00      0.00 -11479.55

     hubbard stress (kbar)      0.00      0.00      0.00
                                0.00      0.00      0.00
                                0.00      0.00      0.00

     DFT-D   stress (kbar)      0.00      0.00      0.00
                                0.00      0.00      0.00
                                0.00      0.00      0.00

     XDM     stress (kbar)      0.00      0.00      0.00
                                0.00      0.00      0.00
                                0.00      0.00      0.00

     dft-nl  stress (kbar)      0.00      0.00      0.00
                                0.00      0.00      0.00
                                0.00      0.00      0.00

     TS-vdW  stress (kbar)      0.00      0.00      0.00
                                0.00      0.00      0.00
                                0.00      0.00      0.00

     MDB     stress (kbar)      0.00      0.00      0.00
                                0.00      0.00      0.00
                                0.00      0.00      0.00

     3D-RISM stress (kbar)      0.00      0.00      0.00
                                0.00      0.00      0.00
                                0.00      0.00      0.00

     Energy error            =      1.2E-05 Ry
     Gradient error          =      6.2E-04 Ry/Bohr
     Cell gradient error     =      4.4E-01 kbar

     number of scf cycles    =  13
     number of bfgs steps    =  12

     enthalpy           old  =    -969.0402244175 Ry
     enthalpy           new  =    -969.0402365465 Ry

     CASE: enthalpy          _new < enthalpy          _old

     new trust radius        =       0.0038088164 bohr
     new conv_thr            =            1.0E-10 Ry

     new unit-cell volume =   3134.35102 a.u.^3 (   464.46290 Ang^3 )
     density =      3.93326 g/cm^3

CELL_PARAMETERS (angstrom)
   3.838453236   0.000000000   0.000000000
  -0.000000000   8.641205776   0.000000000
   0.000000000   0.000000000  14.002978756

ATOMIC_POSITIONS (crystal)
Sr               0.2500000000        0.0625907741        0.8194870862
Sr               0.7500000000        0.9374092259        0.1805129138
Sr               0.7500000000        0.4374092259        0.3194870862
Sr               0.2500000000        0.5625907741        0.6805129138
Zr               0.2500000000        0.3269804489        0.0557101724
Zr               0.7500000000        0.6730195511        0.9442898276
Zr               0.7500000000        0.1730195511        0.5557101724
Zr               0.2500000000        0.8269804489        0.4442898276
S                0.2500000000        0.2082836756        0.2153907520
S                0.7500000000        0.7917163244        0.7846092480
S                0.7500000000        0.2917163244        0.7153907520
S                0.2500000000        0.7082836756        0.2846092480
S                0.2500000000        0.3363745058        0.4842058529
S                0.7500000000        0.6636254942        0.5157941471
S                0.7500000000        0.1636254942        0.9842058529
S                0.2500000000        0.8363745058        0.0157941471
S                0.2500000000        0.4868645031        0.8946238429
S                0.7500000000        0.5131354969        0.1053761571
S                0.7500000000        0.0131354969        0.3946238429
S                0.2500000000        0.9868645031        0.6053761571



     Writing config-only to output data dir ./tmp/relax/SrZrS3_relax.save/ :
     XML data file
     NEW-OLD atomic charge density approx. for the potential
     New effective cutoffs (rho, wfc):  400.28   50.04

     negative rho (up, down):  5.199E-01 0.000E+00

     total cpu time spent up to now is     1905.4 secs

     Self-consistent Calculation

     iteration #  1     ecut=    50.00 Ry     beta= 0.30
     Davidson diagonalization with overlap

---- Real-time Memory Report at c_bands before calling an iterative solver
             0 MiB given to the printing process from OS
             0 MiB allocation reported by mallinfo(arena+hblkhd)
             0 MiB available memory on the node where the printing process lives
------------------
     ethr =  1.00E-06,  avg # of iterations =  2.0

     Threshold (ethr) on eigenvalues was too large:
     Diagonalizing with lowered threshold

     Davidson diagonalization with overlap

---- Real-time Memory Report at c_bands before calling an iterative solver
             0 MiB given to the printing process from OS
             0 MiB allocation reported by mallinfo(arena+hblkhd)
             0 MiB available memory on the node where the printing process lives
------------------
     ethr =  1.10E-09,  avg # of iterations =  8.9

     negative rho (up, down):  5.199E-01 0.000E+00

     total cpu time spent up to now is     1922.9 secs

     total energy              =    -969.04024209 Ry
     estimated scf accuracy    <       0.00000359 Ry

     iteration #  2     ecut=    50.00 Ry     beta= 0.30
     Davidson diagonalization with overlap

---- Real-time Memory Report at c_bands before calling an iterative solver
             0 MiB given to the printing process from OS
             0 MiB allocation reported by mallinfo(arena+hblkhd)
             0 MiB available memory on the node where the printing process lives
------------------
     ethr =  2.24E-09,  avg # of iterations =  3.4

     negative rho (up, down):  5.199E-01 0.000E+00

     total cpu time spent up to now is     1928.6 secs

     total energy              =    -969.04024278 Ry
     estimated scf accuracy    <       0.00000040 Ry

     iteration #  3     ecut=    50.00 Ry     beta= 0.30
     Davidson diagonalization with overlap

---- Real-time Memory Report at c_bands before calling an iterative solver
             0 MiB given to the printing process from OS
             0 MiB allocation reported by mallinfo(arena+hblkhd)
             0 MiB available memory on the node where the printing process lives
------------------
     ethr =  2.48E-10,  avg # of iterations =  3.1

     negative rho (up, down):  5.199E-01 0.000E+00

     total cpu time spent up to now is     1934.0 secs

     total energy              =    -969.04024277 Ry
     estimated scf accuracy    <       0.00000017 Ry

     iteration #  4     ecut=    50.00 Ry     beta= 0.30
     Davidson diagonalization with overlap

---- Real-time Memory Report at c_bands before calling an iterative solver
             0 MiB given to the printing process from OS
             0 MiB allocation reported by mallinfo(arena+hblkhd)
             0 MiB available memory on the node where the printing process lives
------------------
     ethr =  1.04E-10,  avg # of iterations =  4.4

     negative rho (up, down):  5.199E-01 0.000E+00

     total cpu time spent up to now is     1941.0 secs

     total energy              =    -969.04024279 Ry
     estimated scf accuracy    <       0.00000012 Ry

     iteration #  5     ecut=    50.00 Ry     beta= 0.30
     Davidson diagonalization with overlap

---- Real-time Memory Report at c_bands before calling an iterative solver
             0 MiB given to the printing process from OS
             0 MiB allocation reported by mallinfo(arena+hblkhd)
             0 MiB available memory on the node where the printing process lives
------------------
     ethr =  7.30E-11,  avg # of iterations =  3.3

     negative rho (up, down):  5.199E-01 0.000E+00

     total cpu time spent up to now is     1946.7 secs

     total energy              =    -969.04024282 Ry
     estimated scf accuracy    <          9.1E-09 Ry

     iteration #  6     ecut=    50.00 Ry     beta= 0.30
     Davidson diagonalization with overlap

---- Real-time Memory Report at c_bands before calling an iterative solver
             0 MiB given to the printing process from OS
             0 MiB allocation reported by mallinfo(arena+hblkhd)
             0 MiB available memory on the node where the printing process lives
------------------
     ethr =  5.66E-12,  avg # of iterations =  5.2

     negative rho (up, down):  5.199E-01 0.000E+00

     total cpu time spent up to now is     1955.4 secs

     total energy              =    -969.04024282 Ry
     estimated scf accuracy    <       0.00000003 Ry

     iteration #  7     ecut=    50.00 Ry     beta= 0.30
     Davidson diagonalization with overlap

---- Real-time Memory Report at c_bands before calling an iterative solver
             0 MiB given to the printing process from OS
             0 MiB allocation reported by mallinfo(arena+hblkhd)
             0 MiB available memory on the node where the printing process lives
------------------
     ethr =  5.66E-12,  avg # of iterations =  4.5

     negative rho (up, down):  5.199E-01 0.000E+00

     total cpu time spent up to now is     1961.7 secs

     total energy              =    -969.04024282 Ry
     estimated scf accuracy    <          1.5E-09 Ry

     iteration #  8     ecut=    50.00 Ry     beta= 0.30
     Davidson diagonalization with overlap

---- Real-time Memory Report at c_bands before calling an iterative solver
             0 MiB given to the printing process from OS
             0 MiB allocation reported by mallinfo(arena+hblkhd)
             0 MiB available memory on the node where the printing process lives
------------------
     ethr =  9.35E-13,  avg # of iterations =  6.6

     negative rho (up, down):  5.199E-01 0.000E+00

     total cpu time spent up to now is     1970.7 secs

     total energy              =    -969.04024282 Ry
     estimated scf accuracy    <          6.4E-09 Ry

     iteration #  9     ecut=    50.00 Ry     beta= 0.30
     Davidson diagonalization with overlap

---- Real-time Memory Report at c_bands before calling an iterative solver
             0 MiB given to the printing process from OS
             0 MiB allocation reported by mallinfo(arena+hblkhd)
             0 MiB available memory on the node where the printing process lives
------------------
     ethr =  9.35E-13,  avg # of iterations =  5.6

     negative rho (up, down):  5.199E-01 0.000E+00

     total cpu time spent up to now is     1978.1 secs

     total energy              =    -969.04024282 Ry
     estimated scf accuracy    <          1.4E-10 Ry

     iteration # 10     ecut=    50.00 Ry     beta= 0.30
     Davidson diagonalization with overlap

---- Real-time Memory Report at c_bands before calling an iterative solver
             0 MiB given to the printing process from OS
             0 MiB allocation reported by mallinfo(arena+hblkhd)
             0 MiB available memory on the node where the printing process lives
------------------
     ethr =  1.00E-13,  avg # of iterations =  4.2

     negative rho (up, down):  5.199E-01 0.000E+00

     total cpu time spent up to now is     1984.2 secs

     total energy              =    -969.04024282 Ry
     estimated scf accuracy    <          1.1E-10 Ry

     iteration # 11     ecut=    50.00 Ry     beta= 0.30
     Davidson diagonalization with overlap

---- Real-time Memory Report at c_bands before calling an iterative solver
             0 MiB given to the printing process from OS
             0 MiB allocation reported by mallinfo(arena+hblkhd)
             0 MiB available memory on the node where the printing process lives
------------------
     ethr =  1.00E-13,  avg # of iterations =  2.8

     negative rho (up, down):  5.199E-01 0.000E+00

     total cpu time spent up to now is     1989.3 secs

     End of self-consistent calculation

          k = 0.0000 0.0000 0.0000 ( 18571 PWs)   bands (ev):

   -41.4266 -41.4266 -41.4222 -41.4222 -26.6713 -26.6711 -26.6697 -26.6695
   -19.5162 -19.5162 -19.4810 -19.4810 -19.4319 -19.4318 -19.4062 -19.4062
   -19.3891 -19.3891 -19.3730 -19.3730  -8.7734  -8.7672  -8.7647  -8.7562
    -8.7442  -8.7206  -8.6651  -8.6644  -8.6057  -8.6049  -8.5994  -8.5985
    -4.8967  -4.6688  -4.1087  -4.0661  -3.8367  -3.7350  -3.7038  -3.6949
    -3.5558  -3.4639  -3.4016  -3.3396   3.6380   3.8417   3.9012   3.9351
     3.9424   4.1350   4.2583   4.5497   4.7327   4.7328   4.7647   4.8034
     4.8620   4.8986   4.9100   5.4253   5.6400   5.6595   5.6944   5.9113
     5.9117   5.9663   6.2422   6.2863   6.4979   6.5553   6.6235   6.6653
     6.7127   6.8409   6.9293   7.1084   7.4319   7.4389   7.6411   7.8442

     occupation numbers 
     1.0000   1.0000   1.0000   1.0000   1.0000   1.0000   1.0000   1.0000
     1.0000   1.0000   1.0000   1.0000   1.0000   1.0000   1.0000   1.0000
     1.0000   1.0000   1.0000   1.0000   1.0000   1.0000   1.0000   1.0000
     1.0000   1.0000   1.0000   1.0000   1.0000   1.0000   1.0000   1.0000
     1.0000   1.0000   1.0000   1.0000   1.0000   1.0000   1.0000   1.0000
     1.0000   1.0000   1.0000   1.0000   1.0000   1.0000   1.0000   1.0000
     1.0000   1.0000   1.0000   1.0000   1.0000   1.0000   1.0000   1.0000
     1.0000   1.0000   1.0000   1.0000   1.0000   1.0000   1.0000   1.0000
     1.0000   1.0000   1.0000   1.0000   1.0000   1.0000   1.0000   1.0000
     1.0000   1.0000   1.0000   1.0000   1.0000   1.0000   1.0000   1.0000

          k = 0.0000 0.0000-0.1371 ( 18560 PWs)   bands (ev):

   -41.4266 -41.4266 -41.4222 -41.4222 -26.6712 -26.6712 -26.6696 -26.6696
   -19.5162 -19.5162 -19.4810 -19.4810 -19.4319 -19.4319 -19.4062 -19.4062
   -19.3891 -19.3891 -19.3730 -19.3730  -8.7700  -8.7700  -8.7623  -8.7623
    -8.7309  -8.7309  -8.6648  -8.6648  -8.6054  -8.6054  -8.5989  -8.5989
    -4.7969  -4.7969  -4.0733  -4.0733  -3.7833  -3.7833  -3.6843  -3.6843
    -3.5400  -3.5400  -3.3582  -3.3582   3.7194   3.7194   3.9144   3.9144
     4.0309   4.0309   4.4957   4.4957   4.7483   4.7483   4.8214   4.8214
     4.8902   4.8902   4.9045   4.9045   5.5150   5.5150   5.9386   5.9386
     6.1444   6.1444   6.2824   6.2824   6.6141   6.6141   6.6629   6.6629
     6.6960   6.6960   7.0176   7.0176   7.3024   7.3024   7.7366   7.7366

     occupation numbers 
     1.0000   1.0000   1.0000   1.0000   1.0000   1.0000   1.0000   1.0000
     1.0000   1.0000   1.0000   1.0000   1.0000   1.0000   1.0000   1.0000
     1.0000   1.0000   1.0000   1.0000   1.0000   1.0000   1.0000   1.0000
     1.0000   1.0000   1.0000   1.0000   1.0000   1.0000   1.0000   1.0000
     1.0000   1.0000   1.0000   1.0000   1.0000   1.0000   1.0000   1.0000
     1.0000   1.0000   1.0000   1.0000   1.0000   1.0000   1.0000   1.0000
     1.0000   1.0000   1.0000   1.0000   1.0000   1.0000   1.0000   1.0000
     1.0000   1.0000   1.0000   1.0000   1.0000   1.0000   1.0000   1.0000
     1.0000   1.0000   1.0000   1.0000   1.0000   1.0000   1.0000   1.0000
     1.0000   1.0000   1.0000   1.0000   1.0000   1.0000   1.0000   1.0000

          k = 0.0000 0.1481 0.0000 ( 18580 PWs)   bands (ev):

   -41.4266 -41.4266 -41.4222 -41.4222 -26.6709 -26.6707 -26.6701 -26.6699
   -19.5160 -19.5160 -19.4812 -19.4812 -19.4318 -19.4318 -19.4062 -19.4062
   -19.3891 -19.3891 -19.3730 -19.3730  -8.7795  -8.7712  -8.7595  -8.7487
    -8.7277  -8.7071  -8.6864  -8.6781  -8.6042  -8.6033  -8.6010  -8.6001
    -4.7801  -4.6326  -4.2282  -4.1820  -3.9484  -3.9286  -3.5587  -3.5314
    -3.4845  -3.4554  -3.3646  -3.3603   3.4410   3.5730   3.7199   3.7471
     4.0761   4.2136   4.3522   4.7356   4.7623   4.8612   4.8687   4.8814
     4.8877   5.1170   5.2170   5.2794   5.5347   5.6198   5.7662   6.0249
     6.0737   6.0938   6.1165   6.3057   6.4911   6.5388   6.7019   6.7594
     6.8017   6.8424   6.9173   7.0693   7.1264   7.2267   7.2798   7.3440

     occupation numbers 
     1.0000   1.0000   1.0000   1.0000   1.0000   1.0000   1.0000   1.0000
     1.0000   1.0000   1.0000   1.0000   1.0000   1.0000   1.0000   1.0000
     1.0000   1.0000   1.0000   1.0000   1.0000   1.0000   1.0000   1.0000
     1.0000   1.0000   1.0000   1.0000   1.0000   1.0000   1.0000   1.0000
     1.0000   1.0000   1.0000   1.0000   1.0000   1.0000   1.0000   1.0000
     1.0000   1.0000   1.0000   1.0000   1.0000   1.0000   1.0000   1.0000
     1.0000   1.0000   1.0000   1.0000   1.0000   1.0000   1.0000   1.0000
     1.0000   1.0000   1.0000   1.0000   1.0000   1.0000   1.0000   1.0000
     1.0000   1.0000   1.0000   1.0000   1.0000   1.0000   1.0000   1.0000
     1.0000   1.0000   1.0000   1.0000   1.0000   1.0000   1.0000   1.0000

          k = 0.0000 0.1481-0.1371 ( 18590 PWs)   bands (ev):

   -41.4266 -41.4266 -41.4222 -41.4222 -26.6708 -26.6708 -26.6700 -26.6700
   -19.5160 -19.5160 -19.4812 -19.4812 -19.4318 -19.4318 -19.4062 -19.4062
   -19.3891 -19.3891 -19.3730 -19.3730  -8.7725  -8.7725  -8.7589  -8.7589
    -8.7162  -8.7162  -8.6815  -8.6815  -8.6038  -8.6038  -8.6005  -8.6005
    -4.7077  -4.7077  -4.2243  -4.2243  -3.9103  -3.9103  -3.5624  -3.5624
    -3.4344  -3.4344  -3.3883  -3.3883   3.5068   3.5068   3.7015   3.7015
     4.1718   4.1718   4.6625   4.6625   4.7497   4.7497   4.8300   4.8300
     4.8701   4.8701   5.3792   5.3792   5.5214   5.5214   5.9153   5.9153
     6.1052   6.1052   6.3162   6.3162   6.5166   6.5166   6.6821   6.6821
     6.7442   6.7442   6.9668   6.9668   7.1529   7.1529   7.3863   7.3863

     occupation numbers 
     1.0000   1.0000   1.0000   1.0000   1.0000   1.0000   1.0000   1.0000
     1.0000   1.0000   1.0000   1.0000   1.0000   1.0000   1.0000   1.0000
     1.0000   1.0000   1.0000   1.0000   1.0000   1.0000   1.0000   1.0000
     1.0000   1.0000   1.0000   1.0000   1.0000   1.0000   1.0000   1.0000
     1.0000   1.0000   1.0000   1.0000   1.0000   1.0000   1.0000   1.0000
     1.0000   1.0000   1.0000   1.0000   1.0000   1.0000   1.0000   1.0000
     1.0000   1.0000   1.0000   1.0000   1.0000   1.0000   1.0000   1.0000
     1.0000   1.0000   1.0000   1.0000   1.0000   1.0000   1.0000   1.0000
     1.0000   1.0000   1.0000   1.0000   1.0000   1.0000   1.0000   1.0000
     1.0000   1.0000   1.0000   1.0000   1.0000   1.0000   1.0000   1.0000

          k = 0.1667 0.0000 0.0000 ( 18537 PWs)   bands (ev):

   -41.4250 -41.4250 -41.4212 -41.4212 -26.6662 -26.6660 -26.6647 -26.6645
   -19.5083 -19.5083 -19.4760 -19.4759 -19.4312 -19.4312 -19.4246 -19.4246
   -19.4008 -19.4008 -19.4008 -19.4008  -8.7480  -8.7459  -8.7455  -8.7344
    -8.7291  -8.7065  -8.7034  -8.7009  -8.6853  -8.6834  -8.6528  -8.6518
    -4.7100  -4.5105  -4.0167  -3.9769  -3.8577  -3.7707  -3.7111  -3.6878
    -3.5169  -3.3998  -3.3989  -3.3551   3.7870   3.8614   4.0517   4.0526
     4.0753   4.1931   4.2491   4.3076   4.4055   4.4097   4.5868   5.0032
     5.1268   5.2354   5.3725   5.4055   5.4489   5.5311   5.6282   5.6980
     5.7179   5.7913   5.8477   6.1050   6.1165   6.2148   6.2844   6.4324
     6.4427   6.6230   6.6396   6.8369   6.9401   7.2380   7.3709   7.4527

     occupation numbers 
     1.0000   1.0000   1.0000   1.0000   1.0000   1.0000   1.0000   1.0000
     1.0000   1.0000   1.0000   1.0000   1.0000   1.0000   1.0000   1.0000
     1.0000   1.0000   1.0000   1.0000   1.0000   1.0000   1.0000   1.0000
     1.0000   1.0000   1.0000   1.0000   1.0000   1.0000   1.0000   1.0000
     1.0000   1.0000   1.0000   1.0000   1.0000   1.0000   1.0000   1.0000
     1.0000   1.0000   1.0000   1.0000   1.0000   1.0000   1.0000   1.0000
     1.0000   1.0000   1.0000   1.0000   1.0000   1.0000   1.0000   1.0000
     1.0000   1.0000   1.0000   1.0000   1.0000   1.0000   1.0000   1.0000
     1.0000   1.0000   1.0000   1.0000   1.0000   1.0000   1.0000   1.0000
     1.0000   1.0000   1.0000   1.0000   1.0000   1.0000   1.0000   1.0000

          k = 0.1667 0.0000-0.1371 ( 18576 PWs)   bands (ev):

   -41.4250 -41.4250 -41.4212 -41.4212 -26.6661 -26.6661 -26.6646 -26.6646
   -19.5083 -19.5083 -19.4759 -19.4759 -19.4312 -19.4312 -19.4246 -19.4246
   -19.4008 -19.4008 -19.4008 -19.4008  -8.7462  -8.7462  -8.7425  -8.7425
    -8.7176  -8.7176  -8.7006  -8.7006  -8.6844  -8.6844  -8.6523  -8.6523
    -4.6222  -4.6222  -3.9872  -3.9872  -3.8091  -3.8091  -3.6976  -3.6976
    -3.4765  -3.4765  -3.3635  -3.3635   3.8189   3.8189   4.0285   4.0285
     4.1193   4.1193   4.2794   4.2794   4.4982   4.4982   4.7402   4.7402
     5.1701   5.1701   5.3655   5.3655   5.4585   5.4585   5.6267   5.6267
     5.7950   5.7950   6.0386   6.0386   6.2315   6.2315   6.3567   6.3567
     6.4925   6.4925   6.6539   6.6539   7.1596   7.1596   7.4145   7.4145

     occupation numbers 
     1.0000   1.0000   1.0000   1.0000   1.0000   1.0000   1.0000   1.0000
     1.0000   1.0000   1.0000   1.0000   1.0000   1.0000   1.0000   1.0000
     1.0000   1.0000   1.0000   1.0000   1.0000   1.0000   1.0000   1.0000
     1.0000   1.0000   1.0000   1.0000   1.0000   1.0000   1.0000   1.0000
     1.0000   1.0000   1.0000   1.0000   1.0000   1.0000   1.0000   1.0000
     1.0000   1.0000   1.0000   1.0000   1.0000   1.0000   1.0000   1.0000
     1.0000   1.0000   1.0000   1.0000   1.0000   1.0000   1.0000   1.0000
     1.0000   1.0000   1.0000   1.0000   1.0000   1.0000   1.0000   1.0000
     1.0000   1.0000   1.0000   1.0000   1.0000   1.0000   1.0000   1.0000
     1.0000   1.0000   1.0000   1.0000   1.0000   1.0000   1.0000   1.0000

          k = 0.1667 0.1481 0.0000 ( 18591 PWs)   bands (ev):

   -41.4250 -41.4250 -41.4212 -41.4212 -26.6658 -26.6656 -26.6650 -26.6649
   -19.5081 -19.5081 -19.4762 -19.4761 -19.4312 -19.4312 -19.4246 -19.4246
   -19.4008 -19.4008 -19.4008 -19.4008  -8.7560  -8.7505  -8.7392  -8.7324
    -8.7150  -8.7029  -8.6982  -8.6971  -8.6845  -8.6826  -8.6668  -8.6636
    -4.6135  -4.4873  -4.1028  -4.0623  -3.9454  -3.9263  -3.5573  -3.5379
    -3.5021  -3.4455  -3.3636  -3.3616   3.6918   3.7990   3.8954   3.9078
     4.1228   4.2052   4.3112   4.4999   4.5036   4.5630   4.7740   4.9316
     5.0033   5.1036   5.3116   5.3633   5.4197   5.5569   5.5573   5.5872
     5.7453   5.9153   5.9814   5.9865   6.1129   6.1630   6.4145   6.4727
     6.5767   6.6184   6.7248   6.8713   7.0684   7.2037   7.3209   7.3353

     occupation numbers 
     1.0000   1.0000   1.0000   1.0000   1.0000   1.0000   1.0000   1.0000
     1.0000   1.0000   1.0000   1.0000   1.0000   1.0000   1.0000   1.0000
     1.0000   1.0000   1.0000   1.0000   1.0000   1.0000   1.0000   1.0000
     1.0000   1.0000   1.0000   1.0000   1.0000   1.0000   1.0000   1.0000
     1.0000   1.0000   1.0000   1.0000   1.0000   1.0000   1.0000   1.0000
     1.0000   1.0000   1.0000   1.0000   1.0000   1.0000   1.0000   1.0000
     1.0000   1.0000   1.0000   1.0000   1.0000   1.0000   1.0000   1.0000
     1.0000   1.0000   1.0000   1.0000   1.0000   1.0000   1.0000   1.0000
     1.0000   1.0000   1.0000   1.0000   1.0000   1.0000   1.0000   1.0000
     1.0000   1.0000   1.0000   1.0000   1.0000   1.0000   1.0000   1.0000

          k = 0.1667 0.1481-0.1371 ( 18560 PWs)   bands (ev):

   -41.4250 -41.4250 -41.4212 -41.4212 -26.6657 -26.6657 -26.6649 -26.6649
   -19.5081 -19.5081 -19.4761 -19.4761 -19.4312 -19.4312 -19.4246 -19.4246
   -19.4008 -19.4008 -19.4008 -19.4008  -8.7508  -8.7508  -8.7397  -8.7397
    -8.7073  -8.7073  -8.6980  -8.6980  -8.6835  -8.6835  -8.6651  -8.6651
    -4.5508  -4.5508  -4.1060  -4.1060  -3.9097  -3.9097  -3.5606  -3.5606
    -3.4377  -3.4377  -3.3879  -3.3879   3.7229   3.7229   3.8650   3.8650
     4.2449   4.2449   4.4148   4.4148   4.5944   4.5944   4.7840   4.7840
     4.9954   4.9954   5.3118   5.3118   5.4930   5.4930   5.5503   5.5503
     5.8732   5.8732   6.0046   6.0046   6.2046   6.2046   6.3870   6.3870
     6.6555   6.6555   6.7706   6.7706   7.1205   7.1205   7.3041   7.3041

     occupation numbers 
     1.0000   1.0000   1.0000   1.0000   1.0000   1.0000   1.0000   1.0000
     1.0000   1.0000   1.0000   1.0000   1.0000   1.0000   1.0000   1.0000
     1.0000   1.0000   1.0000   1.0000   1.0000   1.0000   1.0000   1.0000
     1.0000   1.0000   1.0000   1.0000   1.0000   1.0000   1.0000   1.0000
     1.0000   1.0000   1.0000   1.0000   1.0000   1.0000   1.0000   1.0000
     1.0000   1.0000   1.0000   1.0000   1.0000   1.0000   1.0000   1.0000
     1.0000   1.0000   1.0000   1.0000   1.0000   1.0000   1.0000   1.0000
     1.0000   1.0000   1.0000   1.0000   1.0000   1.0000   1.0000   1.0000
     1.0000   1.0000   1.0000   1.0000   1.0000   1.0000   1.0000   1.0000
     1.0000   1.0000   1.0000   1.0000   1.0000   1.0000   1.0000   1.0000

          k = 0.3335 0.0000 0.0000 ( 18620 PWs)   bands (ev):

   -41.4216 -41.4216 -41.4194 -41.4194 -26.6559 -26.6558 -26.6546 -26.6545
   -19.4982 -19.4982 -19.4864 -19.4864 -19.4605 -19.4604 -19.4601 -19.4601
   -19.4171 -19.4170 -19.4065 -19.4065  -8.8894  -8.8888  -8.8530  -8.8521
    -8.7053  -8.7039  -8.6995  -8.6931  -8.6822  -8.6747  -8.6279  -8.6270
    -4.2787  -4.1625  -3.9330  -3.9327  -3.8688  -3.8240  -3.6551  -3.6541
    -3.3961  -3.3822  -3.3820  -3.2860   3.6194   3.7800   3.9437   4.0105
     4.0324   4.1417   4.2672   4.4083   4.5639   4.6408   4.6823   4.7274
     4.7695   4.7746   4.9162   5.1143   5.3899   5.4555   5.5038   5.5529
     5.6282   5.6890   5.7326   5.7509   6.0012   6.1658   6.1832   6.2475
     6.4050   6.4872   6.5025   6.5203   6.5885   6.6126   6.9320   6.9879

     occupation numbers 
     1.0000   1.0000   1.0000   1.0000   1.0000   1.0000   1.0000   1.0000
     1.0000   1.0000   1.0000   1.0000   1.0000   1.0000   1.0000   1.0000
     1.0000   1.0000   1.0000   1.0000   1.0000   1.0000   1.0000   1.0000
     1.0000   1.0000   1.0000   1.0000   1.0000   1.0000   1.0000   1.0000
     1.0000   1.0000   1.0000   1.0000   1.0000   1.0000   1.0000   1.0000
     1.0000   1.0000   1.0000   1.0000   1.0000   1.0000   1.0000   1.0000
     1.0000   1.0000   1.0000   1.0000   1.0000   1.0000   1.0000   1.0000
     1.0000   1.0000   1.0000   1.0000   1.0000   1.0000   1.0000   1.0000
     1.0000   1.0000   1.0000   1.0000   1.0000   1.0000   1.0000   1.0000
     1.0000   1.0000   1.0000   1.0000   1.0000   1.0000   1.0000   1.0000

          k = 0.3335 0.0000-0.1371 ( 18610 PWs)   bands (ev):

   -41.4216 -41.4216 -41.4194 -41.4194 -26.6559 -26.6559 -26.6545 -26.6545
   -19.4982 -19.4982 -19.4864 -19.4864 -19.4605 -19.4605 -19.4601 -19.4601
   -19.4171 -19.4171 -19.4065 -19.4065  -8.8891  -8.8891  -8.8525  -8.8525
    -8.7042  -8.7042  -8.6972  -8.6972  -8.6779  -8.6779  -8.6275  -8.6275
    -4.2255  -4.2255  -3.9348  -3.9348  -3.8416  -3.8416  -3.6533  -3.6533
    -3.3984  -3.3984  -3.3239  -3.3239   3.7449   3.7449   3.8497   3.8497
     4.0896   4.0896   4.3743   4.3743   4.6466   4.6466   4.7391   4.7391
     4.7763   4.7763   5.0406   5.0406   5.3516   5.3516   5.5779   5.5779
     5.7618   5.7618   5.7975   5.7975   5.8518   5.8518   6.0723   6.0723
     6.3926   6.3926   6.6144   6.6144   6.7234   6.7234   6.9755   6.9755

     occupation numbers 
     1.0000   1.0000   1.0000   1.0000   1.0000   1.0000   1.0000   1.0000
     1.0000   1.0000   1.0000   1.0000   1.0000   1.0000   1.0000   1.0000
     1.0000   1.0000   1.0000   1.0000   1.0000   1.0000   1.0000   1.0000
     1.0000   1.0000   1.0000   1.0000   1.0000   1.0000   1.0000   1.0000
     1.0000   1.0000   1.0000   1.0000   1.0000   1.0000   1.0000   1.0000
     1.0000   1.0000   1.0000   1.0000   1.0000   1.0000   1.0000   1.0000
     1.0000   1.0000   1.0000   1.0000   1.0000   1.0000   1.0000   1.0000
     1.0000   1.0000   1.0000   1.0000   1.0000   1.0000   1.0000   1.0000
     1.0000   1.0000   1.0000   1.0000   1.0000   1.0000   1.0000   1.0000
     1.0000   1.0000   1.0000   1.0000   1.0000   1.0000   1.0000   1.0000

          k = 0.3335 0.1481 0.0000 ( 18628 PWs)   bands (ev):

   -41.4216 -41.4216 -41.4194 -41.4194 -26.6556 -26.6555 -26.6549 -26.6548
   -19.4982 -19.4982 -19.4865 -19.4865 -19.4603 -19.4603 -19.4601 -19.4601
   -19.4171 -19.4170 -19.4065 -19.4065  -8.8807  -8.8798  -8.8626  -8.8615
    -8.7093  -8.7077  -8.6985  -8.6955  -8.6652  -8.6601  -8.6394  -8.6372
    -4.2402  -4.1764  -3.9666  -3.9512  -3.8416  -3.8299  -3.6466  -3.6453
    -3.4091  -3.3964  -3.3480  -3.3052   3.7078   3.7464   3.9051   3.9257
     4.2180   4.2444   4.3273   4.3932   4.4444   4.4827   4.5865   4.6186
     4.7299   4.8882   5.0870   5.2280   5.2290   5.2604   5.3739   5.4505
     5.6498   5.6781   5.7778   5.9040   6.0123   6.0185   6.2166   6.2532
     6.3160   6.3808   6.6977   6.7194   6.8276   6.8414   6.8747   6.9895

     occupation numbers 
     1.0000   1.0000   1.0000   1.0000   1.0000   1.0000   1.0000   1.0000
     1.0000   1.0000   1.0000   1.0000   1.0000   1.0000   1.0000   1.0000
     1.0000   1.0000   1.0000   1.0000   1.0000   1.0000   1.0000   1.0000
     1.0000   1.0000   1.0000   1.0000   1.0000   1.0000   1.0000   1.0000
     1.0000   1.0000   1.0000   1.0000   1.0000   1.0000   1.0000   1.0000
     1.0000   1.0000   1.0000   1.0000   1.0000   1.0000   1.0000   1.0000
     1.0000   1.0000   1.0000   1.0000   1.0000   1.0000   1.0000   1.0000
     1.0000   1.0000   1.0000   1.0000   1.0000   1.0000   1.0000   1.0000
     1.0000   1.0000   1.0000   1.0000   1.0000   1.0000   1.0000   1.0000
     1.0000   1.0000   1.0000   1.0000   1.0000   1.0000   1.0000   1.0000

          k = 0.3335 0.1481-0.1371 ( 18596 PWs)   bands (ev):

   -41.4216 -41.4216 -41.4194 -41.4194 -26.6555 -26.6555 -26.6548 -26.6548
   -19.4982 -19.4982 -19.4865 -19.4865 -19.4603 -19.4603 -19.4601 -19.4601
   -19.4171 -19.4171 -19.4065 -19.4065  -8.8803  -8.8803  -8.8620  -8.8620
    -8.7075  -8.7075  -8.6982  -8.6982  -8.6625  -8.6625  -8.6382  -8.6382
    -4.2051  -4.2051  -3.9730  -3.9730  -3.8270  -3.8270  -3.6458  -3.6458
    -3.3912  -3.3912  -3.3361  -3.3361   3.7369   3.7369   3.8546   3.8546
     4.2249   4.2249   4.3833   4.3833   4.4876   4.4876   4.6697   4.6697
     4.8379   4.8379   5.1434   5.1434   5.2395   5.2395   5.3564   5.3564
     5.6295   5.6295   5.7318   5.7318   6.1273   6.1273   6.2203   6.2203
     6.4442   6.4442   6.6203   6.6203   6.7996   6.7996   6.9988   6.9988

     occupation numbers 
     1.0000   1.0000   1.0000   1.0000   1.0000   1.0000   1.0000   1.0000
     1.0000   1.0000   1.0000   1.0000   1.0000   1.0000   1.0000   1.0000
     1.0000   1.0000   1.0000   1.0000   1.0000   1.0000   1.0000   1.0000
     1.0000   1.0000   1.0000   1.0000   1.0000   1.0000   1.0000   1.0000
     1.0000   1.0000   1.0000   1.0000   1.0000   1.0000   1.0000   1.0000
     1.0000   1.0000   1.0000   1.0000   1.0000   1.0000   1.0000   1.0000
     1.0000   1.0000   1.0000   1.0000   1.0000   1.0000   1.0000   1.0000
     1.0000   1.0000   1.0000   1.0000   1.0000   1.0000   1.0000   1.0000
     1.0000   1.0000   1.0000   1.0000   1.0000   1.0000   1.0000   1.0000
     1.0000   1.0000   1.0000   1.0000   1.0000   1.0000   1.0000   1.0000

          k =-0.5002 0.0000 0.0000 ( 18628 PWs)   bands (ev):

   -41.4192 -41.4192 -41.4192 -41.4192 -26.6508 -26.6508 -26.6495 -26.6495
   -19.5124 -19.5124 -19.5124 -19.5124 -19.4612 -19.4612 -19.4612 -19.4612
   -19.4121 -19.4121 -19.4121 -19.4121  -8.9774  -8.9774  -8.9328  -8.9328
    -8.6817  -8.6817  -8.6808  -8.6808  -8.6552  -8.6552  -8.6149  -8.6149
    -4.0011  -4.0011  -4.0002  -4.0002  -3.7082  -3.7082  -3.6946  -3.6946
    -3.3934  -3.3934  -3.2783  -3.2783   3.5306   3.5306   3.7237   3.7237
     4.0280   4.0280   4.2997   4.2997   4.5070   4.5070   4.5787   4.5787
     5.0604   5.0604   5.2081   5.2081   5.2600   5.2600   5.2634   5.2634
     5.4770   5.4770   5.8740   5.8740   5.9367   5.9367   6.0553   6.0553
     6.5702   6.5702   6.5974   6.5974   6.6941   6.6941   6.7681   6.7681

     occupation numbers 
     1.0000   1.0000   1.0000   1.0000   1.0000   1.0000   1.0000   1.0000
     1.0000   1.0000   1.0000   1.0000   1.0000   1.0000   1.0000   1.0000
     1.0000   1.0000   1.0000   1.0000   1.0000   1.0000   1.0000   1.0000
     1.0000   1.0000   1.0000   1.0000   1.0000   1.0000   1.0000   1.0000
     1.0000   1.0000   1.0000   1.0000   1.0000   1.0000   1.0000   1.0000
     1.0000   1.0000   1.0000   1.0000   1.0000   1.0000   1.0000   1.0000
     1.0000   1.0000   1.0000   1.0000   1.0000   1.0000   1.0000   1.0000
     1.0000   1.0000   1.0000   1.0000   1.0000   1.0000   1.0000   1.0000
     1.0000   1.0000   1.0000   1.0000   1.0000   1.0000   1.0000   1.0000
     1.0000   1.0000   1.0000   1.0000   1.0000   1.0000   1.0000   1.0000

          k =-0.5002 0.0000-0.1371 ( 18652 PWs)   bands (ev):

   -41.4192 -41.4192 -41.4192 -41.4192 -26.6508 -26.6508 -26.6495 -26.6495
   -19.5124 -19.5124 -19.5124 -19.5124 -19.4612 -19.4612 -19.4612 -19.4612
   -19.4121 -19.4121 -19.4121 -19.4121  -8.9774  -8.9774  -8.9328  -8.9328
    -8.6817  -8.6817  -8.6808  -8.6808  -8.6552  -8.6552  -8.6148  -8.6148
    -4.0037  -4.0037  -3.9975  -3.9975  -3.7089  -3.7089  -3.6945  -3.6945
    -3.3931  -3.3931  -3.2779  -3.2779   3.5173   3.5173   3.7480   3.7480
     4.0191   4.0191   4.2401   4.2401   4.5339   4.5339   4.6810   4.6810
     4.9938   4.9938   5.0664   5.0664   5.2279   5.2279   5.3830   5.3830
     5.6609   5.6609   5.6800   5.6800   5.9119   5.9119   6.3432   6.3432
     6.4399   6.4399   6.4899   6.4899   6.6550   6.6550   6.8322   6.8322

     occupation numbers 
     1.0000   1.0000   1.0000   1.0000   1.0000   1.0000   1.0000   1.0000
     1.0000   1.0000   1.0000   1.0000   1.0000   1.0000   1.0000   1.0000
     1.0000   1.0000   1.0000   1.0000   1.0000   1.0000   1.0000   1.0000
     1.0000   1.0000   1.0000   1.0000   1.0000   1.0000   1.0000   1.0000
     1.0000   1.0000   1.0000   1.0000   1.0000   1.0000   1.0000   1.0000
     1.0000   1.0000   1.0000   1.0000   1.0000   1.0000   1.0000   1.0000
     1.0000   1.0000   1.0000   1.0000   1.0000   1.0000   1.0000   1.0000
     1.0000   1.0000   1.0000   1.0000   1.0000   1.0000   1.0000   1.0000
     1.0000   1.0000   1.0000   1.0000   1.0000   1.0000   1.0000   1.0000
     1.0000   1.0000   1.0000   1.0000   1.0000   1.0000   1.0000   1.0000

          k =-0.5002 0.1481 0.0000 ( 18590 PWs)   bands (ev):

   -41.4192 -41.4192 -41.4192 -41.4192 -26.6504 -26.6504 -26.6498 -26.6498
   -19.5125 -19.5125 -19.5125 -19.5125 -19.4611 -19.4611 -19.4611 -19.4611
   -19.4121 -19.4121 -19.4121 -19.4121  -8.9664  -8.9664  -8.9440  -8.9440
    -8.6835  -8.6835  -8.6824  -8.6824  -8.6432  -8.6432  -8.6236  -8.6236
    -4.0003  -4.0003  -4.0002  -4.0002  -3.7062  -3.7062  -3.7006  -3.7006
    -3.3617  -3.3617  -3.3049  -3.3049   3.4580   3.4580   3.5179   3.5179
     4.2497   4.2497   4.3749   4.3749   4.6166   4.6166   4.6272   4.6272
     4.9684   4.9684   5.0461   5.0461   5.2583   5.2583   5.3555   5.3555
     5.6814   5.6814   5.7393   5.7393   6.1473   6.1473   6.1647   6.1647
     6.4013   6.4013   6.4038   6.4038   6.6381   6.6381   6.6636   6.6636

     occupation numbers 
     1.0000   1.0000   1.0000   1.0000   1.0000   1.0000   1.0000   1.0000
     1.0000   1.0000   1.0000   1.0000   1.0000   1.0000   1.0000   1.0000
     1.0000   1.0000   1.0000   1.0000   1.0000   1.0000   1.0000   1.0000
     1.0000   1.0000   1.0000   1.0000   1.0000   1.0000   1.0000   1.0000
     1.0000   1.0000   1.0000   1.0000   1.0000   1.0000   1.0000   1.0000
     1.0000   1.0000   1.0000   1.0000   1.0000   1.0000   1.0000   1.0000
     1.0000   1.0000   1.0000   1.0000   1.0000   1.0000   1.0000   1.0000
     1.0000   1.0000   1.0000   1.0000   1.0000   1.0000   1.0000   1.0000
     1.0000   1.0000   1.0000   1.0000   1.0000   1.0000   1.0000   1.0000
     1.0000   1.0000   1.0000   1.0000   1.0000   1.0000   1.0000   1.0000

          k =-0.5002 0.1481-0.1371 ( 18600 PWs)   bands (ev):

   -41.4192 -41.4192 -41.4192 -41.4192 -26.6504 -26.6504 -26.6498 -26.6498
   -19.5125 -19.5125 -19.5125 -19.5125 -19.4611 -19.4611 -19.4611 -19.4611
   -19.4121 -19.4121 -19.4121 -19.4121  -8.9664  -8.9664  -8.9441  -8.9441
    -8.6835  -8.6835  -8.6824  -8.6824  -8.6432  -8.6432  -8.6236  -8.6236
    -4.0016  -4.0016  -3.9988  -3.9988  -3.7078  -3.7078  -3.6997  -3.6997
    -3.3614  -3.3614  -3.3045  -3.3045   3.4386   3.4386   3.5294   3.5294
     4.2388   4.2388   4.3792   4.3792   4.5871   4.5871   4.6152   4.6152
     5.0564   5.0564   5.1546   5.1546   5.2886   5.2886   5.2903   5.2903
     5.6770   5.6770   5.7588   5.7588   5.9494   5.9494   6.0366   6.0366
     6.3982   6.3982   6.4381   6.4381   6.7457   6.7457   6.7524   6.7524

     occupation numbers 
     1.0000   1.0000   1.0000   1.0000   1.0000   1.0000   1.0000   1.0000
     1.0000   1.0000   1.0000   1.0000   1.0000   1.0000   1.0000   1.0000
     1.0000   1.0000   1.0000   1.0000   1.0000   1.0000   1.0000   1.0000
     1.0000   1.0000   1.0000   1.0000   1.0000   1.0000   1.0000   1.0000
     1.0000   1.0000   1.0000   1.0000   1.0000   1.0000   1.0000   1.0000
     1.0000   1.0000   1.0000   1.0000   1.0000   1.0000   1.0000   1.0000
     1.0000   1.0000   1.0000   1.0000   1.0000   1.0000   1.0000   1.0000
     1.0000   1.0000   1.0000   1.0000   1.0000   1.0000   1.0000   1.0000
     1.0000   1.0000   1.0000   1.0000   1.0000   1.0000   1.0000   1.0000
     1.0000   1.0000   1.0000   1.0000   1.0000   1.0000   1.0000   1.0000

     highest occupied level (ev):     7.8442

!    total energy              =    -969.04024282 Ry
     estimated scf accuracy    <          1.3E-11 Ry

     The total energy is the sum of the following terms:
     one-electron contribution =    -196.01893590 Ry
     hartree contribution      =     158.36275625 Ry
     xc contribution           =    -246.04987328 Ry
     ewald contribution        =    -685.33418989 Ry

     convergence has been achieved in  11 iterations

     negative rho (up, down):  5.199E-01 0.000E+00

     Forces acting on atoms (cartesian axes, Ry/au):

     atom    1 type  2   force =     0.00000000   -0.00004427   -0.00007261
     atom    2 type  2   force =     0.00000000    0.00004427    0.00007261
     atom    3 type  2   force =     0.00000000    0.00004427   -0.00007261
     atom    4 type  2   force =     0.00000000   -0.00004427    0.00007261
     atom    5 type  3   force =     0.00000000    0.00000262    0.00050317
     atom    6 type  3   force =    -0.00000000   -0.00000262   -0.00050317
     atom    7 type  3   force =     0.00000000   -0.00000262    0.00050317
     atom    8 type  3   force =     0.00000000    0.00000262   -0.00050317
     atom    9 type  1   force =     0.00000000    0.00007519   -0.00003576
     atom   10 type  1   force =     0.00000000   -0.00007519    0.00003576
     atom   11 type  1   force =     0.00000000   -0.00007519   -0.00003576
     atom   12 type  1   force =     0.00000000    0.00007519    0.00003576
     atom   13 type  1   force =     0.00000000    0.00029130   -0.00010180
     atom   14 type  1   force =     0.00000000   -0.00029130    0.00010180
     atom   15 type  1   force =     0.00000000   -0.00029130   -0.00010180
     atom   16 type  1   force =     0.00000000    0.00029130    0.00010180
     atom   17 type  1   force =    -0.00000000    0.00025353    0.00000448
     atom   18 type  1   force =     0.00000000   -0.00025353   -0.00000448
     atom   19 type  1   force =     0.00000000   -0.00025353    0.00000448
     atom   20 type  1   force =     0.00000000    0.00025353   -0.00000448
     The non-local contrib.  to forces
     atom    1 type  2   force =     0.00000000    0.00104560    0.00492173
     atom    2 type  2   force =     0.00000000   -0.00104560   -0.00492173
     atom    3 type  2   force =    -0.00000000   -0.00104560    0.00492173
     atom    4 type  2   force =     0.00000000    0.00104560   -0.00492173
     atom    5 type  3   force =     0.00000000    0.02368947   -0.02037242
     atom    6 type  3   force =     0.00000000   -0.02368947    0.02037242
     atom    7 type  3   force =    -0.00000000   -0.02368947   -0.02037242
     atom    8 type  3   force =     0.00000000    0.02368947    0.02037242
     atom    9 type  1   force =     0.00000000    0.00414392   -0.01076556
     atom   10 type  1   force =    -0.00000000   -0.00414392    0.01076556
     atom   11 type  1   force =     0.00000000   -0.00414392   -0.01076556
     atom   12 type  1   force =     0.00000000    0.00414392    0.01076556
     atom   13 type  1   force =     0.00000000   -0.04324393   -0.00285972
     atom   14 type  1   force =     0.00000000    0.04324393    0.00285972
     atom   15 type  1   force =    -0.00000000    0.04324393   -0.00285972
     atom   16 type  1   force =     0.00000000   -0.04324393    0.00285972
     atom   17 type  1   force =     0.00000000    0.04130823    0.06789629
     atom   18 type  1   force =     0.00000000   -0.04130823   -0.06789629
     atom   19 type  1   force =     0.00000000   -0.04130823    0.06789629
     atom   20 type  1   force =     0.00000000    0.04130823   -0.06789629
     The ionic contribution  to forces
     atom    1 type  2   force =     0.00000000    0.39830013    0.11675606
     atom    2 type  2   force =     0.00000000   -0.39830013   -0.11675606
     atom    3 type  2   force =     0.00000000   -0.39830013    0.11675606
     atom    4 type  2   force =     0.00000000    0.39830013   -0.11675606
     atom    5 type  3   force =     0.00000000   -2.77051682    1.05897077
     atom    6 type  3   force =     0.00000000    2.77051682   -1.05897077
     atom    7 type  3   force =     0.00000000    2.77051682    1.05897077
     atom    8 type  3   force =     0.00000000   -2.77051682   -1.05897077
     atom    9 type  1   force =     0.00000000   -1.59228647    3.67092528
     atom   10 type  1   force =     0.00000000    1.59228647   -3.67092528
     atom   11 type  1   force =     0.00000000    1.59228647    3.67092528
     atom   12 type  1   force =     0.00000000   -1.59228647   -3.67092528
     atom   13 type  1   force =     0.00000000    3.63229458   -2.26283467
     atom   14 type  1   force =     0.00000000   -3.63229458    2.26283467
     atom   15 type  1   force =     0.00000000   -3.63229458   -2.26283467
     atom   16 type  1   force =     0.00000000    3.63229458    2.26283467
     atom   17 type  1   force =     0.00000000   -2.92820928   -4.82963270
     atom   18 type  1   force =     0.00000000    2.92820928    4.82963270
     atom   19 type  1   force =     0.00000000    2.92820928   -4.82963270
     atom   20 type  1   force =     0.00000000   -2.92820928    4.82963270
     The local contribution  to forces
     atom    1 type  2   force =    -0.00000000   -0.39944716   -0.12155024
     atom    2 type  2   force =    -0.00000000    0.39944716    0.12155024
     atom    3 type  2   force =    -0.00000000    0.39944716   -0.12155024
     atom    4 type  2   force =    -0.00000000   -0.39944716    0.12155024
     atom    5 type  3   force =    -0.00000000    2.74771029   -1.03775357
     atom    6 type  3   force =    -0.00000000   -2.74771029    1.03775357
     atom    7 type  3   force =    -0.00000000   -2.74771029   -1.03775357
     atom    8 type  3   force =    -0.00000000    2.74771029    1.03775357
     atom    9 type  1   force =    -0.00000000    1.58816772   -3.66012332
     atom   10 type  1   force =    -0.00000000   -1.58816772    3.66012332
     atom   11 type  1   force =    -0.00000000   -1.58816772   -3.66012332
     atom   12 type  1   force =    -0.00000000    1.58816772    3.66012332
     atom   13 type  1   force =    -0.00000000   -3.59080030    2.26514260
     atom   14 type  1   force =    -0.00000000    3.59080030   -2.26514260
     atom   15 type  1   force =    -0.00000000    3.59080030    2.26514260
     atom   16 type  1   force =    -0.00000000   -3.59080030   -2.26514260
     atom   17 type  1   force =    -0.00000000    2.88911787    4.76511796
     atom   18 type  1   force =    -0.00000000   -2.88911787   -4.76511796
     atom   19 type  1   force =    -0.00000000   -2.88911787    4.76511796
     atom   20 type  1   force =    -0.00000000    2.88911787   -4.76511796
     The core correction contribution to forces
     atom    1 type  2   force =     0.00000000    0.00005723   -0.00020072
     atom    2 type  2   force =     0.00000000   -0.00005723    0.00020072
     atom    3 type  2   force =     0.00000000   -0.00005723   -0.00020072
     atom    4 type  2   force =     0.00000000    0.00005723    0.00020072
     atom    5 type  3   force =     0.00000000   -0.00087723   -0.00034277
     atom    6 type  3   force =     0.00000000    0.00087723    0.00034277
     atom    7 type  3   force =     0.00000000    0.00087723   -0.00034277
     atom    8 type  3   force =     0.00000000   -0.00087723    0.00034277
     atom    9 type  1   force =    -0.00000000    0.00005103   -0.00007348
     atom   10 type  1   force =     0.00000000   -0.00005103    0.00007348
     atom   11 type  1   force =     0.00000000   -0.00005103   -0.00007348
     atom   12 type  1   force =    -0.00000000    0.00005103    0.00007348
     atom   13 type  1   force =    -0.00000000    0.00203889    0.00045067
     atom   14 type  1   force =     0.00000000   -0.00203889   -0.00045067
     atom   15 type  1   force =     0.00000000   -0.00203889    0.00045067
     atom   16 type  1   force =     0.00000000    0.00203889   -0.00045067
     atom   17 type  1   force =    -0.00000000   -0.00196222   -0.00337457
     atom   18 type  1   force =     0.00000000    0.00196222    0.00337457
     atom   19 type  1   force =     0.00000000    0.00196222   -0.00337457
     atom   20 type  1   force =    -0.00000000   -0.00196222    0.00337457
     The Hubbard contrib.    to forces
     atom    1 type  2   force =     0.00000000    0.00000000    0.00000000
     atom    2 type  2   force =     0.00000000    0.00000000    0.00000000
     atom    3 type  2   force =     0.00000000    0.00000000    0.00000000
     atom    4 type  2   force =     0.00000000    0.00000000    0.00000000
     atom    5 type  3   force =     0.00000000    0.00000000    0.00000000
     atom    6 type  3   force =     0.00000000    0.00000000    0.00000000
     atom    7 type  3   force =     0.00000000    0.00000000    0.00000000
     atom    8 type  3   force =     0.00000000    0.00000000    0.00000000
     atom    9 type  1   force =     0.00000000    0.00000000    0.00000000
     atom   10 type  1   force =     0.00000000    0.00000000    0.00000000
     atom   11 type  1   force =     0.00000000    0.00000000    0.00000000
     atom   12 type  1   force =     0.00000000    0.00000000    0.00000000
     atom   13 type  1   force =     0.00000000    0.00000000    0.00000000
     atom   14 type  1   force =     0.00000000    0.00000000    0.00000000
     atom   15 type  1   force =     0.00000000    0.00000000    0.00000000
     atom   16 type  1   force =     0.00000000    0.00000000    0.00000000
     atom   17 type  1   force =     0.00000000    0.00000000    0.00000000
     atom   18 type  1   force =     0.00000000    0.00000000    0.00000000
     atom   19 type  1   force =     0.00000000    0.00000000    0.00000000
     atom   20 type  1   force =     0.00000000    0.00000000    0.00000000
     The SCF correction term to forces
     atom    1 type  2   force =    -0.00000000   -0.00000008    0.00000057
     atom    2 type  2   force =     0.00000000    0.00000008   -0.00000057
     atom    3 type  2   force =     0.00000000    0.00000008    0.00000057
     atom    4 type  2   force =    -0.00000000   -0.00000008   -0.00000057
     atom    5 type  3   force =    -0.00000000   -0.00000309    0.00000117
     atom    6 type  3   force =     0.00000000    0.00000309   -0.00000117
     atom    7 type  3   force =    -0.00000000    0.00000309    0.00000117
     atom    8 type  3   force =     0.00000000   -0.00000309   -0.00000117
     atom    9 type  1   force =     0.00000000   -0.00000102    0.00000132
     atom   10 type  1   force =    -0.00000000    0.00000102   -0.00000132
     atom   11 type  1   force =    -0.00000000    0.00000102    0.00000132
     atom   12 type  1   force =    -0.00000000   -0.00000102   -0.00000132
     atom   13 type  1   force =    -0.00000000    0.00000206   -0.00000068
     atom   14 type  1   force =     0.00000000   -0.00000206    0.00000068
     atom   15 type  1   force =     0.00000000   -0.00000206   -0.00000068
     atom   16 type  1   force =    -0.00000000    0.00000206    0.00000068
     atom   17 type  1   force =     0.00000000   -0.00000108   -0.00000250
     atom   18 type  1   force =    -0.00000000    0.00000108    0.00000250
     atom   19 type  1   force =    -0.00000000    0.00000108   -0.00000250
     atom   20 type  1   force =     0.00000000   -0.00000108    0.00000250

     Total force =     0.001307     Total SCF correction =     0.000010


     Computing stress (Cartesian axis) and pressure


     negative rho (up, down):  5.199E-01 0.000E+00
          total   stress  (Ry/bohr**3)                   (kbar)     P=       -0.03
  -0.00000029   0.00000000   0.00000000           -0.04        0.00        0.00
   0.00000000   0.00000013   0.00000000            0.00        0.02        0.00
   0.00000000   0.00000000  -0.00000039            0.00        0.00       -0.06

     kinetic stress (kbar)   8920.93      0.00      0.00
                                0.00   8948.30      0.00
                                0.00      0.00   8969.36

     local   stress (kbar)  -7867.54      0.00      0.00
                                0.00  -4290.44     -0.00
                                0.00     -0.00  -3981.91

     nonloc. stress (kbar)   7367.39      0.00      0.00
                                0.00   7363.74      0.00
                                0.00      0.00   7369.38

     hartree stress (kbar)   3518.45      0.00     -0.00
                                0.00   2110.42     -0.00
                               -0.00     -0.00   1803.59

     exc-cor stress (kbar)   2570.24      0.00     -0.00
                                0.00   2568.07     -0.00
                               -0.00     -0.00   2570.81

     corecor stress (kbar)  -5258.47     -0.00     -0.00
                               -0.00  -5258.38      0.00
                               -0.00      0.00  -5259.13

     ewald   stress (kbar)  -9251.05     -0.00      0.00
                               -0.00 -11441.70      0.00
                                0.00      0.00 -11472.16

     hubbard stress (kbar)      0.00      0.00      0.00
                                0.00      0.00      0.00
                                0.00      0.00      0.00

     DFT-D   stress (kbar)      0.00      0.00      0.00
                                0.00      0.00      0.00
                                0.00      0.00      0.00

     XDM     stress (kbar)      0.00      0.00      0.00
                                0.00      0.00      0.00
                                0.00      0.00      0.00

     dft-nl  stress (kbar)      0.00      0.00      0.00
                                0.00      0.00      0.00
                                0.00      0.00      0.00

     TS-vdW  stress (kbar)      0.00      0.00      0.00
                                0.00      0.00      0.00
                                0.00      0.00      0.00

     MDB     stress (kbar)      0.00      0.00      0.00
                                0.00      0.00      0.00
                                0.00      0.00      0.00

     3D-RISM stress (kbar)      0.00      0.00      0.00
                                0.00      0.00      0.00
                                0.00      0.00      0.00

     Energy error            =      6.3E-06 Ry
     Gradient error          =      5.0E-04 Ry/Bohr
     Cell gradient error     =      5.8E-02 kbar

     bfgs converged in  14 scf cycles and  13 bfgs steps
     (criteria: energy <  1.0E-05 Ry, force <  1.0E-03 Ry/Bohr, cell <  5.0E-01 kbar)

     End of BFGS Geometry Optimization

     Final enthalpy           =    -969.0402428234 Ry

     File ./tmp/relax/SrZrS3_relax.bfgs deleted, as requested
Begin final coordinates
     new unit-cell volume =   3134.35102 a.u.^3 (   464.46290 Ang^3 )
     density =      3.93326 g/cm^3

CELL_PARAMETERS (angstrom)
   3.838453236   0.000000000   0.000000000
  -0.000000000   8.641205776   0.000000000
   0.000000000   0.000000000  14.002978756

ATOMIC_POSITIONS (crystal)
Sr               0.2500000000        0.0625907741        0.8194870862
Sr               0.7500000000        0.9374092259        0.1805129138
Sr               0.7500000000        0.4374092259        0.3194870862
Sr               0.2500000000        0.5625907741        0.6805129138
Zr               0.2500000000        0.3269804489        0.0557101724
Zr               0.7500000000        0.6730195511        0.9442898276
Zr               0.7500000000        0.1730195511        0.5557101724
Zr               0.2500000000        0.8269804489        0.4442898276
S                0.2500000000        0.2082836756        0.2153907520
S                0.7500000000        0.7917163244        0.7846092480
S                0.7500000000        0.2917163244        0.7153907520
S                0.2500000000        0.7082836756        0.2846092480
S                0.2500000000        0.3363745058        0.4842058529
S                0.7500000000        0.6636254942        0.5157941471
S                0.7500000000        0.1636254942        0.9842058529
S                0.2500000000        0.8363745058        0.0157941471
S                0.2500000000        0.4868645031        0.8946238429
S                0.7500000000        0.5131354969        0.1053761571
S                0.7500000000        0.0131354969        0.3946238429
S                0.2500000000        0.9868645031        0.6053761571
End final coordinates



     Writing config-only to output data dir ./tmp/relax/SrZrS3_relax.save/ :
     XML data file

     Final scf calculation at the relaxed structure.
     The G-vectors are recalculated for the final unit cell
     Results may differ from those at the preceding step.

     Parallelization info
     --------------------
     sticks:   dense  smooth     PW     G-vecs:    dense   smooth      PW
     Min         940     473    134               105814    37421    5682
     Max         941     474    135               105821    37424    5685
     Sum        3761    1893    539               423269   149687   22733

     Using Slab Decomposition



     bravais-lattice index     =            0
     lattice parameter (alat)  =       7.2569  a.u.
     unit-cell volume          =    3134.3510 (a.u.)^3
     number of atoms/cell      =           20
     number of atomic types    =            3
     number of electrons       =       160.00
     number of Kohn-Sham states=           80
     kinetic-energy cutoff     =      50.0000  Ry
     charge density cutoff     =     400.0000  Ry
     scf convergence threshold =      1.0E-10
     mixing beta               =       0.3000
     number of iterations used =            8  plain     mixing
     press convergence thresh. =      5.0E-01
     Exchange-correlation= SLA  PW   PBE  PBE
                           (   1   4   3   4   0   0   0)

     celldm(1)=   7.256926  celldm(2)=   0.000000  celldm(3)=   0.000000
     celldm(4)=   0.000000  celldm(5)=   0.000000  celldm(6)=   0.000000

     crystal axes: (cart. coord. in units of alat)
               a(1) = (   0.999545   0.000000   0.000000 )  
               a(2) = (  -0.000000   2.250197   0.000000 )  
               a(3) = (   0.000000   0.000000   3.646419 )  

     reciprocal axes: (cart. coord. in units 2 pi/alat)
               b(1) = (  1.000455  0.000000 -0.000000 )  
               b(2) = (  0.000000  0.444406  0.000000 )  
               b(3) = (  0.000000 -0.000000  0.274242 )  


     PseudoPot. # 1 for S  read from file:
     /Users/kaede/scientific-tools/pseudopotentials/SSSP/1.3.0/PBE/precision/s_pbe_v1.4.uspp.F.UPF
     MD5 check sum: 88d86576ff6df21479756cfb9bdac1df
     Pseudo is Ultrasoft + core correction, Zval =  6.0
     Generated by new atomic code, or converted to UPF format
     Using radial grid of  907 points,  6 beta functions with: 
                l(1) =   0
                l(2) =   0
                l(3) =   1
                l(4) =   1
                l(5) =   2
                l(6) =   2
     Q(r) pseudized with  8 coefficients,  rinner =    1.300   1.300   1.300
                                                       1.300   1.300

     PseudoPot. # 2 for Sr read from file:
     /Users/kaede/scientific-tools/pseudopotentials/SSSP/1.3.0/PBE/precision/Sr_pbe_v1.uspp.F.UPF
     MD5 check sum: 6b418c05fbe9db5448babca5e47b7a5b
     Pseudo is Ultrasoft + core correction, Zval = 10.0
     Generated by new atomic code, or converted to UPF format
     Using radial grid of  883 points,  6 beta functions with: 
                l(1) =   0
                l(2) =   0
                l(3) =   1
                l(4) =   1
                l(5) =   2
                l(6) =   2
     Q(r) pseudized with  6 coefficients,  rinner =    1.400   1.400   1.400
                                                       1.400   1.400

     PseudoPot. # 3 for Zr read from file:
     /Users/kaede/scientific-tools/pseudopotentials/SSSP/1.3.0/PBE/precision/Zr_pbe_v1.uspp.F.UPF
     MD5 check sum: 5db81b1e868ab7776c4564c113de050b
     Pseudo is Ultrasoft + core correction, Zval = 12.0
     Generated by new atomic code, or converted to UPF format
     Using radial grid of  887 points,  6 beta functions with: 
                l(1) =   0
                l(2) =   0
                l(3) =   1
                l(4) =   1
                l(5) =   2
                l(6) =   2
     Q(r) pseudized with  6 coefficients,  rinner =    1.200   1.200   1.200
                                                       1.200   1.200

     atomic species   valence    mass     pseudopotential
     S                 6.00    32.06500     S ( 1.00)
     Sr               10.00    87.62000     Sr( 1.00)
     Zr               12.00    91.22400     Zr( 1.00)

      8 Sym. Ops., with inversion, found ( 6 have fractional translation)


                                    s                        frac. trans.

      isym =  1     identity                                     

 cryst.   s( 1) = (     1          0          0      )
                  (     0          1          0      )
                  (     0          0          1      )

 cart.    s( 1) = (  1.0000000  0.0000000  0.0000000 )
                  (  0.0000000  1.0000000  0.0000000 )
                  (  0.0000000  0.0000000  1.0000000 )


      isym =  2     180 deg rotation - cart. axis [0,0,1]        

 cryst.   s( 2) = (    -1          0          0      )    f =(  0.0000000 )
                  (     0         -1          0      )       ( -0.5000000 )
                  (     0          0          1      )       (  0.5000000 )

 cart.    s( 2) = ( -1.0000000  0.0000000  0.0000000 )    f =(  0.0000000 )
                  (  0.0000000 -1.0000000  0.0000000 )       ( -1.1250984 )
                  (  0.0000000  0.0000000  1.0000000 )       (  1.8232096 )


      isym =  3     180 deg rotation - cart. axis [0,1,0]        

 cryst.   s( 3) = (    -1          0          0      )    f =(  0.5000000 )
                  (     0          1          0      )       (  0.5000000 )
                  (     0          0         -1      )       (  0.5000000 )

 cart.    s( 3) = ( -1.0000000  0.0000000  0.0000000 )    f =(  0.4997726 )
                  (  0.0000000  1.0000000  0.0000000 )       (  1.1250984 )
                  (  0.0000000  0.0000000 -1.0000000 )       (  1.8232096 )


      isym =  4     180 deg rotation - cart. axis [1,0,0]        

 cryst.   s( 4) = (     1          0          0      )    f =( -0.5000000 )
                  (     0         -1          0      )       (  0.0000000 )
                  (     0          0         -1      )       (  0.0000000 )

 cart.    s( 4) = (  1.0000000  0.0000000  0.0000000 )    f =( -0.4997726 )
                  (  0.0000000 -1.0000000  0.0000000 )       (  0.0000000 )
                  (  0.0000000  0.0000000 -1.0000000 )       (  0.0000000 )


      isym =  5     inversion                                    

 cryst.   s( 5) = (    -1          0          0      )
                  (     0         -1          0      )
                  (     0          0         -1      )

 cart.    s( 5) = ( -1.0000000  0.0000000  0.0000000 )
                  (  0.0000000 -1.0000000  0.0000000 )
                  (  0.0000000  0.0000000 -1.0000000 )


      isym =  6     inv. 180 deg rotation - cart. axis [0,0,1]   

 cryst.   s( 6) = (     1          0          0      )    f =(  0.0000000 )
                  (     0          1          0      )       (  0.5000000 )
                  (     0          0         -1      )       (  0.5000000 )

 cart.    s( 6) = (  1.0000000  0.0000000  0.0000000 )    f =(  0.0000000 )
                  (  0.0000000  1.0000000  0.0000000 )       (  1.1250984 )
                  (  0.0000000  0.0000000 -1.0000000 )       (  1.8232096 )


      isym =  7     inv. 180 deg rotation - cart. axis [0,1,0]   

 cryst.   s( 7) = (     1          0          0      )    f =( -0.5000000 )
                  (     0         -1          0      )       ( -0.5000000 )
                  (     0          0          1      )       (  0.5000000 )

 cart.    s( 7) = (  1.0000000  0.0000000  0.0000000 )    f =( -0.4997726 )
                  (  0.0000000 -1.0000000  0.0000000 )       ( -1.1250984 )
                  (  0.0000000  0.0000000  1.0000000 )       (  1.8232096 )


      isym =  8     inv. 180 deg rotation - cart. axis [1,0,0]   

 cryst.   s( 8) = (    -1          0          0      )    f =(  0.5000000 )
                  (     0          1          0      )       (  0.0000000 )
                  (     0          0          1      )       (  0.0000000 )

 cart.    s( 8) = ( -1.0000000  0.0000000  0.0000000 )    f =(  0.4997726 )
                  (  0.0000000  1.0000000  0.0000000 )       (  0.0000000 )
                  (  0.0000000  0.0000000  1.0000000 )       (  0.0000000 )


   Cartesian axes

     site n.     atom                  positions (alat units)
         1        Sr     tau(   1) = (   0.2498863   0.1408416   2.9881934  )
         2        Sr     tau(   2) = (   0.7496589   2.1093552   0.6582257  )
         3        Sr     tau(   3) = (   0.7496589   0.9842568   1.1649838  )
         4        Sr     tau(   4) = (   0.2498863   1.2659400   2.4814353  )
         5        Zr     tau(   5) = (   0.2498863   0.7357704   0.2031426  )
         6        Zr     tau(   6) = (   0.7496589   1.5144264   3.4432765  )
         7        Zr     tau(   7) = (   0.7496589   0.3893280   2.0263522  )
         8        Zr     tau(   8) = (   0.2498863   1.8608688   1.6200669  )
         9        S      tau(   9) = (   0.2498863   0.4686793   0.7854050  )
        10        S      tau(  10) = (   0.7496589   1.7815175   2.8610142  )
        11        S      tau(  11) = (   0.7496589   0.6564191   2.6086145  )
        12        S      tau(  12) = (   0.2498863   1.5937777   1.0378046  )
        13        S      tau(  13) = (   0.2498863   0.7569088   1.7656175  )
        14        S      tau(  14) = (   0.7496589   1.4932880   1.8808016  )
        15        S      tau(  15) = (   0.7496589   0.3681896   3.5888271  )
        16        S      tau(  16) = (   0.2498863   1.8820072   0.0575921  )
        17        S      tau(  17) = (   0.2498863   1.0955410   3.2621735  )
        18        S      tau(  18) = (   0.7496589   1.1546559   0.3842456  )
        19        S      tau(  19) = (   0.7496589   0.0295575   1.4389639  )
        20        S      tau(  20) = (   0.2498863   2.2206394   2.2074552  )

   Crystallographic axes

     site n.     atom                  positions (cryst. coord.)
         1        Sr     tau(   1) = (  0.2500000  0.0625908  0.8194871  )
         2        Sr     tau(   2) = (  0.7500000  0.9374092  0.1805129  )
         3        Sr     tau(   3) = (  0.7500000  0.4374092  0.3194871  )
         4        Sr     tau(   4) = (  0.2500000  0.5625908  0.6805129  )
         5        Zr     tau(   5) = (  0.2500000  0.3269804  0.0557102  )
         6        Zr     tau(   6) = (  0.7500000  0.6730196  0.9442898  )
         7        Zr     tau(   7) = (  0.7500000  0.1730196  0.5557102  )
         8        Zr     tau(   8) = (  0.2500000  0.8269804  0.4442898  )
         9        S      tau(   9) = (  0.2500000  0.2082837  0.2153908  )
        10        S      tau(  10) = (  0.7500000  0.7917163  0.7846092  )
        11        S      tau(  11) = (  0.7500000  0.2917163  0.7153908  )
        12        S      tau(  12) = (  0.2500000  0.7082837  0.2846092  )
        13        S      tau(  13) = (  0.2500000  0.3363745  0.4842059  )
        14        S      tau(  14) = (  0.7500000  0.6636255  0.5157941  )
        15        S      tau(  15) = (  0.7500000  0.1636255  0.9842059  )
        16        S      tau(  16) = (  0.2500000  0.8363745  0.0157941  )
        17        S      tau(  17) = (  0.2500000  0.4868645  0.8946238  )
        18        S      tau(  18) = (  0.7500000  0.5131355  0.1053762  )
        19        S      tau(  19) = (  0.7500000  0.0131355  0.3946238  )
        20        S      tau(  20) = (  0.2500000  0.9868645  0.6053762  )

     number of k points=    16
                       cart. coord. in units 2pi/alat
        k(    1) = (   0.0000000   0.0000000   0.0000000), wk =   0.0555556
        k(    2) = (   0.0000000   0.0000000  -0.1371208), wk =   0.0555556
        k(    3) = (   0.0000000   0.1481352   0.0000000), wk =   0.1111111
        k(    4) = (   0.0000000   0.1481352  -0.1371208), wk =   0.1111111
        k(    5) = (   0.1667425   0.0000000   0.0000000), wk =   0.1111111
        k(    6) = (   0.1667425   0.0000000  -0.1371208), wk =   0.1111111
        k(    7) = (   0.1667425   0.1481352   0.0000000), wk =   0.2222222
        k(    8) = (   0.1667425   0.1481352  -0.1371208), wk =   0.2222222
        k(    9) = (   0.3334850   0.0000000   0.0000000), wk =   0.1111111
        k(   10) = (   0.3334850   0.0000000  -0.1371208), wk =   0.1111111
        k(   11) = (   0.3334850   0.1481352   0.0000000), wk =   0.2222222
        k(   12) = (   0.3334850   0.1481352  -0.1371208), wk =   0.2222222
        k(   13) = (  -0.5002275   0.0000000   0.0000000), wk =   0.0555556
        k(   14) = (  -0.5002275   0.0000000  -0.1371208), wk =   0.0555556
        k(   15) = (  -0.5002275   0.1481352   0.0000000), wk =   0.1111111
        k(   16) = (  -0.5002275   0.1481352  -0.1371208), wk =   0.1111111

                       cryst. coord.
        k(    1) = (   0.0000000   0.0000000   0.0000000), wk =   0.0555556
        k(    2) = (   0.0000000   0.0000000  -0.5000000), wk =   0.0555556
        k(    3) = (   0.0000000   0.3333333   0.0000000), wk =   0.1111111
        k(    4) = (   0.0000000   0.3333333  -0.5000000), wk =   0.1111111
        k(    5) = (   0.1666667   0.0000000   0.0000000), wk =   0.1111111
        k(    6) = (   0.1666667   0.0000000  -0.5000000), wk =   0.1111111
        k(    7) = (   0.1666667   0.3333333   0.0000000), wk =   0.2222222
        k(    8) = (   0.1666667   0.3333333  -0.5000000), wk =   0.2222222
        k(    9) = (   0.3333333   0.0000000   0.0000000), wk =   0.1111111
        k(   10) = (   0.3333333   0.0000000  -0.5000000), wk =   0.1111111
        k(   11) = (   0.3333333   0.3333333   0.0000000), wk =   0.2222222
        k(   12) = (   0.3333333   0.3333333  -0.5000000), wk =   0.2222222
        k(   13) = (  -0.5000000   0.0000000   0.0000000), wk =   0.0555556
        k(   14) = (  -0.5000000   0.0000000  -0.5000000), wk =   0.0555556
        k(   15) = (  -0.5000000   0.3333333   0.0000000), wk =   0.1111111
        k(   16) = (  -0.5000000   0.3333333  -0.5000000), wk =   0.1111111

     Dense  grid:   423269 G-vectors     FFT dimensions: (  48, 108, 180)

     Smooth grid:   149687 G-vectors     FFT dimensions: (  36,  80, 120)

     Dynamical RAM for                 wfc:       5.71 MB

     Dynamical RAM for     wfc (w. buffer):       5.71 MB

     Dynamical RAM for           str. fact:       4.84 MB

     Dynamical RAM for           local pot:       2.41 MB

     Dynamical RAM for          nlocal pot:      25.70 MB

     Dynamical RAM for                qrad:       9.63 MB

     Dynamical RAM for          rho,v,vnew:      10.18 MB

     Dynamical RAM for               rhoin:       3.39 MB

     Dynamical RAM for            rho*nmix:      25.83 MB

     Dynamical RAM for           G-vectors:       6.34 MB

     Dynamical RAM for          h,s,v(r/c):       1.17 MB

     Dynamical RAM for          <psi|beta>:       0.44 MB

     Dynamical RAM for                 psi:      11.42 MB

     Dynamical RAM for                hpsi:      11.42 MB

     Dynamical RAM for                spsi:      11.42 MB

     Dynamical RAM for      wfcinit/wfcrot:      22.23 MB

     Dynamical RAM for           addusdens:     160.66 MB

     Dynamical RAM for          addusforce:     178.46 MB

     Dynamical RAM for         addusstress:     162.67 MB

     Estimated static dynamical RAM per process >      83.57 MB

     Estimated max dynamical RAM per process >     287.86 MB

     Estimated total dynamical RAM >       2.15 GB

     Initial potential from superposition of free atoms

     starting charge     159.8564, renormalised to     160.0000

     negative rho (up, down):  5.009E-01 0.000E+00
     Starting wfcs are  152 randomized atomic wfcs

     total cpu time spent up to now is     1999.2 secs

     Self-consistent Calculation

     iteration #  1     ecut=    50.00 Ry     beta= 0.30
     Davidson diagonalization with overlap

---- Real-time Memory Report at c_bands before calling an iterative solver
             0 MiB given to the printing process from OS
             0 MiB allocation reported by mallinfo(arena+hblkhd)
             0 MiB available memory on the node where the printing process lives
------------------
     ethr =  1.00E-06,  avg # of iterations =  9.6

     negative rho (up, down):  5.052E-01 0.000E+00

     total cpu time spent up to now is     2015.1 secs

     total energy              =    -968.86457700 Ry
     estimated scf accuracy    <       1.65164218 Ry

     iteration #  2     ecut=    50.00 Ry     beta= 0.30
     Davidson diagonalization with overlap

---- Real-time Memory Report at c_bands before calling an iterative solver
             0 MiB given to the printing process from OS
             0 MiB allocation reported by mallinfo(arena+hblkhd)
             0 MiB available memory on the node where the printing process lives
------------------
     ethr =  1.03E-03,  avg # of iterations =  2.2

     negative rho (up, down):  5.112E-01 0.000E+00

     total cpu time spent up to now is     2020.5 secs

     total energy              =    -968.99052312 Ry
     estimated scf accuracy    <       0.22549439 Ry

     iteration #  3     ecut=    50.00 Ry     beta= 0.30
     Davidson diagonalization with overlap

---- Real-time Memory Report at c_bands before calling an iterative solver
             0 MiB given to the printing process from OS
             0 MiB allocation reported by mallinfo(arena+hblkhd)
             0 MiB available memory on the node where the printing process lives
------------------
     ethr =  1.41E-04,  avg # of iterations =  4.1

     negative rho (up, down):  5.157E-01 0.000E+00

     total cpu time spent up to now is     2026.6 secs

     total energy              =    -969.03296738 Ry
     estimated scf accuracy    <       0.04005426 Ry

     iteration #  4     ecut=    50.00 Ry     beta= 0.30
     Davidson diagonalization with overlap

---- Real-time Memory Report at c_bands before calling an iterative solver
             0 MiB given to the printing process from OS
             0 MiB allocation reported by mallinfo(arena+hblkhd)
             0 MiB available memory on the node where the printing process lives
------------------
     ethr =  2.50E-05,  avg # of iterations =  3.5

     negative rho (up, down):  5.196E-01 0.000E+00

     total cpu time spent up to now is     2032.1 secs

     total energy              =    -969.03877198 Ry
     estimated scf accuracy    <       0.01066403 Ry

     iteration #  5     ecut=    50.00 Ry     beta= 0.30
     Davidson diagonalization with overlap

---- Real-time Memory Report at c_bands before calling an iterative solver
             0 MiB given to the printing process from OS
             0 MiB allocation reported by mallinfo(arena+hblkhd)
             0 MiB available memory on the node where the printing process lives
------------------
     ethr =  6.67E-06,  avg # of iterations =  3.5

     negative rho (up, down):  5.205E-01 0.000E+00

     total cpu time spent up to now is     2037.6 secs

     total energy              =    -969.03977922 Ry
     estimated scf accuracy    <       0.00127349 Ry

     iteration #  6     ecut=    50.00 Ry     beta= 0.30
     Davidson diagonalization with overlap

---- Real-time Memory Report at c_bands before calling an iterative solver
             0 MiB given to the printing process from OS
             0 MiB allocation reported by mallinfo(arena+hblkhd)
             0 MiB available memory on the node where the printing process lives
------------------
     ethr =  7.96E-07,  avg # of iterations =  5.2

     negative rho (up, down):  5.203E-01 0.000E+00

     total cpu time spent up to now is     2044.7 secs

     total energy              =    -969.04003837 Ry
     estimated scf accuracy    <       0.00044573 Ry

     iteration #  7     ecut=    50.00 Ry     beta= 0.30
     Davidson diagonalization with overlap

---- Real-time Memory Report at c_bands before calling an iterative solver
             0 MiB given to the printing process from OS
             0 MiB allocation reported by mallinfo(arena+hblkhd)
             0 MiB available memory on the node where the printing process lives
------------------
     ethr =  2.79E-07,  avg # of iterations =  5.4

     negative rho (up, down):  5.202E-01 0.000E+00

     total cpu time spent up to now is     2052.2 secs

     total energy              =    -969.04006750 Ry
     estimated scf accuracy    <       0.00064711 Ry

     iteration #  8     ecut=    50.00 Ry     beta= 0.30
     Davidson diagonalization with overlap

---- Real-time Memory Report at c_bands before calling an iterative solver
             0 MiB given to the printing process from OS
             0 MiB allocation reported by mallinfo(arena+hblkhd)
             0 MiB available memory on the node where the printing process lives
------------------
     ethr =  2.79E-07,  avg # of iterations =  4.9

     negative rho (up, down):  5.202E-01 0.000E+00

     total cpu time spent up to now is     2059.1 secs

     total energy              =    -969.04024017 Ry
     estimated scf accuracy    <       0.00008706 Ry

     iteration #  9     ecut=    50.00 Ry     beta= 0.30
     Davidson diagonalization with overlap

---- Real-time Memory Report at c_bands before calling an iterative solver
             0 MiB given to the printing process from OS
             0 MiB allocation reported by mallinfo(arena+hblkhd)
             0 MiB available memory on the node where the printing process lives
------------------
     ethr =  5.44E-08,  avg # of iterations =  2.4

     negative rho (up, down):  5.200E-01 0.000E+00

     total cpu time spent up to now is     2064.4 secs

     total energy              =    -969.04023695 Ry
     estimated scf accuracy    <       0.00003109 Ry

     iteration # 10     ecut=    50.00 Ry     beta= 0.30
     Davidson diagonalization with overlap

---- Real-time Memory Report at c_bands before calling an iterative solver
             0 MiB given to the printing process from OS
             0 MiB allocation reported by mallinfo(arena+hblkhd)
             0 MiB available memory on the node where the printing process lives
------------------
     ethr =  1.94E-08,  avg # of iterations =  4.6

     negative rho (up, down):  5.200E-01 0.000E+00

     total cpu time spent up to now is     2070.9 secs

     total energy              =    -969.04024545 Ry
     estimated scf accuracy    <       0.00000220 Ry

     iteration # 11     ecut=    50.00 Ry     beta= 0.30
     Davidson diagonalization with overlap

---- Real-time Memory Report at c_bands before calling an iterative solver
             0 MiB given to the printing process from OS
             0 MiB allocation reported by mallinfo(arena+hblkhd)
             0 MiB available memory on the node where the printing process lives
------------------
     ethr =  1.37E-09,  avg # of iterations =  5.4

     negative rho (up, down):  5.199E-01 0.000E+00

     total cpu time spent up to now is     2078.6 secs

     total energy              =    -969.04024629 Ry
     estimated scf accuracy    <       0.00000239 Ry

     iteration # 12     ecut=    50.00 Ry     beta= 0.30
     Davidson diagonalization with overlap

---- Real-time Memory Report at c_bands before calling an iterative solver
             0 MiB given to the printing process from OS
             0 MiB allocation reported by mallinfo(arena+hblkhd)
             0 MiB available memory on the node where the printing process lives
------------------
     ethr =  1.37E-09,  avg # of iterations =  2.3

     negative rho (up, down):  5.199E-01 0.000E+00

     total cpu time spent up to now is     2083.9 secs

     total energy              =    -969.04024637 Ry
     estimated scf accuracy    <       0.00000036 Ry

     iteration # 13     ecut=    50.00 Ry     beta= 0.30
     Davidson diagonalization with overlap

---- Real-time Memory Report at c_bands before calling an iterative solver
             0 MiB given to the printing process from OS
             0 MiB allocation reported by mallinfo(arena+hblkhd)
             0 MiB available memory on the node where the printing process lives
------------------
     ethr =  2.27E-10,  avg # of iterations =  5.7

     negative rho (up, down):  5.199E-01 0.000E+00

     total cpu time spent up to now is     2092.4 secs

     total energy              =    -969.04024647 Ry
     estimated scf accuracy    <       0.00000059 Ry

     iteration # 14     ecut=    50.00 Ry     beta= 0.30
     Davidson diagonalization with overlap

---- Real-time Memory Report at c_bands before calling an iterative solver
             0 MiB given to the printing process from OS
             0 MiB allocation reported by mallinfo(arena+hblkhd)
             0 MiB available memory on the node where the printing process lives
------------------
     ethr =  2.27E-10,  avg # of iterations =  4.1

     negative rho (up, down):  5.199E-01 0.000E+00

     total cpu time spent up to now is     2099.0 secs

     total energy              =    -969.04024662 Ry
     estimated scf accuracy    <       0.00000003 Ry

     iteration # 15     ecut=    50.00 Ry     beta= 0.30
     Davidson diagonalization with overlap

---- Real-time Memory Report at c_bands before calling an iterative solver
             0 MiB given to the printing process from OS
             0 MiB allocation reported by mallinfo(arena+hblkhd)
             0 MiB available memory on the node where the printing process lives
------------------
     ethr =  1.78E-11,  avg # of iterations =  4.6

     negative rho (up, down):  5.199E-01 0.000E+00

     total cpu time spent up to now is     2105.5 secs

     total energy              =    -969.04024663 Ry
     estimated scf accuracy    <          3.4E-09 Ry

     iteration # 16     ecut=    50.00 Ry     beta= 0.30
     Davidson diagonalization with overlap

---- Real-time Memory Report at c_bands before calling an iterative solver
             0 MiB given to the printing process from OS
             0 MiB allocation reported by mallinfo(arena+hblkhd)
             0 MiB available memory on the node where the printing process lives
------------------
     ethr =  2.15E-12,  avg # of iterations =  5.7

     negative rho (up, down):  5.199E-01 0.000E+00

     total cpu time spent up to now is     2114.7 secs

     total energy              =    -969.04024663 Ry
     estimated scf accuracy    <          9.5E-09 Ry

     iteration # 17     ecut=    50.00 Ry     beta= 0.30
     Davidson diagonalization with overlap

---- Real-time Memory Report at c_bands before calling an iterative solver
             0 MiB given to the printing process from OS
             0 MiB allocation reported by mallinfo(arena+hblkhd)
             0 MiB available memory on the node where the printing process lives
------------------
     ethr =  2.15E-12,  avg # of iterations =  4.4

     negative rho (up, down):  5.199E-01 0.000E+00

     total cpu time spent up to now is     2121.8 secs

     total energy              =    -969.04024663 Ry
     estimated scf accuracy    <          1.7E-10 Ry

     iteration # 18     ecut=    50.00 Ry     beta= 0.30
     Davidson diagonalization with overlap

---- Real-time Memory Report at c_bands before calling an iterative solver
             0 MiB given to the printing process from OS
             0 MiB allocation reported by mallinfo(arena+hblkhd)
             0 MiB available memory on the node where the printing process lives
------------------
     ethr =  1.05E-13,  avg # of iterations =  5.6

     negative rho (up, down):  5.199E-01 0.000E+00

     total cpu time spent up to now is     2130.1 secs

     total energy              =    -969.04024663 Ry
     estimated scf accuracy    <          1.7E-10 Ry

     iteration # 19     ecut=    50.00 Ry     beta= 0.30
     Davidson diagonalization with overlap

---- Real-time Memory Report at c_bands before calling an iterative solver
             0 MiB given to the printing process from OS
             0 MiB allocation reported by mallinfo(arena+hblkhd)
             0 MiB available memory on the node where the printing process lives
------------------
     ethr =  1.05E-13,  avg # of iterations =  1.1

     negative rho (up, down):  5.199E-01 0.000E+00

     total cpu time spent up to now is     2134.5 secs

     total energy              =    -969.04024663 Ry
     estimated scf accuracy    <          2.1E-10 Ry

     iteration # 20     ecut=    50.00 Ry     beta= 0.30
     Davidson diagonalization with overlap

---- Real-time Memory Report at c_bands before calling an iterative solver
             0 MiB given to the printing process from OS
             0 MiB allocation reported by mallinfo(arena+hblkhd)
             0 MiB available memory on the node where the printing process lives
------------------
     ethr =  1.05E-13,  avg # of iterations =  3.2

     negative rho (up, down):  5.199E-01 0.000E+00

     total cpu time spent up to now is     2140.2 secs

     End of self-consistent calculation

          k = 0.0000 0.0000 0.0000 ( 18683 PWs)   bands (ev):

   -41.4266 -41.4266 -41.4222 -41.4222 -26.6713 -26.6711 -26.6697 -26.6695
   -19.5162 -19.5162 -19.4810 -19.4810 -19.4319 -19.4318 -19.4062 -19.4062
   -19.3891 -19.3891 -19.3730 -19.3730  -8.7734  -8.7672  -8.7647  -8.7562
    -8.7442  -8.7206  -8.6651  -8.6644  -8.6057  -8.6049  -8.5994  -8.5985
    -4.8967  -4.6688  -4.1087  -4.0661  -3.8367  -3.7350  -3.7038  -3.6949
    -3.5558  -3.4639  -3.4016  -3.3396   3.6380   3.8417   3.9012   3.9351
     3.9424   4.1350   4.2583   4.5497   4.7327   4.7328   4.7647   4.8034
     4.8620   4.8986   4.9100   5.4253   5.6400   5.6595   5.6944   5.9113
     5.9117   5.9663   6.2422   6.2863   6.4979   6.5553   6.6235   6.6653
     6.7127   6.8409   6.9293   7.1084   7.4319   7.4389   7.6411   7.8442

     occupation numbers 
     1.0000   1.0000   1.0000   1.0000   1.0000   1.0000   1.0000   1.0000
     1.0000   1.0000   1.0000   1.0000   1.0000   1.0000   1.0000   1.0000
     1.0000   1.0000   1.0000   1.0000   1.0000   1.0000   1.0000   1.0000
     1.0000   1.0000   1.0000   1.0000   1.0000   1.0000   1.0000   1.0000
     1.0000   1.0000   1.0000   1.0000   1.0000   1.0000   1.0000   1.0000
     1.0000   1.0000   1.0000   1.0000   1.0000   1.0000   1.0000   1.0000
     1.0000   1.0000   1.0000   1.0000   1.0000   1.0000   1.0000   1.0000
     1.0000   1.0000   1.0000   1.0000   1.0000   1.0000   1.0000   1.0000
     1.0000   1.0000   1.0000   1.0000   1.0000   1.0000   1.0000   1.0000
     1.0000   1.0000   1.0000   1.0000   1.0000   1.0000   1.0000   1.0000

          k = 0.0000 0.0000-0.1371 ( 18728 PWs)   bands (ev):

   -41.4266 -41.4266 -41.4222 -41.4222 -26.6712 -26.6712 -26.6696 -26.6696
   -19.5162 -19.5162 -19.4810 -19.4810 -19.4319 -19.4319 -19.4062 -19.4062
   -19.3891 -19.3891 -19.3730 -19.3730  -8.7700  -8.7700  -8.7623  -8.7623
    -8.7309  -8.7309  -8.6648  -8.6648  -8.6054  -8.6054  -8.5989  -8.5989
    -4.7969  -4.7969  -4.0733  -4.0733  -3.7833  -3.7833  -3.6843  -3.6843
    -3.5400  -3.5400  -3.3582  -3.3582   3.7194   3.7194   3.9144   3.9144
     4.0309   4.0309   4.4957   4.4957   4.7483   4.7483   4.8213   4.8213
     4.8902   4.8902   4.9045   4.9045   5.5150   5.5150   5.9386   5.9386
     6.1444   6.1444   6.2824   6.2824   6.6141   6.6141   6.6629   6.6629
     6.6960   6.6960   7.0176   7.0176   7.3024   7.3024   7.7366   7.7366

     occupation numbers 
     1.0000   1.0000   1.0000   1.0000   1.0000   1.0000   1.0000   1.0000
     1.0000   1.0000   1.0000   1.0000   1.0000   1.0000   1.0000   1.0000
     1.0000   1.0000   1.0000   1.0000   1.0000   1.0000   1.0000   1.0000
     1.0000   1.0000   1.0000   1.0000   1.0000   1.0000   1.0000   1.0000
     1.0000   1.0000   1.0000   1.0000   1.0000   1.0000   1.0000   1.0000
     1.0000   1.0000   1.0000   1.0000   1.0000   1.0000   1.0000   1.0000
     1.0000   1.0000   1.0000   1.0000   1.0000   1.0000   1.0000   1.0000
     1.0000   1.0000   1.0000   1.0000   1.0000   1.0000   1.0000   1.0000
     1.0000   1.0000   1.0000   1.0000   1.0000   1.0000   1.0000   1.0000
     1.0000   1.0000   1.0000   1.0000   1.0000   1.0000   1.0000   1.0000

          k = 0.0000 0.1481 0.0000 ( 18721 PWs)   bands (ev):

   -41.4266 -41.4266 -41.4222 -41.4222 -26.6709 -26.6707 -26.6701 -26.6699
   -19.5160 -19.5160 -19.4812 -19.4812 -19.4318 -19.4318 -19.4062 -19.4062
   -19.3891 -19.3891 -19.3730 -19.3730  -8.7795  -8.7712  -8.7595  -8.7487
    -8.7277  -8.7071  -8.6864  -8.6781  -8.6042  -8.6033  -8.6010  -8.6001
    -4.7802  -4.6326  -4.2282  -4.1820  -3.9484  -3.9286  -3.5587  -3.5315
    -3.4845  -3.4554  -3.3646  -3.3603   3.4410   3.5730   3.7199   3.7471
     4.0761   4.2136   4.3522   4.7356   4.7623   4.8612   4.8687   4.8814
     4.8877   5.1170   5.2170   5.2794   5.5347   5.6198   5.7662   6.0249
     6.0737   6.0938   6.1165   6.3057   6.4911   6.5388   6.7019   6.7594
     6.8017   6.8424   6.9173   7.0693   7.1264   7.2267   7.2798   7.3440

     occupation numbers 
     1.0000   1.0000   1.0000   1.0000   1.0000   1.0000   1.0000   1.0000
     1.0000   1.0000   1.0000   1.0000   1.0000   1.0000   1.0000   1.0000
     1.0000   1.0000   1.0000   1.0000   1.0000   1.0000   1.0000   1.0000
     1.0000   1.0000   1.0000   1.0000   1.0000   1.0000   1.0000   1.0000
     1.0000   1.0000   1.0000   1.0000   1.0000   1.0000   1.0000   1.0000
     1.0000   1.0000   1.0000   1.0000   1.0000   1.0000   1.0000   1.0000
     1.0000   1.0000   1.0000   1.0000   1.0000   1.0000   1.0000   1.0000
     1.0000   1.0000   1.0000   1.0000   1.0000   1.0000   1.0000   1.0000
     1.0000   1.0000   1.0000   1.0000   1.0000   1.0000   1.0000   1.0000
     1.0000   1.0000   1.0000   1.0000   1.0000   1.0000   1.0000   1.0000

          k = 0.0000 0.1481-0.1371 ( 18708 PWs)   bands (ev):

   -41.4266 -41.4266 -41.4222 -41.4222 -26.6708 -26.6708 -26.6700 -26.6700
   -19.5160 -19.5160 -19.4812 -19.4812 -19.4318 -19.4318 -19.4062 -19.4062
   -19.3891 -19.3891 -19.3730 -19.3730  -8.7725  -8.7725  -8.7589  -8.7589
    -8.7162  -8.7162  -8.6815  -8.6815  -8.6038  -8.6038  -8.6005  -8.6005
    -4.7077  -4.7077  -4.2243  -4.2243  -3.9103  -3.9103  -3.5624  -3.5624
    -3.4344  -3.4344  -3.3883  -3.3883   3.5068   3.5068   3.7015   3.7015
     4.1718   4.1718   4.6625   4.6625   4.7497   4.7497   4.8300   4.8300
     4.8701   4.8701   5.3792   5.3792   5.5214   5.5214   5.9153   5.9153
     6.1052   6.1052   6.3162   6.3162   6.5166   6.5166   6.6821   6.6821
     6.7442   6.7442   6.9668   6.9668   7.1529   7.1529   7.3863   7.3863

     occupation numbers 
     1.0000   1.0000   1.0000   1.0000   1.0000   1.0000   1.0000   1.0000
     1.0000   1.0000   1.0000   1.0000   1.0000   1.0000   1.0000   1.0000
     1.0000   1.0000   1.0000   1.0000   1.0000   1.0000   1.0000   1.0000
     1.0000   1.0000   1.0000   1.0000   1.0000   1.0000   1.0000   1.0000
     1.0000   1.0000   1.0000   1.0000   1.0000   1.0000   1.0000   1.0000
     1.0000   1.0000   1.0000   1.0000   1.0000   1.0000   1.0000   1.0000
     1.0000   1.0000   1.0000   1.0000   1.0000   1.0000   1.0000   1.0000
     1.0000   1.0000   1.0000   1.0000   1.0000   1.0000   1.0000   1.0000
     1.0000   1.0000   1.0000   1.0000   1.0000   1.0000   1.0000   1.0000
     1.0000   1.0000   1.0000   1.0000   1.0000   1.0000   1.0000   1.0000

          k = 0.1667 0.0000 0.0000 ( 18674 PWs)   bands (ev):

   -41.4250 -41.4250 -41.4212 -41.4212 -26.6662 -26.6660 -26.6647 -26.6645
   -19.5083 -19.5083 -19.4760 -19.4759 -19.4312 -19.4312 -19.4246 -19.4246
   -19.4008 -19.4008 -19.4008 -19.4008  -8.7480  -8.7459  -8.7455  -8.7344
    -8.7291  -8.7065  -8.7034  -8.7009  -8.6853  -8.6834  -8.6528  -8.6518
    -4.7100  -4.5105  -4.0167  -3.9769  -3.8577  -3.7707  -3.7111  -3.6878
    -3.5169  -3.3998  -3.3989  -3.3551   3.7870   3.8614   4.0517   4.0526
     4.0753   4.1931   4.2491   4.3076   4.4054   4.4097   4.5868   5.0032
     5.1268   5.2354   5.3725   5.4055   5.4489   5.5311   5.6282   5.6980
     5.7179   5.7913   5.8477   6.1050   6.1165   6.2148   6.2844   6.4324
     6.4427   6.6230   6.6396   6.8369   6.9401   7.2380   7.3709   7.4527

     occupation numbers 
     1.0000   1.0000   1.0000   1.0000   1.0000   1.0000   1.0000   1.0000
     1.0000   1.0000   1.0000   1.0000   1.0000   1.0000   1.0000   1.0000
     1.0000   1.0000   1.0000   1.0000   1.0000   1.0000   1.0000   1.0000
     1.0000   1.0000   1.0000   1.0000   1.0000   1.0000   1.0000   1.0000
     1.0000   1.0000   1.0000   1.0000   1.0000   1.0000   1.0000   1.0000
     1.0000   1.0000   1.0000   1.0000   1.0000   1.0000   1.0000   1.0000
     1.0000   1.0000   1.0000   1.0000   1.0000   1.0000   1.0000   1.0000
     1.0000   1.0000   1.0000   1.0000   1.0000   1.0000   1.0000   1.0000
     1.0000   1.0000   1.0000   1.0000   1.0000   1.0000   1.0000   1.0000
     1.0000   1.0000   1.0000   1.0000   1.0000   1.0000   1.0000   1.0000

          k = 0.1667 0.0000-0.1371 ( 18704 PWs)   bands (ev):

   -41.4250 -41.4250 -41.4212 -41.4212 -26.6661 -26.6661 -26.6646 -26.6646
   -19.5083 -19.5083 -19.4759 -19.4759 -19.4312 -19.4312 -19.4246 -19.4246
   -19.4008 -19.4008 -19.4008 -19.4008  -8.7462  -8.7462  -8.7425  -8.7425
    -8.7176  -8.7176  -8.7006  -8.7006  -8.6844  -8.6844  -8.6524  -8.6524
    -4.6222  -4.6222  -3.9872  -3.9872  -3.8091  -3.8091  -3.6977  -3.6977
    -3.4765  -3.4765  -3.3635  -3.3635   3.8189   3.8189   4.0285   4.0285
     4.1193   4.1193   4.2794   4.2794   4.4982   4.4982   4.7402   4.7402
     5.1701   5.1701   5.3655   5.3655   5.4585   5.4585   5.6267   5.6267
     5.7950   5.7950   6.0386   6.0386   6.2315   6.2315   6.3567   6.3567
     6.4925   6.4925   6.6539   6.6539   7.1596   7.1596   7.4145   7.4145

     occupation numbers 
     1.0000   1.0000   1.0000   1.0000   1.0000   1.0000   1.0000   1.0000
     1.0000   1.0000   1.0000   1.0000   1.0000   1.0000   1.0000   1.0000
     1.0000   1.0000   1.0000   1.0000   1.0000   1.0000   1.0000   1.0000
     1.0000   1.0000   1.0000   1.0000   1.0000   1.0000   1.0000   1.0000
     1.0000   1.0000   1.0000   1.0000   1.0000   1.0000   1.0000   1.0000
     1.0000   1.0000   1.0000   1.0000   1.0000   1.0000   1.0000   1.0000
     1.0000   1.0000   1.0000   1.0000   1.0000   1.0000   1.0000   1.0000
     1.0000   1.0000   1.0000   1.0000   1.0000   1.0000   1.0000   1.0000
     1.0000   1.0000   1.0000   1.0000   1.0000   1.0000   1.0000   1.0000
     1.0000   1.0000   1.0000   1.0000   1.0000   1.0000   1.0000   1.0000

          k = 0.1667 0.1481 0.0000 ( 18699 PWs)   bands (ev):

   -41.4250 -41.4250 -41.4212 -41.4212 -26.6658 -26.6656 -26.6650 -26.6649
   -19.5081 -19.5081 -19.4762 -19.4761 -19.4312 -19.4312 -19.4246 -19.4246
   -19.4008 -19.4008 -19.4008 -19.4008  -8.7560  -8.7505  -8.7392  -8.7324
    -8.7150  -8.7029  -8.6982  -8.6971  -8.6845  -8.6826  -8.6668  -8.6636
    -4.6135  -4.4873  -4.1028  -4.0623  -3.9454  -3.9263  -3.5573  -3.5379
    -3.5021  -3.4455  -3.3636  -3.3616   3.6918   3.7990   3.8954   3.9078
     4.1228   4.2052   4.3112   4.4999   4.5036   4.5630   4.7740   4.9316
     5.0033   5.1036   5.3116   5.3633   5.4197   5.5569   5.5573   5.5872
     5.7453   5.9153   5.9814   5.9865   6.1129   6.1630   6.4145   6.4727
     6.5767   6.6184   6.7248   6.8713   7.0684   7.2037   7.3209   7.3353

     occupation numbers 
     1.0000   1.0000   1.0000   1.0000   1.0000   1.0000   1.0000   1.0000
     1.0000   1.0000   1.0000   1.0000   1.0000   1.0000   1.0000   1.0000
     1.0000   1.0000   1.0000   1.0000   1.0000   1.0000   1.0000   1.0000
     1.0000   1.0000   1.0000   1.0000   1.0000   1.0000   1.0000   1.0000
     1.0000   1.0000   1.0000   1.0000   1.0000   1.0000   1.0000   1.0000
     1.0000   1.0000   1.0000   1.0000   1.0000   1.0000   1.0000   1.0000
     1.0000   1.0000   1.0000   1.0000   1.0000   1.0000   1.0000   1.0000
     1.0000   1.0000   1.0000   1.0000   1.0000   1.0000   1.0000   1.0000
     1.0000   1.0000   1.0000   1.0000   1.0000   1.0000   1.0000   1.0000
     1.0000   1.0000   1.0000   1.0000   1.0000   1.0000   1.0000   1.0000

          k = 0.1667 0.1481-0.1371 ( 18676 PWs)   bands (ev):

   -41.4250 -41.4250 -41.4212 -41.4212 -26.6657 -26.6657 -26.6649 -26.6649
   -19.5081 -19.5081 -19.4761 -19.4761 -19.4312 -19.4312 -19.4246 -19.4246
   -19.4008 -19.4008 -19.4008 -19.4008  -8.7508  -8.7508  -8.7397  -8.7397
    -8.7073  -8.7073  -8.6980  -8.6980  -8.6835  -8.6835  -8.6651  -8.6651
    -4.5508  -4.5508  -4.1060  -4.1060  -3.9097  -3.9097  -3.5606  -3.5606
    -3.4377  -3.4377  -3.3879  -3.3879   3.7229   3.7229   3.8650   3.8650
     4.2449   4.2449   4.4148   4.4148   4.5944   4.5944   4.7840   4.7840
     4.9954   4.9954   5.3118   5.3118   5.4930   5.4930   5.5503   5.5503
     5.8732   5.8732   6.0046   6.0046   6.2046   6.2046   6.3870   6.3870
     6.6555   6.6555   6.7706   6.7706   7.1205   7.1205   7.3041   7.3041

     occupation numbers 
     1.0000   1.0000   1.0000   1.0000   1.0000   1.0000   1.0000   1.0000
     1.0000   1.0000   1.0000   1.0000   1.0000   1.0000   1.0000   1.0000
     1.0000   1.0000   1.0000   1.0000   1.0000   1.0000   1.0000   1.0000
     1.0000   1.0000   1.0000   1.0000   1.0000   1.0000   1.0000   1.0000
     1.0000   1.0000   1.0000   1.0000   1.0000   1.0000   1.0000   1.0000
     1.0000   1.0000   1.0000   1.0000   1.0000   1.0000   1.0000   1.0000
     1.0000   1.0000   1.0000   1.0000   1.0000   1.0000   1.0000   1.0000
     1.0000   1.0000   1.0000   1.0000   1.0000   1.0000   1.0000   1.0000
     1.0000   1.0000   1.0000   1.0000   1.0000   1.0000   1.0000   1.0000
     1.0000   1.0000   1.0000   1.0000   1.0000   1.0000   1.0000   1.0000

          k = 0.3335 0.0000 0.0000 ( 18742 PWs)   bands (ev):

   -41.4216 -41.4216 -41.4194 -41.4194 -26.6559 -26.6558 -26.6546 -26.6545
   -19.4982 -19.4982 -19.4864 -19.4864 -19.4605 -19.4604 -19.4601 -19.4601
   -19.4171 -19.4170 -19.4065 -19.4065  -8.8894  -8.8888  -8.8530  -8.8521
    -8.7053  -8.7039  -8.6995  -8.6931  -8.6822  -8.6747  -8.6279  -8.6270
    -4.2787  -4.1625  -3.9330  -3.9327  -3.8688  -3.8240  -3.6551  -3.6541
    -3.3961  -3.3822  -3.3820  -3.2860   3.6194   3.7800   3.9437   4.0105
     4.0324   4.1417   4.2672   4.4083   4.5639   4.6408   4.6823   4.7274
     4.7695   4.7746   4.9162   5.1143   5.3899   5.4555   5.5038   5.5529
     5.6282   5.6890   5.7326   5.7509   6.0012   6.1658   6.1832   6.2475
     6.4050   6.4872   6.5025   6.5203   6.5885   6.6126   6.9320   6.9879

     occupation numbers 
     1.0000   1.0000   1.0000   1.0000   1.0000   1.0000   1.0000   1.0000
     1.0000   1.0000   1.0000   1.0000   1.0000   1.0000   1.0000   1.0000
     1.0000   1.0000   1.0000   1.0000   1.0000   1.0000   1.0000   1.0000
     1.0000   1.0000   1.0000   1.0000   1.0000   1.0000   1.0000   1.0000
     1.0000   1.0000   1.0000   1.0000   1.0000   1.0000   1.0000   1.0000
     1.0000   1.0000   1.0000   1.0000   1.0000   1.0000   1.0000   1.0000
     1.0000   1.0000   1.0000   1.0000   1.0000   1.0000   1.0000   1.0000
     1.0000   1.0000   1.0000   1.0000   1.0000   1.0000   1.0000   1.0000
     1.0000   1.0000   1.0000   1.0000   1.0000   1.0000   1.0000   1.0000
     1.0000   1.0000   1.0000   1.0000   1.0000   1.0000   1.0000   1.0000

          k = 0.3335 0.0000-0.1371 ( 18726 PWs)   bands (ev):

   -41.4216 -41.4216 -41.4194 -41.4194 -26.6559 -26.6559 -26.6545 -26.6545
   -19.4982 -19.4982 -19.4864 -19.4864 -19.4605 -19.4605 -19.4601 -19.4601
   -19.4171 -19.4171 -19.4065 -19.4065  -8.8891  -8.8891  -8.8525  -8.8525
    -8.7042  -8.7042  -8.6972  -8.6972  -8.6779  -8.6779  -8.6275  -8.6275
    -4.2255  -4.2255  -3.9348  -3.9348  -3.8416  -3.8416  -3.6533  -3.6533
    -3.3984  -3.3984  -3.3239  -3.3239   3.7449   3.7449   3.8497   3.8497
     4.0896   4.0896   4.3743   4.3743   4.6466   4.6466   4.7391   4.7391
     4.7763   4.7763   5.0406   5.0406   5.3516   5.3516   5.5779   5.5779
     5.7618   5.7618   5.7975   5.7975   5.8518   5.8518   6.0723   6.0723
     6.3926   6.3926   6.6144   6.6144   6.7234   6.7234   6.9755   6.9755

     occupation numbers 
     1.0000   1.0000   1.0000   1.0000   1.0000   1.0000   1.0000   1.0000
     1.0000   1.0000   1.0000   1.0000   1.0000   1.0000   1.0000   1.0000
     1.0000   1.0000   1.0000   1.0000   1.0000   1.0000   1.0000   1.0000
     1.0000   1.0000   1.0000   1.0000   1.0000   1.0000   1.0000   1.0000
     1.0000   1.0000   1.0000   1.0000   1.0000   1.0000   1.0000   1.0000
     1.0000   1.0000   1.0000   1.0000   1.0000   1.0000   1.0000   1.0000
     1.0000   1.0000   1.0000   1.0000   1.0000   1.0000   1.0000   1.0000
     1.0000   1.0000   1.0000   1.0000   1.0000   1.0000   1.0000   1.0000
     1.0000   1.0000   1.0000   1.0000   1.0000   1.0000   1.0000   1.0000
     1.0000   1.0000   1.0000   1.0000   1.0000   1.0000   1.0000   1.0000

          k = 0.3335 0.1481 0.0000 ( 18727 PWs)   bands (ev):

   -41.4216 -41.4216 -41.4194 -41.4194 -26.6556 -26.6555 -26.6549 -26.6548
   -19.4982 -19.4982 -19.4865 -19.4865 -19.4603 -19.4603 -19.4601 -19.4601
   -19.4171 -19.4170 -19.4065 -19.4065  -8.8807  -8.8798  -8.8626  -8.8615
    -8.7093  -8.7077  -8.6985  -8.6955  -8.6652  -8.6601  -8.6394  -8.6372
    -4.2402  -4.1764  -3.9666  -3.9512  -3.8416  -3.8299  -3.6466  -3.6453
    -3.4091  -3.3964  -3.3480  -3.3052   3.7078   3.7464   3.9051   3.9257
     4.2180   4.2444   4.3273   4.3932   4.4444   4.4827   4.5865   4.6186
     4.7299   4.8882   5.0870   5.2280   5.2290   5.2604   5.3739   5.4505
     5.6498   5.6781   5.7778   5.9040   6.0123   6.0185   6.2166   6.2532
     6.3160   6.3808   6.6977   6.7194   6.8276   6.8414   6.8747   6.9895

     occupation numbers 
     1.0000   1.0000   1.0000   1.0000   1.0000   1.0000   1.0000   1.0000
     1.0000   1.0000   1.0000   1.0000   1.0000   1.0000   1.0000   1.0000
     1.0000   1.0000   1.0000   1.0000   1.0000   1.0000   1.0000   1.0000
     1.0000   1.0000   1.0000   1.0000   1.0000   1.0000   1.0000   1.0000
     1.0000   1.0000   1.0000   1.0000   1.0000   1.0000   1.0000   1.0000
     1.0000   1.0000   1.0000   1.0000   1.0000   1.0000   1.0000   1.0000
     1.0000   1.0000   1.0000   1.0000   1.0000   1.0000   1.0000   1.0000
     1.0000   1.0000   1.0000   1.0000   1.0000   1.0000   1.0000   1.0000
     1.0000   1.0000   1.0000   1.0000   1.0000   1.0000   1.0000   1.0000
     1.0000   1.0000   1.0000   1.0000   1.0000   1.0000   1.0000   1.0000

          k = 0.3335 0.1481-0.1371 ( 18724 PWs)   bands (ev):

   -41.4216 -41.4216 -41.4194 -41.4194 -26.6555 -26.6555 -26.6548 -26.6548
   -19.4982 -19.4982 -19.4865 -19.4865 -19.4603 -19.4603 -19.4601 -19.4601
   -19.4171 -19.4171 -19.4065 -19.4065  -8.8803  -8.8803  -8.8620  -8.8620
    -8.7075  -8.7075  -8.6982  -8.6982  -8.6625  -8.6625  -8.6382  -8.6382
    -4.2051  -4.2051  -3.9730  -3.9730  -3.8270  -3.8270  -3.6458  -3.6458
    -3.3912  -3.3912  -3.3361  -3.3361   3.7369   3.7369   3.8546   3.8546
     4.2249   4.2249   4.3833   4.3833   4.4876   4.4876   4.6697   4.6697
     4.8379   4.8379   5.1434   5.1434   5.2395   5.2395   5.3564   5.3564
     5.6295   5.6295   5.7318   5.7318   6.1273   6.1273   6.2203   6.2203
     6.4442   6.4442   6.6203   6.6203   6.7996   6.7996   6.9988   6.9988

     occupation numbers 
     1.0000   1.0000   1.0000   1.0000   1.0000   1.0000   1.0000   1.0000
     1.0000   1.0000   1.0000   1.0000   1.0000   1.0000   1.0000   1.0000
     1.0000   1.0000   1.0000   1.0000   1.0000   1.0000   1.0000   1.0000
     1.0000   1.0000   1.0000   1.0000   1.0000   1.0000   1.0000   1.0000
     1.0000   1.0000   1.0000   1.0000   1.0000   1.0000   1.0000   1.0000
     1.0000   1.0000   1.0000   1.0000   1.0000   1.0000   1.0000   1.0000
     1.0000   1.0000   1.0000   1.0000   1.0000   1.0000   1.0000   1.0000
     1.0000   1.0000   1.0000   1.0000   1.0000   1.0000   1.0000   1.0000
     1.0000   1.0000   1.0000   1.0000   1.0000   1.0000   1.0000   1.0000
     1.0000   1.0000   1.0000   1.0000   1.0000   1.0000   1.0000   1.0000

          k =-0.5002 0.0000 0.0000 ( 18752 PWs)   bands (ev):

   -41.4192 -41.4192 -41.4192 -41.4192 -26.6508 -26.6508 -26.6495 -26.6495
   -19.5124 -19.5124 -19.5124 -19.5124 -19.4612 -19.4612 -19.4612 -19.4612
   -19.4121 -19.4121 -19.4121 -19.4121  -8.9774  -8.9774  -8.9328  -8.9328
    -8.6817  -8.6817  -8.6808  -8.6808  -8.6552  -8.6552  -8.6149  -8.6149
    -4.0011  -4.0011  -4.0002  -4.0002  -3.7082  -3.7082  -3.6946  -3.6946
    -3.3934  -3.3934  -3.2783  -3.2783   3.5306   3.5306   3.7237   3.7237
     4.0280   4.0280   4.2997   4.2997   4.5070   4.5070   4.5787   4.5787
     5.0604   5.0604   5.2081   5.2081   5.2600   5.2600   5.2634   5.2634
     5.4770   5.4770   5.8740   5.8740   5.9367   5.9367   6.0553   6.0553
     6.5702   6.5702   6.5974   6.5974   6.6941   6.6941   6.7681   6.7681

     occupation numbers 
     1.0000   1.0000   1.0000   1.0000   1.0000   1.0000   1.0000   1.0000
     1.0000   1.0000   1.0000   1.0000   1.0000   1.0000   1.0000   1.0000
     1.0000   1.0000   1.0000   1.0000   1.0000   1.0000   1.0000   1.0000
     1.0000   1.0000   1.0000   1.0000   1.0000   1.0000   1.0000   1.0000
     1.0000   1.0000   1.0000   1.0000   1.0000   1.0000   1.0000   1.0000
     1.0000   1.0000   1.0000   1.0000   1.0000   1.0000   1.0000   1.0000
     1.0000   1.0000   1.0000   1.0000   1.0000   1.0000   1.0000   1.0000
     1.0000   1.0000   1.0000   1.0000   1.0000   1.0000   1.0000   1.0000
     1.0000   1.0000   1.0000   1.0000   1.0000   1.0000   1.0000   1.0000
     1.0000   1.0000   1.0000   1.0000   1.0000   1.0000   1.0000   1.0000

          k =-0.5002 0.0000-0.1371 ( 18764 PWs)   bands (ev):

   -41.4192 -41.4192 -41.4192 -41.4192 -26.6508 -26.6508 -26.6495 -26.6495
   -19.5124 -19.5124 -19.5124 -19.5124 -19.4612 -19.4612 -19.4612 -19.4612
   -19.4121 -19.4121 -19.4121 -19.4121  -8.9774  -8.9774  -8.9328  -8.9328
    -8.6817  -8.6817  -8.6808  -8.6808  -8.6552  -8.6552  -8.6149  -8.6149
    -4.0037  -4.0037  -3.9975  -3.9975  -3.7089  -3.7089  -3.6945  -3.6945
    -3.3931  -3.3931  -3.2779  -3.2779   3.5173   3.5173   3.7480   3.7480
     4.0191   4.0191   4.2401   4.2401   4.5339   4.5339   4.6810   4.6810
     4.9938   4.9938   5.0664   5.0664   5.2279   5.2279   5.3830   5.3830
     5.6609   5.6609   5.6800   5.6800   5.9119   5.9119   6.3432   6.3432
     6.4399   6.4399   6.4899   6.4899   6.6550   6.6550   6.8322   6.8322

     occupation numbers 
     1.0000   1.0000   1.0000   1.0000   1.0000   1.0000   1.0000   1.0000
     1.0000   1.0000   1.0000   1.0000   1.0000   1.0000   1.0000   1.0000
     1.0000   1.0000   1.0000   1.0000   1.0000   1.0000   1.0000   1.0000
     1.0000   1.0000   1.0000   1.0000   1.0000   1.0000   1.0000   1.0000
     1.0000   1.0000   1.0000   1.0000   1.0000   1.0000   1.0000   1.0000
     1.0000   1.0000   1.0000   1.0000   1.0000   1.0000   1.0000   1.0000
     1.0000   1.0000   1.0000   1.0000   1.0000   1.0000   1.0000   1.0000
     1.0000   1.0000   1.0000   1.0000   1.0000   1.0000   1.0000   1.0000
     1.0000   1.0000   1.0000   1.0000   1.0000   1.0000   1.0000   1.0000
     1.0000   1.0000   1.0000   1.0000   1.0000   1.0000   1.0000   1.0000

          k =-0.5002 0.1481 0.0000 ( 18700 PWs)   bands (ev):

   -41.4192 -41.4192 -41.4192 -41.4192 -26.6504 -26.6504 -26.6498 -26.6498
   -19.5125 -19.5125 -19.5125 -19.5125 -19.4611 -19.4611 -19.4611 -19.4611
   -19.4121 -19.4121 -19.4121 -19.4121  -8.9664  -8.9664  -8.9440  -8.9440
    -8.6835  -8.6835  -8.6824  -8.6824  -8.6432  -8.6432  -8.6236  -8.6236
    -4.0003  -4.0003  -4.0002  -4.0002  -3.7062  -3.7062  -3.7006  -3.7006
    -3.3617  -3.3617  -3.3049  -3.3049   3.4580   3.4580   3.5179   3.5179
     4.2497   4.2497   4.3749   4.3749   4.6166   4.6166   4.6272   4.6272
     4.9684   4.9684   5.0461   5.0461   5.2583   5.2583   5.3555   5.3555
     5.6814   5.6814   5.7393   5.7393   6.1473   6.1473   6.1647   6.1647
     6.4013   6.4013   6.4038   6.4038   6.6381   6.6381   6.6636   6.6636

     occupation numbers 
     1.0000   1.0000   1.0000   1.0000   1.0000   1.0000   1.0000   1.0000
     1.0000   1.0000   1.0000   1.0000   1.0000   1.0000   1.0000   1.0000
     1.0000   1.0000   1.0000   1.0000   1.0000   1.0000   1.0000   1.0000
     1.0000   1.0000   1.0000   1.0000   1.0000   1.0000   1.0000   1.0000
     1.0000   1.0000   1.0000   1.0000   1.0000   1.0000   1.0000   1.0000
     1.0000   1.0000   1.0000   1.0000   1.0000   1.0000   1.0000   1.0000
     1.0000   1.0000   1.0000   1.0000   1.0000   1.0000   1.0000   1.0000
     1.0000   1.0000   1.0000   1.0000   1.0000   1.0000   1.0000   1.0000
     1.0000   1.0000   1.0000   1.0000   1.0000   1.0000   1.0000   1.0000
     1.0000   1.0000   1.0000   1.0000   1.0000   1.0000   1.0000   1.0000

          k =-0.5002 0.1481-0.1371 ( 18712 PWs)   bands (ev):

   -41.4192 -41.4192 -41.4192 -41.4192 -26.6504 -26.6504 -26.6498 -26.6498
   -19.5125 -19.5125 -19.5125 -19.5125 -19.4611 -19.4611 -19.4611 -19.4611
   -19.4121 -19.4121 -19.4121 -19.4121  -8.9664  -8.9664  -8.9441  -8.9441
    -8.6835  -8.6835  -8.6824  -8.6824  -8.6432  -8.6432  -8.6236  -8.6236
    -4.0016  -4.0016  -3.9988  -3.9988  -3.7078  -3.7078  -3.6997  -3.6997
    -3.3614  -3.3614  -3.3045  -3.3045   3.4386   3.4386   3.5294   3.5294
     4.2388   4.2388   4.3792   4.3792   4.5871   4.5871   4.6152   4.6152
     5.0564   5.0564   5.1546   5.1546   5.2886   5.2886   5.2903   5.2903
     5.6770   5.6770   5.7588   5.7588   5.9494   5.9494   6.0366   6.0366
     6.3982   6.3982   6.4381   6.4381   6.7457   6.7457   6.7524   6.7524

     occupation numbers 
     1.0000   1.0000   1.0000   1.0000   1.0000   1.0000   1.0000   1.0000
     1.0000   1.0000   1.0000   1.0000   1.0000   1.0000   1.0000   1.0000
     1.0000   1.0000   1.0000   1.0000   1.0000   1.0000   1.0000   1.0000
     1.0000   1.0000   1.0000   1.0000   1.0000   1.0000   1.0000   1.0000
     1.0000   1.0000   1.0000   1.0000   1.0000   1.0000   1.0000   1.0000
     1.0000   1.0000   1.0000   1.0000   1.0000   1.0000   1.0000   1.0000
     1.0000   1.0000   1.0000   1.0000   1.0000   1.0000   1.0000   1.0000
     1.0000   1.0000   1.0000   1.0000   1.0000   1.0000   1.0000   1.0000
     1.0000   1.0000   1.0000   1.0000   1.0000   1.0000   1.0000   1.0000
     1.0000   1.0000   1.0000   1.0000   1.0000   1.0000   1.0000   1.0000

     highest occupied level (ev):     7.8442

!    total energy              =    -969.04024663 Ry
     estimated scf accuracy    <          7.9E-12 Ry

     The total energy is the sum of the following terms:
     one-electron contribution =    -196.01893955 Ry
     hartree contribution      =     158.36276051 Ry
     xc contribution           =    -246.04987770 Ry
     ewald contribution        =    -685.33418989 Ry

     convergence has been achieved in  20 iterations

     negative rho (up, down):  5.199E-01 0.000E+00

     Forces acting on atoms (cartesian axes, Ry/au):

     atom    1 type  2   force =    -0.00000000   -0.00004426   -0.00007287
     atom    2 type  2   force =    -0.00000000    0.00004426    0.00007287
     atom    3 type  2   force =     0.00000000    0.00004426   -0.00007287
     atom    4 type  2   force =     0.00000000   -0.00004426    0.00007287
     atom    5 type  3   force =    -0.00000000    0.00000197    0.00050303
     atom    6 type  3   force =     0.00000000   -0.00000197   -0.00050303
     atom    7 type  3   force =     0.00000000   -0.00000197    0.00050303
     atom    8 type  3   force =     0.00000000    0.00000197   -0.00050303
     atom    9 type  1   force =     0.00000000    0.00007514   -0.00003584
     atom   10 type  1   force =     0.00000000   -0.00007514    0.00003584
     atom   11 type  1   force =    -0.00000000   -0.00007514   -0.00003584
     atom   12 type  1   force =     0.00000000    0.00007514    0.00003584
     atom   13 type  1   force =     0.00000000    0.00029143   -0.00010160
     atom   14 type  1   force =     0.00000000   -0.00029143    0.00010160
     atom   15 type  1   force =     0.00000000   -0.00029143   -0.00010160
     atom   16 type  1   force =     0.00000000    0.00029143    0.00010160
     atom   17 type  1   force =     0.00000000    0.00025352    0.00000445
     atom   18 type  1   force =     0.00000000   -0.00025352   -0.00000445
     atom   19 type  1   force =    -0.00000000   -0.00025352    0.00000445
     atom   20 type  1   force =     0.00000000    0.00025352   -0.00000445
     The non-local contrib.  to forces
     atom    1 type  2   force =     0.00000000    0.00104553    0.00492181
     atom    2 type  2   force =     0.00000000   -0.00104553   -0.00492181
     atom    3 type  2   force =     0.00000000   -0.00104553    0.00492181
     atom    4 type  2   force =     0.00000000    0.00104553   -0.00492181
     atom    5 type  3   force =     0.00000000    0.02368919   -0.02037233
     atom    6 type  3   force =    -0.00000000   -0.02368919    0.02037233
     atom    7 type  3   force =     0.00000000   -0.02368919   -0.02037233
     atom    8 type  3   force =     0.00000000    0.02368919    0.02037233
     atom    9 type  1   force =     0.00000000    0.00414370   -0.01076477
     atom   10 type  1   force =     0.00000000   -0.00414370    0.01076477
     atom   11 type  1   force =    -0.00000000   -0.00414370   -0.01076477
     atom   12 type  1   force =     0.00000000    0.00414370    0.01076477
     atom   13 type  1   force =     0.00000000   -0.04324238   -0.00286042
     atom   14 type  1   force =     0.00000000    0.04324238    0.00286042
     atom   15 type  1   force =     0.00000000    0.04324238   -0.00286042
     atom   16 type  1   force =     0.00000000   -0.04324238    0.00286042
     atom   17 type  1   force =     0.00000000    0.04130760    0.06789499
     atom   18 type  1   force =     0.00000000   -0.04130760   -0.06789499
     atom   19 type  1   force =     0.00000000   -0.04130760    0.06789499
     atom   20 type  1   force =    -0.00000000    0.04130760   -0.06789499
     The ionic contribution  to forces
     atom    1 type  2   force =     0.00000000    0.39830013    0.11675606
     atom    2 type  2   force =    -0.00000000   -0.39830013   -0.11675606
     atom    3 type  2   force =    -0.00000000   -0.39830013    0.11675606
     atom    4 type  2   force =     0.00000000    0.39830013   -0.11675606
     atom    5 type  3   force =     0.00000000   -2.77051682    1.05897077
     atom    6 type  3   force =    -0.00000000    2.77051682   -1.05897077
     atom    7 type  3   force =    -0.00000000    2.77051682    1.05897077
     atom    8 type  3   force =     0.00000000   -2.77051682   -1.05897077
     atom    9 type  1   force =     0.00000000   -1.59228647    3.67092528
     atom   10 type  1   force =    -0.00000000    1.59228647   -3.67092528
     atom   11 type  1   force =    -0.00000000    1.59228647    3.67092528
     atom   12 type  1   force =     0.00000000   -1.59228647   -3.67092528
     atom   13 type  1   force =     0.00000000    3.63229458   -2.26283467
     atom   14 type  1   force =    -0.00000000   -3.63229458    2.26283467
     atom   15 type  1   force =    -0.00000000   -3.63229458   -2.26283467
     atom   16 type  1   force =     0.00000000    3.63229458    2.26283467
     atom   17 type  1   force =     0.00000000   -2.92820928   -4.82963270
     atom   18 type  1   force =    -0.00000000    2.92820928    4.82963270
     atom   19 type  1   force =    -0.00000000    2.92820928   -4.82963270
     atom   20 type  1   force =     0.00000000   -2.92820928    4.82963270
     The local contribution  to forces
     atom    1 type  2   force =    -0.00000000   -0.39944786   -0.12154964
     atom    2 type  2   force =    -0.00000000    0.39944786    0.12154964
     atom    3 type  2   force =    -0.00000000    0.39944786   -0.12154964
     atom    4 type  2   force =    -0.00000000   -0.39944786    0.12154964
     atom    5 type  3   force =    -0.00000000    2.74770804   -1.03775374
     atom    6 type  3   force =    -0.00000000   -2.74770804    1.03775374
     atom    7 type  3   force =    -0.00000000   -2.74770804   -1.03775374
     atom    8 type  3   force =    -0.00000000    2.74770804    1.03775374
     atom    9 type  1   force =    -0.00000000    1.58816723   -3.66012412
     atom   10 type  1   force =    -0.00000000   -1.58816723    3.66012412
     atom   11 type  1   force =    -0.00000000   -1.58816723   -3.66012412
     atom   12 type  1   force =    -0.00000000    1.58816723    3.66012412
     atom   13 type  1   force =    -0.00000000   -3.59080080    2.26514373
     atom   14 type  1   force =    -0.00000000    3.59080080   -2.26514373
     atom   15 type  1   force =    -0.00000000    3.59080080    2.26514373
     atom   16 type  1   force =    -0.00000000   -3.59080080   -2.26514373
     atom   17 type  1   force =    -0.00000000    2.88911818    4.76511871
     atom   18 type  1   force =    -0.00000000   -2.88911818   -4.76511871
     atom   19 type  1   force =    -0.00000000   -2.88911818    4.76511871
     atom   20 type  1   force =    -0.00000000    2.88911818   -4.76511871
     The core correction contribution to forces
     atom    1 type  2   force =     0.00000000    0.00005768   -0.00020054
     atom    2 type  2   force =     0.00000000   -0.00005768    0.00020054
     atom    3 type  2   force =     0.00000000   -0.00005768   -0.00020054
     atom    4 type  2   force =     0.00000000    0.00005768    0.00020054
     atom    5 type  3   force =     0.00000000   -0.00087742   -0.00034289
     atom    6 type  3   force =     0.00000000    0.00087742    0.00034289
     atom    7 type  3   force =     0.00000000    0.00087742   -0.00034289
     atom    8 type  3   force =     0.00000000   -0.00087742    0.00034289
     atom    9 type  1   force =     0.00000000    0.00005116   -0.00007366
     atom   10 type  1   force =     0.00000000   -0.00005116    0.00007366
     atom   11 type  1   force =     0.00000000   -0.00005116   -0.00007366
     atom   12 type  1   force =     0.00000000    0.00005116    0.00007366
     atom   13 type  1   force =     0.00000000    0.00203885    0.00045079
     atom   14 type  1   force =     0.00000000   -0.00203885   -0.00045079
     atom   15 type  1   force =     0.00000000   -0.00203885    0.00045079
     atom   16 type  1   force =     0.00000000    0.00203885   -0.00045079
     atom   17 type  1   force =     0.00000000   -0.00196212   -0.00337433
     atom   18 type  1   force =     0.00000000    0.00196212    0.00337433
     atom   19 type  1   force =     0.00000000    0.00196212   -0.00337433
     atom   20 type  1   force =    -0.00000000   -0.00196212    0.00337433
     The Hubbard contrib.    to forces
     atom    1 type  2   force =     0.00000000    0.00000000    0.00000000
     atom    2 type  2   force =     0.00000000    0.00000000    0.00000000
     atom    3 type  2   force =     0.00000000    0.00000000    0.00000000
     atom    4 type  2   force =     0.00000000    0.00000000    0.00000000
     atom    5 type  3   force =     0.00000000    0.00000000    0.00000000
     atom    6 type  3   force =     0.00000000    0.00000000    0.00000000
     atom    7 type  3   force =     0.00000000    0.00000000    0.00000000
     atom    8 type  3   force =     0.00000000    0.00000000    0.00000000
     atom    9 type  1   force =     0.00000000    0.00000000    0.00000000
     atom   10 type  1   force =     0.00000000    0.00000000    0.00000000
     atom   11 type  1   force =     0.00000000    0.00000000    0.00000000
     atom   12 type  1   force =     0.00000000    0.00000000    0.00000000
     atom   13 type  1   force =     0.00000000    0.00000000    0.00000000
     atom   14 type  1   force =     0.00000000    0.00000000    0.00000000
     atom   15 type  1   force =     0.00000000    0.00000000    0.00000000
     atom   16 type  1   force =     0.00000000    0.00000000    0.00000000
     atom   17 type  1   force =     0.00000000    0.00000000    0.00000000
     atom   18 type  1   force =     0.00000000    0.00000000    0.00000000
     atom   19 type  1   force =     0.00000000    0.00000000    0.00000000
     atom   20 type  1   force =     0.00000000    0.00000000    0.00000000
     The SCF correction term to forces
     atom    1 type  2   force =     0.00000000    0.00000025   -0.00000055
     atom    2 type  2   force =    -0.00000000   -0.00000025    0.00000055
     atom    3 type  2   force =    -0.00000000   -0.00000025   -0.00000055
     atom    4 type  2   force =     0.00000000    0.00000025    0.00000055
     atom    5 type  3   force =    -0.00000000   -0.00000102    0.00000122
     atom    6 type  3   force =     0.00000000    0.00000102   -0.00000122
     atom    7 type  3   force =     0.00000000    0.00000102    0.00000122
     atom    8 type  3   force =     0.00000000   -0.00000102   -0.00000122
     atom    9 type  1   force =     0.00000000   -0.00000048    0.00000143
     atom   10 type  1   force =    -0.00000000    0.00000048   -0.00000143
     atom   11 type  1   force =     0.00000000    0.00000048    0.00000143
     atom   12 type  1   force =    -0.00000000   -0.00000048   -0.00000143
     atom   13 type  1   force =     0.00000000    0.00000118   -0.00000103
     atom   14 type  1   force =    -0.00000000   -0.00000118    0.00000103
     atom   15 type  1   force =    -0.00000000   -0.00000118   -0.00000103
     atom   16 type  1   force =     0.00000000    0.00000118    0.00000103
     atom   17 type  1   force =    -0.00000000   -0.00000086   -0.00000222
     atom   18 type  1   force =     0.00000000    0.00000086    0.00000222
     atom   19 type  1   force =     0.00000000    0.00000086   -0.00000222
     atom   20 type  1   force =    -0.00000000   -0.00000086    0.00000222

     Total force =     0.001307     Total SCF correction =     0.000007


     Computing stress (Cartesian axis) and pressure


     negative rho (up, down):  5.199E-01 0.000E+00
          total   stress  (Ry/bohr**3)                   (kbar)     P=       -0.03
  -0.00000029   0.00000000   0.00000000           -0.04        0.00        0.00
   0.00000000   0.00000014   0.00000000            0.00        0.02        0.00
   0.00000000   0.00000000  -0.00000039            0.00        0.00       -0.06

     kinetic stress (kbar)   8920.93      0.00      0.00
                                0.00   8948.30      0.00
                                0.00      0.00   8969.36

     local   stress (kbar)  -7867.54      0.00     -0.00
                                0.00  -4290.44     -0.00
                               -0.00     -0.00  -3981.91

     nonloc. stress (kbar)   7367.39      0.00      0.00
                                0.00   7363.75      0.00
                                0.00      0.00   7369.38

     hartree stress (kbar)   3518.45     -0.00      0.00
                               -0.00   2110.42     -0.00
                                0.00     -0.00   1803.59

     exc-cor stress (kbar)   2570.24     -0.00     -0.00
                               -0.00   2568.07     -0.00
                               -0.00     -0.00   2570.80

     corecor stress (kbar)  -5258.47     -0.00     -0.00
                               -0.00  -5258.38      0.00
                               -0.00      0.00  -5259.13

     ewald   stress (kbar)  -9251.05     -0.00      0.00
                               -0.00 -11441.70      0.00
                                0.00      0.00 -11472.16

     hubbard stress (kbar)      0.00      0.00      0.00
                                0.00      0.00      0.00
                                0.00      0.00      0.00

     DFT-D   stress (kbar)      0.00      0.00      0.00
                                0.00      0.00      0.00
                                0.00      0.00      0.00

     XDM     stress (kbar)      0.00      0.00      0.00
                                0.00      0.00      0.00
                                0.00      0.00      0.00

     dft-nl  stress (kbar)      0.00      0.00      0.00
                                0.00      0.00      0.00
                                0.00      0.00      0.00

     TS-vdW  stress (kbar)      0.00      0.00      0.00
                                0.00      0.00      0.00
                                0.00      0.00      0.00

     MDB     stress (kbar)      0.00      0.00      0.00
                                0.00      0.00      0.00
                                0.00      0.00      0.00

     3D-RISM stress (kbar)      0.00      0.00      0.00
                                0.00      0.00      0.00
                                0.00      0.00      0.00


     Writing all to output data dir ./tmp/relax/SrZrS3_relax.save/ :
     XML data file, charge density, pseudopotentials, collected wavefunctions

     init_run     :      6.29s CPU      6.42s WALL (       2 calls)
     electrons    :   1233.67s CPU   1671.72s WALL (      15 calls)
     update_pot   :      0.94s CPU      0.95s WALL (      13 calls)
     forces       :     22.38s CPU     22.70s WALL (      15 calls)
     stress       :     75.41s CPU    442.30s WALL (      15 calls)

     Called by init_run:
     wfcinit      :      5.51s CPU      5.60s WALL (       2 calls)
     wfcinit:atom :      0.02s CPU      0.02s WALL (      16 calls)
     wfcinit:wfcr :      5.26s CPU      5.31s WALL (      16 calls)
     potinit      :      0.12s CPU      0.12s WALL (       2 calls)
     hinit0       :      0.20s CPU      0.21s WALL (       2 calls)

     Called by electrons:
     c_bands      :   1063.79s CPU   1498.13s WALL (     179 calls)
     sum_band     :    130.79s CPU    133.76s WALL (     179 calls)
     v_of_rho     :      9.20s CPU      9.43s WALL (     181 calls)
     v_h          :      0.57s CPU      0.57s WALL (     181 calls)
     v_xc         :     10.06s CPU     10.30s WALL (     211 calls)
     newd         :     31.07s CPU     31.40s WALL (     181 calls)
     mix_rho      :      1.06s CPU      1.19s WALL (     179 calls)

     Called by c_bands:
     init_us_2    :      7.08s CPU      7.17s WALL (    3120 calls)
     cegterg      :   1016.47s CPU   1448.56s WALL (    1432 calls)

     Called by sum_band:
     sum_band:wei :      0.00s CPU      0.00s WALL (     179 calls)
     sum_band:loo :     92.46s CPU     94.54s WALL (     179 calls)
     sum_band:buf :      0.01s CPU      1.00s WALL (    1432 calls)
     sum_band:ini :      3.14s CPU      3.18s WALL (    1432 calls)
     sum_band:cal :     41.83s CPU     42.21s WALL (    1432 calls)
     sum_band:bec :      0.17s CPU      0.18s WALL (    1432 calls)
     addusdens    :     35.49s CPU     36.34s WALL (     179 calls)
                                        0.00s GPU  (     179 calls)
     addusd:skk   :      0.20s CPU      0.21s WALL (     537 calls)
                                        0.00s GPU  (     537 calls)

     Called by *egterg:
     cdiaghg      :     34.14s CPU     34.46s WALL (    8255 calls)
     cegterg:over :     83.80s CPU     84.58s WALL (    7031 calls)
     cegterg:upda :     47.15s CPU     47.57s WALL (    7031 calls)
     cegterg:last :    108.84s CPU    109.81s WALL (    3955 calls)
     h_psi        :    577.14s CPU    585.51s WALL (    8479 calls)
     s_psi        :    142.99s CPU    563.97s WALL (    8479 calls)
     g_psi        :      1.09s CPU      1.10s WALL (    7031 calls)

     Called by h_psi:
     h_psi:calbec :    143.21s CPU    144.55s WALL (    8479 calls)
     vloc_psi     :    288.03s CPU    293.71s WALL (    8479 calls)
                                        0.00s GPU  (    8479 calls)
     add_vuspsi   :    144.90s CPU    146.21s WALL (    8479 calls)

     General routines
     calbec       :    245.54s CPU    613.95s WALL (   11951 calls)
     fft          :      7.36s CPU      7.47s WALL (    2724 calls)
     ffts         :      0.27s CPU      0.27s WALL (     360 calls)
     fftw         :    304.11s CPU    309.75s WALL (  852764 calls)
     interpolate  :      0.63s CPU      0.64s WALL (     181 calls)
     davcio       :      0.02s CPU      3.08s WALL (    6472 calls)

     Parallel routines

     PWSCF        :  22m21.23s CPU  35m46.97s WALL


   This run was terminated on:   3:14: 5   2Jul2026            

=------------------------------------------------------------------------------=
   JOB DONE.
=------------------------------------------------------------------------------=
