
     Program PWSCF v.7.3.1 starts on 21Aug2026 at  2:56:41 

     This program is part of the open-source Quantum ESPRESSO suite
     for quantum simulation of materials; please cite
         "P. Giannozzi et al., J. Phys.:Condens. Matter 21 395502 (2009);
         "P. Giannozzi et al., J. Phys.:Condens. Matter 29 465901 (2017);
         "P. Giannozzi et al., J. Chem. Phys. 152 154105 (2020);
          URL http://www.quantum-espresso.org", 
     in publications or presentations arising from this work. More details at
     http://www.quantum-espresso.org/quote

     Parallel version (MPI & OpenMP), running on      32 processor cores
     Number of MPI processes:                32
     Threads/MPI process:                     1

     MPI processes distributed on     1 nodes
     523942 MiB available memory on the printing compute node when the environment starts

     Reading input from scf.in

     Current dimensions of program PWSCF are:
     Max number of different atomic species (ntypx) = 10
     Max number of k-points (npk) =  40000
     Max angular momentum in pseudopotentials (lmaxx) =  4
     file Cu.paw.z_11.ld1.psl.v1.0.0-low.upf: wavefunction(s)  4S 3D renormalized

     K-points division:     npool     =       2
     R & G space division:  proc/nbgrp/npool/nimage =      16
     Subspace diagonalization in iterative solution of the eigenvalue problem:
     one sub-group per band group will be used
     scalapack distributed-memory algorithm (size of sub-group:  4*  4 procs)


     Parallelization info
     --------------------
     sticks:   dense  smooth     PW     G-vecs:    dense   smooth      PW
     Min        1193     597    157               163743    57882    7779
     Max        1194     599    158               163747    57885    7784
     Sum       19099    9565   2515              2619931   926125  124485

     Using Slab Decomposition



     bravais-lattice index     =            0
     lattice parameter (alat)  =      24.0273  a.u.
     unit-cell volume          =   14752.0463 (a.u.)^3
     number of atoms/cell      =           96
     number of atomic types    =            4
     number of electrons       =       840.00
     number of Kohn-Sham states=          420
     kinetic-energy cutoff     =      60.0000  Ry
     charge density cutoff     =     480.0000  Ry
     scf convergence threshold =      1.0E-09
     mixing beta               =       0.3000
     number of iterations used =            8  plain     mixing
     Exchange-correlation=  SLA  PW   PBX  PBC
                           (   1   4   3   4   0   0   0)

     celldm(1)=  24.027274  celldm(2)=   0.000000  celldm(3)=   0.000000
     celldm(4)=   0.000000  celldm(5)=   0.000000  celldm(6)=   0.000000

     crystal axes: (cart. coord. in units of alat)
               a(1) = (   1.000000   0.000000   0.000000 )  
               a(2) = (  -0.500000   0.866025   0.000000 )  
               a(3) = (   0.000000   0.000000   1.228028 )  

     reciprocal axes: (cart. coord. in units 2 pi/alat)
               b(1) = (  1.000000  0.577351 -0.000000 )  
               b(2) = (  0.000000  1.154701  0.000000 )  
               b(3) = (  0.000000 -0.000000  0.814314 )  


     PseudoPot. # 1 for Sr read from file:
     /home/yuhansun/pseudos/SSSP-1.3.0-PBE-precision/Sr_pbe_v1.uspp.F.UPF
     MD5 check sum: 6b418c05fbe9db5448babca5e47b7a5b
     Pseudo is Ultrasoft + core correction, Zval = 10.0
     Generated by new atomic code, or converted to UPF format
     Using radial grid of  883 points,  6 beta functions with: 
                l(1) =   0
                l(2) =   0
                l(3) =   1
                l(4) =   1
                l(5) =   2
                l(6) =   2
     Q(r) pseudized with  6 coefficients,  rinner =    1.400   1.400   1.400
                                                       1.400   1.400

     PseudoPot. # 2 for Cu read from file:
     /home/yuhansun/pseudos/SSSP-1.3.0-PBE-precision/Cu.paw.z_11.ld1.psl.v1.0.0-low.upf
     MD5 check sum: 619f40885d92a09a85a8b37550532d0c
     Pseudo is Projector augmented-wave + core cor, Zval = 11.0
     Generated using &quot;atomic&quot; code by A. Dal Corso  v.6.3MaX
     Shape of augmentation charge: PSQ
     Using radial grid of 1199 points,  6 beta functions with: 
                l(1) =   0
                l(2) =   0
                l(3) =   1
                l(4) =   1
                l(5) =   2
                l(6) =   2
     Q(r) pseudized with 0 coefficients 


     PseudoPot. # 3 for Sn read from file:
     /home/yuhansun/pseudos/SSSP-1.3.0-PBE-precision/Sn_pbe_v1.uspp.F.UPF
     MD5 check sum: 4cf58ce39ec5d5d420df3dd08604eb00
     Pseudo is Ultrasoft + core correction, Zval = 14.0
     Generated by new atomic code, or converted to UPF format
     Using radial grid of  891 points,  6 beta functions with: 
                l(1) =   0
                l(2) =   0
                l(3) =   1
                l(4) =   1
                l(5) =   2
                l(6) =   2
     Q(r) pseudized with  6 coefficients,  rinner =    1.200   1.200   1.200
                                                       1.200   1.200

     PseudoPot. # 4 for S  read from file:
     /home/yuhansun/pseudos/SSSP-1.3.0-PBE-precision/s_pbe_v1.4.uspp.F.UPF
     MD5 check sum: 88d86576ff6df21479756cfb9bdac1df
     Pseudo is Ultrasoft + core correction, Zval =  6.0
     Generated by new atomic code, or converted to UPF format
     Using radial grid of  907 points,  6 beta functions with: 
                l(1) =   0
                l(2) =   0
                l(3) =   1
                l(4) =   1
                l(5) =   2
                l(6) =   2
     Q(r) pseudized with  8 coefficients,  rinner =    1.300   1.300   1.300
                                                       1.300   1.300

     atomic species   valence    mass     pseudopotential
     Sr               10.00    87.62000     Sr( 1.00)
     Cu               11.00    63.54600     Cu( 1.00)
     Sn               14.00   118.71000     Sn( 1.00)
     S                 6.00    32.06500     S ( 1.00)

     No symmetry found



   Cartesian axes

     site n.     atom                  positions (alat units)
         1        Sr     tau(   1) = (  -0.1405753   0.2434834   0.2046717  )
         2        Sr     tau(   2) = (   0.3594247   0.2434834   0.2046717  )
         3        Sr     tau(   3) = (  -0.3905753   0.6764960   0.2046717  )
         4        Sr     tau(   4) = (   0.1094247   0.6764960   0.2046717  )
         5        Sr     tau(   5) = (   0.1094247   0.1895292   0.6140139  )
         6        Sr     tau(   6) = (   0.6094247   0.1895292   0.6140139  )
         7        Sr     tau(   7) = (  -0.1405753   0.6225418   0.6140139  )
         8        Sr     tau(   8) = (   0.3594247   0.6225418   0.6140139  )
         9        Sr     tau(   9) = (   0.2811505   0.0000000   1.0233574  )
        10        Sr     tau(  10) = (   0.7811505   0.0000000   1.0233574  )
        11        Sr     tau(  11) = (   0.0311505   0.4330126   1.0233574  )
        12        Sr     tau(  12) = (   0.5311505   0.4330126   1.0233574  )
        13        Cu     tau(  13) = (  -0.1214302   0.2731585   0.5036775  )
        14        Cu     tau(  14) = (   0.3773212   0.2753211   0.5061747  )
        15        Cu     tau(  15) = (  -0.3726788   0.7083337   0.5061747  )
        16        Cu     tau(  16) = (   0.1273212   0.7083337   0.5061747  )
        17        Cu     tau(  17) = (   0.0729045   0.1891087   0.9155169  )
        18        Cu     tau(  18) = (   0.5729045   0.1891087   0.9155169  )
        19        Cu     tau(  19) = (  -0.1770956   0.6221213   0.9155169  )
        20        Cu     tau(  20) = (   0.3229044   0.6221213   0.9155169  )
        21        Cu     tau(  21) = (   0.0497750   0.4015949   0.0968325  )
        22        Cu     tau(  22) = (   0.5497750   0.4015949   0.0968325  )
        23        Cu     tau(  23) = (  -0.2002251   0.8346075   0.0968325  )
        24        Cu     tau(  24) = (   0.2997749   0.8346075   0.0968325  )
        25        Cu     tau(  25) = (   0.2997745   0.0314177   0.7218532  )
        26        Cu     tau(  26) = (   0.7997745   0.0314177   0.7218532  )
        27        Cu     tau(  27) = (   0.0497745   0.4644302   0.7218532  )
        28        Cu     tau(  28) = (   0.5497745   0.4644302   0.7218532  )
        29        Cu     tau(  29) = (   0.1273207   0.1576915   0.3125110  )
        30        Cu     tau(  30) = (   0.6273207   0.1576915   0.3125110  )
        31        Cu     tau(  31) = (  -0.1226793   0.5907041   0.3125110  )
        32        Cu     tau(  32) = (   0.3773207   0.5907041   0.3125110  )
        33        Cu     tau(  33) = (   0.3229040   0.2439039   1.1311954  )
        34        Cu     tau(  34) = (   0.8229040   0.2439039   1.1311954  )
        35        Cu     tau(  35) = (   0.0729039   0.6769164   1.1311954  )
        36        Cu     tau(  36) = (   0.5729039   0.6769164   1.1311954  )
        37        Sn     tau(  37) = (  -0.1762580   0.3052877   0.8186857  )
        38        Sn     tau(  38) = (   0.3237420   0.3052877   0.8186857  )
        39        Sn     tau(  39) = (  -0.4262581   0.7383003   0.8186857  )
        40        Sn     tau(  40) = (   0.0737419   0.7383003   0.8186857  )
        41        Sn     tau(  41) = (   0.0737420   0.1277249   0.0000000  )
        42        Sn     tau(  42) = (   0.5737420   0.1277249   0.0000000  )
        43        Sn     tau(  43) = (  -0.1762581   0.5607374   0.0000000  )
        44        Sn     tau(  44) = (   0.3237419   0.5607374   0.0000000  )
        45        Sn     tau(  45) = (   0.3525160   0.0000000   0.4093422  )
        46        Sn     tau(  46) = (   0.8525160   0.0000000   0.4093422  )
        47        Sn     tau(  47) = (   0.1025160   0.4330126   0.4093422  )
        48        Sn     tau(  48) = (   0.6025160   0.4330126   0.4093422  )
        49        S      tau(  49) = (  -0.0988203   0.2103164   0.9671149  )
        50        S      tau(  50) = (   0.4011797   0.2103164   0.9671149  )
        51        S      tau(  51) = (  -0.3488203   0.6433290   0.9671149  )
        52        S      tau(  52) = (   0.1511797   0.6433290   0.9671149  )
        53        S      tau(  53) = (   0.1172707   0.2422736   0.1484293  )
        54        S      tau(  54) = (   0.6172707   0.2422736   0.1484293  )
        55        S      tau(  55) = (  -0.1327293   0.6752862   0.1484293  )
        56        S      tau(  56) = (   0.3672707   0.6752862   0.1484293  )
        57        S      tau(  57) = (  -0.0184505   0.4134352   0.5577727  )
        58        S      tau(  58) = (   0.4815495   0.4134352   0.5577727  )
        59        S      tau(  59) = (  -0.2684506   0.8464478   0.5577727  )
        60        S      tau(  60) = (   0.2315494   0.8464478   0.5577727  )
        61        S      tau(  61) = (   0.2315495   0.0195774   0.2609129  )
        62        S      tau(  62) = (   0.7315495   0.0195774   0.2609129  )
        63        S      tau(  63) = (  -0.0184505   0.4525899   0.2609129  )
        64        S      tau(  64) = (   0.4815495   0.4525899   0.2609129  )
        65        S      tau(  65) = (   0.1511797   0.2226962   1.0795986  )
        66        S      tau(  66) = (   0.6511797   0.2226962   1.0795986  )
        67        S      tau(  67) = (  -0.0988203   0.6557088   1.0795986  )
        68        S      tau(  68) = (   0.4011797   0.6557088   1.0795986  )
        69        S      tau(  69) = (   0.3672707   0.1907390   0.6702552  )
        70        S      tau(  70) = (   0.8672707   0.1907390   0.6702552  )
        71        S      tau(  71) = (   0.1172707   0.6237516   0.6702552  )
        72        S      tau(  72) = (   0.6172707   0.6237516   0.6702552  )
        73        S      tau(  73) = (  -0.0296498   0.1532012   0.4035914  )
        74        S      tau(  74) = (   0.4703502   0.1532012   0.4035914  )
        75        S      tau(  75) = (  -0.2796498   0.5862137   0.4035914  )
        76        S      tau(  76) = (   0.2203502   0.5862137   0.4035914  )
        77        S      tau(  77) = (   0.1321490   0.3307341   0.8129336  )
        78        S      tau(  78) = (   0.6321490   0.3307341   0.8129336  )
        79        S      tau(  79) = (  -0.1178511   0.7637467   0.8129336  )
        80        S      tau(  80) = (   0.3821489   0.7637467   0.8129336  )
        81        S      tau(  81) = (  -0.1024985   0.3820894   1.2222770  )
        82        S      tau(  82) = (   0.3975015   0.3820894   1.2222770  )
        83        S      tau(  83) = (  -0.3524986   0.8151020   1.2222770  )
        84        S      tau(  84) = (   0.1475014   0.8151020   1.2222770  )
        85        S      tau(  85) = (   0.1475010   0.0509231   0.8244365  )
        86        S      tau(  86) = (   0.6475010   0.0509231   0.8244365  )
        87        S      tau(  87) = (  -0.1024990   0.4839357   0.8244365  )
        88        S      tau(  88) = (   0.3975010   0.4839357   0.8244365  )
        89        S      tau(  89) = (   0.2203497   0.2798114   0.4150943  )
        90        S      tau(  90) = (   0.7203497   0.2798114   0.4150943  )
        91        S      tau(  91) = (  -0.0296503   0.7128240   0.4150943  )
        92        S      tau(  92) = (   0.4703497   0.7128240   0.4150943  )
        93        S      tau(  93) = (   0.3821485   0.1022784   0.0057509  )
        94        S      tau(  94) = (   0.8821485   0.1022784   0.0057509  )
        95        S      tau(  95) = (   0.1321485   0.5352910   0.0057509  )
        96        S      tau(  96) = (   0.6321485   0.5352910   0.0057509  )

     number of k points=    14
                       cart. coord. in units 2pi/alat
        k(    1) = (   0.0000000   0.0000000   0.0000000), wk =   0.0740741
        k(    2) = (   0.0000000   0.0000000   0.2714379), wk =   0.1481481
        k(    3) = (   0.0000000   0.3849003   0.0000000), wk =   0.1481481
        k(    4) = (   0.0000000   0.3849003   0.2714379), wk =   0.1481481
        k(    5) = (   0.3333333   0.5773505   0.0000000), wk =   0.1481481
        k(    6) = (   0.3333333   0.5773505   0.2714379), wk =   0.1481481
        k(    7) = (  -0.3333333   0.1924501   0.0000000), wk =   0.1481481
        k(    8) = (   0.3333333   0.1924502   0.0000000), wk =   0.1481481
        k(    9) = (   0.0000000  -0.3849003   0.2714379), wk =   0.1481481
        k(   10) = (  -0.3333333   0.1924501   0.2714379), wk =   0.1481481
        k(   11) = (   0.3333333   0.1924502   0.2714379), wk =   0.1481481
        k(   12) = (  -0.3333333  -0.1924502   0.2714379), wk =   0.1481481
        k(   13) = (   0.3333333  -0.1924501   0.2714379), wk =   0.1481481
        k(   14) = (  -0.3333333  -0.5773505   0.2714379), wk =   0.1481481

     Dense  grid:  2619931 G-vectors     FFT dimensions: ( 180, 180, 216)

     Smooth grid:   926125 G-vectors     FFT dimensions: ( 120, 120, 150)

     Estimated max dynamical RAM per process >       1.07 GB

     Estimated total dynamical RAM >      33.54 GB

     Initial potential from superposition of free atoms

     starting charge     827.5884, renormalised to     840.0000

     negative rho (up, down):  7.777E-01 0.000E+00
     Starting wfcs are  672 randomized atomic wfcs
     Checking if some PAW data can be deallocated... 

     total cpu time spent up to now is       44.5 secs

     Self-consistent Calculation

     iteration #  1     ecut=    60.00 Ry     beta= 0.30
     Davidson diagonalization with overlap
     ethr =  1.00E-02,  avg # of iterations =  2.0

     negative rho (up, down):  7.747E-01 0.000E+00

     total cpu time spent up to now is      126.8 secs

     total energy              =   -9070.29218236 Ry
     estimated scf accuracy    <      21.97764234 Ry

     iteration #  2     ecut=    60.00 Ry     beta= 0.30
     Davidson diagonalization with overlap
     ethr =  2.62E-03,  avg # of iterations =  4.9

     negative rho (up, down):  7.752E-01 0.000E+00

     total cpu time spent up to now is      228.8 secs

     total energy              =   -9076.61695627 Ry
     estimated scf accuracy    <       8.19019891 Ry

     iteration #  3     ecut=    60.00 Ry     beta= 0.30
     Davidson diagonalization with overlap
     ethr =  9.75E-04,  avg # of iterations =  2.0

     negative rho (up, down):  7.804E-01 0.000E+00

     total cpu time spent up to now is      310.9 secs

     total energy              =   -9076.48997003 Ry
     estimated scf accuracy    <       1.62143478 Ry

     iteration #  4     ecut=    60.00 Ry     beta= 0.30
     Davidson diagonalization with overlap
     ethr =  1.93E-04,  avg # of iterations =  6.4

     negative rho (up, down):  7.829E-01 0.000E+00

     total cpu time spent up to now is      430.3 secs

     total energy              =   -9076.70112486 Ry
     estimated scf accuracy    <       2.07910091 Ry

     iteration #  5     ecut=    60.00 Ry     beta= 0.30
     Davidson diagonalization with overlap
     ethr =  1.93E-04,  avg # of iterations =  5.2

     negative rho (up, down):  7.882E-01 0.000E+00

     total cpu time spent up to now is      525.8 secs

     total energy              =   -9077.13748927 Ry
     estimated scf accuracy    <       0.14365693 Ry

     iteration #  6     ecut=    60.00 Ry     beta= 0.30
     Davidson diagonalization with overlap
     ethr =  1.71E-05,  avg # of iterations =  6.1

     negative rho (up, down):  7.902E-01 0.000E+00

     total cpu time spent up to now is      624.1 secs

     total energy              =   -9077.18238702 Ry
     estimated scf accuracy    <       0.01426255 Ry

     iteration #  7     ecut=    60.00 Ry     beta= 0.30
     Davidson diagonalization with overlap
     c_bands:  1 eigenvalues not converged
     ethr =  1.70E-06,  avg # of iterations =  6.2

     negative rho (up, down):  7.907E-01 0.000E+00

     total cpu time spent up to now is      734.6 secs

     total energy              =   -9077.18859220 Ry
     estimated scf accuracy    <       0.00589917 Ry

     iteration #  8     ecut=    60.00 Ry     beta= 0.30
     Davidson diagonalization with overlap
     ethr =  7.02E-07,  avg # of iterations =  6.2

     negative rho (up, down):  7.912E-01 0.000E+00

     total cpu time spent up to now is      865.8 secs

     total energy              =   -9077.17923616 Ry
     estimated scf accuracy    <       0.05150662 Ry

     iteration #  9     ecut=    60.00 Ry     beta= 0.30
     Davidson diagonalization with overlap
     ethr =  7.02E-07,  avg # of iterations =  6.6

     negative rho (up, down):  7.911E-01 0.000E+00

     total cpu time spent up to now is     1001.3 secs

     total energy              =   -9077.18770202 Ry
     estimated scf accuracy    <       0.00164617 Ry

     iteration # 10     ecut=    60.00 Ry     beta= 0.30
     Davidson diagonalization with overlap
     ethr =  1.96E-07,  avg # of iterations =  2.2

     negative rho (up, down):  7.908E-01 0.000E+00

     total cpu time spent up to now is     1075.9 secs

     total energy              =   -9077.18740424 Ry
     estimated scf accuracy    <       0.00096861 Ry

     iteration # 11     ecut=    60.00 Ry     beta= 0.30
     Davidson diagonalization with overlap
     ethr =  1.15E-07,  avg # of iterations =  5.1

     negative rho (up, down):  7.906E-01 0.000E+00

     total cpu time spent up to now is     1173.4 secs

     total energy              =   -9077.18759660 Ry
     estimated scf accuracy    <       0.00019016 Ry

     iteration # 12     ecut=    60.00 Ry     beta= 0.30
     Davidson diagonalization with overlap
     ethr =  2.26E-08,  avg # of iterations =  4.9

     negative rho (up, down):  7.904E-01 0.000E+00

     total cpu time spent up to now is     1285.4 secs

     total energy              =   -9077.18762987 Ry
     estimated scf accuracy    <       0.00020395 Ry

     iteration # 13     ecut=    60.00 Ry     beta= 0.30
     Davidson diagonalization with overlap
     ethr =  2.26E-08,  avg # of iterations =  2.0

     negative rho (up, down):  7.903E-01 0.000E+00

     total cpu time spent up to now is     1369.1 secs

     total energy              =   -9077.18764062 Ry
     estimated scf accuracy    <       0.00003332 Ry

     iteration # 14     ecut=    60.00 Ry     beta= 0.30
     Davidson diagonalization with overlap
     ethr =  3.97E-09,  avg # of iterations =  6.1

     negative rho (up, down):  7.903E-01 0.000E+00

     total cpu time spent up to now is     1474.7 secs

     total energy              =   -9077.18764971 Ry
     estimated scf accuracy    <       0.00000188 Ry

     iteration # 15     ecut=    60.00 Ry     beta= 0.30
     Davidson diagonalization with overlap
     ethr =  2.24E-10,  avg # of iterations =  4.9

     negative rho (up, down):  7.902E-01 0.000E+00

     total cpu time spent up to now is     1587.3 secs

     total energy              =   -9077.18765072 Ry
     estimated scf accuracy    <       0.00000032 Ry

     iteration # 16     ecut=    60.00 Ry     beta= 0.30
     Davidson diagonalization with overlap
     ethr =  3.84E-11,  avg # of iterations =  8.2

     negative rho (up, down):  7.902E-01 0.000E+00

     total cpu time spent up to now is     1727.9 secs

     total energy              =   -9077.18765068 Ry
     estimated scf accuracy    <       0.00000140 Ry

     iteration # 17     ecut=    60.00 Ry     beta= 0.30
     Davidson diagonalization with overlap
     ethr =  3.84E-11,  avg # of iterations =  5.4

     negative rho (up, down):  7.902E-01 0.000E+00

     total cpu time spent up to now is     1839.8 secs

     total energy              =   -9077.18765085 Ry
     estimated scf accuracy    <       0.00000008 Ry

     iteration # 18     ecut=    60.00 Ry     beta= 0.30
     Davidson diagonalization with overlap
     ethr =  9.00E-12,  avg # of iterations =  8.6

     negative rho (up, down):  7.902E-01 0.000E+00

     total cpu time spent up to now is     1956.7 secs

     total energy              =   -9077.18765089 Ry
     estimated scf accuracy    <       0.00000002 Ry

     iteration # 19     ecut=    60.00 Ry     beta= 0.30
     Davidson diagonalization with overlap
     ethr =  2.40E-12,  avg # of iterations =  6.1

     negative rho (up, down):  7.902E-01 0.000E+00

     total cpu time spent up to now is     2060.2 secs

     total energy              =   -9077.18765090 Ry
     estimated scf accuracy    <          8.7E-09 Ry

     iteration # 20     ecut=    60.00 Ry     beta= 0.30
     Davidson diagonalization with overlap
     ethr =  1.04E-12,  avg # of iterations =  3.4

     negative rho (up, down):  7.902E-01 0.000E+00

     total cpu time spent up to now is     2143.5 secs

     total energy              =   -9077.18765090 Ry
     estimated scf accuracy    <       0.00000001 Ry

     iteration # 21     ecut=    60.00 Ry     beta= 0.30
     Davidson diagonalization with overlap
     ethr =  1.04E-12,  avg # of iterations =  5.7

     negative rho (up, down):  7.902E-01 0.000E+00

     total cpu time spent up to now is     2239.6 secs

     total energy              =   -9077.18765090 Ry
     estimated scf accuracy    <          1.9E-09 Ry

     iteration # 22     ecut=    60.00 Ry     beta= 0.30
     Davidson diagonalization with overlap
     ethr =  2.25E-13,  avg # of iterations =  5.0

     negative rho (up, down):  7.902E-01 0.000E+00

     total cpu time spent up to now is     2343.6 secs

     total energy              =   -9077.18765090 Ry
     estimated scf accuracy    <          1.0E-09 Ry

     iteration # 23     ecut=    60.00 Ry     beta= 0.30
     Davidson diagonalization with overlap
     ethr =  1.23E-13,  avg # of iterations =  4.9

     negative rho (up, down):  7.902E-01 0.000E+00

     total cpu time spent up to now is     2432.7 secs

     End of self-consistent calculation

          k = 0.0000 0.0000 0.0000 (115723 PWs)   bands (ev):

   -28.2783 -28.2761 -28.2759 -28.2759 -28.2751 -28.2749 -28.2749 -28.2747
   -28.2747 -28.2747 -28.2746 -28.2746 -14.9264 -14.9232 -14.9231 -14.9227
   -14.9225 -14.9224 -14.9220 -14.9219 -14.9217 -14.9214 -14.9214 -14.9203
   -14.9197 -14.9173 -14.9172 -14.9168 -14.9167 -14.9166 -14.9162 -14.9159
   -14.9158 -14.9156 -14.9155 -14.9139 -14.9084 -14.9052 -14.9052 -14.9047
   -14.9046 -14.9045 -14.9042 -14.9038 -14.9037 -14.9036 -14.9035 -14.9019
   -14.8681 -14.8650 -14.8650 -14.8645 -14.8644 -14.8644 -14.8640 -14.8636
   -14.8635 -14.8635 -14.8633 -14.8616 -14.8229 -14.8198 -14.8198 -14.8193
   -14.8193 -14.8192 -14.8188 -14.8185 -14.8183 -14.8183 -14.8181 -14.8165
   -10.3396 -10.3383 -10.3379 -10.3372 -10.3360 -10.3359 -10.3354 -10.3353
   -10.3349 -10.3314 -10.3302 -10.3241 -10.3098 -10.3089 -10.3086 -10.3049
   -10.3037 -10.3017 -10.3013 -10.3010 -10.2929 -10.2924 -10.2919 -10.2822
   -10.2718 -10.2699 -10.2698 -10.2658 -10.2649 -10.2643 -10.2626 -10.2623
   -10.2618 -10.2589 -10.2576 -10.2542  -6.8632  -6.5570  -6.5537  -6.4186
    -6.4160  -6.4152  -6.3028  -6.2982  -6.2976  -6.2197  -6.2173  -6.2158
    -5.9953  -5.9895  -5.9885  -5.8541  -5.8486  -5.8477  -5.7983  -5.7957
    -5.7945  -5.7377  -5.7343  -5.6223  -5.6180  -5.6157  -5.6150  -5.6132
    -5.6123  -5.6002  -5.5629  -5.5585  -5.5567  -5.5470  -5.5443  -5.5441
    -5.5168  -5.5143  -5.4337  -5.4287  -5.4274  -5.4258  -5.3762  -5.3720
    -5.3459  -5.3445  -5.3403  -5.2497  -0.6132  -0.6108  -0.6100  -0.3911
    -0.3886  -0.3871  -0.3507  -0.3181  -0.3149  -0.3142  -0.3014  -0.2998
     1.3827   1.3857   1.3865   1.5901   1.5928   1.6553   1.7150   1.7164
     1.7182   1.8031   1.8065   1.8077   2.0197   2.0398   2.0417   2.0805
     2.0856   2.0876   2.2475   2.2494   2.2502   2.3092   2.3106   2.4031
     2.4053   2.4079   2.4580   2.4622   2.4627   2.5471   2.5524   2.6573
     2.6637   2.6640   2.7805   2.7833   2.7860   2.8683   2.8727   2.9225
     2.9253   2.9270   2.9516   2.9524   2.9558   3.0249   3.0276   3.0286
     3.0447   3.0469   3.0479   3.1623   3.2106   3.2137   3.2161   3.2253
     3.2285   3.2544   3.2573   3.2589   3.3752   3.3782   3.3794   3.3919
     3.3941   3.4262   3.4275   3.4288   3.4341   3.4357   3.4381   3.4753
     3.4765   3.4820   3.4927   3.4935   3.4961   3.4996   3.5165   3.5224
     3.5825   3.5855   3.5871   3.6232   3.6266   3.6287   3.6853   3.6878
     3.6903   3.6913   3.6917   3.7065   3.7951   3.7981   3.8237   3.8260
     3.8267   3.9623   4.0164   4.0207   4.0218   4.0346   4.0360   4.0383
     4.1206   4.1247   4.1258   4.1266   4.1721   4.1733   4.1752   4.2001
     4.2074   4.2096   4.2111   4.2438   4.2459   4.2482   4.2788   4.2823
     4.4218   4.4250   4.4258   4.5152   4.5192   4.5203   4.5354   4.5375
     4.6184   4.6206   4.6223   4.8552   5.1248   5.1535   5.1554   5.1560
     5.1728   5.1744   5.1746   5.1779   5.1796   5.2218   5.2263   5.2264
     5.2283   5.2287   5.2299   5.2508   5.2521   5.2525   5.2661   5.2668
     5.2669   5.2776   5.2790   5.2793   5.3097   5.3109   5.3118   5.3127
     5.3134   5.3247   5.3369   5.3376   5.3379   5.3745   5.3757   5.3766
     5.4388   5.4392   5.4700   5.4706   5.4732   5.4740   5.4766   5.4774
     5.4780   5.4981   5.4987   5.6011   5.6016   5.6024   5.6174   5.6185
     5.6197   5.6266   5.6468   5.6473   5.6483   5.6596   5.6599   5.6609
     5.7248   5.7259   5.7452   5.7822   5.7836   5.7842   5.8213   5.8217
     5.8239   5.9028   5.9037   5.9045   5.9269   5.9274   5.9274   5.9951
     5.9964   6.0255   6.0259   6.0271   6.1484   6.1501   6.1518   6.1530
     6.2608   6.2616   6.2630   6.2633   6.2636   6.2648   6.2910   6.2913
     6.3330   6.3356   6.3358   6.3612   6.3631   6.3645   6.3877   6.3895
     6.3906   6.5528   6.5710   6.5718   6.5730   6.6365   6.6374   6.6390
     6.7456   6.7467   6.7480   6.7646   6.7653   6.7800   6.7812   6.7828
     6.8085   6.9647   7.1803   7.1810

          k = 0.0000 0.0000 0.2714 (115879 PWs)   bands (ev):

   -28.2783 -28.2761 -28.2759 -28.2759 -28.2751 -28.2749 -28.2749 -28.2747
   -28.2747 -28.2747 -28.2746 -28.2746 -14.9264 -14.9232 -14.9231 -14.9227
   -14.9225 -14.9224 -14.9220 -14.9219 -14.9217 -14.9214 -14.9214 -14.9203
   -14.9197 -14.9173 -14.9172 -14.9168 -14.9167 -14.9166 -14.9162 -14.9159
   -14.9158 -14.9157 -14.9155 -14.9139 -14.9084 -14.9052 -14.9052 -14.9047
   -14.9046 -14.9045 -14.9042 -14.9038 -14.9037 -14.9036 -14.9035 -14.9019
   -14.8681 -14.8650 -14.8650 -14.8645 -14.8644 -14.8644 -14.8640 -14.8636
   -14.8635 -14.8635 -14.8633 -14.8616 -14.8229 -14.8198 -14.8198 -14.8193
   -14.8193 -14.8192 -14.8188 -14.8185 -14.8183 -14.8183 -14.8181 -14.8165
   -10.3404 -10.3393 -10.3387 -10.3380 -10.3367 -10.3366 -10.3342 -10.3337
   -10.3334 -10.3324 -10.3280 -10.3252 -10.3123 -10.3085 -10.3072 -10.3070
   -10.3024 -10.3019 -10.3014 -10.2941 -10.2936 -10.2932 -10.2929 -10.2847
   -10.2712 -10.2693 -10.2693 -10.2664 -10.2656 -10.2649 -10.2623 -10.2618
   -10.2614 -10.2586 -10.2573 -10.2556  -6.8240  -6.7135  -6.4121  -6.4082
    -6.4077  -6.4061  -6.3075  -6.3029  -6.3022  -6.2315  -6.2299  -6.2278
    -5.9974  -5.9914  -5.9906  -5.8521  -5.8397  -5.8340  -5.8329  -5.7749
    -5.7729  -5.7716  -5.6563  -5.6554  -5.6539  -5.6500  -5.6177  -5.6122
    -5.6114  -5.6107  -5.5589  -5.5534  -5.5515  -5.5506  -5.5462  -5.5444
    -5.5431  -5.4537  -5.4353  -5.4343  -5.4332  -5.4312  -5.3768  -5.3462
    -5.3379  -5.3366  -5.3324  -5.2803  -0.6053  -0.6031  -0.6020  -0.4147
    -0.4117  -0.4109  -0.3481  -0.3323  -0.3032  -0.3001  -0.2997  -0.2736
     1.4068   1.4101   1.4108   1.5696   1.6133   1.6177   1.6185   1.6199
     1.6567   1.9323   1.9360   1.9368   2.0046   2.0462   2.0495   2.0539
     2.0555   2.0680   2.2760   2.2780   2.2784   2.3058   2.3872   2.3895
     2.3908   2.3933   2.4153   2.4174   2.4200   2.4557   2.6171   2.6231
     2.6237   2.6659   2.7178   2.7907   2.7957   2.7985   2.8001   2.8693
     2.8721   2.8735   2.9738   2.9761   2.9778   3.0422   3.0454   3.0477
     3.1038   3.1064   3.1076   3.1732   3.1965   3.2041   3.2043   3.2073
     3.2711   3.2743   3.2759   3.2837   3.3739   3.3832   3.3853   3.3860
     3.4179   3.4200   3.4236   3.4364   3.4396   3.4413   3.4486   3.4495
     3.4532   3.4778   3.5002   3.5172   3.5188   3.5241   3.5378   3.5424
     3.5490   3.5507   3.5541   3.6396   3.6410   3.6448   3.6469   3.6510
     3.6781   3.6804   3.6820   3.7745   3.8300   3.8747   3.8763   3.8771
     3.9073   3.9211   3.9908   3.9950   3.9959   4.0537   4.0558   4.0581
     4.0743   4.1124   4.1172   4.1182   4.1474   4.1488   4.1504   4.1637
     4.1714   4.1734   4.1745   4.2116   4.2498   4.2510   4.2535   4.2679
     4.4185   4.4222   4.4237   4.4841   4.5570   4.5602   4.5615   4.6039
     4.6055   4.6074   4.6765   4.8059   5.1360   5.1478   5.1531   5.1540
     5.1546   5.1644   5.1859   5.1869   5.1877   5.2150   5.2159   5.2172
     5.2175   5.2473   5.2480   5.2491   5.2578   5.2596   5.2599   5.2604
     5.2753   5.2768   5.2777   5.2780   5.3276   5.3288   5.3301   5.3327
     5.3338   5.3353   5.3407   5.3420   5.3438   5.3656   5.3740   5.3751
     5.3755   5.3892   5.4027   5.4195   5.4204   5.4210   5.5257   5.5317
     5.5327   5.5334   5.5817   5.5878   5.5884   5.5890   5.5904   5.6193
     5.6201   5.6207   5.6520   5.6533   5.6534   5.6605   5.6810   5.6827
     5.6836   5.7546   5.7559   5.7570   5.7908   5.7992   5.8172   5.8181
     5.8199   5.8702   5.8827   5.8839   5.8847   5.9880   5.9890   5.9898
     6.0414   6.0425   6.0432   6.0973   6.0985   6.0994   6.1747   6.1892
     6.1918   6.1933   6.2354   6.2673   6.2694   6.2707   6.3247   6.3264
     6.3271   6.3603   6.3606   6.3697   6.3710   6.3723   6.3956   6.4282
     6.4295   6.4311   6.4802   6.6405   6.6413   6.6421   6.6432   6.6439
     6.6444   6.6708   6.7066   6.7088   6.7099   6.7510   6.7529   6.7540
     6.9417   7.0052   7.0947   7.1698

          k = 0.0000 0.3849 0.0000 (115797 PWs)   bands (ev):

   -28.2783 -28.2761 -28.2759 -28.2759 -28.2751 -28.2749 -28.2749 -28.2747
   -28.2747 -28.2747 -28.2746 -28.2746 -14.9264 -14.9231 -14.9231 -14.9227
   -14.9225 -14.9224 -14.9221 -14.9218 -14.9217 -14.9215 -14.9214 -14.9203
   -14.9197 -14.9173 -14.9172 -14.9168 -14.9168 -14.9166 -14.9162 -14.9159
   -14.9158 -14.9157 -14.9155 -14.9139 -14.9084 -14.9052 -14.9052 -14.9047
   -14.9046 -14.9045 -14.9042 -14.9038 -14.9038 -14.9036 -14.9035 -14.9019
   -14.8681 -14.8650 -14.8650 -14.8645 -14.8644 -14.8644 -14.8640 -14.8636
   -14.8635 -14.8635 -14.8633 -14.8616 -14.8229 -14.8198 -14.8198 -14.8193
   -14.8193 -14.8192 -14.8188 -14.8184 -14.8183 -14.8183 -14.8181 -14.8165
   -10.3391 -10.3378 -10.3369 -10.3364 -10.3362 -10.3352 -10.3341 -10.3339
   -10.3330 -10.3319 -10.3317 -10.3264 -10.3080 -10.3071 -10.3063 -10.3047
   -10.3027 -10.3022 -10.3017 -10.3014 -10.2946 -10.2941 -10.2908 -10.2852
   -10.2708 -10.2689 -10.2686 -10.2673 -10.2660 -10.2641 -10.2625 -10.2622
   -10.2619 -10.2606 -10.2598 -10.2561  -6.7879  -6.5896  -6.5001  -6.4981
    -6.4398  -6.4369  -6.3644  -6.3504  -6.2861  -6.2831  -6.2497  -6.2467
    -5.9107  -5.9101  -5.8246  -5.8186  -5.8167  -5.7779  -5.7717  -5.7668
    -5.7307  -5.7239  -5.7206  -5.6937  -5.6881  -5.6475  -5.6406  -5.6367
    -5.6290  -5.5947  -5.5847  -5.5826  -5.5676  -5.5286  -5.5195  -5.5182
    -5.5155  -5.5045  -5.4617  -5.4512  -5.4366  -5.4336  -5.4248  -5.4145
    -5.3484  -5.3440  -5.3120  -5.2691  -0.5712  -0.5696  -0.5629  -0.4360
    -0.4035  -0.4029  -0.3767  -0.3424  -0.3373  -0.3359  -0.3116  -0.3023
     1.4194   1.4850   1.4896   1.5017   1.6397   1.6525   1.6855   1.7226
     1.7258   1.8283   1.8761   1.8782   1.9527   1.9558   1.9565   2.0272
     2.1161   2.2051   2.2291   2.2309   2.3396   2.3642   2.3834   2.3873
     2.3941   2.4087   2.4501   2.5370   2.5403   2.6064   2.6141   2.6167
     2.6579   2.7343   2.8101   2.8142   2.8212   2.8398   2.8422   2.8442
     2.8540   2.8858   2.9081   2.9097   2.9146   2.9629   2.9634   3.0038
     3.0507   3.0559   3.0576   3.1220   3.1449   3.1750   3.2045   3.2118
     3.2133   3.2317   3.2578   3.2616   3.2697   3.3247   3.3279   3.3316
     3.3389   3.3716   3.3955   3.3961   3.4334   3.4401   3.4431   3.4501
     3.4958   3.4993   3.5018   3.5102   3.5142   3.5159   3.5264   3.5436
     3.5623   3.6037   3.6063   3.6091   3.6348   3.6429   3.6778   3.6809
     3.6950   3.7012   3.7040   3.7095   3.7768   3.7799   3.8499   3.8609
     3.8964   3.9743   3.9753   3.9774   3.9809   4.0311   4.0364   4.0387
     4.0900   4.1109   4.1179   4.1206   4.1268   4.1621   4.1637   4.1771
     4.2467   4.2643   4.2696   4.2806   4.3038   4.3225   4.3242   4.3697
     4.3789   4.4139   4.4179   4.4844   4.5185   4.5264   4.5293   4.5300
     4.5910   4.5925   4.6241   4.7469   5.1442   5.1446   5.1458   5.1537
     5.1596   5.1603   5.1693   5.1752   5.2149   5.2191   5.2197   5.2208
     5.2267   5.2375   5.2484   5.2489   5.2502   5.2608   5.2674   5.2716
     5.2725   5.2891   5.3030   5.3037   5.3143   5.3182   5.3269   5.3275
     5.3370   5.3501   5.3517   5.3527   5.3568   5.3654   5.4137   5.4144
     5.4333   5.4507   5.4598   5.4607   5.4855   5.4934   5.5005   5.5010
     5.5026   5.5134   5.5272   5.5442   5.5568   5.5574   5.5614   5.6027
     5.6044   5.6307   5.6317   5.6327   5.6678   5.6787   5.6952   5.6962
     5.6969   5.7179   5.7298   5.7557   5.7751   5.7763   5.8095   5.8185
     5.8209   5.8646   5.8752   5.8766   5.9508   5.9520   5.9638   5.9651
     5.9900   6.0065   6.0076   6.0201   6.1383   6.1400   6.1451   6.1609
     6.2245   6.2298   6.2304   6.2518   6.2705   6.2893   6.2905   6.2991
     6.3605   6.3628   6.3777   6.3890   6.3904   6.4409   6.4848   6.4868
     6.5248   6.5370   6.5384   6.5760   6.6049   6.6512   6.6832   6.6923
     6.6933   6.7294   6.7361   6.7375   6.7626   6.7784   6.7924   6.8107
     6.8123   6.9047   6.9093   7.0811

          k = 0.0000 0.3849 0.2714 (115773 PWs)   bands (ev):

   -28.2783 -28.2761 -28.2759 -28.2759 -28.2751 -28.2749 -28.2749 -28.2747
   -28.2747 -28.2747 -28.2746 -28.2746 -14.9264 -14.9231 -14.9231 -14.9227
   -14.9225 -14.9224 -14.9221 -14.9218 -14.9217 -14.9215 -14.9214 -14.9203
   -14.9197 -14.9173 -14.9172 -14.9168 -14.9168 -14.9166 -14.9162 -14.9159
   -14.9158 -14.9157 -14.9155 -14.9139 -14.9084 -14.9052 -14.9052 -14.9047
   -14.9046 -14.9045 -14.9042 -14.9038 -14.9038 -14.9036 -14.9035 -14.9019
   -14.8681 -14.8650 -14.8650 -14.8645 -14.8644 -14.8644 -14.8640 -14.8636
   -14.8635 -14.8635 -14.8633 -14.8616 -14.8229 -14.8198 -14.8198 -14.8193
   -14.8193 -14.8192 -14.8188 -14.8184 -14.8183 -14.8183 -14.8181 -14.8165
   -10.3397 -10.3385 -10.3380 -10.3373 -10.3368 -10.3343 -10.3336 -10.3329
   -10.3326 -10.3321 -10.3298 -10.3272 -10.3106 -10.3074 -10.3064 -10.3060
   -10.3014 -10.3009 -10.3004 -10.2963 -10.2959 -10.2941 -10.2913 -10.2876
   -10.2707 -10.2690 -10.2677 -10.2674 -10.2661 -10.2644 -10.2623 -10.2619
   -10.2616 -10.2605 -10.2596 -10.2576  -6.7508  -6.6469  -6.5601  -6.4723
    -6.4246  -6.4211  -6.3646  -6.3286  -6.3275  -6.2595  -6.2252  -6.2234
    -5.9055  -5.9043  -5.8271  -5.8195  -5.8091  -5.8062  -5.7912  -5.7642
    -5.7590  -5.7304  -5.7127  -5.7070  -5.6710  -5.6367  -5.6313  -5.6274
    -5.6265  -5.6081  -5.5994  -5.5986  -5.5696  -5.5315  -5.5222  -5.5215
    -5.5197  -5.4978  -5.4671  -5.4323  -5.4286  -5.4258  -5.4210  -5.3647
    -5.3479  -5.3434  -5.3212  -5.2982  -0.5608  -0.5583  -0.5571  -0.4373
    -0.4346  -0.4257  -0.3929  -0.3726  -0.3218  -0.3177  -0.2985  -0.2782
     1.4343   1.4831   1.4873   1.4883   1.6254   1.6407   1.7703   1.7748
     1.7810   1.7890   1.8000   1.8009   1.9149   1.9961   1.9971   2.0760
     2.1558   2.2010   2.2087   2.2470   2.2481   2.3609   2.3917   2.3944
     2.3988   2.4487   2.5115   2.5136   2.5470   2.5854   2.5913   2.6083
     2.6417   2.7084   2.7599   2.7667   2.7696   2.7888   2.8095   2.8103
     2.8383   2.8756   2.9143   2.9173   2.9187   2.9810   3.0234   3.0256
     3.0670   3.1068   3.1074   3.1287   3.1713   3.1901   3.1931   3.1949
     3.2014   3.2315   3.2606   3.2656   3.2762   3.3176   3.3206   3.3225
     3.3250   3.3889   3.3904   3.4115   3.4447   3.4468   3.4665   3.4706
     3.4724   3.4754   3.4762   3.4804   3.5330   3.5365   3.5412   3.5874
     3.6093   3.6125   3.6133   3.6339   3.6418   3.6456   3.6585   3.6608
     3.6682   3.7097   3.7119   3.7152   3.8338   3.8357   3.8807   3.8887
     3.9047   3.9489   3.9504   3.9748   3.9809   4.0196   4.0442   4.0487
     4.0496   4.0665   4.1088   4.1110   4.1198   4.1306   4.1335   4.1473
     4.1891   4.2552   4.2668   4.2688   4.2866   4.2909   4.2940   4.3877
     4.3989   4.4362   4.4384   4.4688   4.5232   4.5260   4.5362   4.5967
     4.6107   4.6126   4.6194   4.7197   5.1512   5.1516   5.1536   5.1567
     5.1709   5.1747   5.1753   5.1833   5.1903   5.1973   5.2018   5.2080
     5.2082   5.2342   5.2349   5.2352   5.2541   5.2631   5.2653   5.2659
     5.2788   5.2983   5.3072   5.3121   5.3133   5.3279   5.3351   5.3364
     5.3574   5.3580   5.3599   5.3646   5.3797   5.3919   5.4066   5.4073
     5.4136   5.4319   5.4332   5.4451   5.4453   5.4923   5.5017   5.5024
     5.5086   5.5151   5.5538   5.5603   5.5741   5.5751   5.6031   5.6112
     5.6123   5.6185   5.6251   5.6263   5.6434   5.6695   5.6821   5.7139
     5.7152   5.7178   5.7342   5.7725   5.7731   5.7734   5.8020   5.8042
     5.8104   5.8579   5.8749   5.8763   5.8790   5.9150   5.9579   5.9594
     6.0341   6.0350   6.0360   6.0594   6.0787   6.0792   6.1730   6.2071
     6.2129   6.2142   6.2655   6.2672   6.2692   6.2771   6.2858   6.3481
     6.3502   6.3657   6.3722   6.4150   6.4235   6.4248   6.4277   6.4716
     6.4970   6.4984   6.5459   6.5588   6.5948   6.5961   6.6664   6.6673
     6.6770   6.7204   6.7354   6.7363   6.7468   6.8115   6.8139   6.8455
     6.8698   6.9283   6.9364   7.0528

          k = 0.3333 0.5774 0.0000 (115752 PWs)   bands (ev):

   -28.2783 -28.2761 -28.2759 -28.2759 -28.2751 -28.2749 -28.2749 -28.2747
   -28.2747 -28.2747 -28.2746 -28.2746 -14.9264 -14.9231 -14.9231 -14.9226
   -14.9225 -14.9225 -14.9221 -14.9218 -14.9217 -14.9215 -14.9214 -14.9203
   -14.9197 -14.9173 -14.9172 -14.9168 -14.9167 -14.9166 -14.9162 -14.9159
   -14.9158 -14.9157 -14.9155 -14.9139 -14.9084 -14.9052 -14.9052 -14.9047
   -14.9046 -14.9046 -14.9042 -14.9038 -14.9037 -14.9037 -14.9035 -14.9019
   -14.8681 -14.8650 -14.8650 -14.8645 -14.8644 -14.8644 -14.8640 -14.8636
   -14.8635 -14.8635 -14.8633 -14.8616 -14.8229 -14.8198 -14.8198 -14.8193
   -14.8193 -14.8192 -14.8188 -14.8184 -14.8183 -14.8183 -14.8181 -14.8165
   -10.3392 -10.3368 -10.3356 -10.3353 -10.3351 -10.3351 -10.3345 -10.3344
   -10.3343 -10.3303 -10.3301 -10.3300 -10.3076 -10.3057 -10.3047 -10.3046
   -10.3025 -10.3021 -10.3016 -10.3004 -10.2995 -10.2902 -10.2898 -10.2896
   -10.2700 -10.2681 -10.2672 -10.2664 -10.2661 -10.2653 -10.2643 -10.2639
   -10.2638 -10.2592 -10.2585 -10.2583  -6.6520  -6.6498  -6.6490  -6.4058
    -6.3984  -6.3981  -6.3980  -6.3974  -6.3958  -6.2928  -6.2910  -6.1928
    -5.8667  -5.8542  -5.8503  -5.7522  -5.7482  -5.7474  -5.7334  -5.7311
    -5.7290  -5.7091  -5.7071  -5.6967  -5.6938  -5.6919  -5.6852  -5.6838
    -5.6808  -5.6447  -5.5474  -5.5402  -5.5396  -5.5326  -5.5287  -5.5276
    -5.5111  -5.4753  -5.4708  -5.4703  -5.4670  -5.4654  -5.4626  -5.3969
    -5.3938  -5.3016  -5.3012  -5.2974  -0.5443  -0.5163  -0.5135  -0.5129
    -0.3981  -0.3950  -0.3915  -0.3892  -0.3884  -0.3116  -0.3093  -0.3080
     1.4821   1.4844   1.4864   1.6726   1.6757   1.6768   1.6844   1.6868
     1.6880   1.7335   1.7360   1.7994   2.0777   2.0819   2.0823   2.0830
     2.0838   2.1425   2.1442   2.1453   2.2549   2.3957   2.3976   2.3984
     2.4934   2.4951   2.4968   2.5628   2.5635   2.5657   2.5958   2.5970
     2.7700   2.7749   2.7772   2.8328   2.8384   2.8415   2.8448   2.8458
     2.8485   2.8515   2.8534   2.8540   2.8680   3.0057   3.0099   3.0112
     3.0251   3.0262   3.0289   3.0626   3.1315   3.1349   3.1362   3.1925
     3.1978   3.1987   3.2548   3.2602   3.2612   3.2694   3.2721   3.3610
     3.3701   3.3708   3.3730   3.3749   3.4241   3.4267   3.4268   3.4877
     3.4886   3.5020   3.5023   3.5080   3.5283   3.5308   3.5340   3.5468
     3.5497   3.5761   3.5804   3.5819   3.6469   3.6511   3.6528   3.7148
     3.7208   3.7221   3.7276   3.7287   3.7566   3.8004   3.8024   3.8050
     3.9580   3.9603   3.9613   3.9849   3.9869   4.0266   4.0305   4.0324
     4.0819   4.0849   4.0853   4.1384   4.1494   4.1514   4.1521   4.2848
     4.2859   4.2941   4.3141   4.3196   4.3202   4.3213   4.3219   4.3228
     4.3849   4.3866   4.3886   4.4963   4.5130   4.5159   4.5201   4.5210
     4.5234   4.6518   4.6555   4.6557   5.1369   5.1427   5.1441   5.1447
     5.1726   5.1733   5.1872   5.1884   5.1890   5.1952   5.1970   5.1974
     5.2458   5.2468   5.2478   5.2652   5.2659   5.2666   5.2967   5.2985
     5.2990   5.3007   5.3025   5.3030   5.3137   5.3180   5.3192   5.3198
     5.3395   5.3404   5.3410   5.4020   5.4030   5.4047   5.4075   5.4082
     5.4549   5.4554   5.4563   5.4580   5.4825   5.4837   5.4847   5.4887
     5.4894   5.5350   5.5361   5.5363   5.5635   5.5648   5.5653   5.5697
     5.5708   5.5723   5.6414   5.6722   5.6727   5.6945   5.6956   5.6963
     5.7068   5.7073   5.7091   5.7796   5.7803   5.7810   5.7984   5.7997
     5.8006   5.8240   5.8245   5.8444   5.9301   5.9309   5.9328   6.0457
     6.0468   6.0476   6.0480   6.0487   6.1370   6.1386   6.1400   6.1579
     6.2181   6.2197   6.2202   6.2600   6.2605   6.2613   6.2833   6.2852
     6.3754   6.4086   6.4106   6.4111   6.4163   6.4181   6.4227   6.4512
     6.4532   6.4539   6.6144   6.6152   6.6157   6.6751   6.6764   6.6777
     6.7249   6.7396   6.7413   6.8055   6.8065   6.8074   6.8089   6.8106
     6.8112   6.9387   6.9394   6.9405

          k = 0.3333 0.5774 0.2714 (115827 PWs)   bands (ev):

   -28.2783 -28.2761 -28.2759 -28.2759 -28.2751 -28.2749 -28.2749 -28.2747
   -28.2747 -28.2747 -28.2746 -28.2746 -14.9264 -14.9231 -14.9231 -14.9226
   -14.9225 -14.9225 -14.9221 -14.9218 -14.9217 -14.9215 -14.9214 -14.9203
   -14.9197 -14.9173 -14.9172 -14.9168 -14.9167 -14.9166 -14.9162 -14.9159
   -14.9158 -14.9157 -14.9155 -14.9139 -14.9084 -14.9052 -14.9052 -14.9047
   -14.9046 -14.9046 -14.9042 -14.9038 -14.9037 -14.9037 -14.9035 -14.9019
   -14.8681 -14.8650 -14.8650 -14.8645 -14.8644 -14.8644 -14.8640 -14.8636
   -14.8635 -14.8635 -14.8633 -14.8616 -14.8229 -14.8198 -14.8198 -14.8193
   -14.8193 -14.8192 -14.8188 -14.8184 -14.8183 -14.8183 -14.8181 -14.8165
   -10.3395 -10.3378 -10.3373 -10.3367 -10.3366 -10.3336 -10.3331 -10.3331
   -10.3326 -10.3306 -10.3301 -10.3299 -10.3085 -10.3077 -10.3075 -10.3051
   -10.3015 -10.3005 -10.2979 -10.2973 -10.2970 -10.2920 -10.2916 -10.2913
   -10.2703 -10.2685 -10.2673 -10.2666 -10.2661 -10.2640 -10.2637 -10.2635
   -10.2630 -10.2602 -10.2592 -10.2590  -6.6200  -6.6177  -6.6167  -6.5268
    -6.5241  -6.5232  -6.3081  -6.2923  -6.2887  -6.2879  -6.2571  -6.2145
    -5.8765  -5.8578  -5.8475  -5.7799  -5.7790  -5.7756  -5.7443  -5.7415
    -5.7405  -5.7158  -5.6899  -5.6872  -5.6863  -5.6739  -5.6719  -5.6707
    -5.6686  -5.6438  -5.5614  -5.5557  -5.5553  -5.5277  -5.5241  -5.5237
    -5.5053  -5.5038  -5.5022  -5.5019  -5.4575  -5.3989  -5.3971  -5.3946
    -5.3564  -5.3227  -5.3221  -5.3180  -0.5205  -0.5074  -0.5045  -0.5040
    -0.4610  -0.4188  -0.4162  -0.4152  -0.3551  -0.2946  -0.2920  -0.2910
     1.4801   1.4826   1.4846   1.6368   1.6383   1.6395   1.6911   1.7732
     1.7764   1.7769   1.7780   1.7945   1.9791   1.9814   1.9824   2.0546
     2.1719   2.1910   2.1930   2.1939   2.2458   2.3959   2.3977   2.3991
     2.4878   2.4892   2.4916   2.5573   2.5866   2.5877   2.5901   2.5916
     2.6779   2.7325   2.7369   2.7394   2.8199   2.8231   2.8251   2.8268
     2.8970   2.9028   2.9042   2.9246   2.9371   2.9538   2.9559   2.9573
     3.0585   3.0600   3.0618   3.0860   3.0891   3.0917   3.1268   3.1807
     3.2408   3.2449   3.2462   3.2662   3.2714   3.2723   3.3202   3.3270
     3.3281   3.3300   3.3747   3.4082   3.4216   3.4654   3.4659   3.4682
     3.4906   3.4983   3.5000   3.5039   3.5350   3.5381   3.5389   3.5429
     3.5623   3.6103   3.6170   3.6174   3.6524   3.6554   3.6571   3.6963
     3.6984   3.7005   3.7207   3.7431   3.8200   3.8404   3.8412   3.8434
     3.9365   3.9399   3.9414   3.9432   4.0254   4.0303   4.0318   4.0387
     4.0651   4.0684   4.0692   4.1075   4.1106   4.1144   4.1152   4.1686
     4.2706   4.2735   4.2751   4.2897   4.3162   4.3583   4.3618   4.3629
     4.4160   4.4168   4.4192   4.4920   4.4942   4.4963   4.5070   4.5115
     4.5642   4.6645   4.6677   4.6685   5.1482   5.1556   5.1572   5.1576
     5.1581   5.1818   5.1829   5.1832   5.1972   5.1982   5.1986   5.2108
     5.2237   5.2250   5.2256   5.2518   5.2524   5.2534   5.2560   5.2688
     5.3006   5.3014   5.3024   5.3090   5.3276   5.3297   5.3304   5.3669
     5.3686   5.3690   5.3749   5.3932   5.3955   5.4077   5.4092   5.4098
     5.4325   5.4333   5.4345   5.4383   5.4838   5.4847   5.4853   5.4904
     5.5387   5.5396   5.5401   5.5439   5.5653   5.5664   5.5668   5.6055
     5.6060   5.6078   5.6384   5.6391   5.6722   5.6730   5.6738   5.7030
     5.7037   5.7049   5.7177   5.7590   5.7600   5.7607   5.8015   5.8078
     5.8208   5.8236   5.8242   5.8248   5.8898   5.8910   5.8918   6.0563
     6.0594   6.0606   6.0624   6.0775   6.1196   6.1202   6.1213   6.1343
     6.1956   6.2365   6.2383   6.2400   6.2837   6.3014   6.3025   6.3037
     6.3069   6.3850   6.3854   6.3876   6.4507   6.4650   6.4683   6.4691
     6.4916   6.4935   6.5580   6.5594   6.5604   6.6449   6.6843   6.6859
     6.6864   6.7598   6.7777   6.7786   6.7791   6.7928   6.8540   6.8551
     6.8559   6.9355   6.9364   6.9369

          k =-0.3333 0.1925 0.0000 (115797 PWs)   bands (ev):

   -28.2783 -28.2761 -28.2759 -28.2759 -28.2751 -28.2749 -28.2749 -28.2747
   -28.2747 -28.2747 -28.2746 -28.2746 -14.9264 -14.9232 -14.9231 -14.9226
   -14.9225 -14.9225 -14.9221 -14.9218 -14.9217 -14.9215 -14.9214 -14.9203
   -14.9197 -14.9173 -14.9172 -14.9168 -14.9167 -14.9166 -14.9162 -14.9159
   -14.9158 -14.9157 -14.9155 -14.9139 -14.9084 -14.9052 -14.9052 -14.9047
   -14.9046 -14.9046 -14.9042 -14.9038 -14.9037 -14.9036 -14.9035 -14.9019
   -14.8681 -14.8650 -14.8650 -14.8645 -14.8644 -14.8644 -14.8640 -14.8636
   -14.8635 -14.8635 -14.8633 -14.8616 -14.8229 -14.8198 -14.8198 -14.8193
   -14.8193 -14.8192 -14.8188 -14.8184 -14.8183 -14.8183 -14.8181 -14.8165
   -10.3391 -10.3379 -10.3368 -10.3363 -10.3362 -10.3352 -10.3341 -10.3339
   -10.3330 -10.3319 -10.3317 -10.3265 -10.3080 -10.3071 -10.3062 -10.3046
   -10.3028 -10.3021 -10.3017 -10.3015 -10.2947 -10.2941 -10.2907 -10.2852
   -10.2708 -10.2689 -10.2686 -10.2673 -10.2660 -10.2641 -10.2626 -10.2620
   -10.2619 -10.2606 -10.2599 -10.2562  -6.7880  -6.5899  -6.5012  -6.4970
    -6.4383  -6.4374  -6.3667  -6.3485  -6.2860  -6.2833  -6.2490  -6.2465
    -5.9165  -5.9092  -5.8248  -5.8194  -5.8174  -5.7757  -5.7682  -5.7664
    -5.7317  -5.7229  -5.7214  -5.6905  -5.6892  -5.6467  -5.6383  -5.6366
    -5.6288  -5.5950  -5.5865  -5.5826  -5.5709  -5.5291  -5.5194  -5.5174
    -5.5148  -5.5056  -5.4639  -5.4501  -5.4354  -5.4340  -5.4217  -5.4166
    -5.3482  -5.3472  -5.3103  -5.2685  -0.5723  -0.5697  -0.5618  -0.4353
    -0.4052  -0.4028  -0.3770  -0.3390  -0.3373  -0.3365  -0.3125  -0.3028
     1.4198   1.4855   1.4884   1.5011   1.6389   1.6504   1.6884   1.7219
     1.7250   1.8272   1.8772   1.8789   1.9527   1.9541   1.9576   2.0272
     2.1151   2.2065   2.2310   2.2317   2.3401   2.3637   2.3849   2.3868
     2.3929   2.4104   2.4508   2.5359   2.5386   2.6129   2.6140   2.6176
     2.6588   2.7324   2.8107   2.8140   2.8177   2.8393   2.8414   2.8440
     2.8545   2.8844   2.9089   2.9096   2.9153   2.9603   2.9631   3.0027
     3.0493   3.0553   3.0577   3.1235   3.1467   3.1734   3.2025   3.2108
     3.2130   3.2330   3.2598   3.2632   3.2686   3.3227   3.3307   3.3327
     3.3381   3.3726   3.3962   3.3984   3.4344   3.4390   3.4421   3.4524
     3.4951   3.4981   3.5026   3.5099   3.5111   3.5176   3.5228   3.5495
     3.5622   3.5973   3.6058   3.6115   3.6338   3.6467   3.6783   3.6808
     3.6939   3.7009   3.7042   3.7082   3.7789   3.7804   3.8487   3.8581
     3.8960   3.9721   3.9737   3.9779   3.9811   4.0287   4.0371   4.0398
     4.0917   4.1106   4.1190   4.1218   4.1252   4.1632   4.1663   4.1772
     4.2479   4.2659   4.2676   4.2819   4.3023   4.3235   4.3244   4.3679
     4.3784   4.4147   4.4173   4.4831   4.5190   4.5260   4.5286   4.5312
     4.5888   4.5931   4.6260   4.7476   5.1414   5.1443   5.1469   5.1544
     5.1593   5.1606   5.1693   5.1744   5.2151   5.2181   5.2191   5.2218
     5.2274   5.2370   5.2478   5.2494   5.2498   5.2606   5.2682   5.2718
     5.2722   5.2888   5.3040   5.3044   5.3145   5.3187   5.3264   5.3275
     5.3369   5.3496   5.3522   5.3537   5.3571   5.3652   5.4123   5.4142
     5.4335   5.4505   5.4617   5.4620   5.4857   5.4935   5.4990   5.5010
     5.5037   5.5124   5.5275   5.5431   5.5560   5.5568   5.5615   5.6029
     5.6037   5.6308   5.6315   5.6321   5.6682   5.6796   5.6957   5.6966
     5.6976   5.7172   5.7295   5.7564   5.7752   5.7768   5.8092   5.8190
     5.8196   5.8631   5.8752   5.8765   5.9495   5.9523   5.9638   5.9655
     5.9901   6.0061   6.0077   6.0206   6.1390   6.1399   6.1441   6.1599
     6.2252   6.2288   6.2309   6.2522   6.2713   6.2888   6.2907   6.2996
     6.3605   6.3631   6.3770   6.3883   6.3909   6.4410   6.4855   6.4879
     6.5247   6.5374   6.5396   6.5748   6.6048   6.6507   6.6828   6.6932
     6.6935   6.7294   6.7369   6.7378   6.7619   6.7776   6.7929   6.8117
     6.8128   6.9038   6.9091   7.0805

          k = 0.3333 0.1925 0.0000 (115797 PWs)   bands (ev):

   -28.2783 -28.2761 -28.2759 -28.2759 -28.2751 -28.2749 -28.2749 -28.2747
   -28.2747 -28.2747 -28.2746 -28.2746 -14.9264 -14.9232 -14.9231 -14.9226
   -14.9225 -14.9225 -14.9221 -14.9218 -14.9217 -14.9215 -14.9214 -14.9203
   -14.9197 -14.9173 -14.9172 -14.9168 -14.9167 -14.9166 -14.9162 -14.9159
   -14.9158 -14.9157 -14.9155 -14.9139 -14.9084 -14.9052 -14.9052 -14.9047
   -14.9046 -14.9046 -14.9042 -14.9038 -14.9037 -14.9037 -14.9035 -14.9019
   -14.8681 -14.8650 -14.8650 -14.8645 -14.8644 -14.8644 -14.8640 -14.8636
   -14.8635 -14.8635 -14.8633 -14.8616 -14.8229 -14.8198 -14.8198 -14.8193
   -14.8193 -14.8192 -14.8188 -14.8185 -14.8183 -14.8183 -14.8181 -14.8165
   -10.3390 -10.3379 -10.3365 -10.3359 -10.3358 -10.3354 -10.3347 -10.3343
   -10.3331 -10.3318 -10.3317 -10.3265 -10.3078 -10.3070 -10.3066 -10.3042
   -10.3033 -10.3019 -10.3015 -10.3013 -10.2951 -10.2946 -10.2902 -10.2851
   -10.2704 -10.2690 -10.2689 -10.2667 -10.2663 -10.2638 -10.2630 -10.2628
   -10.2626 -10.2597 -10.2595 -10.2559  -6.7880  -6.5900  -6.5012  -6.4969
    -6.4388  -6.4361  -6.3667  -6.3477  -6.2868  -6.2837  -6.2495  -6.2472
    -5.9147  -5.9109  -5.8201  -5.8182  -5.8172  -5.7790  -5.7680  -5.7660
    -5.7325  -5.7237  -5.7230  -5.6905  -5.6881  -5.6461  -5.6407  -5.6372
    -5.6288  -5.5941  -5.5874  -5.5832  -5.5698  -5.5278  -5.5202  -5.5179
    -5.5148  -5.5036  -5.4645  -5.4501  -5.4366  -5.4346  -5.4225  -5.4154
    -5.3470  -5.3442  -5.3125  -5.2692  -0.5729  -0.5702  -0.5608  -0.4347
    -0.4062  -0.4028  -0.3775  -0.3376  -0.3370  -0.3354  -0.3137  -0.3036
     1.4166   1.4883   1.4898   1.4994   1.6394   1.6509   1.6895   1.7234
     1.7253   1.8297   1.8749   1.8780   1.9528   1.9551   1.9561   2.0271
     2.1150   2.2074   2.2274   2.2310   2.3386   2.3632   2.3866   2.3873
     2.3936   2.4095   2.4495   2.5383   2.5394   2.6093   2.6142   2.6175
     2.6561   2.7361   2.8108   2.8145   2.8230   2.8391   2.8423   2.8450
     2.8540   2.8827   2.9077   2.9080   2.9147   2.9587   2.9624   3.0035
     3.0513   3.0556   3.0575   3.1245   3.1483   3.1755   3.2001   3.2103
     3.2122   3.2354   3.2606   3.2617   3.2679   3.3232   3.3304   3.3325
     3.3402   3.3719   3.3915   3.3953   3.4334   3.4396   3.4418   3.4493
     3.4977   3.4997   3.5016   3.5110   3.5126   3.5160   3.5273   3.5423
     3.5603   3.6043   3.6063   3.6122   3.6338   3.6467   3.6780   3.6802
     3.6901   3.7030   3.7045   3.7075   3.7781   3.7810   3.8495   3.8603
     3.8977   3.9680   3.9754   3.9793   3.9819   4.0303   4.0374   4.0395
     4.0931   4.1108   4.1197   4.1211   4.1248   4.1608   4.1631   4.1773
     4.2471   4.2669   4.2688   4.2825   4.3015   4.3225   4.3249   4.3687
     4.3772   4.4156   4.4185   4.4841   4.5166   4.5260   4.5286   4.5304
     4.5878   4.5912   4.6284   4.7486   5.1420   5.1436   5.1469   5.1550
     5.1599   5.1606   5.1691   5.1742   5.2138   5.2189   5.2198   5.2217
     5.2281   5.2369   5.2486   5.2490   5.2498   5.2607   5.2672   5.2718
     5.2719   5.2888   5.3039   5.3049   5.3137   5.3188   5.3267   5.3280
     5.3366   5.3486   5.3523   5.3528   5.3575   5.3660   5.4142   5.4148
     5.4329   5.4513   5.4610   5.4622   5.4852   5.4926   5.4988   5.5009
     5.5026   5.5128   5.5280   5.5434   5.5572   5.5577   5.5611   5.6027
     5.6039   5.6294   5.6315   5.6324   5.6682   5.6783   5.6951   5.6962
     5.6965   5.7176   5.7306   5.7567   5.7754   5.7762   5.8091   5.8195
     5.8204   5.8633   5.8756   5.8765   5.9497   5.9517   5.9649   5.9654
     5.9903   6.0060   6.0072   6.0201   6.1378   6.1393   6.1455   6.1604
     6.2254   6.2286   6.2298   6.2521   6.2710   6.2888   6.2905   6.2992
     6.3613   6.3632   6.3764   6.3900   6.3902   6.4415   6.4853   6.4877
     6.5245   6.5375   6.5394   6.5755   6.6042   6.6509   6.6844   6.6904
     6.6930   6.7295   6.7369   6.7387   6.7629   6.7771   6.7929   6.8111
     6.8130   6.9037   6.9091   7.0810

          k = 0.0000-0.3849 0.2714 (115773 PWs)   bands (ev):

   -28.2783 -28.2761 -28.2759 -28.2759 -28.2751 -28.2749 -28.2749 -28.2747
   -28.2747 -28.2747 -28.2746 -28.2746 -14.9264 -14.9231 -14.9231 -14.9227
   -14.9225 -14.9224 -14.9221 -14.9218 -14.9217 -14.9215 -14.9214 -14.9203
   -14.9197 -14.9173 -14.9172 -14.9168 -14.9168 -14.9166 -14.9162 -14.9159
   -14.9158 -14.9157 -14.9155 -14.9139 -14.9084 -14.9052 -14.9052 -14.9047
   -14.9046 -14.9045 -14.9042 -14.9038 -14.9038 -14.9036 -14.9035 -14.9019
   -14.8681 -14.8650 -14.8650 -14.8645 -14.8644 -14.8644 -14.8640 -14.8636
   -14.8635 -14.8635 -14.8633 -14.8616 -14.8229 -14.8198 -14.8198 -14.8193
   -14.8193 -14.8192 -14.8188 -14.8184 -14.8183 -14.8183 -14.8181 -14.8165
   -10.3397 -10.3386 -10.3379 -10.3372 -10.3365 -10.3345 -10.3341 -10.3330
   -10.3327 -10.3314 -10.3296 -10.3275 -10.3104 -10.3080 -10.3061 -10.3049
   -10.3032 -10.3027 -10.2977 -10.2955 -10.2950 -10.2946 -10.2932 -10.2872
   -10.2705 -10.2684 -10.2683 -10.2678 -10.2666 -10.2634 -10.2620 -10.2617
   -10.2615 -10.2610 -10.2603 -10.2574  -6.7510  -6.6467  -6.5608  -6.4689
    -6.4216  -6.4177  -6.3644  -6.3406  -6.3386  -6.2659  -6.2117  -6.2095
    -5.9138  -5.9127  -5.8268  -5.8230  -5.8187  -5.8159  -5.7674  -5.7635
    -5.7532  -5.7319  -5.6849  -5.6811  -5.6797  -5.6626  -5.6482  -5.6411
    -5.6378  -5.6059  -5.5848  -5.5838  -5.5724  -5.5338  -5.5272  -5.5264
    -5.5158  -5.4852  -5.4676  -5.4404  -5.4371  -5.4342  -5.3987  -5.3692
    -5.3443  -5.3400  -5.3301  -5.2953  -0.5621  -0.5607  -0.5527  -0.4345
    -0.4294  -0.4276  -0.4102  -0.3599  -0.3251  -0.3209  -0.2895  -0.2826
     1.4057   1.4915   1.4964   1.5160   1.6124   1.7107   1.7129   1.7228
     1.7347   1.7720   1.8446   1.8474   1.9655   1.9861   2.0213   2.0225
     2.1295   2.1979   2.2084   2.2096   2.2856   2.3347   2.3967   2.4246
     2.4286   2.5163   2.5281   2.5306   2.5551   2.5575   2.5585   2.5629
     2.5983   2.6779   2.7607   2.7651   2.8212   2.8239   2.8260   2.8296
     2.8487   2.8545   2.8948   2.8976   2.9060   3.0086   3.0175   3.0205
     3.0753   3.0782   3.1168   3.1194   3.1326   3.1809   3.1822   3.1875
     3.2118   3.2440   3.2657   3.2827   3.2864   3.2954   3.3283   3.3319
     3.3758   3.3779   3.3794   3.3799   3.4465   3.4493   3.4517   3.4762
     3.4791   3.4826   3.5070   3.5197   3.5337   3.5366   3.5405   3.5575
     3.5847   3.5872   3.6116   3.6275   3.6397   3.6434   3.6823   3.6852
     3.6875   3.6969   3.7039   3.7054   3.8332   3.8374   3.8794   3.8810
     3.9411   3.9450   3.9467   3.9485   3.9716   4.0313   4.0528   4.0562
     4.0589   4.0615   4.0974   4.1004   4.1218   4.1227   4.1304   4.1327
     4.2205   4.2395   4.2670   4.2703   4.2907   4.2933   4.3148   4.3678
     4.3930   4.4330   4.4348   4.4815   4.5212   4.5433   4.5455   4.5863
     4.5963   4.5983   4.6291   4.7278   5.1479   5.1484   5.1531   5.1636
     5.1676   5.1685   5.1696   5.1724   5.1988   5.2043   5.2132   5.2185
     5.2190   5.2291   5.2409   5.2413   5.2595   5.2631   5.2635   5.2646
     5.2652   5.2733   5.3097   5.3107   5.3195   5.3340   5.3460   5.3470
     5.3604   5.3624   5.3630   5.3675   5.3691   5.3801   5.3881   5.3893
     5.4099   5.4328   5.4472   5.4512   5.4515   5.4690   5.4970   5.4978
     5.5173   5.5238   5.5554   5.5569   5.5683   5.5694   5.6023   5.6029
     5.6077   5.6205   5.6315   5.6501   5.6515   5.6612   5.6741   5.7084
     5.7093   5.7396   5.7597   5.7615   5.7709   5.7846   5.8046   5.8067
     5.8151   5.8404   5.8670   5.8683   5.8751   5.8952   5.9677   5.9695
     6.0189   6.0249   6.0261   6.1009   6.1029   6.1116   6.1590   6.1881
     6.2027   6.2039   6.2044   6.2618   6.2631   6.2862   6.3188   6.3415
     6.3551   6.3695   6.3706   6.4134   6.4179   6.4203   6.4530   6.4808
     6.4819   6.5067   6.5571   6.5664   6.6060   6.6076   6.6485   6.6650
     6.6669   6.7373   6.7381   6.7399   6.7486   6.8032   6.8045   6.8506
     6.8667   6.9187   6.9459   7.0391

          k =-0.3333 0.1925 0.2714 (115773 PWs)   bands (ev):

   -28.2783 -28.2761 -28.2759 -28.2759 -28.2751 -28.2749 -28.2749 -28.2747
   -28.2747 -28.2747 -28.2746 -28.2746 -14.9264 -14.9232 -14.9231 -14.9226
   -14.9225 -14.9225 -14.9221 -14.9218 -14.9217 -14.9215 -14.9214 -14.9203
   -14.9197 -14.9173 -14.9172 -14.9168 -14.9167 -14.9166 -14.9162 -14.9159
   -14.9158 -14.9157 -14.9155 -14.9139 -14.9084 -14.9052 -14.9052 -14.9047
   -14.9046 -14.9046 -14.9042 -14.9038 -14.9037 -14.9036 -14.9035 -14.9019
   -14.8681 -14.8650 -14.8650 -14.8645 -14.8644 -14.8644 -14.8640 -14.8636
   -14.8635 -14.8635 -14.8633 -14.8616 -14.8229 -14.8198 -14.8198 -14.8193
   -14.8193 -14.8192 -14.8188 -14.8184 -14.8183 -14.8183 -14.8181 -14.8165
   -10.3397 -10.3386 -10.3379 -10.3372 -10.3365 -10.3344 -10.3342 -10.3330
   -10.3327 -10.3314 -10.3296 -10.3275 -10.3103 -10.3080 -10.3061 -10.3049
   -10.3032 -10.3026 -10.2977 -10.2956 -10.2950 -10.2947 -10.2931 -10.2871
   -10.2705 -10.2684 -10.2683 -10.2678 -10.2666 -10.2634 -10.2621 -10.2615
   -10.2614 -10.2609 -10.2604 -10.2574  -6.7511  -6.6467  -6.5614  -6.4689
    -6.4193  -6.4185  -6.3646  -6.3408  -6.3387  -6.2661  -6.2118  -6.2091
    -5.9186  -5.9119  -5.8244  -5.8225  -5.8206  -5.8168  -5.7657  -5.7635
    -5.7515  -5.7325  -5.6833  -5.6819  -5.6808  -5.6622  -5.6416  -5.6405
    -5.6376  -5.6076  -5.5882  -5.5845  -5.5750  -5.5312  -5.5263  -5.5259
    -5.5181  -5.4869  -5.4651  -5.4415  -5.4358  -5.4350  -5.3989  -5.3703
    -5.3440  -5.3430  -5.3278  -5.2941  -0.5635  -0.5608  -0.5515  -0.4334
    -0.4298  -0.4277  -0.4108  -0.3607  -0.3226  -0.3213  -0.2902  -0.2829
     1.4059   1.4922   1.4951   1.5153   1.6112   1.7107   1.7129   1.7215
     1.7368   1.7726   1.8424   1.8473   1.9651   1.9859   2.0215   2.0238
     2.1283   2.1988   2.2097   2.2102   2.2852   2.3356   2.3986   2.4261
     2.4283   2.5184   2.5288   2.5301   2.5553   2.5574   2.5595   2.5607
     2.6003   2.6755   2.7622   2.7655   2.8227   2.8246   2.8259   2.8283
     2.8488   2.8532   2.8926   2.8959   2.9032   3.0080   3.0174   3.0194
     3.0760   3.0778   3.1171   3.1189   3.1324   3.1775   3.1823   3.1874
     3.2124   3.2455   3.2662   3.2841   3.2882   3.2955   3.3298   3.3326
     3.3737   3.3764   3.3802   3.3836   3.4461   3.4479   3.4538   3.4765
     3.4780   3.4802   3.5061   3.5233   3.5340   3.5357   3.5428   3.5574
     3.5820   3.5871   3.6097   3.6320   3.6404   3.6453   3.6801   3.6839
     3.6864   3.6962   3.7026   3.7050   3.8368   3.8377   3.8763   3.8800
     3.9412   3.9434   3.9453   3.9485   3.9713   4.0293   4.0533   4.0551
     4.0590   4.0608   4.0998   4.1018   4.1226   4.1255   4.1292   4.1325
     4.2238   4.2399   4.2681   4.2702   4.2901   4.2924   4.3130   4.3678
     4.3900   4.4329   4.4354   4.4818   4.5236   4.5439   4.5453   4.5858
     4.5937   4.5982   4.6307   4.7287   5.1456   5.1480   5.1531   5.1645
     5.1674   5.1687   5.1695   5.1727   5.1996   5.2043   5.2121   5.2160
     5.2194   5.2295   5.2402   5.2416   5.2603   5.2641   5.2646   5.2651
     5.2658   5.2735   5.3100   5.3105   5.3181   5.3343   5.3468   5.3471
     5.3599   5.3623   5.3634   5.3674   5.3694   5.3806   5.3883   5.3893
     5.4096   5.4331   5.4472   5.4507   5.4515   5.4695   5.4958   5.4978
     5.5170   5.5244   5.5561   5.5576   5.5682   5.5692   5.6018   5.6021
     5.6073   5.6208   5.6318   5.6496   5.6507   5.6618   5.6747   5.7092
     5.7097   5.7393   5.7604   5.7617   5.7710   5.7850   5.8052   5.8059
     5.8143   5.8389   5.8669   5.8675   5.8744   5.8950   5.9680   5.9700
     6.0186   6.0249   6.0265   6.1013   6.1022   6.1115   6.1600   6.1877
     6.2008   6.2038   6.2044   6.2606   6.2644   6.2871   6.3184   6.3420
     6.3558   6.3686   6.3701   6.4125   6.4193   6.4203   6.4533   6.4811
     6.4828   6.5064   6.5573   6.5661   6.6072   6.6087   6.6468   6.6663
     6.6676   6.7366   6.7388   6.7394   6.7483   6.8036   6.8054   6.8514
     6.8656   6.9178   6.9455   7.0383

          k = 0.3333 0.1925 0.2714 (115773 PWs)   bands (ev):

   -28.2783 -28.2761 -28.2759 -28.2759 -28.2751 -28.2749 -28.2749 -28.2747
   -28.2747 -28.2747 -28.2746 -28.2746 -14.9264 -14.9232 -14.9231 -14.9226
   -14.9225 -14.9225 -14.9221 -14.9218 -14.9217 -14.9215 -14.9214 -14.9203
   -14.9197 -14.9173 -14.9172 -14.9168 -14.9167 -14.9166 -14.9162 -14.9159
   -14.9158 -14.9157 -14.9155 -14.9139 -14.9084 -14.9052 -14.9052 -14.9047
   -14.9046 -14.9046 -14.9042 -14.9038 -14.9037 -14.9037 -14.9035 -14.9019
   -14.8681 -14.8650 -14.8650 -14.8645 -14.8644 -14.8644 -14.8640 -14.8636
   -14.8635 -14.8635 -14.8633 -14.8616 -14.8229 -14.8198 -14.8198 -14.8193
   -14.8193 -14.8192 -14.8188 -14.8185 -14.8183 -14.8183 -14.8181 -14.8165
   -10.3397 -10.3388 -10.3377 -10.3363 -10.3362 -10.3350 -10.3343 -10.3334
   -10.3331 -10.3311 -10.3299 -10.3272 -10.3103 -10.3085 -10.3053 -10.3049
   -10.3030 -10.3027 -10.2979 -10.2961 -10.2955 -10.2949 -10.2927 -10.2868
   -10.2699 -10.2686 -10.2685 -10.2674 -10.2671 -10.2635 -10.2624 -10.2622
   -10.2621 -10.2605 -10.2597 -10.2570  -6.7511  -6.6467  -6.5618  -6.4682
    -6.4192  -6.4171  -6.3645  -6.3424  -6.3393  -6.2658  -6.2122  -6.2094
    -5.9173  -5.9134  -5.8237  -5.8215  -5.8172  -5.8163  -5.7664  -5.7629
    -5.7558  -5.7313  -5.6867  -5.6809  -5.6794  -5.6647  -5.6425  -5.6409
    -5.6353  -5.6072  -5.5899  -5.5840  -5.5736  -5.5300  -5.5286  -5.5263
    -5.5171  -5.4867  -5.4647  -5.4413  -5.4368  -5.4352  -5.3969  -5.3705
    -5.3429  -5.3401  -5.3315  -5.2948  -0.5642  -0.5614  -0.5501  -0.4325
    -0.4296  -0.4279  -0.4119  -0.3610  -0.3214  -0.3210  -0.2911  -0.2832
     1.4030   1.4953   1.4967   1.5132   1.6122   1.7108   1.7130   1.7218
     1.7375   1.7738   1.8443   1.8462   1.9674   1.9856   2.0182   2.0222
     2.1283   2.1999   2.2081   2.2102   2.2853   2.3332   2.3958   2.4261
     2.4288   2.5189   2.5275   2.5309   2.5562   2.5588   2.5595   2.5621
     2.5986   2.6758   2.7627   2.7644   2.8220   2.8251   2.8269   2.8297
     2.8508   2.8544   2.8922   2.8957   2.9057   3.0043   3.0162   3.0183
     3.0782   3.0798   3.1171   3.1188   3.1332   3.1776   3.1807   3.1872
     3.2151   3.2431   3.2650   3.2846   3.2858   3.2965   3.3312   3.3330
     3.3739   3.3761   3.3785   3.3792   3.4462   3.4493   3.4516   3.4784
     3.4800   3.4836   3.5063   3.5186   3.5341   3.5345   3.5394   3.5573
     3.5861   3.5874   3.6085   3.6323   3.6411   3.6449   3.6830   3.6833
     3.6855   3.6949   3.7039   3.7052   3.8357   3.8379   3.8779   3.8804
     3.9393   3.9430   3.9470   3.9494   3.9743   4.0318   4.0535   4.0561
     4.0598   4.0609   4.0974   4.1006   4.1201   4.1225   4.1269   4.1329
     4.2256   4.2419   4.2691   4.2700   4.2917   4.2929   4.3121   4.3637
     4.3927   4.4337   4.4359   4.4809   4.5203   4.5445   4.5464   4.5842
     4.5936   4.5963   4.6325   4.7303   5.1463   5.1477   5.1538   5.1639
     5.1676   5.1689   5.1694   5.1727   5.1994   5.2048   5.2122   5.2178
     5.2188   5.2284   5.2402   5.2415   5.2603   5.2645   5.2650   5.2657
     5.2665   5.2726   5.3088   5.3103   5.3179   5.3331   5.3465   5.3471
     5.3589   5.3622   5.3641   5.3683   5.3698   5.3803   5.3888   5.3895
     5.4093   5.4332   5.4479   5.4507   5.4519   5.4687   5.4968   5.4978
     5.5166   5.5242   5.5558   5.5574   5.5684   5.5698   5.6019   5.6026
     5.6075   5.6206   5.6305   5.6500   5.6512   5.6609   5.6743   5.7088
     5.7093   5.7400   5.7604   5.7606   5.7708   5.7846   5.8057   5.8060
     5.8144   5.8391   5.8670   5.8684   5.8754   5.8940   5.9694   5.9698
     6.0192   6.0241   6.0255   6.1005   6.1016   6.1115   6.1590   6.1872
     6.2025   6.2033   6.2045   6.2621   6.2630   6.2882   6.3191   6.3422
     6.3541   6.3685   6.3705   6.4126   6.4199   6.4211   6.4526   6.4810
     6.4826   6.5069   6.5575   6.5661   6.6067   6.6075   6.6469   6.6658
     6.6682   6.7362   6.7378   6.7407   6.7482   6.8034   6.8053   6.8514
     6.8656   6.9181   6.9456   7.0389

          k =-0.3333-0.1925 0.2714 (115773 PWs)   bands (ev):

   -28.2783 -28.2761 -28.2759 -28.2759 -28.2751 -28.2749 -28.2749 -28.2747
   -28.2747 -28.2747 -28.2746 -28.2746 -14.9264 -14.9232 -14.9231 -14.9226
   -14.9225 -14.9225 -14.9221 -14.9218 -14.9217 -14.9215 -14.9214 -14.9203
   -14.9197 -14.9173 -14.9172 -14.9168 -14.9167 -14.9166 -14.9162 -14.9159
   -14.9158 -14.9157 -14.9155 -14.9139 -14.9084 -14.9052 -14.9052 -14.9047
   -14.9046 -14.9046 -14.9042 -14.9038 -14.9037 -14.9037 -14.9035 -14.9019
   -14.8681 -14.8650 -14.8650 -14.8645 -14.8644 -14.8644 -14.8640 -14.8636
   -14.8635 -14.8635 -14.8633 -14.8616 -14.8229 -14.8198 -14.8198 -14.8193
   -14.8193 -14.8192 -14.8188 -14.8185 -14.8183 -14.8183 -14.8181 -14.8165
   -10.3397 -10.3387 -10.3377 -10.3365 -10.3364 -10.3349 -10.3342 -10.3332
   -10.3330 -10.3315 -10.3299 -10.3271 -10.3107 -10.3069 -10.3063 -10.3062
   -10.3016 -10.3006 -10.3004 -10.2969 -10.2964 -10.2940 -10.2907 -10.2876
   -10.2701 -10.2692 -10.2690 -10.2665 -10.2662 -10.2636 -10.2633 -10.2625
   -10.2622 -10.2599 -10.2588 -10.2575  -6.7510  -6.6467  -6.5609  -6.4718
    -6.4230  -6.4201  -6.3648  -6.3312  -6.3272  -6.2591  -6.2259  -6.2231
    -5.9085  -5.9047  -5.8219  -5.8198  -5.8079  -5.8074  -5.7940  -5.7613
    -5.7587  -5.7332  -5.7099  -5.7073  -5.6728  -5.6356  -5.6301  -5.6268
    -5.6261  -5.6067  -5.6034  -5.5983  -5.5700  -5.5279  -5.5251  -5.5215
    -5.5205  -5.4951  -5.4696  -5.4349  -5.4284  -5.4266  -5.4205  -5.3622
    -5.3467  -5.3435  -5.3214  -5.2990  -0.5609  -0.5582  -0.5577  -0.4367
    -0.4348  -0.4239  -0.3946  -0.3737  -0.3183  -0.3177  -0.2999  -0.2790
     1.4311   1.4849   1.4867   1.4882   1.6252   1.6415   1.7734   1.7744
     1.7816   1.7915   1.7984   1.8005   1.9147   1.9925   1.9967   2.0779
     2.1544   2.1999   2.2112   2.2452   2.2492   2.3592   2.3933   2.3950
     2.3981   2.4500   2.5114   2.5138   2.5461   2.5874   2.5917   2.6064
     2.6441   2.7111   2.7615   2.7671   2.7696   2.7882   2.8080   2.8108
     2.8380   2.8750   2.9122   2.9153   2.9200   2.9791   3.0200   3.0245
     3.0704   3.1051   3.1066   3.1330   3.1681   3.1913   3.1932   3.1955
     3.2015   3.2306   3.2643   3.2658   3.2763   3.3174   3.3218   3.3224
     3.3241   3.3860   3.3896   3.4108   3.4444   3.4467   3.4694   3.4710
     3.4721   3.4737   3.4752   3.4806   3.5336   3.5362   3.5426   3.5923
     3.6064   3.6125   3.6136   3.6324   3.6419   3.6491   3.6584   3.6607
     3.6648   3.7097   3.7116   3.7129   3.8341   3.8379   3.8798   3.8890
     3.9054   3.9446   3.9510   3.9738   3.9834   4.0217   4.0467   4.0488
     4.0496   4.0657   4.1092   4.1106   4.1167   4.1307   4.1336   4.1453
     4.1919   4.2567   4.2672   4.2691   4.2890   4.2907   4.2932   4.3846
     4.3980   4.4373   4.4389   4.4684   4.5235   4.5267   4.5348   4.5948
     4.6081   4.6115   4.6235   4.7215   5.1493   5.1504   5.1544   5.1568
     5.1719   5.1759   5.1765   5.1829   5.1906   5.1972   5.2012   5.2065
     5.2078   5.2342   5.2348   5.2352   5.2546   5.2645   5.2654   5.2660
     5.2790   5.2972   5.3069   5.3132   5.3136   5.3288   5.3366   5.3374
     5.3576   5.3586   5.3601   5.3624   5.3798   5.3928   5.4065   5.4068
     5.4126   5.4307   5.4334   5.4444   5.4456   5.4928   5.5012   5.5030
     5.5096   5.5161   5.5529   5.5598   5.5745   5.5752   5.6018   5.6111
     5.6122   5.6177   5.6245   5.6253   5.6429   5.6696   5.6828   5.7145
     5.7148   5.7180   5.7345   5.7720   5.7734   5.7736   5.8028   5.8036
     5.8105   5.8582   5.8755   5.8765   5.8779   5.9149   5.9592   5.9597
     6.0328   6.0342   6.0348   6.0600   6.0772   6.0794   6.1730   6.2070
     6.2129   6.2136   6.2660   6.2664   6.2703   6.2771   6.2858   6.3493
     6.3503   6.3659   6.3723   6.4144   6.4230   6.4254   6.4283   6.4701
     6.4975   6.4993   6.5457   6.5593   6.5952   6.5972   6.6653   6.6673
     6.6772   6.7190   6.7353   6.7370   6.7481   6.8126   6.8139   6.8447
     6.8685   6.9280   6.9375   7.0523

          k = 0.3333-0.1925 0.2714 (115773 PWs)   bands (ev):

   -28.2783 -28.2761 -28.2759 -28.2759 -28.2751 -28.2749 -28.2749 -28.2747
   -28.2747 -28.2747 -28.2746 -28.2746 -14.9264 -14.9232 -14.9231 -14.9226
   -14.9225 -14.9225 -14.9221 -14.9218 -14.9217 -14.9215 -14.9214 -14.9203
   -14.9197 -14.9173 -14.9172 -14.9168 -14.9167 -14.9166 -14.9162 -14.9159
   -14.9158 -14.9157 -14.9155 -14.9139 -14.9084 -14.9052 -14.9052 -14.9047
   -14.9046 -14.9046 -14.9042 -14.9038 -14.9037 -14.9036 -14.9035 -14.9019
   -14.8681 -14.8650 -14.8650 -14.8645 -14.8644 -14.8644 -14.8640 -14.8636
   -14.8635 -14.8635 -14.8633 -14.8616 -14.8229 -14.8198 -14.8198 -14.8193
   -14.8193 -14.8192 -14.8188 -14.8184 -14.8183 -14.8183 -14.8181 -14.8165
   -10.3397 -10.3385 -10.3380 -10.3373 -10.3368 -10.3343 -10.3336 -10.3329
   -10.3326 -10.3321 -10.3298 -10.3272 -10.3106 -10.3074 -10.3064 -10.3060
   -10.3014 -10.3008 -10.3005 -10.2965 -10.2959 -10.2941 -10.2913 -10.2876
   -10.2707 -10.2690 -10.2677 -10.2673 -10.2661 -10.2644 -10.2624 -10.2617
   -10.2616 -10.2605 -10.2597 -10.2576  -6.7509  -6.6469  -6.5606  -6.4723
    -6.4226  -6.4216  -6.3649  -6.3293  -6.3271  -6.2597  -6.2253  -6.2228
    -5.9103  -5.9033  -5.8228  -5.8201  -5.8152  -5.8066  -5.7899  -5.7594
    -5.7587  -5.7317  -5.7098  -5.7092  -5.6709  -5.6347  -5.6300  -5.6274
    -5.6262  -5.6077  -5.6004  -5.5986  -5.5719  -5.5295  -5.5234  -5.5212
    -5.5201  -5.4960  -5.4691  -5.4350  -5.4276  -5.4264  -5.4214  -5.3629
    -5.3478  -5.3466  -5.3190  -5.2977  -0.5607  -0.5585  -0.5573  -0.4372
    -0.4347  -0.4249  -0.3937  -0.3732  -0.3194  -0.3180  -0.2991  -0.2786
     1.4343   1.4831   1.4865   1.4876   1.6250   1.6407   1.7710   1.7732
     1.7813   1.7893   1.7993   1.8022   1.9147   1.9940   1.9984   2.0765
     2.1544   2.1985   2.2102   2.2491   2.2493   2.3621   2.3929   2.3938
     2.4011   2.4473   2.5108   2.5133   2.5486   2.5900   2.5916   2.6084
     2.6417   2.7112   2.7585   2.7665   2.7692   2.7863   2.8078   2.8099
     2.8393   2.8748   2.9136   2.9159   2.9177   2.9798   3.0226   3.0250
     3.0675   3.1049   3.1090   3.1319   3.1666   3.1912   3.1933   3.1939
     3.1997   3.2298   3.2629   3.2674   3.2766   3.3180   3.3215   3.3231
     3.3248   3.3891   3.3925   3.4113   3.4419   3.4465   3.4676   3.4695
     3.4721   3.4741   3.4772   3.4853   3.5343   3.5364   3.5405   3.5897
     3.6079   3.6125   3.6141   3.6324   3.6446   3.6483   3.6550   3.6597
     3.6685   3.7065   3.7113   3.7134   3.8351   3.8371   3.8786   3.8876
     3.9036   3.9485   3.9503   3.9745   3.9818   4.0194   4.0438   4.0487
     4.0498   4.0641   4.1092   4.1123   4.1187   4.1334   4.1349   4.1480
     4.1909   4.2539   4.2668   4.2680   4.2882   4.2899   4.2950   4.3880
     4.3965   4.4359   4.4387   4.4684   4.5248   4.5252   4.5373   4.5962
     4.6081   4.6124   4.6215   4.7206   5.1481   5.1515   5.1543   5.1568
     5.1719   5.1754   5.1762   5.1837   5.1902   5.1976   5.2004   5.2061
     5.2080   5.2327   5.2352   5.2356   5.2545   5.2636   5.2653   5.2662
     5.2792   5.2976   5.3069   5.3129   5.3131   5.3286   5.3358   5.3374
     5.3581   5.3589   5.3602   5.3635   5.3802   5.3922   5.4062   5.4076
     5.4131   5.4318   5.4333   5.4441   5.4446   5.4929   5.5006   5.5026
     5.5096   5.5157   5.5540   5.5599   5.5742   5.5746   5.6031   5.6111
     5.6118   5.6187   5.6242   5.6253   5.6430   5.6698   5.6833   5.7147
     5.7156   5.7176   5.7342   5.7724   5.7732   5.7746   5.8018   5.8031
     5.8105   5.8579   5.8750   5.8759   5.8785   5.9138   5.9582   5.9601
     6.0343   6.0348   6.0357   6.0589   6.0779   6.0796   6.1723   6.2061
     6.2108   6.2150   6.2660   6.2680   6.2700   6.2771   6.2863   6.3476
     6.3497   6.3657   6.3727   6.4153   6.4244   6.4247   6.4285   6.4702
     6.4978   6.4995   6.5450   6.5589   6.5954   6.5957   6.6670   6.6682
     6.6766   6.7190   6.7361   6.7375   6.7473   6.8129   6.8140   6.8446
     6.8683   6.9279   6.9370   7.0520

          k =-0.3333-0.5774 0.2714 (115827 PWs)   bands (ev):

   -28.2783 -28.2761 -28.2759 -28.2759 -28.2751 -28.2749 -28.2749 -28.2747
   -28.2747 -28.2747 -28.2746 -28.2746 -14.9264 -14.9231 -14.9231 -14.9226
   -14.9225 -14.9225 -14.9221 -14.9218 -14.9217 -14.9215 -14.9214 -14.9203
   -14.9197 -14.9173 -14.9172 -14.9168 -14.9167 -14.9166 -14.9162 -14.9159
   -14.9158 -14.9157 -14.9155 -14.9139 -14.9084 -14.9052 -14.9052 -14.9047
   -14.9046 -14.9046 -14.9042 -14.9038 -14.9037 -14.9037 -14.9035 -14.9019
   -14.8681 -14.8650 -14.8650 -14.8645 -14.8644 -14.8644 -14.8640 -14.8636
   -14.8635 -14.8635 -14.8633 -14.8616 -14.8229 -14.8198 -14.8198 -14.8193
   -14.8193 -14.8192 -14.8188 -14.8184 -14.8183 -14.8183 -14.8181 -14.8165
   -10.3395 -10.3378 -10.3373 -10.3367 -10.3366 -10.3335 -10.3331 -10.3331
   -10.3327 -10.3306 -10.3301 -10.3300 -10.3085 -10.3076 -10.3075 -10.3051
   -10.3015 -10.3005 -10.2979 -10.2973 -10.2971 -10.2920 -10.2916 -10.2913
   -10.2703 -10.2685 -10.2673 -10.2665 -10.2661 -10.2641 -10.2637 -10.2635
   -10.2630 -10.2602 -10.2592 -10.2591  -6.6199  -6.6177  -6.6169  -6.5266
    -6.5242  -6.5233  -6.3081  -6.2923  -6.2886  -6.2880  -6.2575  -6.2140
    -5.8774  -5.8596  -5.8447  -5.7796  -5.7786  -5.7759  -5.7444  -5.7418
    -5.7404  -5.7154  -5.6915  -5.6867  -5.6863  -5.6744  -5.6717  -5.6708
    -5.6686  -5.6424  -5.5616  -5.5558  -5.5551  -5.5281  -5.5239  -5.5231
    -5.5065  -5.5032  -5.5024  -5.5018  -5.4577  -5.3981  -5.3970  -5.3948
    -5.3564  -5.3226  -5.3221  -5.3182  -0.5205  -0.5074  -0.5045  -0.5040
    -0.4610  -0.4187  -0.4164  -0.4150  -0.3551  -0.2946  -0.2920  -0.2909
     1.4800   1.4826   1.4844   1.6360   1.6389   1.6396   1.6906   1.7749
     1.7766   1.7771   1.7790   1.7931   1.9777   1.9812   1.9825   2.0551
     2.1690   2.1917   2.1934   2.1939   2.2481   2.3966   2.3978   2.3983
     2.4878   2.4894   2.4904   2.5568   2.5858   2.5877   2.5902   2.5918
     2.6787   2.7347   2.7372   2.7386   2.8192   2.8234   2.8243   2.8274
     2.9005   2.9028   2.9041   2.9246   2.9360   2.9520   2.9558   2.9566
     3.0567   3.0610   3.0627   3.0849   3.0889   3.0907   3.1276   3.1809
     3.2405   3.2452   3.2464   3.2685   3.2717   3.2724   3.3201   3.3258
     3.3281   3.3291   3.3752   3.4051   3.4214   3.4653   3.4660   3.4696
     3.4932   3.4988   3.4999   3.5034   3.5341   3.5381   3.5395   3.5417
     3.5634   3.6125   3.6170   3.6190   3.6509   3.6553   3.6568   3.6943
     3.6984   3.7001   3.7189   3.7450   3.8205   3.8400   3.8415   3.8431
     3.9355   3.9401   3.9416   3.9436   4.0276   4.0302   4.0317   4.0393
     4.0623   4.0682   4.0688   4.1050   4.1128   4.1143   4.1159   4.1691
     4.2713   4.2736   4.2749   4.2911   4.3149   4.3585   4.3621   4.3627
     4.4150   4.4175   4.4193   4.4930   4.4937   4.4952   4.5063   4.5120
     4.5643   4.6649   4.6677   4.6686   5.1480   5.1555   5.1567   5.1580
     5.1581   5.1819   5.1826   5.1835   5.1972   5.1981   5.1986   5.2103
     5.2244   5.2253   5.2256   5.2514   5.2522   5.2531   5.2563   5.2683
     5.3006   5.3017   5.3025   5.3093   5.3283   5.3291   5.3301   5.3676
     5.3679   5.3691   5.3747   5.3932   5.3951   5.4082   5.4093   5.4102
     5.4320   5.4331   5.4344   5.4385   5.4834   5.4848   5.4854   5.4909
     5.5388   5.5395   5.5402   5.5444   5.5658   5.5666   5.5668   5.6054
     5.6058   5.6065   5.6383   5.6392   5.6716   5.6732   5.6740   5.7036
     5.7043   5.7050   5.7173   5.7589   5.7598   5.7606   5.8014   5.8080
     5.8209   5.8236   5.8246   5.8250   5.8899   5.8907   5.8920   6.0570
     6.0596   6.0608   6.0613   6.0761   6.1197   6.1206   6.1213   6.1353
     6.1946   6.2375   6.2387   6.2398   6.2848   6.3004   6.3024   6.3039
     6.3064   6.3834   6.3861   6.3872   6.4498   6.4664   6.4685   6.4695
     6.4907   6.4939   6.5571   6.5601   6.5607   6.6460   6.6845   6.6852
     6.6866   6.7605   6.7776   6.7783   6.7793   6.7919   6.8540   6.8552
     6.8557   6.9352   6.9364   6.9371

     highest occupied level (ev):     7.1810

!    total energy              =   -9077.18765090 Ry
     estimated scf accuracy    <          6.6E-11 Ry

     The total energy is the sum of the following terms:
     one-electron contribution =   -2777.00267436 Ry
     hartree contribution      =    2020.25580735 Ry
     xc contribution           =   -2269.38880011 Ry
     ewald contribution        =   -3895.25530813 Ry
     one-center paw contrib.   =   -2155.79667566 Ry

     convergence has been achieved in  23 iterations

     negative rho (up, down):  7.902E-01 0.000E+00

     Forces acting on atoms (cartesian axes, Ry/au):

     atom    1 type  1   force =    -0.00033615    0.00036087   -0.00023761
     atom    2 type  1   force =    -0.00009418    0.00028604   -0.00001866
     atom    3 type  1   force =    -0.00014506    0.00022212   -0.00002352
     atom    4 type  1   force =    -0.00015421    0.00025882   -0.00001028
     atom    5 type  1   force =    -0.00008070   -0.00016880    0.00030554
     atom    6 type  1   force =    -0.00006870   -0.00024883    0.00004932
     atom    7 type  1   force =    -0.00013009   -0.00030275    0.00000719
     atom    8 type  1   force =    -0.00016266   -0.00027979    0.00005271
     atom    9 type  1   force =     0.00030996   -0.00000287   -0.00002306
     atom   10 type  1   force =     0.00031002    0.00000666   -0.00004101
     atom   11 type  1   force =     0.00029879   -0.00000274   -0.00003431
     atom   12 type  1   force =     0.00031267   -0.00000713   -0.00002907
     atom   13 type  2   force =    -0.00042011    0.00445261    0.00493716
     atom   14 type  2   force =     0.00022476   -0.00039343    0.00021205
     atom   15 type  2   force =     0.00020557   -0.00039978    0.00019083
     atom   16 type  2   force =     0.00021565   -0.00038242    0.00019385
     atom   17 type  2   force =     0.00023034    0.00037506    0.00018312
     atom   18 type  2   force =     0.00024318    0.00036792    0.00018138
     atom   19 type  2   force =     0.00023748    0.00035763    0.00018340
     atom   20 type  2   force =     0.00024423    0.00037580    0.00017291
     atom   21 type  2   force =    -0.00044640    0.00003780    0.00018829
     atom   22 type  2   force =    -0.00043163    0.00001035    0.00018448
     atom   23 type  2   force =    -0.00042775    0.00000877    0.00015215
     atom   24 type  2   force =    -0.00043596    0.00001901    0.00017632
     atom   25 type  2   force =    -0.00043220   -0.00001527   -0.00017574
     atom   26 type  2   force =    -0.00028622    0.00013392   -0.00014136
     atom   27 type  2   force =    -0.00042600   -0.00004004   -0.00028478
     atom   28 type  2   force =    -0.00041225   -0.00001881   -0.00019466
     atom   29 type  2   force =     0.00052645    0.00059350   -0.00026596
     atom   30 type  2   force =     0.00029337    0.00054979   -0.00010877
     atom   31 type  2   force =     0.00019086    0.00038407   -0.00020032
     atom   32 type  2   force =     0.00020628    0.00037431   -0.00020875
     atom   33 type  2   force =     0.00023391   -0.00036462   -0.00019339
     atom   34 type  2   force =     0.00023782   -0.00036608   -0.00020129
     atom   35 type  2   force =     0.00023119   -0.00036576   -0.00019368
     atom   36 type  2   force =     0.00023288   -0.00037040   -0.00019082
     atom   37 type  3   force =     0.00031678   -0.00062714   -0.00032386
     atom   38 type  3   force =     0.00026387   -0.00044765   -0.00000135
     atom   39 type  3   force =     0.00023227   -0.00045567    0.00000867
     atom   40 type  3   force =     0.00028929   -0.00043521   -0.00000762
     atom   41 type  3   force =     0.00026182    0.00043242   -0.00007662
     atom   42 type  3   force =     0.00028898    0.00052150    0.00000562
     atom   43 type  3   force =     0.00026347    0.00048071   -0.00002762
     atom   44 type  3   force =     0.00028165    0.00046838   -0.00002014
     atom   45 type  3   force =    -0.00050249    0.00000992    0.00008514
     atom   46 type  3   force =    -0.00120430   -0.00079450    0.00003912
     atom   47 type  3   force =    -0.00068875    0.00007742    0.00044465
     atom   48 type  3   force =    -0.00052904   -0.00001267    0.00005830
     atom   49 type  4   force =     0.00036693   -0.00008713    0.00008652
     atom   50 type  4   force =     0.00034775   -0.00010694    0.00002145
     atom   51 type  4   force =     0.00035866   -0.00010248    0.00001884
     atom   52 type  4   force =     0.00034987   -0.00010291    0.00001877
     atom   53 type  4   force =    -0.00013792    0.00034948    0.00009378
     atom   54 type  4   force =    -0.00010867    0.00031946   -0.00006643
     atom   55 type  4   force =    -0.00008060    0.00036610    0.00004358
     atom   56 type  4   force =    -0.00008419    0.00036777    0.00002453
     atom   57 type  4   force =    -0.00132575   -0.00234168   -0.00111532
     atom   58 type  4   force =    -0.00034013   -0.00023250    0.00005070
     atom   59 type  4   force =    -0.00029203   -0.00024518   -0.00001067
     atom   60 type  4   force =    -0.00025420   -0.00028378    0.00001793
     atom   61 type  4   force =    -0.00039887    0.00026964   -0.00000067
     atom   62 type  4   force =    -0.00020649    0.00030449   -0.00002491
     atom   63 type  4   force =    -0.00025164    0.00025684   -0.00001741
     atom   64 type  4   force =    -0.00028818    0.00028830   -0.00002737
     atom   65 type  4   force =     0.00034896    0.00009136    0.00001763
     atom   66 type  4   force =     0.00034746    0.00008619   -0.00002174
     atom   67 type  4   force =     0.00035123    0.00009905    0.00000638
     atom   68 type  4   force =     0.00034458    0.00009304    0.00000006
     atom   69 type  4   force =    -0.00009028   -0.00036074   -0.00002113
     atom   70 type  4   force =    -0.00011166    0.00017188   -0.00111210
     atom   71 type  4   force =    -0.00010189   -0.00032985    0.00000432
     atom   72 type  4   force =    -0.00008750   -0.00036240   -0.00002373
     atom   73 type  4   force =     0.00255192   -0.00271743   -0.00273540
     atom   74 type  4   force =    -0.00000403    0.00013327   -0.00026879
     atom   75 type  4   force =    -0.00000045    0.00018907   -0.00026993
     atom   76 type  4   force =    -0.00002260    0.00012371   -0.00026032
     atom   77 type  4   force =    -0.00011526   -0.00008098   -0.00021172
     atom   78 type  4   force =    -0.00020336   -0.00004739   -0.00020838
     atom   79 type  4   force =    -0.00014676   -0.00006140   -0.00024304
     atom   80 type  4   force =    -0.00014803   -0.00013197   -0.00022611
     atom   81 type  4   force =     0.00012344   -0.00010231   -0.00022252
     atom   82 type  4   force =     0.00011883   -0.00009055   -0.00023681
     atom   83 type  4   force =     0.00011723   -0.00009195   -0.00023278
     atom   84 type  4   force =     0.00012655   -0.00009394   -0.00023364
     atom   85 type  4   force =     0.00014653    0.00008679    0.00025001
     atom   86 type  4   force =     0.00011255    0.00005287    0.00024342
     atom   87 type  4   force =     0.00014068    0.00011242    0.00029121
     atom   88 type  4   force =     0.00010152    0.00008811    0.00025861
     atom   89 type  4   force =    -0.00004945   -0.00017966    0.00019327
     atom   90 type  4   force =    -0.00041368   -0.00040713   -0.00014652
     atom   91 type  4   force =     0.00001358   -0.00013890    0.00023122
     atom   92 type  4   force =     0.00009467   -0.00007474    0.00022275
     atom   93 type  4   force =    -0.00015814    0.00005631    0.00026039
     atom   94 type  4   force =    -0.00013254    0.00007593    0.00028589
     atom   95 type  4   force =    -0.00014010    0.00005950    0.00026186
     atom   96 type  4   force =    -0.00013724    0.00006931    0.00025636

     Total force =     0.009693     Total SCF correction =     0.000012
     Message from routine punch:
     Nothing written, as per user request (disk_io='none')

     init_run     :     42.46s CPU     44.10s WALL (       1 calls)
     electrons    :   2308.10s CPU   2388.30s WALL (       1 calls)
     forces       :     19.88s CPU     20.33s WALL (       1 calls)

     Called by init_run:
     wfcinit      :     38.60s CPU     39.97s WALL (       1 calls)
     potinit      :      1.18s CPU      1.22s WALL (       1 calls)
     hinit0       :      1.06s CPU      1.09s WALL (       1 calls)

     Called by electrons:
     c_bands      :   2033.37s CPU   2096.26s WALL (      23 calls)
     sum_band     :    244.43s CPU    257.58s WALL (      23 calls)
     v_of_rho     :      4.77s CPU      5.14s WALL (      24 calls)
     newd         :     19.39s CPU     23.22s WALL (      24 calls)
     PAW_pot      :      6.06s CPU      6.10s WALL (      24 calls)
     mix_rho      :      0.80s CPU      0.83s WALL (      23 calls)

     Called by c_bands:
     init_us_2    :     25.72s CPU     25.95s WALL (     336 calls)
     cegterg      :   1966.64s CPU   2028.94s WALL (     161 calls)

     Called by *egterg:
     cdiaghg      :     86.48s CPU     88.45s WALL (    1014 calls)
     h_psi        :   1054.58s CPU   1102.93s WALL (    1021 calls)
     s_psi        :    256.86s CPU    258.91s WALL (    1021 calls)
     g_psi        :      3.90s CPU      3.93s WALL (     853 calls)

     Called by h_psi:
     h_psi:calbec :    256.17s CPU    259.24s WALL (    1021 calls)
     vloc_psi     :    536.51s CPU    577.89s WALL (    1021 calls)
     add_vuspsi   :    256.45s CPU    258.49s WALL (    1021 calls)

     General routines
     calbec       :    353.21s CPU    357.48s WALL (    1210 calls)
     fft          :      5.78s CPU      6.17s WALL (     321 calls)
     ffts         :      0.78s CPU      0.79s WALL (      47 calls)
     fftw         :    435.76s CPU    472.68s WALL (  467688 calls)
     interpolate  :      1.02s CPU      1.07s WALL (      24 calls)

     Parallel routines

     PWSCF        :  39m30.71s CPU  40m53.30s WALL


   This run was terminated on:   3:37:35  21Aug2026            

=------------------------------------------------------------------------------=
   JOB DONE.
=------------------------------------------------------------------------------=
