
     Program PWSCF v.7.3.1 starts on 21Aug2026 at  2:23:30 

     This program is part of the open-source Quantum ESPRESSO suite
     for quantum simulation of materials; please cite
         "P. Giannozzi et al., J. Phys.:Condens. Matter 21 395502 (2009);
         "P. Giannozzi et al., J. Phys.:Condens. Matter 29 465901 (2017);
         "P. Giannozzi et al., J. Chem. Phys. 152 154105 (2020);
          URL http://www.quantum-espresso.org", 
     in publications or presentations arising from this work. More details at
     http://www.quantum-espresso.org/quote

     Parallel version (MPI & OpenMP), running on      32 processor cores
     Number of MPI processes:                32
     Threads/MPI process:                     1

     MPI processes distributed on     1 nodes
     200182 MiB available memory on the printing compute node when the environment starts

     Reading input from scf.in

     Current dimensions of program PWSCF are:
     Max number of different atomic species (ntypx) = 10
     Max number of k-points (npk) =  40000
     Max angular momentum in pseudopotentials (lmaxx) =  4
     file Cu.paw.z_11.ld1.psl.v1.0.0-low.upf: wavefunction(s)  4S 3D renormalized

     K-points division:     npool     =       2
     R & G space division:  proc/nbgrp/npool/nimage =      16
     Subspace diagonalization in iterative solution of the eigenvalue problem:
     one sub-group per band group will be used
     scalapack distributed-memory algorithm (size of sub-group:  4*  4 procs)


     Parallelization info
     --------------------
     sticks:   dense  smooth     PW     G-vecs:    dense   smooth      PW
     Min        1193     597    157               163743    57882    7779
     Max        1194     599    158               163747    57885    7784
     Sum       19099    9565   2515              2619931   926125  124485

     Using Slab Decomposition



     bravais-lattice index     =            0
     lattice parameter (alat)  =      24.0273  a.u.
     unit-cell volume          =   14752.0463 (a.u.)^3
     number of atoms/cell      =           96
     number of atomic types    =            4
     number of electrons       =       840.00
     number of Kohn-Sham states=          420
     kinetic-energy cutoff     =      60.0000  Ry
     charge density cutoff     =     480.0000  Ry
     scf convergence threshold =      1.0E-09
     mixing beta               =       0.3000
     number of iterations used =            8  plain     mixing
     Exchange-correlation=  SLA  PW   PBX  PBC
                           (   1   4   3   4   0   0   0)

     celldm(1)=  24.027274  celldm(2)=   0.000000  celldm(3)=   0.000000
     celldm(4)=   0.000000  celldm(5)=   0.000000  celldm(6)=   0.000000

     crystal axes: (cart. coord. in units of alat)
               a(1) = (   1.000000   0.000000   0.000000 )  
               a(2) = (  -0.500000   0.866025   0.000000 )  
               a(3) = (   0.000000   0.000000   1.228028 )  

     reciprocal axes: (cart. coord. in units 2 pi/alat)
               b(1) = (  1.000000  0.577351 -0.000000 )  
               b(2) = (  0.000000  1.154701  0.000000 )  
               b(3) = (  0.000000 -0.000000  0.814314 )  


     PseudoPot. # 1 for Sr read from file:
     /home/yuhansun/pseudos/SSSP-1.3.0-PBE-precision/Sr_pbe_v1.uspp.F.UPF
     MD5 check sum: 6b418c05fbe9db5448babca5e47b7a5b
     Pseudo is Ultrasoft + core correction, Zval = 10.0
     Generated by new atomic code, or converted to UPF format
     Using radial grid of  883 points,  6 beta functions with: 
                l(1) =   0
                l(2) =   0
                l(3) =   1
                l(4) =   1
                l(5) =   2
                l(6) =   2
     Q(r) pseudized with  6 coefficients,  rinner =    1.400   1.400   1.400
                                                       1.400   1.400

     PseudoPot. # 2 for Cu read from file:
     /home/yuhansun/pseudos/SSSP-1.3.0-PBE-precision/Cu.paw.z_11.ld1.psl.v1.0.0-low.upf
     MD5 check sum: 619f40885d92a09a85a8b37550532d0c
     Pseudo is Projector augmented-wave + core cor, Zval = 11.0
     Generated using &quot;atomic&quot; code by A. Dal Corso  v.6.3MaX
     Shape of augmentation charge: PSQ
     Using radial grid of 1199 points,  6 beta functions with: 
                l(1) =   0
                l(2) =   0
                l(3) =   1
                l(4) =   1
                l(5) =   2
                l(6) =   2
     Q(r) pseudized with 0 coefficients 


     PseudoPot. # 3 for Sn read from file:
     /home/yuhansun/pseudos/SSSP-1.3.0-PBE-precision/Sn_pbe_v1.uspp.F.UPF
     MD5 check sum: 4cf58ce39ec5d5d420df3dd08604eb00
     Pseudo is Ultrasoft + core correction, Zval = 14.0
     Generated by new atomic code, or converted to UPF format
     Using radial grid of  891 points,  6 beta functions with: 
                l(1) =   0
                l(2) =   0
                l(3) =   1
                l(4) =   1
                l(5) =   2
                l(6) =   2
     Q(r) pseudized with  6 coefficients,  rinner =    1.200   1.200   1.200
                                                       1.200   1.200

     PseudoPot. # 4 for S  read from file:
     /home/yuhansun/pseudos/SSSP-1.3.0-PBE-precision/s_pbe_v1.4.uspp.F.UPF
     MD5 check sum: 88d86576ff6df21479756cfb9bdac1df
     Pseudo is Ultrasoft + core correction, Zval =  6.0
     Generated by new atomic code, or converted to UPF format
     Using radial grid of  907 points,  6 beta functions with: 
                l(1) =   0
                l(2) =   0
                l(3) =   1
                l(4) =   1
                l(5) =   2
                l(6) =   2
     Q(r) pseudized with  8 coefficients,  rinner =    1.300   1.300   1.300
                                                       1.300   1.300

     atomic species   valence    mass     pseudopotential
     Sr               10.00    87.62000     Sr( 1.00)
     Cu               11.00    63.54600     Cu( 1.00)
     Sn               14.00   118.71000     Sn( 1.00)
     S                 6.00    32.06500     S ( 1.00)

     No symmetry found



   Cartesian axes

     site n.     atom                  positions (alat units)
         1        Sr     tau(   1) = (  -0.1405753   0.2434834   0.2096660  )
         2        Sr     tau(   2) = (   0.3594247   0.2434834   0.2046717  )
         3        Sr     tau(   3) = (  -0.3905753   0.6764960   0.2046717  )
         4        Sr     tau(   4) = (   0.1094247   0.6764960   0.2046717  )
         5        Sr     tau(   5) = (   0.1094247   0.1895292   0.6140139  )
         6        Sr     tau(   6) = (   0.6094247   0.1895292   0.6140139  )
         7        Sr     tau(   7) = (  -0.1405753   0.6225418   0.6140139  )
         8        Sr     tau(   8) = (   0.3594247   0.6225418   0.6140139  )
         9        Sr     tau(   9) = (   0.2811505   0.0000000   1.0233574  )
        10        Sr     tau(  10) = (   0.7811505   0.0000000   1.0233574  )
        11        Sr     tau(  11) = (   0.0311505   0.4330126   1.0233574  )
        12        Sr     tau(  12) = (   0.5311505   0.4330126   1.0233574  )
        13        Cu     tau(  13) = (  -0.1226788   0.2753211   0.5061747  )
        14        Cu     tau(  14) = (   0.3773212   0.2753211   0.5061747  )
        15        Cu     tau(  15) = (  -0.3726788   0.7083337   0.5061747  )
        16        Cu     tau(  16) = (   0.1273212   0.7083337   0.5061747  )
        17        Cu     tau(  17) = (   0.0729045   0.1891087   0.9155169  )
        18        Cu     tau(  18) = (   0.5729045   0.1891087   0.9155169  )
        19        Cu     tau(  19) = (  -0.1770956   0.6221213   0.9155169  )
        20        Cu     tau(  20) = (   0.3229044   0.6221213   0.9155169  )
        21        Cu     tau(  21) = (   0.0497750   0.4015949   0.0968325  )
        22        Cu     tau(  22) = (   0.5497750   0.4015949   0.0968325  )
        23        Cu     tau(  23) = (  -0.2002251   0.8346075   0.0968325  )
        24        Cu     tau(  24) = (   0.2997749   0.8346075   0.0968325  )
        25        Cu     tau(  25) = (   0.2997745   0.0314177   0.7218532  )
        26        Cu     tau(  26) = (   0.7997745   0.0314177   0.7218532  )
        27        Cu     tau(  27) = (   0.0497745   0.4644302   0.7218532  )
        28        Cu     tau(  28) = (   0.5497745   0.4644302   0.7218532  )
        29        Cu     tau(  29) = (   0.1273207   0.1576915   0.3125110  )
        30        Cu     tau(  30) = (   0.6273207   0.1576915   0.3125110  )
        31        Cu     tau(  31) = (  -0.1226793   0.5907041   0.3125110  )
        32        Cu     tau(  32) = (   0.3773207   0.5907041   0.3125110  )
        33        Cu     tau(  33) = (   0.3229040   0.2439039   1.1311954  )
        34        Cu     tau(  34) = (   0.8229040   0.2439039   1.1311954  )
        35        Cu     tau(  35) = (   0.0729039   0.6769164   1.1311954  )
        36        Cu     tau(  36) = (   0.5729039   0.6769164   1.1311954  )
        37        Sn     tau(  37) = (  -0.1762580   0.3052877   0.8186857  )
        38        Sn     tau(  38) = (   0.3237420   0.3052877   0.8186857  )
        39        Sn     tau(  39) = (  -0.4262581   0.7383003   0.8186857  )
        40        Sn     tau(  40) = (   0.0737419   0.7383003   0.8186857  )
        41        Sn     tau(  41) = (   0.0737420   0.1277249   0.0000000  )
        42        Sn     tau(  42) = (   0.5737420   0.1277249   0.0000000  )
        43        Sn     tau(  43) = (  -0.1762581   0.5607374   0.0000000  )
        44        Sn     tau(  44) = (   0.3237419   0.5607374   0.0000000  )
        45        Sn     tau(  45) = (   0.3525160   0.0000000   0.4093422  )
        46        Sn     tau(  46) = (   0.8525160   0.0000000   0.4093422  )
        47        Sn     tau(  47) = (   0.1025160   0.4330126   0.4093422  )
        48        Sn     tau(  48) = (   0.6025160   0.4330126   0.4093422  )
        49        S      tau(  49) = (  -0.0988203   0.2103164   0.9671149  )
        50        S      tau(  50) = (   0.4011797   0.2103164   0.9671149  )
        51        S      tau(  51) = (  -0.3488203   0.6433290   0.9671149  )
        52        S      tau(  52) = (   0.1511797   0.6433290   0.9671149  )
        53        S      tau(  53) = (   0.1172707   0.2422736   0.1484293  )
        54        S      tau(  54) = (   0.6172707   0.2422736   0.1484293  )
        55        S      tau(  55) = (  -0.1327293   0.6752862   0.1484293  )
        56        S      tau(  56) = (   0.3672707   0.6752862   0.1484293  )
        57        S      tau(  57) = (  -0.0184505   0.4134352   0.5577727  )
        58        S      tau(  58) = (   0.4815495   0.4134352   0.5577727  )
        59        S      tau(  59) = (  -0.2684506   0.8464478   0.5577727  )
        60        S      tau(  60) = (   0.2315494   0.8464478   0.5577727  )
        61        S      tau(  61) = (   0.2315495   0.0195774   0.2609129  )
        62        S      tau(  62) = (   0.7315495   0.0195774   0.2609129  )
        63        S      tau(  63) = (  -0.0184505   0.4525899   0.2609129  )
        64        S      tau(  64) = (   0.4815495   0.4525899   0.2609129  )
        65        S      tau(  65) = (   0.1511797   0.2226962   1.0795986  )
        66        S      tau(  66) = (   0.6511797   0.2226962   1.0795986  )
        67        S      tau(  67) = (  -0.0988203   0.6557088   1.0795986  )
        68        S      tau(  68) = (   0.4011797   0.6557088   1.0795986  )
        69        S      tau(  69) = (   0.3672707   0.1907390   0.6702552  )
        70        S      tau(  70) = (   0.8672707   0.1907390   0.6702552  )
        71        S      tau(  71) = (   0.1172707   0.6237516   0.6702552  )
        72        S      tau(  72) = (   0.6172707   0.6237516   0.6702552  )
        73        S      tau(  73) = (  -0.0296498   0.1532012   0.4035914  )
        74        S      tau(  74) = (   0.4703502   0.1532012   0.4035914  )
        75        S      tau(  75) = (  -0.2796498   0.5862137   0.4035914  )
        76        S      tau(  76) = (   0.2203502   0.5862137   0.4035914  )
        77        S      tau(  77) = (   0.1321490   0.3307341   0.8129336  )
        78        S      tau(  78) = (   0.6321490   0.3307341   0.8129336  )
        79        S      tau(  79) = (  -0.1178511   0.7637467   0.8129336  )
        80        S      tau(  80) = (   0.3821489   0.7637467   0.8129336  )
        81        S      tau(  81) = (  -0.1024985   0.3820894   1.2222770  )
        82        S      tau(  82) = (   0.3975015   0.3820894   1.2222770  )
        83        S      tau(  83) = (  -0.3524986   0.8151020   1.2222770  )
        84        S      tau(  84) = (   0.1475014   0.8151020   1.2222770  )
        85        S      tau(  85) = (   0.1475010   0.0509231   0.8244365  )
        86        S      tau(  86) = (   0.6475010   0.0509231   0.8244365  )
        87        S      tau(  87) = (  -0.1024990   0.4839357   0.8244365  )
        88        S      tau(  88) = (   0.3975010   0.4839357   0.8244365  )
        89        S      tau(  89) = (   0.2203497   0.2798114   0.4150943  )
        90        S      tau(  90) = (   0.7203497   0.2798114   0.4150943  )
        91        S      tau(  91) = (  -0.0296503   0.7128240   0.4150943  )
        92        S      tau(  92) = (   0.4703497   0.7128240   0.4150943  )
        93        S      tau(  93) = (   0.3821485   0.1022784   0.0057509  )
        94        S      tau(  94) = (   0.8821485   0.1022784   0.0057509  )
        95        S      tau(  95) = (   0.1321485   0.5352910   0.0057509  )
        96        S      tau(  96) = (   0.6321485   0.5352910   0.0057509  )

     number of k points=    14
                       cart. coord. in units 2pi/alat
        k(    1) = (   0.0000000   0.0000000   0.0000000), wk =   0.0740741
        k(    2) = (   0.0000000   0.0000000   0.2714379), wk =   0.1481481
        k(    3) = (   0.0000000   0.3849003   0.0000000), wk =   0.1481481
        k(    4) = (   0.0000000   0.3849003   0.2714379), wk =   0.1481481
        k(    5) = (   0.3333333   0.5773505   0.0000000), wk =   0.1481481
        k(    6) = (   0.3333333   0.5773505   0.2714379), wk =   0.1481481
        k(    7) = (  -0.3333333   0.1924501   0.0000000), wk =   0.1481481
        k(    8) = (   0.3333333   0.1924502   0.0000000), wk =   0.1481481
        k(    9) = (   0.0000000  -0.3849003   0.2714379), wk =   0.1481481
        k(   10) = (  -0.3333333   0.1924501   0.2714379), wk =   0.1481481
        k(   11) = (   0.3333333   0.1924502   0.2714379), wk =   0.1481481
        k(   12) = (  -0.3333333  -0.1924502   0.2714379), wk =   0.1481481
        k(   13) = (   0.3333333  -0.1924501   0.2714379), wk =   0.1481481
        k(   14) = (  -0.3333333  -0.5773505   0.2714379), wk =   0.1481481

     Dense  grid:  2619931 G-vectors     FFT dimensions: ( 180, 180, 216)

     Smooth grid:   926125 G-vectors     FFT dimensions: ( 120, 120, 150)

     Estimated max dynamical RAM per process >       1.07 GB

     Estimated total dynamical RAM >      33.54 GB

     Initial potential from superposition of free atoms

     starting charge     827.5884, renormalised to     840.0000

     negative rho (up, down):  7.777E-01 0.000E+00
     Starting wfcs are  672 randomized atomic wfcs
     Checking if some PAW data can be deallocated... 

     total cpu time spent up to now is       42.5 secs

     Self-consistent Calculation

     iteration #  1     ecut=    60.00 Ry     beta= 0.30
     Davidson diagonalization with overlap
     ethr =  1.00E-02,  avg # of iterations =  2.0

     negative rho (up, down):  7.747E-01 0.000E+00

     total cpu time spent up to now is      120.3 secs

     total energy              =   -9070.29116874 Ry
     estimated scf accuracy    <      21.97856858 Ry

     iteration #  2     ecut=    60.00 Ry     beta= 0.30
     Davidson diagonalization with overlap
     ethr =  2.62E-03,  avg # of iterations =  4.7

     negative rho (up, down):  7.752E-01 0.000E+00

     total cpu time spent up to now is      218.6 secs

     total energy              =   -9076.61379636 Ry
     estimated scf accuracy    <       8.22476504 Ry

     iteration #  3     ecut=    60.00 Ry     beta= 0.30
     Davidson diagonalization with overlap
     ethr =  9.79E-04,  avg # of iterations =  2.0

     negative rho (up, down):  7.803E-01 0.000E+00

     total cpu time spent up to now is      299.4 secs

     total energy              =   -9076.48816715 Ry
     estimated scf accuracy    <       1.62392266 Ry

     iteration #  4     ecut=    60.00 Ry     beta= 0.30
     Davidson diagonalization with overlap
     ethr =  1.93E-04,  avg # of iterations =  5.6

     negative rho (up, down):  7.829E-01 0.000E+00

     total cpu time spent up to now is      415.3 secs

     total energy              =   -9076.70232265 Ry
     estimated scf accuracy    <       2.06462265 Ry

     iteration #  5     ecut=    60.00 Ry     beta= 0.30
     Davidson diagonalization with overlap
     ethr =  1.93E-04,  avg # of iterations =  5.1

     negative rho (up, down):  7.883E-01 0.000E+00

     total cpu time spent up to now is      508.3 secs

     total energy              =   -9077.13726663 Ry
     estimated scf accuracy    <       0.14471442 Ry

     iteration #  6     ecut=    60.00 Ry     beta= 0.30
     Davidson diagonalization with overlap
     ethr =  1.72E-05,  avg # of iterations =  5.9

     negative rho (up, down):  7.902E-01 0.000E+00

     total cpu time spent up to now is      605.0 secs

     total energy              =   -9077.18427954 Ry
     estimated scf accuracy    <       0.01305940 Ry

     iteration #  7     ecut=    60.00 Ry     beta= 0.30
     Davidson diagonalization with overlap
     ethr =  1.55E-06,  avg # of iterations =  5.0

     negative rho (up, down):  7.907E-01 0.000E+00

     total cpu time spent up to now is      712.7 secs

     total energy              =   -9077.18839923 Ry
     estimated scf accuracy    <       0.00565160 Ry

     iteration #  8     ecut=    60.00 Ry     beta= 0.30
     Davidson diagonalization with overlap
     ethr =  6.73E-07,  avg # of iterations =  6.4

     negative rho (up, down):  7.911E-01 0.000E+00

     total cpu time spent up to now is      840.4 secs

     total energy              =   -9077.17913286 Ry
     estimated scf accuracy    <       0.04873664 Ry

     iteration #  9     ecut=    60.00 Ry     beta= 0.30
     Davidson diagonalization with overlap
     ethr =  6.73E-07,  avg # of iterations =  7.0

     negative rho (up, down):  7.911E-01 0.000E+00

     total cpu time spent up to now is      973.0 secs

     total energy              =   -9077.18745630 Ry
     estimated scf accuracy    <       0.00153441 Ry

     iteration # 10     ecut=    60.00 Ry     beta= 0.30
     Davidson diagonalization with overlap
     ethr =  1.83E-07,  avg # of iterations =  2.9

     negative rho (up, down):  7.907E-01 0.000E+00

     total cpu time spent up to now is     1051.4 secs

     total energy              =   -9077.18728923 Ry
     estimated scf accuracy    <       0.00058906 Ry

     iteration # 11     ecut=    60.00 Ry     beta= 0.30
     Davidson diagonalization with overlap
     ethr =  7.01E-08,  avg # of iterations =  5.1

     negative rho (up, down):  7.905E-01 0.000E+00

     total cpu time spent up to now is     1154.2 secs

     total energy              =   -9077.18745949 Ry
     estimated scf accuracy    <       0.00017944 Ry

     iteration # 12     ecut=    60.00 Ry     beta= 0.30
     Davidson diagonalization with overlap
     ethr =  2.14E-08,  avg # of iterations =  4.1

     negative rho (up, down):  7.904E-01 0.000E+00

     total cpu time spent up to now is     1246.4 secs

     total energy              =   -9077.18748281 Ry
     estimated scf accuracy    <       0.00006112 Ry

     iteration # 13     ecut=    60.00 Ry     beta= 0.30
     Davidson diagonalization with overlap
     ethr =  7.28E-09,  avg # of iterations =  5.4

     negative rho (up, down):  7.903E-01 0.000E+00

     total cpu time spent up to now is     1341.4 secs

     total energy              =   -9077.18749468 Ry
     estimated scf accuracy    <       0.00000988 Ry

     iteration # 14     ecut=    60.00 Ry     beta= 0.30
     Davidson diagonalization with overlap
     ethr =  1.18E-09,  avg # of iterations =  4.5

     negative rho (up, down):  7.902E-01 0.000E+00

     total cpu time spent up to now is     1435.1 secs

     total energy              =   -9077.18749657 Ry
     estimated scf accuracy    <       0.00000179 Ry

     iteration # 15     ecut=    60.00 Ry     beta= 0.30
     Davidson diagonalization with overlap
     ethr =  2.13E-10,  avg # of iterations =  5.0

     negative rho (up, down):  7.902E-01 0.000E+00

     total cpu time spent up to now is     1542.2 secs

     total energy              =   -9077.18749726 Ry
     estimated scf accuracy    <       0.00000044 Ry

     iteration # 16     ecut=    60.00 Ry     beta= 0.30
     Davidson diagonalization with overlap
     ethr =  5.19E-11,  avg # of iterations =  5.0

     negative rho (up, down):  7.902E-01 0.000E+00

     total cpu time spent up to now is     1650.5 secs

     total energy              =   -9077.18749748 Ry
     estimated scf accuracy    <       0.00000014 Ry

     iteration # 17     ecut=    60.00 Ry     beta= 0.30
     Davidson diagonalization with overlap
     ethr =  1.70E-11,  avg # of iterations =  4.9

     negative rho (up, down):  7.902E-01 0.000E+00

     total cpu time spent up to now is     1744.4 secs

     total energy              =   -9077.18749751 Ry
     estimated scf accuracy    <       0.00000006 Ry

     iteration # 18     ecut=    60.00 Ry     beta= 0.30
     Davidson diagonalization with overlap
     ethr =  7.04E-12,  avg # of iterations =  6.1

     negative rho (up, down):  7.902E-01 0.000E+00

     total cpu time spent up to now is     1843.5 secs

     total energy              =   -9077.18749754 Ry
     estimated scf accuracy    <       0.00000001 Ry

     iteration # 19     ecut=    60.00 Ry     beta= 0.30
     Davidson diagonalization with overlap
     ethr =  1.39E-12,  avg # of iterations =  4.4

     negative rho (up, down):  7.902E-01 0.000E+00

     total cpu time spent up to now is     1944.6 secs

     total energy              =   -9077.18749755 Ry
     estimated scf accuracy    <          4.0E-09 Ry

     iteration # 20     ecut=    60.00 Ry     beta= 0.30
     Davidson diagonalization with overlap
     ethr =  4.79E-13,  avg # of iterations =  4.5

     negative rho (up, down):  7.902E-01 0.000E+00

     total cpu time spent up to now is     2041.4 secs

     total energy              =   -9077.18749755 Ry
     estimated scf accuracy    <          1.4E-09 Ry

     iteration # 21     ecut=    60.00 Ry     beta= 0.30
     Davidson diagonalization with overlap
     ethr =  1.71E-13,  avg # of iterations =  5.1

     negative rho (up, down):  7.902E-01 0.000E+00

     total cpu time spent up to now is     2148.0 secs

     End of self-consistent calculation

          k = 0.0000 0.0000 0.0000 (115723 PWs)   bands (ev):

   -28.2838 -28.2827 -28.2794 -28.2785 -28.2782 -28.2754 -28.2724 -28.2723
   -28.2720 -28.2714 -28.2680 -28.2670 -14.9351 -14.9342 -14.9293 -14.9285
   -14.9282 -14.9269 -14.9229 -14.9227 -14.9226 -14.9225 -14.9223 -14.9210
   -14.9183 -14.9169 -14.9168 -14.9168 -14.9168 -14.9165 -14.9165 -14.9159
   -14.9125 -14.9113 -14.9108 -14.9106 -14.9101 -14.9089 -14.9054 -14.9048
   -14.9047 -14.9047 -14.9045 -14.9043 -14.9004 -14.8986 -14.8935 -14.8925
   -14.8768 -14.8758 -14.8704 -14.8688 -14.8645 -14.8645 -14.8645 -14.8645
   -14.8602 -14.8584 -14.8533 -14.8522 -14.8318 -14.8307 -14.8251 -14.8235
   -14.8194 -14.8193 -14.8193 -14.8193 -14.8151 -14.8133 -14.8080 -14.8069
   -10.3447 -10.3430 -10.3403 -10.3387 -10.3361 -10.3347 -10.3340 -10.3332
   -10.3319 -10.3290 -10.3280 -10.3211 -10.3133 -10.3099 -10.3088 -10.3073
   -10.3032 -10.3012 -10.3000 -10.2995 -10.2937 -10.2900 -10.2889 -10.2812
   -10.2761 -10.2708 -10.2699 -10.2682 -10.2652 -10.2636 -10.2626 -10.2618
   -10.2586 -10.2577 -10.2558 -10.2506  -6.8632  -6.5597  -6.5500  -6.4211
    -6.4172  -6.4128  -6.3019  -6.2988  -6.2971  -6.2234  -6.2179  -6.2117
    -5.9981  -5.9897  -5.9818  -5.8538  -5.8506  -5.8456  -5.7995  -5.7949
    -5.7920  -5.7374  -5.7365  -5.6220  -5.6208  -5.6182  -5.6165  -5.6132
    -5.6080  -5.6001  -5.5684  -5.5588  -5.5507  -5.5497  -5.5418  -5.5383
    -5.5186  -5.5143  -5.4342  -5.4329  -5.4285  -5.4228  -5.3788  -5.3649
    -5.3491  -5.3448  -5.3411  -5.2506  -0.6191  -0.6114  -0.6041  -0.3913
    -0.3899  -0.3865  -0.3522  -0.3198  -0.3145  -0.3106  -0.3055  -0.2949
     1.3812   1.3847   1.3885   1.5877   1.5954   1.6569   1.7132   1.7173
     1.7209   1.8028   1.8059   1.8090   2.0183   2.0404   2.0430   2.0824
     2.0850   2.0877   2.2460   2.2480   2.2498   2.3086   2.3107   2.3996
     2.4045   2.4094   2.4590   2.4611   2.4630   2.5472   2.5516   2.6586
     2.6629   2.6673   2.7830   2.7841   2.7851   2.8677   2.8757   2.9184
     2.9251   2.9317   2.9519   2.9538   2.9557   3.0243   3.0275   3.0308
     3.0436   3.0464   3.0485   3.1636   3.2104   3.2148   3.2192   3.2253
     3.2306   3.2565   3.2577   3.2589   3.3768   3.3772   3.3785   3.3923
     3.3941   3.4265   3.4274   3.4278   3.4351   3.4365   3.4372   3.4728
     3.4761   3.4795   3.4922   3.4930   3.4952   3.4981   3.5172   3.5182
     3.5833   3.5847   3.5868   3.6221   3.6273   3.6315   3.6843   3.6895
     3.6911   3.6918   3.6962   3.7075   3.7924   3.7984   3.8248   3.8253
     3.8267   3.9629   4.0152   4.0208   4.0262   4.0338   4.0361   4.0383
     4.1204   4.1240   4.1253   4.1293   4.1716   4.1733   4.1743   4.2008
     4.2095   4.2107   4.2119   4.2431   4.2449   4.2462   4.2771   4.2862
     4.4196   4.4254   4.4299   4.5162   4.5187   4.5200   4.5349   4.5378
     4.6184   4.6209   4.6242   4.8569   5.1239   5.1523   5.1552   5.1575
     5.1733   5.1734   5.1749   5.1754   5.1836   5.2219   5.2237   5.2263
     5.2275   5.2313   5.2325   5.2511   5.2520   5.2525   5.2650   5.2669
     5.2692   5.2761   5.2790   5.2821   5.3083   5.3111   5.3115   5.3133
     5.3147   5.3240   5.3364   5.3379   5.3400   5.3731   5.3758   5.3788
     5.4387   5.4394   5.4705   5.4714   5.4723   5.4745   5.4765   5.4777
     5.4783   5.4985   5.4997   5.6001   5.6011   5.6026   5.6178   5.6181
     5.6190   5.6269   5.6456   5.6476   5.6498   5.6547   5.6601   5.6651
     5.7227   5.7268   5.7456   5.7811   5.7816   5.7844   5.8175   5.8227
     5.8256   5.8999   5.9039   5.9074   5.9275   5.9278   5.9281   5.9934
     5.9993   6.0262   6.0267   6.0275   6.1495   6.1506   6.1512   6.1520
     6.2609   6.2610   6.2620   6.2636   6.2648   6.2650   6.2859   6.2948
     6.3320   6.3343   6.3377   6.3626   6.3645   6.3652   6.3868   6.3900
     6.3925   6.5524   6.5672   6.5715   6.5759   6.6306   6.6381   6.6453
     6.7447   6.7474   6.7506   6.7628   6.7674   6.7798   6.7817   6.7838
     6.8086   6.9646   7.1794   7.1819

          k = 0.0000 0.0000 0.2714 (115879 PWs)   bands (ev):

   -28.2838 -28.2827 -28.2794 -28.2785 -28.2782 -28.2754 -28.2724 -28.2723
   -28.2720 -28.2714 -28.2680 -28.2670 -14.9351 -14.9342 -14.9293 -14.9285
   -14.9282 -14.9269 -14.9229 -14.9227 -14.9226 -14.9225 -14.9223 -14.9210
   -14.9183 -14.9169 -14.9168 -14.9168 -14.9168 -14.9165 -14.9165 -14.9159
   -14.9125 -14.9113 -14.9108 -14.9106 -14.9101 -14.9089 -14.9054 -14.9048
   -14.9047 -14.9047 -14.9045 -14.9043 -14.9004 -14.8986 -14.8935 -14.8925
   -14.8768 -14.8758 -14.8704 -14.8688 -14.8645 -14.8645 -14.8645 -14.8645
   -14.8602 -14.8584 -14.8533 -14.8522 -14.8318 -14.8307 -14.8251 -14.8235
   -14.8194 -14.8193 -14.8193 -14.8193 -14.8151 -14.8133 -14.8080 -14.8069
   -10.3449 -10.3435 -10.3407 -10.3391 -10.3364 -10.3352 -10.3343 -10.3329
   -10.3304 -10.3288 -10.3274 -10.3215 -10.3133 -10.3126 -10.3077 -10.3064
   -10.3039 -10.3012 -10.2997 -10.2951 -10.2930 -10.2910 -10.2902 -10.2830
   -10.2753 -10.2705 -10.2698 -10.2685 -10.2650 -10.2636 -10.2629 -10.2620
   -10.2583 -10.2576 -10.2560 -10.2511  -6.8242  -6.7131  -6.4135  -6.4094
    -6.4075  -6.4042  -6.3074  -6.3032  -6.3003  -6.2377  -6.2303  -6.2225
    -5.9985  -5.9916  -5.9852  -5.8536  -5.8392  -5.8354  -5.8303  -5.7742
    -5.7726  -5.7716  -5.6579  -5.6561  -5.6548  -5.6520  -5.6182  -5.6140
    -5.6124  -5.6061  -5.5607  -5.5559  -5.5521  -5.5514  -5.5444  -5.5402
    -5.5373  -5.4553  -5.4399  -5.4344  -5.4329  -5.4285  -5.3752  -5.3447
    -5.3411  -5.3369  -5.3335  -5.2807  -0.6120  -0.6036  -0.5954  -0.4165
    -0.4131  -0.4082  -0.3502  -0.3316  -0.3042  -0.2997  -0.2970  -0.2731
     1.4046   1.4090   1.4137   1.5693   1.6136   1.6182   1.6190   1.6200
     1.6588   1.9339   1.9355   1.9367   2.0040   2.0455   2.0517   2.0531
     2.0548   2.0697   2.2736   2.2764   2.2791   2.3052   2.3870   2.3893
     2.3904   2.3919   2.4130   2.4170   2.4207   2.4560   2.6178   2.6228
     2.6277   2.6676   2.7184   2.7911   2.7968   2.7983   2.7997   2.8676
     2.8726   2.8774   2.9724   2.9758   2.9793   3.0420   3.0460   3.0501
     3.1029   3.1069   3.1108   3.1742   3.1997   3.2037   3.2049   3.2062
     3.2738   3.2741   3.2746   3.2847   3.3748   3.3827   3.3840   3.3854
     3.4189   3.4196   3.4209   3.4378   3.4406   3.4413   3.4492   3.4501
     3.4510   3.4767   3.4987   3.5179   3.5188   3.5197   3.5381   3.5440
     3.5495   3.5503   3.5517   3.6385   3.6419   3.6450   3.6470   3.6511
     3.6795   3.6811   3.6844   3.7731   3.8299   3.8755   3.8761   3.8767
     3.9080   3.9215   3.9920   3.9952   3.9984   4.0528   4.0558   4.0587
     4.0748   4.1132   4.1165   4.1212   4.1480   4.1484   4.1506   4.1643
     4.1712   4.1728   4.1740   4.2118   4.2499   4.2522   4.2528   4.2681
     4.4173   4.4227   4.4269   4.4835   4.5564   4.5599   4.5623   4.6048
     4.6061   4.6080   4.6770   4.8072   5.1342   5.1472   5.1528   5.1541
     5.1548   5.1659   5.1850   5.1872   5.1894   5.2148   5.2162   5.2172
     5.2189   5.2466   5.2478   5.2498   5.2579   5.2591   5.2602   5.2613
     5.2746   5.2769   5.2776   5.2809   5.3270   5.3294   5.3312   5.3322
     5.3332   5.3360   5.3409   5.3426   5.3447   5.3659   5.3736   5.3748
     5.3758   5.3898   5.4031   5.4203   5.4208   5.4215   5.5260   5.5321
     5.5326   5.5335   5.5818   5.5874   5.5879   5.5897   5.5903   5.6189
     5.6205   5.6219   5.6473   5.6522   5.6563   5.6613   5.6812   5.6823
     5.6839   5.7540   5.7549   5.7565   5.7896   5.8001   5.8138   5.8184
     5.8220   5.8709   5.8799   5.8840   5.8877   5.9875   5.9890   5.9904
     6.0425   6.0428   6.0432   6.0967   6.0981   6.0998   6.1752   6.1891
     6.1923   6.1954   6.2362   6.2666   6.2688   6.2716   6.3233   6.3260
     6.3291   6.3555   6.3638   6.3694   6.3716   6.3736   6.3953   6.4281
     6.4302   6.4317   6.4804   6.6358   6.6378   6.6418   6.6433   6.6453
     6.6506   6.6708   6.7054   6.7092   6.7133   6.7516   6.7532   6.7550
     6.9412   7.0051   7.0947   7.1702

          k = 0.0000 0.3849 0.0000 (115797 PWs)   bands (ev):

   -28.2838 -28.2827 -28.2794 -28.2785 -28.2782 -28.2754 -28.2724 -28.2723
   -28.2720 -28.2714 -28.2680 -28.2670 -14.9351 -14.9342 -14.9292 -14.9285
   -14.9282 -14.9269 -14.9228 -14.9227 -14.9226 -14.9225 -14.9224 -14.9210
   -14.9183 -14.9169 -14.9168 -14.9168 -14.9167 -14.9166 -14.9165 -14.9159
   -14.9125 -14.9112 -14.9108 -14.9106 -14.9101 -14.9089 -14.9054 -14.9048
   -14.9047 -14.9047 -14.9046 -14.9043 -14.9004 -14.8986 -14.8935 -14.8925
   -14.8768 -14.8758 -14.8704 -14.8688 -14.8645 -14.8645 -14.8645 -14.8645
   -14.8602 -14.8584 -14.8533 -14.8522 -14.8318 -14.8307 -14.8251 -14.8235
   -14.8194 -14.8193 -14.8193 -14.8193 -14.8151 -14.8133 -14.8080 -14.8069
   -10.3444 -10.3414 -10.3401 -10.3385 -10.3362 -10.3344 -10.3341 -10.3315
   -10.3310 -10.3292 -10.3271 -10.3232 -10.3113 -10.3092 -10.3073 -10.3068
   -10.3040 -10.3010 -10.3001 -10.2988 -10.2921 -10.2909 -10.2904 -10.2843
   -10.2751 -10.2706 -10.2694 -10.2689 -10.2650 -10.2645 -10.2639 -10.2607
   -10.2593 -10.2578 -10.2569 -10.2537  -6.7878  -6.5888  -6.5030  -6.4943
    -6.4412  -6.4395  -6.3626  -6.3522  -6.2856  -6.2817  -6.2498  -6.2447
    -5.9103  -5.9036  -5.8266  -5.8192  -5.8155  -5.7764  -5.7725  -5.7697
    -5.7308  -5.7246  -5.7185  -5.6944  -5.6934  -5.6486  -5.6409  -5.6365
    -5.6288  -5.5972  -5.5844  -5.5785  -5.5636  -5.5302  -5.5206  -5.5178
    -5.5166  -5.5030  -5.4577  -5.4539  -5.4359  -5.4325  -5.4277  -5.4094
    -5.3507  -5.3478  -5.3114  -5.2698  -0.5703  -0.5692  -0.5650  -0.4403
    -0.4023  -0.3996  -0.3752  -0.3448  -0.3426  -0.3372  -0.3077  -0.2981
     1.4227   1.4826   1.4864   1.5046   1.6396   1.6545   1.6825   1.7224
     1.7240   1.8276   1.8773   1.8786   1.9538   1.9579   1.9602   2.0288
     2.1171   2.2027   2.2302   2.2313   2.3416   2.3657   2.3822   2.3836
     2.3937   2.4083   2.4509   2.5355   2.5395   2.6101   2.6122   2.6153
     2.6590   2.7317   2.8104   2.8112   2.8203   2.8397   2.8425   2.8449
     2.8544   2.8872   2.9105   2.9108   2.9140   2.9646   2.9659   3.0051
     3.0484   3.0569   3.0587   3.1203   3.1437   3.1757   3.2076   3.2123
     3.2157   3.2309   3.2602   3.2610   3.2713   3.3246   3.3295   3.3308
     3.3362   3.3714   3.3975   3.3988   3.4322   3.4407   3.4423   3.4507
     3.4971   3.4976   3.5003   3.5097   3.5110   3.5173   3.5196   3.5459
     3.5628   3.6070   3.6088   3.6100   3.6348   3.6413   3.6788   3.6803
     3.6961   3.7008   3.7031   3.7108   3.7776   3.7785   3.8507   3.8610
     3.8934   3.9743   3.9774   3.9785   3.9830   4.0307   4.0351   4.0367
     4.0906   4.1118   4.1186   4.1209   4.1293   4.1640   4.1654   4.1771
     4.2455   4.2630   4.2691   4.2777   4.3065   4.3227   4.3245   4.3685
     4.3827   4.4130   4.4180   4.4834   4.5208   4.5250   4.5282   4.5329
     4.5923   4.5981   4.6210   4.7468   5.1435   5.1454   5.1461   5.1506
     5.1601   5.1605   5.1692   5.1773   5.2163   5.2196   5.2200   5.2208
     5.2256   5.2368   5.2486   5.2495   5.2504   5.2615   5.2696   5.2723
     5.2737   5.2891   5.3025   5.3031   5.3156   5.3190   5.3260   5.3267
     5.3374   5.3483   5.3517   5.3522   5.3567   5.3633   5.4138   5.4168
     5.4333   5.4511   5.4607   5.4617   5.4856   5.4938   5.5019   5.5025
     5.5037   5.5121   5.5243   5.5453   5.5563   5.5575   5.5627   5.6019
     5.6037   5.6314   5.6329   5.6336   5.6678   5.6798   5.6953   5.6966
     5.6985   5.7168   5.7302   5.7561   5.7752   5.7793   5.8093   5.8167
     5.8177   5.8668   5.8727   5.8734   5.9516   5.9541   5.9633   5.9642
     5.9919   6.0063   6.0081   6.0191   6.1383   6.1390   6.1440   6.1604
     6.2252   6.2298   6.2305   6.2539   6.2711   6.2904   6.2923   6.2967
     6.3605   6.3617   6.3768   6.3889   6.3900   6.4408   6.4843   6.4862
     6.5248   6.5384   6.5395   6.5757   6.6059   6.6503   6.6794   6.6922
     6.6977   6.7290   6.7374   6.7385   6.7620   6.7794   6.7910   6.8112
     6.8135   6.9058   6.9095   7.0821

          k = 0.0000 0.3849 0.2714 (115773 PWs)   bands (ev):

   -28.2838 -28.2827 -28.2794 -28.2785 -28.2782 -28.2754 -28.2724 -28.2723
   -28.2720 -28.2714 -28.2680 -28.2670 -14.9351 -14.9342 -14.9292 -14.9285
   -14.9282 -14.9269 -14.9228 -14.9227 -14.9226 -14.9225 -14.9224 -14.9210
   -14.9183 -14.9169 -14.9168 -14.9168 -14.9167 -14.9166 -14.9165 -14.9159
   -14.9125 -14.9112 -14.9108 -14.9106 -14.9101 -14.9089 -14.9054 -14.9048
   -14.9047 -14.9047 -14.9046 -14.9043 -14.9004 -14.8986 -14.8935 -14.8925
   -14.8768 -14.8758 -14.8704 -14.8688 -14.8645 -14.8645 -14.8645 -14.8645
   -14.8602 -14.8584 -14.8533 -14.8522 -14.8318 -14.8307 -14.8251 -14.8235
   -14.8194 -14.8193 -14.8193 -14.8193 -14.8151 -14.8133 -14.8080 -14.8069
   -10.3446 -10.3418 -10.3404 -10.3388 -10.3367 -10.3351 -10.3333 -10.3313
   -10.3300 -10.3286 -10.3272 -10.3235 -10.3116 -10.3112 -10.3075 -10.3070
   -10.3034 -10.2995 -10.2986 -10.2949 -10.2931 -10.2922 -10.2916 -10.2856
   -10.2747 -10.2704 -10.2696 -10.2687 -10.2648 -10.2643 -10.2635 -10.2614
   -10.2592 -10.2577 -10.2572 -10.2542  -6.7508  -6.6467  -6.5588  -6.4729
    -6.4265  -6.4244  -6.3639  -6.3273  -6.3256  -6.2593  -6.2244  -6.2220
    -5.9052  -5.8984  -5.8308  -5.8218  -5.8088  -5.8028  -5.7892  -5.7629
    -5.7627  -5.7285  -5.7144  -5.7132  -5.6696  -5.6357  -5.6314  -5.6303
    -5.6270  -5.6108  -5.5978  -5.5950  -5.5692  -5.5330  -5.5229  -5.5200
    -5.5137  -5.5024  -5.4628  -5.4284  -5.4268  -5.4251  -5.4231  -5.3675
    -5.3507  -5.3474  -5.3199  -5.2979  -0.5670  -0.5578  -0.5513  -0.4381
    -0.4349  -0.4308  -0.3901  -0.3696  -0.3232  -0.3211  -0.2955  -0.2759
     1.4382   1.4807   1.4845   1.4906   1.6250   1.6401   1.7688   1.7715
     1.7806   1.7879   1.8011   1.8042   1.9154   1.9989   2.0012   2.0769
     2.1579   2.2010   2.2063   2.2467   2.2479   2.3640   2.3904   2.3914
     2.4009   2.4476   2.5109   2.5145   2.5485   2.5862   2.5894   2.6085
     2.6393   2.7071   2.7587   2.7663   2.7703   2.7897   2.8077   2.8108
     2.8371   2.8745   2.9172   2.9181   2.9207   2.9829   3.0253   3.0269
     3.0631   3.1083   3.1094   3.1281   3.1745   3.1892   3.1918   3.1957
     3.1992   3.2341   3.2648   3.2652   3.2752   3.3167   3.3206   3.3221
     3.3267   3.3915   3.3933   3.4109   3.4458   3.4470   3.4671   3.4679
     3.4709   3.4715   3.4784   3.4797   3.5350   3.5359   3.5370   3.5875
     3.6100   3.6120   3.6132   3.6352   3.6420   3.6431   3.6598   3.6616
     3.6707   3.7104   3.7120   3.7138   3.8342   3.8355   3.8802   3.8875
     3.9031   3.9509   3.9531   3.9765   3.9797   4.0176   4.0447   4.0468
     4.0485   4.0697   4.1107   4.1123   4.1241   4.1322   4.1340   4.1491
     4.1856   4.2542   4.2649   4.2675   4.2864   4.2907   4.2956   4.3911
     4.3990   4.4347   4.4399   4.4679   4.5230   4.5255   4.5386   4.5985
     4.6109   4.6150   4.6192   4.7190   5.1512   5.1537   5.1538   5.1548
     5.1691   5.1736   5.1743   5.1834   5.1915   5.1978   5.2028   5.2088
     5.2105   5.2342   5.2356   5.2364   5.2544   5.2616   5.2646   5.2665
     5.2793   5.2996   5.3085   5.3124   5.3128   5.3284   5.3334   5.3352
     5.3573   5.3580   5.3603   5.3637   5.3800   5.3909   5.4082   5.4095
     5.4129   5.4316   5.4334   5.4459   5.4464   5.4928   5.5020   5.5029
     5.5073   5.5149   5.5545   5.5611   5.5740   5.5753   5.6046   5.6116
     5.6125   5.6187   5.6251   5.6264   5.6421   5.6717   5.6825   5.7139
     5.7153   5.7168   5.7371   5.7707   5.7728   5.7766   5.8000   5.8013
     5.8130   5.8581   5.8710   5.8725   5.8820   5.9163   5.9576   5.9586
     6.0336   6.0348   6.0371   6.0622   6.0778   6.0797   6.1730   6.2095
     6.2122   6.2144   6.2667   6.2670   6.2678   6.2772   6.2832   6.3464
     6.3487   6.3620   6.3709   6.4163   6.4238   6.4263   6.4297   6.4723
     6.4968   6.4984   6.5461   6.5592   6.5962   6.5975   6.6671   6.6699
     6.6764   6.7198   6.7366   6.7377   6.7430   6.8130   6.8143   6.8432
     6.8723   6.9291   6.9360   7.0536

          k = 0.3333 0.5774 0.0000 (115752 PWs)   bands (ev):

   -28.2838 -28.2827 -28.2794 -28.2785 -28.2782 -28.2754 -28.2724 -28.2723
   -28.2720 -28.2714 -28.2680 -28.2670 -14.9351 -14.9342 -14.9292 -14.9285
   -14.9282 -14.9269 -14.9228 -14.9226 -14.9226 -14.9226 -14.9225 -14.9210
   -14.9183 -14.9169 -14.9168 -14.9167 -14.9167 -14.9167 -14.9165 -14.9159
   -14.9125 -14.9113 -14.9108 -14.9106 -14.9102 -14.9089 -14.9054 -14.9048
   -14.9047 -14.9047 -14.9046 -14.9043 -14.9004 -14.8986 -14.8935 -14.8925
   -14.8768 -14.8758 -14.8704 -14.8688 -14.8645 -14.8645 -14.8645 -14.8645
   -14.8602 -14.8584 -14.8533 -14.8522 -14.8318 -14.8307 -14.8251 -14.8235
   -14.8194 -14.8193 -14.8193 -14.8193 -14.8151 -14.8133 -14.8080 -14.8069
   -10.3438 -10.3413 -10.3392 -10.3379 -10.3367 -10.3343 -10.3326 -10.3322
   -10.3310 -10.3286 -10.3268 -10.3250 -10.3103 -10.3089 -10.3069 -10.3058
   -10.3031 -10.3008 -10.3003 -10.2988 -10.2957 -10.2897 -10.2887 -10.2870
   -10.2737 -10.2711 -10.2704 -10.2676 -10.2662 -10.2649 -10.2629 -10.2618
   -10.2610 -10.2575 -10.2569 -10.2538  -6.6521  -6.6504  -6.6487  -6.4064
    -6.4033  -6.4006  -6.3963  -6.3938  -6.3903  -6.2972  -6.2878  -6.1922
    -5.8683  -5.8537  -5.8456  -5.7535  -5.7497  -5.7456  -5.7354  -5.7317
    -5.7293  -5.7115  -5.7052  -5.6955  -5.6939  -5.6912  -5.6854  -5.6837
    -5.6820  -5.6442  -5.5494  -5.5422  -5.5378  -5.5354  -5.5283  -5.5192
    -5.5116  -5.4750  -5.4716  -5.4679  -5.4671  -5.4652  -5.4622  -5.3999
    -5.3930  -5.3025  -5.3012  -5.2999  -0.5446  -0.5181  -0.5150  -0.5110
    -0.4014  -0.3948  -0.3917  -0.3880  -0.3852  -0.3173  -0.3095  -0.3014
     1.4790   1.4843   1.4894   1.6722   1.6745   1.6760   1.6837   1.6872
     1.6917   1.7305   1.7377   1.7997   2.0766   2.0812   2.0825   2.0836
     2.0870   2.1400   2.1446   2.1492   2.2554   2.3953   2.3970   2.3990
     2.4919   2.4947   2.4973   2.5633   2.5636   2.5645   2.5951   2.5998
     2.7726   2.7744   2.7758   2.8348   2.8380   2.8425   2.8438   2.8461
     2.8502   2.8508   2.8532   2.8565   2.8684   3.0085   3.0102   3.0119
     3.0231   3.0259   3.0283   3.0621   3.1297   3.1344   3.1388   3.1950
     3.1973   3.1995   3.2583   3.2603   3.2613   3.2682   3.2742   3.3615
     3.3690   3.3707   3.3723   3.3752   3.4247   3.4257   3.4266   3.4866
     3.4878   3.5010   3.5026   3.5043   3.5286   3.5302   3.5316   3.5468
     3.5487   3.5780   3.5801   3.5822   3.6483   3.6511   3.6531   3.7163
     3.7208   3.7259   3.7278   3.7290   3.7570   3.8009   3.8017   3.8024
     3.9557   3.9597   3.9632   3.9838   3.9895   4.0281   4.0303   4.0322
     4.0805   4.0847   4.0884   4.1404   4.1503   4.1515   4.1530   4.2841
     4.2851   4.2943   4.3124   4.3182   4.3187   4.3213   4.3235   4.3291
     4.3840   4.3866   4.3899   4.4961   4.5103   4.5176   4.5201   4.5217
     4.5242   4.6498   4.6551   4.6611   5.1372   5.1422   5.1439   5.1452
     5.1731   5.1738   5.1867   5.1878   5.1893   5.1960   5.1970   5.1984
     5.2444   5.2472   5.2501   5.2650   5.2662   5.2675   5.2948   5.2985
     5.2995   5.3021   5.3028   5.3046   5.3143   5.3162   5.3189   5.3219
     5.3391   5.3406   5.3421   5.4010   5.4030   5.4050   5.4080   5.4089
     5.4533   5.4554   5.4576   5.4586   5.4817   5.4838   5.4857   5.4886
     5.4893   5.5330   5.5356   5.5382   5.5641   5.5648   5.5652   5.5700
     5.5714   5.5722   5.6410   5.6699   5.6751   5.6911   5.6951   5.6988
     5.7054   5.7075   5.7099   5.7786   5.7801   5.7825   5.7982   5.8001
     5.8016   5.8216   5.8258   5.8458   5.9287   5.9312   5.9337   6.0456
     6.0465   6.0476   6.0482   6.0500   6.1366   6.1388   6.1411   6.1584
     6.2177   6.2194   6.2210   6.2588   6.2604   6.2618   6.2833   6.2853
     6.3747   6.4090   6.4105   6.4120   6.4142   6.4187   6.4244   6.4505
     6.4526   6.4544   6.6147   6.6155   6.6161   6.6760   6.6766   6.6772
     6.7243   6.7403   6.7431   6.8059   6.8065   6.8068   6.8100   6.8109
     6.8116   6.9379   6.9396   6.9414

          k = 0.3333 0.5774 0.2714 (115827 PWs)   bands (ev):

   -28.2838 -28.2827 -28.2794 -28.2785 -28.2782 -28.2754 -28.2724 -28.2723
   -28.2720 -28.2714 -28.2680 -28.2670 -14.9351 -14.9342 -14.9292 -14.9285
   -14.9282 -14.9269 -14.9228 -14.9226 -14.9226 -14.9226 -14.9225 -14.9210
   -14.9183 -14.9169 -14.9168 -14.9167 -14.9167 -14.9167 -14.9165 -14.9159
   -14.9125 -14.9113 -14.9108 -14.9106 -14.9102 -14.9089 -14.9054 -14.9048
   -14.9047 -14.9047 -14.9046 -14.9043 -14.9004 -14.8986 -14.8935 -14.8925
   -14.8768 -14.8758 -14.8704 -14.8688 -14.8645 -14.8645 -14.8645 -14.8645
   -14.8602 -14.8584 -14.8533 -14.8522 -14.8318 -14.8307 -14.8251 -14.8235
   -14.8194 -14.8193 -14.8193 -14.8193 -14.8151 -14.8133 -14.8080 -14.8069
   -10.3440 -10.3416 -10.3395 -10.3384 -10.3371 -10.3336 -10.3330 -10.3316
   -10.3307 -10.3283 -10.3269 -10.3246 -10.3105 -10.3099 -10.3083 -10.3071
   -10.3021 -10.2988 -10.2976 -10.2966 -10.2958 -10.2912 -10.2898 -10.2880
   -10.2741 -10.2707 -10.2698 -10.2678 -10.2668 -10.2642 -10.2632 -10.2613
   -10.2604 -10.2583 -10.2574 -10.2541  -6.6205  -6.6184  -6.6164  -6.5262
    -6.5244  -6.5225  -6.3089  -6.2913  -6.2891  -6.2863  -6.2572  -6.2137
    -5.8771  -5.8572  -5.8440  -5.7807  -5.7798  -5.7783  -5.7447  -5.7437
    -5.7393  -5.7158  -5.6898  -5.6879  -5.6864  -5.6736  -5.6719  -5.6706
    -5.6673  -5.6426  -5.5634  -5.5566  -5.5537  -5.5281  -5.5244  -5.5207
    -5.5067  -5.5049  -5.5021  -5.4929  -5.4580  -5.4004  -5.3966  -5.3959
    -5.3576  -5.3235  -5.3223  -5.3202  -0.5212  -0.5099  -0.5064  -0.5011
    -0.4605  -0.4185  -0.4162  -0.4150  -0.3545  -0.2974  -0.2926  -0.2866
     1.4768   1.4821   1.4882   1.6336   1.6392   1.6425   1.6899   1.7739
     1.7764   1.7772   1.7775   1.7942   1.9790   1.9814   1.9841   2.0551
     2.1708   2.1887   2.1943   2.1966   2.2472   2.3948   2.3973   2.4005
     2.4859   2.4903   2.4915   2.5566   2.5865   2.5884   2.5888   2.5933
     2.6787   2.7354   2.7372   2.7388   2.8215   2.8233   2.8249   2.8276
     2.8990   2.9033   2.9052   2.9237   2.9372   2.9535   2.9549   2.9587
     3.0563   3.0611   3.0631   3.0858   3.0887   3.0920   3.1267   3.1808
     3.2427   3.2445   3.2470   3.2696   3.2719   3.2725   3.3213   3.3254
     3.3273   3.3313   3.3738   3.4071   3.4210   3.4650   3.4653   3.4663
     3.4925   3.4972   3.4998   3.5023   3.5354   3.5365   3.5397   3.5404
     3.5612   3.6131   3.6171   3.6192   3.6528   3.6545   3.6577   3.6953
     3.6984   3.7010   3.7196   3.7445   3.8215   3.8398   3.8416   3.8432
     3.9375   3.9383   3.9408   3.9445   4.0266   4.0279   4.0320   4.0407
     4.0623   4.0693   4.0732   4.1085   4.1119   4.1136   4.1190   4.1683
     4.2710   4.2722   4.2772   4.2890   4.3154   4.3599   4.3619   4.3640
     4.4135   4.4181   4.4200   4.4920   4.4931   4.4958   4.5067   4.5130
     4.5651   4.6629   4.6676   4.6732   5.1477   5.1551   5.1567   5.1581
     5.1592   5.1813   5.1825   5.1849   5.1957   5.1987   5.2000   5.2109
     5.2231   5.2259   5.2269   5.2513   5.2525   5.2533   5.2566   5.2691
     5.2993   5.3014   5.3051   5.3093   5.3282   5.3286   5.3313   5.3677
     5.3683   5.3689   5.3743   5.3924   5.3971   5.4077   5.4091   5.4120
     5.4321   5.4329   5.4350   5.4388   5.4839   5.4847   5.4859   5.4915
     5.5374   5.5392   5.5418   5.5438   5.5660   5.5666   5.5675   5.6040
     5.6062   5.6072   5.6364   5.6407   5.6711   5.6722   5.6754   5.7032
     5.7041   5.7051   5.7177   5.7569   5.7590   5.7627   5.8003   5.8076
     5.8209   5.8223   5.8248   5.8279   5.8891   5.8899   5.8937   6.0565
     6.0595   6.0613   6.0616   6.0772   6.1186   6.1201   6.1222   6.1353
     6.1956   6.2376   6.2381   6.2395   6.2842   6.3007   6.3031   6.3035
     6.3065   6.3842   6.3855   6.3874   6.4498   6.4664   6.4683   6.4705
     6.4917   6.4931   6.5586   6.5594   6.5611   6.6459   6.6836   6.6857
     6.6872   6.7609   6.7769   6.7784   6.7804   6.7929   6.8535   6.8547
     6.8567   6.9337   6.9367   6.9389

          k =-0.3333 0.1925 0.0000 (115797 PWs)   bands (ev):

   -28.2838 -28.2827 -28.2794 -28.2785 -28.2782 -28.2754 -28.2724 -28.2723
   -28.2720 -28.2714 -28.2680 -28.2670 -14.9351 -14.9342 -14.9293 -14.9285
   -14.9283 -14.9269 -14.9228 -14.9227 -14.9226 -14.9225 -14.9224 -14.9210
   -14.9183 -14.9169 -14.9168 -14.9168 -14.9167 -14.9166 -14.9165 -14.9159
   -14.9125 -14.9113 -14.9108 -14.9106 -14.9102 -14.9089 -14.9054 -14.9048
   -14.9047 -14.9047 -14.9046 -14.9043 -14.9004 -14.8986 -14.8935 -14.8925
   -14.8768 -14.8758 -14.8704 -14.8688 -14.8645 -14.8645 -14.8645 -14.8645
   -14.8602 -14.8584 -14.8533 -14.8522 -14.8318 -14.8307 -14.8251 -14.8235
   -14.8194 -14.8193 -14.8193 -14.8193 -14.8151 -14.8133 -14.8080 -14.8069
   -10.3435 -10.3424 -10.3394 -10.3378 -10.3362 -10.3351 -10.3332 -10.3327
   -10.3305 -10.3289 -10.3283 -10.3232 -10.3108 -10.3093 -10.3076 -10.3064
   -10.3027 -10.3013 -10.2996 -10.2987 -10.2961 -10.2924 -10.2880 -10.2837
   -10.2743 -10.2708 -10.2703 -10.2678 -10.2665 -10.2651 -10.2632 -10.2613
   -10.2590 -10.2582 -10.2566 -10.2521  -6.7882  -6.5912  -6.5041  -6.4930
    -6.4371  -6.4352  -6.3698  -6.3436  -6.2875  -6.2850  -6.2496  -6.2460
    -5.9190  -5.9117  -5.8229  -5.8185  -5.8151  -5.7772  -5.7644  -5.7625
    -5.7333  -5.7269  -5.7233  -5.6872  -5.6864  -5.6466  -5.6402  -5.6351
    -5.6290  -5.5921  -5.5892  -5.5833  -5.5736  -5.5288  -5.5193  -5.5170
    -5.5142  -5.5006  -5.4677  -5.4487  -5.4401  -5.4365  -5.4216  -5.4111
    -5.3473  -5.3449  -5.3144  -5.2702  -0.5774  -0.5718  -0.5554  -0.4317
    -0.4093  -0.4052  -0.3792  -0.3372  -0.3311  -0.3302  -0.3166  -0.3071
     1.4146   1.4885   1.4924   1.4972   1.6399   1.6486   1.6939   1.7241
     1.7260   1.8284   1.8754   1.8767   1.9518   1.9539   1.9562   2.0261
     2.1140   2.2111   2.2287   2.2298   2.3360   2.3615   2.3891   2.3897
     2.3947   2.4093   2.4487   2.5364   2.5401   2.6138   2.6157   2.6191
     2.6560   2.7376   2.8149   2.8159   2.8228   2.8383   2.8427   2.8466
     2.8540   2.8826   2.9048   2.9066   2.9172   2.9593   2.9603   3.0033
     3.0521   3.0551   3.0571   3.1277   3.1515   3.1757   3.2008   3.2089
     3.2118   3.2374   3.2611   3.2620   3.2668   3.3229   3.3308   3.3320
     3.3416   3.3728   3.3919   3.3930   3.4347   3.4399   3.4415   3.4485
     3.4974   3.4982   3.5009   3.5102   3.5121   3.5126   3.5256   3.5400
     3.5603   3.6014   3.6037   3.6112   3.6360   3.6512   3.6789   3.6805
     3.6928   3.7045   3.7062   3.7072   3.7802   3.7807   3.8474   3.8583
     3.8987   3.9693   3.9710   3.9790   3.9819   4.0284   4.0411   4.0429
     4.0941   4.1099   4.1200   4.1229   4.1240   4.1611   4.1622   4.1784
     4.2502   4.2663   4.2709   4.2874   4.2995   4.3227   4.3240   4.3677
     4.3754   4.4172   4.4213   4.4839   4.5147   4.5246   4.5281   4.5311
     4.5856   4.5903   4.6333   4.7513   5.1412   5.1417   5.1479   5.1575
     5.1602   5.1613   5.1700   5.1730   5.2128   5.2180   5.2192   5.2228
     5.2299   5.2383   5.2479   5.2488   5.2508   5.2610   5.2656   5.2710
     5.2721   5.2897   5.3054   5.3063   5.3118   5.3188   5.3282   5.3287
     5.3360   5.3503   5.3539   5.3543   5.3596   5.3681   5.4117   5.4143
     5.4339   5.4515   5.4610   5.4622   5.4854   5.4927   5.4977   5.4988
     5.5028   5.5133   5.5311   5.5425   5.5559   5.5576   5.5603   5.6034
     5.6046   5.6276   5.6302   5.6318   5.6684   5.6768   5.6941   5.6953
     5.6975   5.7182   5.7287   5.7572   5.7713   5.7758   5.8087   5.8215
     5.8221   5.8609   5.8788   5.8796   5.9486   5.9498   5.9661   5.9672
     5.9890   6.0064   6.0081   6.0226   6.1398   6.1403   6.1457   6.1605
     6.2254   6.2294   6.2298   6.2486   6.2704   6.2862   6.2886   6.3023
     6.3618   6.3631   6.3778   6.3910   6.3919   6.4415   6.4868   6.4886
     6.5235   6.5372   6.5380   6.5758   6.6033   6.6516   6.6876   6.6884
     6.6935   6.7306   6.7374   6.7383   6.7634   6.7767   6.7952   6.8115
     6.8140   6.9030   6.9089   7.0797

          k = 0.3333 0.1925 0.0000 (115797 PWs)   bands (ev):

   -28.2838 -28.2827 -28.2794 -28.2785 -28.2782 -28.2754 -28.2724 -28.2723
   -28.2720 -28.2714 -28.2680 -28.2670 -14.9351 -14.9342 -14.9292 -14.9285
   -14.9282 -14.9269 -14.9228 -14.9226 -14.9226 -14.9225 -14.9225 -14.9210
   -14.9183 -14.9169 -14.9168 -14.9168 -14.9168 -14.9166 -14.9165 -14.9159
   -14.9125 -14.9113 -14.9108 -14.9106 -14.9101 -14.9089 -14.9054 -14.9047
   -14.9047 -14.9047 -14.9046 -14.9043 -14.9004 -14.8986 -14.8935 -14.8925
   -14.8768 -14.8758 -14.8704 -14.8688 -14.8645 -14.8645 -14.8645 -14.8645
   -14.8602 -14.8584 -14.8533 -14.8522 -14.8318 -14.8307 -14.8251 -14.8235
   -14.8194 -14.8193 -14.8193 -14.8193 -14.8151 -14.8133 -14.8080 -14.8069
   -10.3439 -10.3427 -10.3395 -10.3375 -10.3361 -10.3350 -10.3332 -10.3319
   -10.3313 -10.3294 -10.3274 -10.3232 -10.3114 -10.3094 -10.3073 -10.3065
   -10.3027 -10.3010 -10.3002 -10.2994 -10.2946 -10.2914 -10.2886 -10.2840
   -10.2749 -10.2716 -10.2701 -10.2665 -10.2656 -10.2643 -10.2632 -10.2619
   -10.2602 -10.2589 -10.2560 -10.2524  -6.7880  -6.5901  -6.5033  -6.4938
    -6.4399  -6.4365  -6.3661  -6.3478  -6.2885  -6.2822  -6.2518  -6.2428
    -5.9181  -5.9049  -5.8228  -5.8200  -5.8138  -5.7779  -5.7698  -5.7652
    -5.7326  -5.7240  -5.7215  -5.6912  -5.6893  -5.6473  -5.6439  -5.6331
    -5.6282  -5.5951  -5.5901  -5.5787  -5.5700  -5.5265  -5.5206  -5.5171
    -5.5149  -5.5033  -5.4637  -5.4512  -5.4394  -5.4331  -5.4224  -5.4114
    -5.3496  -5.3458  -5.3129  -5.2700  -0.5767  -0.5660  -0.5621  -0.4356
    -0.4070  -0.4003  -0.3784  -0.3394  -0.3387  -0.3357  -0.3114  -0.3009
     1.4184   1.4837   1.4914   1.5005   1.6399   1.6521   1.6883   1.7221
     1.7258   1.8281   1.8765   1.8772   1.9540   1.9556   1.9574   2.0276
     2.1155   2.2071   2.2291   2.2307   2.3388   2.3637   2.3852   2.3875
     2.3935   2.4087   2.4499   2.5340   2.5417   2.6111   2.6149   2.6172
     2.6573   2.7347   2.8121   2.8145   2.8216   2.8375   2.8438   2.8457
     2.8538   2.8849   2.9070   2.9098   2.9152   2.9621   2.9629   3.0042
     3.0502   3.0559   3.0580   3.1240   3.1477   3.1753   3.2037   3.2092
     3.2155   3.2338   3.2607   3.2617   3.2695   3.3238   3.3302   3.3316
     3.3389   3.3722   3.3945   3.3964   3.4333   3.4393   3.4429   3.4497
     3.4969   3.4974   3.5004   3.5112   3.5123   3.5140   3.5226   3.5430
     3.5616   3.6034   3.6067   3.6108   3.6345   3.6462   3.6793   3.6809
     3.6946   3.7018   3.7052   3.7091   3.7788   3.7797   3.8491   3.8594
     3.8960   3.9734   3.9747   3.9780   3.9814   4.0297   4.0369   4.0404
     4.0924   4.1106   4.1201   4.1222   4.1264   4.1620   4.1642   4.1779
     4.2480   4.2653   4.2691   4.2818   4.3039   4.3229   4.3237   4.3684
     4.3791   4.4131   4.4209   4.4834   4.5176   4.5253   4.5292   4.5310
     4.5878   4.5962   4.6269   4.7489   5.1430   5.1440   5.1468   5.1542
     5.1596   5.1607   5.1695   5.1743   5.2147   5.2189   5.2198   5.2219
     5.2279   5.2374   5.2482   5.2494   5.2509   5.2614   5.2676   5.2712
     5.2733   5.2895   5.3042   5.3047   5.3138   5.3188   5.3266   5.3278
     5.3365   5.3499   5.3528   5.3533   5.3574   5.3657   5.4114   5.4169
     5.4337   5.4510   5.4614   5.4614   5.4854   5.4931   5.5001   5.5006
     5.5030   5.5126   5.5278   5.5439   5.5557   5.5583   5.5614   5.6016
     5.6048   5.6300   5.6316   5.6328   5.6677   5.6783   5.6927   5.6959
     5.6999   5.7179   5.7295   5.7568   5.7717   5.7793   5.8091   5.8192
     5.8198   5.8640   5.8756   5.8763   5.9492   5.9528   5.9649   5.9655
     5.9905   6.0057   6.0085   6.0209   6.1388   6.1397   6.1449   6.1604
     6.2254   6.2291   6.2309   6.2512   6.2708   6.2879   6.2913   6.2995
     6.3618   6.3619   6.3772   6.3888   6.3915   6.4411   6.4855   6.4873
     6.5242   6.5380   6.5388   6.5758   6.6045   6.6509   6.6839   6.6874
     6.6981   6.7301   6.7369   6.7387   6.7627   6.7779   6.7930   6.8104
     6.8149   6.9044   6.9092   7.0809

          k = 0.0000-0.3849 0.2714 (115773 PWs)   bands (ev):

   -28.2838 -28.2827 -28.2794 -28.2785 -28.2782 -28.2754 -28.2724 -28.2723
   -28.2720 -28.2714 -28.2680 -28.2670 -14.9351 -14.9342 -14.9292 -14.9285
   -14.9282 -14.9269 -14.9228 -14.9227 -14.9226 -14.9225 -14.9224 -14.9210
   -14.9183 -14.9169 -14.9168 -14.9168 -14.9167 -14.9166 -14.9165 -14.9159
   -14.9125 -14.9112 -14.9108 -14.9106 -14.9101 -14.9089 -14.9054 -14.9048
   -14.9047 -14.9047 -14.9046 -14.9043 -14.9004 -14.8986 -14.8935 -14.8925
   -14.8768 -14.8758 -14.8704 -14.8688 -14.8645 -14.8645 -14.8645 -14.8645
   -14.8602 -14.8584 -14.8533 -14.8522 -14.8318 -14.8307 -14.8251 -14.8235
   -14.8194 -14.8193 -14.8193 -14.8193 -14.8151 -14.8133 -14.8080 -14.8069
   -10.3446 -10.3417 -10.3404 -10.3388 -10.3368 -10.3350 -10.3336 -10.3311
   -10.3299 -10.3285 -10.3271 -10.3237 -10.3116 -10.3106 -10.3083 -10.3058
   -10.3048 -10.3010 -10.2969 -10.2946 -10.2933 -10.2916 -10.2912 -10.2862
   -10.2749 -10.2704 -10.2694 -10.2691 -10.2649 -10.2645 -10.2632 -10.2610
   -10.2591 -10.2575 -10.2571 -10.2546  -6.7510  -6.6465  -6.5596  -6.4696
    -6.4236  -6.4215  -6.3635  -6.3386  -6.3369  -6.2658  -6.2107  -6.2085
    -5.9133  -5.9069  -5.8286  -5.8241  -5.8200  -5.8158  -5.7668  -5.7650
    -5.7509  -5.7330  -5.6854  -5.6835  -5.6796  -5.6610  -5.6477  -5.6461
    -5.6417  -5.6051  -5.5834  -5.5796  -5.5705  -5.5359  -5.5286  -5.5261
    -5.5103  -5.4838  -5.4699  -5.4378  -5.4348  -5.4328  -5.4036  -5.3685
    -5.3465  -5.3437  -5.3281  -5.2959  -0.5614  -0.5600  -0.5550  -0.4392
    -0.4308  -0.4263  -0.4067  -0.3576  -0.3265  -0.3246  -0.2866  -0.2806
     1.4087   1.4887   1.4929   1.5194   1.6125   1.7107   1.7122   1.7235
     1.7329   1.7720   1.8461   1.8486   1.9645   1.9864   2.0234   2.0254
     2.1318   2.1964   2.2080   2.2085   2.2865   2.3377   2.3983   2.4235
     2.4264   2.5151   2.5293   2.5309   2.5542   2.5570   2.5575   2.5585
     2.5994   2.6802   2.7624   2.7670   2.8206   2.8217   2.8239   2.8277
     2.8484   2.8521   2.8975   2.8986   2.9092   3.0089   3.0199   3.0219
     3.0722   3.0767   3.1180   3.1200   3.1328   3.1822   3.1839   3.1898
     3.2103   3.2464   3.2666   3.2857   3.2865   3.2935   3.3290   3.3298
     3.3756   3.3776   3.3818   3.3840   3.4461   3.4463   3.4508   3.4741
     3.4798   3.4812   3.5059   3.5230   3.5336   3.5351   3.5397   3.5575
     3.5866   3.5886   3.6134   3.6277   3.6377   3.6405   3.6816   3.6832
     3.6892   3.6966   3.7039   3.7080   3.8340   3.8353   3.8789   3.8821
     3.9382   3.9472   3.9478   3.9523   3.9692   4.0340   4.0508   4.0564
     4.0578   4.0597   4.0993   4.1014   4.1233   4.1244   4.1319   4.1367
     4.2176   4.2361   4.2649   4.2698   4.2899   4.2943   4.3166   4.3724
     4.3928   4.4318   4.4353   4.4822   4.5236   4.5425   4.5446   4.5880
     4.5968   4.6040   4.6265   4.7265   5.1473   5.1495   5.1500   5.1624
     5.1684   5.1688   5.1708   5.1715   5.1989   5.2044   5.2149   5.2185
     5.2212   5.2307   5.2406   5.2420   5.2611   5.2615   5.2630   5.2638
     5.2646   5.2752   5.3102   5.3111   5.3185   5.3358   5.3454   5.3462
     5.3602   5.3624   5.3636   5.3660   5.3676   5.3816   5.3883   5.3903
     5.4108   5.4316   5.4478   5.4520   5.4540   5.4704   5.4955   5.4991
     5.5167   5.5219   5.5562   5.5581   5.5692   5.5697   5.6024   5.6030
     5.6073   5.6195   5.6332   5.6494   5.6509   5.6602   5.6764   5.7090
     5.7121   5.7418   5.7595   5.7613   5.7704   5.7847   5.8022   5.8046
     5.8163   5.8399   5.8645   5.8657   5.8754   5.8990   5.9671   5.9692
     6.0207   6.0252   6.0263   6.1014   6.1022   6.1109   6.1609   6.1855
     6.2026   6.2033   6.2043   6.2610   6.2641   6.2851   6.3209   6.3398
     6.3559   6.3706   6.3738   6.4132   6.4163   6.4172   6.4523   6.4809
     6.4824   6.5075   6.5569   6.5653   6.6060   6.6097   6.6468   6.6652
     6.6674   6.7372   6.7378   6.7434   6.7484   6.8026   6.8067   6.8508
     6.8684   6.9173   6.9446   7.0411

          k =-0.3333 0.1925 0.2714 (115773 PWs)   bands (ev):

   -28.2838 -28.2827 -28.2794 -28.2785 -28.2782 -28.2754 -28.2724 -28.2723
   -28.2720 -28.2714 -28.2680 -28.2670 -14.9351 -14.9342 -14.9293 -14.9285
   -14.9283 -14.9269 -14.9228 -14.9227 -14.9226 -14.9225 -14.9224 -14.9210
   -14.9182 -14.9169 -14.9168 -14.9168 -14.9167 -14.9166 -14.9165 -14.9159
   -14.9125 -14.9113 -14.9108 -14.9106 -14.9102 -14.9089 -14.9054 -14.9048
   -14.9047 -14.9047 -14.9046 -14.9043 -14.9004 -14.8986 -14.8935 -14.8925
   -14.8768 -14.8758 -14.8704 -14.8688 -14.8645 -14.8645 -14.8645 -14.8645
   -14.8602 -14.8584 -14.8533 -14.8522 -14.8318 -14.8307 -14.8251 -14.8235
   -14.8194 -14.8193 -14.8193 -14.8193 -14.8151 -14.8133 -14.8080 -14.8069
   -10.3438 -10.3428 -10.3399 -10.3379 -10.3365 -10.3348 -10.3335 -10.3325
   -10.3301 -10.3287 -10.3279 -10.3231 -10.3115 -10.3112 -10.3068 -10.3063
   -10.3031 -10.2998 -10.2978 -10.2969 -10.2954 -10.2929 -10.2903 -10.2844
   -10.2735 -10.2714 -10.2700 -10.2680 -10.2665 -10.2649 -10.2631 -10.2612
   -10.2588 -10.2584 -10.2571 -10.2525  -6.7516  -6.6462  -6.5636  -6.4675
    -6.4176  -6.4147  -6.3634  -6.3430  -6.3414  -6.2649  -6.2115  -6.2099
    -5.9208  -5.9140  -5.8251  -5.8211  -5.8177  -5.8148  -5.7633  -5.7624
    -5.7554  -5.7341  -5.6838  -5.6818  -5.6794  -5.6672  -5.6391  -5.6366
    -5.6296  -5.6086  -5.5918  -5.5875  -5.5766  -5.5285  -5.5267  -5.5243
    -5.5165  -5.4903  -5.4615  -5.4412  -5.4390  -5.4367  -5.3942  -5.3714
    -5.3432  -5.3408  -5.3347  -5.2951  -0.5695  -0.5630  -0.5436  -0.4325
    -0.4279  -0.4268  -0.4154  -0.3636  -0.3177  -0.3167  -0.2932  -0.2851
     1.4011   1.4955   1.5000   1.5108   1.6120   1.7114   1.7128   1.7211
     1.7411   1.7738   1.8425   1.8452   1.9683   1.9851   2.0183   2.0202
     2.1265   2.2019   2.2100   2.2109   2.2839   2.3305   2.3948   2.4277
     2.4307   2.5208   2.5283   2.5295   2.5581   2.5594   2.5604   2.5633
     2.5997   2.6763   2.7616   2.7664   2.8249   2.8268   2.8294   2.8313
     2.8522   2.8538   2.8929   2.8937   2.9031   3.0071   3.0153   3.0170
     3.0788   3.0818   3.1170   3.1188   3.1340   3.1775   3.1798   3.1871
     3.2166   3.2464   3.2660   3.2844   3.2851   3.2968   3.3321   3.3329
     3.3733   3.3753   3.3763   3.3773   3.4482   3.4486   3.4494   3.4790
     3.4801   3.4807   3.5061   3.5157   3.5333   3.5344   3.5358   3.5583
     3.5847   3.5870   3.6082   3.6348   3.6429   3.6484   3.6830   3.6845
     3.6852   3.6956   3.7026   3.7052   3.8377   3.8388   3.8768   3.8788
     3.9401   3.9435   3.9445   3.9492   3.9744   4.0299   4.0536   4.0565
     4.0618   4.0648   4.0995   4.1016   4.1205   4.1220   4.1263   4.1333
     4.2296   4.2445   4.2686   4.2731   4.2892   4.2933   4.3109   4.3617
     4.3920   4.4351   4.4379   4.4795   4.5187   4.5450   4.5469   4.5820
     4.5918   4.5962   4.6367   4.7339   5.1452   5.1458   5.1558   5.1655
     5.1673   5.1688   5.1698   5.1742   5.2005   5.2061   5.2103   5.2161
     5.2184   5.2271   5.2405   5.2418   5.2596   5.2654   5.2662   5.2671
     5.2686   5.2716   5.3095   5.3104   5.3184   5.3321   5.3473   5.3481
     5.3596   5.3632   5.3634   5.3700   5.3720   5.3808   5.3881   5.3898
     5.4096   5.4346   5.4476   5.4498   5.4515   5.4682   5.4953   5.4991
     5.5167   5.5266   5.5555   5.5571   5.5679   5.5687   5.6015   5.6022
     5.6079   5.6212   5.6290   5.6494   5.6511   5.6619   5.6737   5.7060
     5.7090   5.7365   5.7589   5.7611   5.7709   5.7846   5.8067   5.8087
     5.8137   5.8396   5.8694   5.8707   5.8755   5.8906   5.9693   5.9713
     6.0176   6.0250   6.0260   6.1014   6.1020   6.1128   6.1584   6.1888
     6.2026   6.2039   6.2045   6.2617   6.2646   6.2899   6.3156   6.3444
     6.3537   6.3649   6.3681   6.4128   6.4228   6.4237   6.4523   6.4816
     6.4830   6.5064   6.5587   6.5680   6.6047   6.6085   6.6478   6.6672
     6.6693   6.7327   6.7382   6.7421   6.7489   6.8028   6.8068   6.8514
     6.8646   6.9192   6.9468   7.0368

          k = 0.3333 0.1925 0.2714 (115773 PWs)   bands (ev):

   -28.2838 -28.2827 -28.2794 -28.2785 -28.2782 -28.2754 -28.2724 -28.2723
   -28.2720 -28.2714 -28.2680 -28.2670 -14.9351 -14.9342 -14.9292 -14.9285
   -14.9282 -14.9269 -14.9228 -14.9226 -14.9226 -14.9225 -14.9225 -14.9210
   -14.9183 -14.9169 -14.9168 -14.9168 -14.9168 -14.9166 -14.9165 -14.9159
   -14.9125 -14.9113 -14.9108 -14.9106 -14.9101 -14.9089 -14.9054 -14.9047
   -14.9047 -14.9047 -14.9046 -14.9043 -14.9004 -14.8986 -14.8935 -14.8925
   -14.8768 -14.8758 -14.8704 -14.8688 -14.8645 -14.8645 -14.8645 -14.8645
   -14.8602 -14.8584 -14.8533 -14.8522 -14.8318 -14.8307 -14.8251 -14.8235
   -14.8194 -14.8193 -14.8193 -14.8193 -14.8151 -14.8133 -14.8080 -14.8069
   -10.3441 -10.3430 -10.3399 -10.3377 -10.3366 -10.3349 -10.3337 -10.3317
   -10.3301 -10.3289 -10.3271 -10.3235 -10.3115 -10.3108 -10.3082 -10.3069
   -10.3015 -10.3001 -10.2986 -10.2964 -10.2945 -10.2922 -10.2900 -10.2853
   -10.2745 -10.2719 -10.2697 -10.2663 -10.2651 -10.2642 -10.2636 -10.2622
   -10.2600 -10.2590 -10.2563 -10.2528  -6.7513  -6.6464  -6.5616  -6.4683
    -6.4217  -6.4169  -6.3635  -6.3406  -6.3399  -6.2652  -6.2120  -6.2082
    -5.9201  -5.9078  -5.8247  -5.8226  -5.8215  -5.8132  -5.7656  -5.7631
    -5.7538  -5.7335  -5.6837  -5.6823  -5.6808  -5.6639  -5.6448  -5.6386
    -5.6376  -5.6062  -5.5897  -5.5822  -5.5743  -5.5312  -5.5283  -5.5248
    -5.5133  -5.4878  -5.4643  -5.4405  -5.4378  -5.4337  -5.3991  -5.3695
    -5.3455  -5.3416  -5.3311  -5.2956  -0.5688  -0.5562  -0.5516  -0.4336
    -0.4330  -0.4240  -0.4116  -0.3614  -0.3231  -0.3203  -0.2893  -0.2823
     1.4047   1.4900   1.4986   1.5147   1.6126   1.7104   1.7132   1.7224
     1.7373   1.7728   1.8432   1.8478   1.9664   1.9858   2.0215   2.0223
     2.1289   2.1996   2.2089   2.2096   2.2849   2.3346   2.3966   2.4246
     2.4294   2.5182   2.5282   2.5308   2.5556   2.5574   2.5586   2.5621
     2.5996   2.6782   2.7602   2.7687   2.8226   2.8248   2.8260   2.8299
     2.8503   2.8528   2.8948   2.8964   2.9059   3.0079   3.0166   3.0206
     3.0765   3.0783   3.1167   3.1201   3.1332   3.1792   3.1824   3.1884
     3.2133   3.2466   3.2665   3.2849   3.2861   3.2952   3.3301   3.3318
     3.3749   3.3769   3.3775   3.3816   3.4467   3.4476   3.4502   3.4766
     3.4791   3.4816   3.5061   3.5194   3.5342   3.5351   3.5367   3.5581
     3.5844   3.5889   3.6103   3.6315   3.6401   3.6443   3.6820   3.6839
     3.6872   3.6962   3.7020   3.7086   3.8362   3.8366   3.8780   3.8799
     3.9405   3.9447   3.9467   3.9501   3.9716   4.0318   4.0532   4.0567
     4.0587   4.0620   4.0981   4.1024   4.1210   4.1244   4.1296   4.1351
     4.2237   4.2402   4.2674   4.2707   4.2904   4.2924   4.3139   4.3674
     4.3923   4.4314   4.4383   4.4808   4.5214   4.5432   4.5461   4.5851
     4.5943   4.6005   4.6316   4.7300   5.1468   5.1479   5.1532   5.1637
     5.1661   5.1686   5.1709   5.1731   5.1996   5.2046   5.2128   5.2167
     5.2211   5.2290   5.2398   5.2427   5.2603   5.2643   5.2648   5.2651
     5.2660   5.2734   5.3093   5.3109   5.3189   5.3340   5.3462   5.3467
     5.3600   5.3629   5.3635   5.3682   5.3697   5.3807   5.3880   5.3908
     5.4101   5.4330   5.4478   5.4504   5.4534   5.4691   5.4937   5.5008
     5.5168   5.5242   5.5561   5.5575   5.5687   5.5689   5.6022   5.6025
     5.6076   5.6201   5.6308   5.6497   5.6509   5.6613   5.6750   5.7057
     5.7123   5.7389   5.7589   5.7618   5.7707   5.7849   5.8031   5.8083
     5.8148   5.8397   5.8674   5.8677   5.8754   5.8950   5.9675   5.9710
     6.0191   6.0252   6.0259   6.1017   6.1020   6.1118   6.1596   6.1872
     6.2021   6.2035   6.2051   6.2602   6.2658   6.2873   6.3182   6.3423
     6.3546   6.3662   6.3725   6.4132   6.4193   6.4205   6.4523   6.4805
     6.4834   6.5069   6.5579   6.5665   6.6037   6.6109   6.6475   6.6652
     6.6692   6.7321   6.7397   6.7439   6.7486   6.8005   6.8088   6.8511
     6.8664   6.9183   6.9457   7.0390

          k =-0.3333-0.1925 0.2714 (115773 PWs)   bands (ev):

   -28.2838 -28.2827 -28.2794 -28.2785 -28.2782 -28.2754 -28.2724 -28.2723
   -28.2720 -28.2714 -28.2680 -28.2670 -14.9351 -14.9342 -14.9292 -14.9285
   -14.9282 -14.9269 -14.9228 -14.9226 -14.9226 -14.9225 -14.9225 -14.9210
   -14.9183 -14.9169 -14.9168 -14.9168 -14.9168 -14.9166 -14.9165 -14.9159
   -14.9125 -14.9113 -14.9108 -14.9106 -14.9101 -14.9089 -14.9054 -14.9047
   -14.9047 -14.9047 -14.9046 -14.9043 -14.9004 -14.8986 -14.8935 -14.8925
   -14.8768 -14.8758 -14.8704 -14.8688 -14.8645 -14.8645 -14.8645 -14.8645
   -14.8602 -14.8584 -14.8533 -14.8522 -14.8318 -14.8307 -14.8251 -14.8235
   -14.8194 -14.8193 -14.8193 -14.8193 -14.8151 -14.8133 -14.8080 -14.8069
   -10.3441 -10.3430 -10.3400 -10.3377 -10.3365 -10.3351 -10.3334 -10.3315
   -10.3304 -10.3290 -10.3273 -10.3232 -10.3118 -10.3110 -10.3074 -10.3069
   -10.3021 -10.2997 -10.2988 -10.2966 -10.2946 -10.2927 -10.2891 -10.2855
   -10.2746 -10.2718 -10.2689 -10.2670 -10.2659 -10.2644 -10.2633 -10.2618
   -10.2599 -10.2589 -10.2562 -10.2530  -6.7511  -6.6465  -6.5609  -6.4716
    -6.4248  -6.4203  -6.3639  -6.3289  -6.3284  -6.2586  -6.2259  -6.2218
    -5.9119  -5.8987  -5.8232  -5.8216  -5.8137  -5.8018  -5.7925  -5.7608
    -5.7592  -5.7318  -5.7106  -5.7096  -5.6726  -5.6351  -5.6315  -5.6280
    -5.6247  -5.6076  -5.6001  -5.5983  -5.5713  -5.5308  -5.5220  -5.5213
    -5.5157  -5.4964  -5.4701  -5.4320  -5.4292  -5.4248  -5.4218  -5.3635
    -5.3497  -5.3449  -5.3218  -5.2990  -0.5656  -0.5594  -0.5524  -0.4402
    -0.4308  -0.4254  -0.3945  -0.3739  -0.3200  -0.3169  -0.2982  -0.2780
     1.4330   1.4817   1.4867   1.4896   1.6254   1.6419   1.7713   1.7740
     1.7819   1.7904   1.7992   1.8017   1.9144   1.9958   1.9967   2.0772
     2.1547   2.1997   2.2114   2.2475   2.2483   2.3602   2.3922   2.3943
     2.3984   2.4485   2.5091   2.5152   2.5471   2.5873   2.5941   2.6077
     2.6428   2.7111   2.7614   2.7647   2.7724   2.7890   2.8070   2.8117
     2.8386   2.8745   2.9153   2.9160   2.9190   2.9814   3.0225   3.0258
     3.0678   3.1067   3.1068   3.1321   3.1698   3.1888   3.1938   3.1975
     3.2002   3.2328   3.2644   3.2647   3.2769   3.3181   3.3205   3.3227
     3.3249   3.3880   3.3913   3.4106   3.4455   3.4457   3.4678   3.4701
     3.4719   3.4737   3.4759   3.4777   3.5337   3.5364   3.5369   3.5911
     3.6100   3.6124   3.6128   3.6328   3.6425   3.6477   3.6576   3.6607
     3.6684   3.7109   3.7119   3.7129   3.8351   3.8363   3.8793   3.8881
     3.9044   3.9496   3.9507   3.9750   3.9818   4.0196   4.0454   4.0488
     4.0506   4.0667   4.1095   4.1115   4.1183   4.1331   4.1354   4.1481
     4.1910   4.2553   4.2662   4.2682   4.2886   4.2899   4.2949   4.3875
     4.3979   4.4337   4.4426   4.4678   4.5237   4.5260   4.5357   4.5962
     4.6085   4.6143   4.6229   4.7215   5.1500   5.1508   5.1541   5.1565
     5.1718   5.1747   5.1765   5.1826   5.1910   5.1978   5.2013   5.2069
     5.2095   5.2335   5.2350   5.2365   5.2547   5.2635   5.2644   5.2677
     5.2790   5.2982   5.3075   5.3129   5.3131   5.3288   5.3345   5.3386
     5.3580   5.3588   5.3604   5.3638   5.3800   5.3927   5.4062   5.4081
     5.4129   5.4323   5.4333   5.4451   5.4454   5.4927   5.5004   5.5039
     5.5092   5.5159   5.5534   5.5597   5.5742   5.5753   5.6026   5.6103
     5.6120   5.6190   5.6246   5.6260   5.6430   5.6701   5.6817   5.7119
     5.7168   5.7181   5.7345   5.7690   5.7727   5.7770   5.8015   5.8038
     5.8108   5.8584   5.8744   5.8766   5.8789   5.9147   5.9585   5.9603
     6.0319   6.0349   6.0372   6.0596   6.0772   6.0814   6.1731   6.2061
     6.2114   6.2155   6.2666   6.2669   6.2698   6.2771   6.2856   6.3471
     6.3512   6.3656   6.3721   6.4150   6.4221   6.4272   6.4278   6.4711
     6.4979   6.4991   6.5460   6.5593   6.5943   6.5975   6.6643   6.6694
     6.6771   6.7196   6.7365   6.7372   6.7475   6.8129   6.8148   6.8448
     6.8691   6.9284   6.9371   7.0524

          k = 0.3333-0.1925 0.2714 (115773 PWs)   bands (ev):

   -28.2838 -28.2827 -28.2794 -28.2785 -28.2782 -28.2754 -28.2724 -28.2723
   -28.2720 -28.2714 -28.2680 -28.2670 -14.9351 -14.9342 -14.9293 -14.9285
   -14.9283 -14.9269 -14.9228 -14.9227 -14.9226 -14.9225 -14.9224 -14.9210
   -14.9182 -14.9169 -14.9168 -14.9168 -14.9167 -14.9166 -14.9165 -14.9159
   -14.9125 -14.9113 -14.9108 -14.9106 -14.9102 -14.9089 -14.9054 -14.9048
   -14.9047 -14.9047 -14.9046 -14.9043 -14.9004 -14.8986 -14.8935 -14.8925
   -14.8768 -14.8758 -14.8704 -14.8688 -14.8645 -14.8645 -14.8645 -14.8645
   -14.8602 -14.8584 -14.8533 -14.8522 -14.8318 -14.8307 -14.8251 -14.8235
   -14.8194 -14.8193 -14.8193 -14.8193 -14.8151 -14.8133 -14.8080 -14.8069
   -10.3438 -10.3428 -10.3398 -10.3379 -10.3366 -10.3349 -10.3337 -10.3325
   -10.3297 -10.3285 -10.3280 -10.3232 -10.3119 -10.3101 -10.3075 -10.3067
   -10.3021 -10.3005 -10.2989 -10.2975 -10.2940 -10.2930 -10.2883 -10.2856
   -10.2741 -10.2714 -10.2707 -10.2673 -10.2662 -10.2648 -10.2630 -10.2617
   -10.2589 -10.2580 -10.2570 -10.2527  -6.7515  -6.6462  -6.5628  -6.4709
    -6.4210  -6.4185  -6.3640  -6.3308  -6.3294  -6.2582  -6.2254  -6.2237
    -5.9121  -5.9048  -5.8215  -5.8166  -5.8137  -5.8070  -5.7953  -5.7570
    -5.7564  -5.7349  -5.7071  -5.7061  -5.6751  -5.6359  -5.6300  -5.6277
    -5.6234  -5.6045  -5.6014  -5.5998  -5.5718  -5.5267  -5.5234  -5.5221
    -5.5192  -5.4896  -5.4734  -5.4370  -5.4324  -5.4287  -5.4193  -5.3589
    -5.3467  -5.3441  -5.3235  -5.3005  -0.5664  -0.5597  -0.5521  -0.4387
    -0.4335  -0.4191  -0.3974  -0.3769  -0.3147  -0.3135  -0.3022  -0.2810
     1.4285   1.4831   1.4867   1.4907   1.6255   1.6427   1.7741   1.7753
     1.7842   1.7920   1.7982   1.7998   1.9133   1.9911   1.9934   2.0774
     2.1523   2.1989   2.2152   2.2480   2.2493   2.3562   2.3951   2.3955
     2.3965   2.4495   2.5102   2.5135   2.5456   2.5919   2.5951   2.6073
     2.6463   2.7151   2.7636   2.7664   2.7706   2.7883   2.8085   2.8110
     2.8404   2.8744   2.9138   2.9141   2.9172   2.9801   3.0215   3.0230
     3.0725   3.1041   3.1052   3.1362   3.1665   3.1906   3.1945   3.1985
     3.2013   3.2305   3.2641   3.2644   3.2784   3.3191   3.3204   3.3226
     3.3237   3.3856   3.3875   3.4109   3.4441   3.4455   3.4697   3.4706
     3.4715   3.4728   3.4738   3.4798   3.5327   3.5363   3.5373   3.5939
     3.6091   3.6133   3.6143   3.6317   3.6417   3.6531   3.6570   3.6588
     3.6658   3.7096   3.7116   3.7124   3.8361   3.8372   3.8790   3.8888
     3.9058   3.9471   3.9489   3.9723   3.9848   4.0220   4.0478   4.0510
     4.0525   4.0625   4.1067   4.1103   4.1160   4.1338   4.1348   4.1469
     4.1967   4.2556   4.2666   4.2692   4.2887   4.2909   4.2967   4.3828
     4.3971   4.4374   4.4419   4.4678   4.5243   4.5263   4.5328   4.5931
     4.6065   4.6112   4.6284   4.7244   5.1473   5.1478   5.1544   5.1579
     5.1747   5.1773   5.1786   5.1826   5.1912   5.1981   5.2002   5.2054
     5.2070   5.2334   5.2339   5.2356   5.2546   5.2650   5.2660   5.2675
     5.2785   5.2970   5.3064   5.3132   5.3138   5.3291   5.3382   5.3401
     5.3587   5.3591   5.3608   5.3638   5.3803   5.3947   5.4049   5.4062
     5.4133   5.4310   5.4349   5.4440   5.4447   5.4925   5.5013   5.5026
     5.5113   5.5169   5.5525   5.5585   5.5743   5.5750   5.6008   5.6099
     5.6102   5.6194   5.6239   5.6259   5.6441   5.6688   5.6814   5.7128
     5.7150   5.7189   5.7316   5.7688   5.7733   5.7746   5.8043   5.8053
     5.8082   5.8589   5.8747   5.8789   5.8802   5.9134   5.9601   5.9611
     6.0321   6.0348   6.0362   6.0572   6.0788   6.0808   6.1732   6.2033
     6.2122   6.2142   6.2659   6.2666   6.2719   6.2773   6.2878   6.3493
     6.3518   6.3692   6.3733   6.4141   6.4232   6.4254   6.4262   6.4700
     6.4988   6.5003   6.5457   6.5595   6.5939   6.5955   6.6642   6.6672
     6.6774   6.7198   6.7358   6.7368   6.7523   6.8132   6.8146   6.8463
     6.8659   6.9275   6.9382   7.0513

          k =-0.3333-0.5774 0.2714 (115827 PWs)   bands (ev):

   -28.2838 -28.2827 -28.2794 -28.2785 -28.2782 -28.2754 -28.2724 -28.2723
   -28.2720 -28.2714 -28.2680 -28.2670 -14.9351 -14.9342 -14.9292 -14.9285
   -14.9282 -14.9269 -14.9228 -14.9226 -14.9226 -14.9226 -14.9225 -14.9210
   -14.9183 -14.9169 -14.9168 -14.9167 -14.9167 -14.9167 -14.9165 -14.9159
   -14.9125 -14.9113 -14.9108 -14.9106 -14.9102 -14.9089 -14.9054 -14.9048
   -14.9047 -14.9047 -14.9046 -14.9043 -14.9004 -14.8986 -14.8935 -14.8925
   -14.8768 -14.8758 -14.8704 -14.8688 -14.8645 -14.8645 -14.8645 -14.8645
   -14.8602 -14.8584 -14.8533 -14.8522 -14.8318 -14.8307 -14.8251 -14.8235
   -14.8194 -14.8193 -14.8193 -14.8193 -14.8151 -14.8133 -14.8080 -14.8069
   -10.3440 -10.3415 -10.3396 -10.3385 -10.3371 -10.3337 -10.3329 -10.3316
   -10.3309 -10.3281 -10.3269 -10.3247 -10.3106 -10.3098 -10.3083 -10.3071
   -10.3021 -10.2986 -10.2977 -10.2971 -10.2955 -10.2909 -10.2901 -10.2881
   -10.2740 -10.2710 -10.2696 -10.2680 -10.2669 -10.2637 -10.2630 -10.2615
   -10.2609 -10.2580 -10.2576 -10.2541  -6.6205  -6.6184  -6.6164  -6.5262
    -6.5244  -6.5225  -6.3088  -6.2914  -6.2890  -6.2864  -6.2577  -6.2133
    -5.8771  -5.8574  -5.8439  -5.7810  -5.7793  -5.7783  -5.7461  -5.7414
    -5.7404  -5.7160  -5.6909  -5.6871  -5.6860  -5.6732  -5.6713  -5.6696
    -5.6686  -5.6431  -5.5631  -5.5575  -5.5533  -5.5290  -5.5243  -5.5198
    -5.5070  -5.5040  -5.5010  -5.4944  -5.4586  -5.3994  -5.3986  -5.3945
    -5.3574  -5.3239  -5.3218  -5.3205  -0.5210  -0.5101  -0.5059  -0.5015
    -0.4608  -0.4182  -0.4162  -0.4152  -0.3544  -0.2976  -0.2922  -0.2868
     1.4766   1.4827   1.4878   1.6343   1.6379   1.6431   1.6899   1.7746
     1.7756   1.7763   1.7786   1.7941   1.9789   1.9818   1.9841   2.0552
     2.1705   2.1898   2.1920   2.1978   2.2474   2.3944   2.3975   2.3998
     2.4871   2.4882   2.4926   2.5567   2.5870   2.5876   2.5896   2.5927
     2.6793   2.7354   2.7370   2.7388   2.8217   2.8233   2.8247   2.8277
     2.9001   2.9019   2.9061   2.9240   2.9366   2.9526   2.9563   2.9579
     3.0577   3.0593   3.0642   3.0853   3.0886   3.0914   3.1266   3.1811
     3.2418   3.2450   3.2471   3.2701   3.2714   3.2731   3.3212   3.3244
     3.3287   3.3306   3.3740   3.4072   3.4212   3.4646   3.4659   3.4661
     3.4923   3.4973   3.4996   3.5023   3.5348   3.5379   3.5389   3.5404
     3.5614   3.6134   3.6157   3.6197   3.6520   3.6556   3.6580   3.6956
     3.6978   3.7012   3.7201   3.7442   3.8215   3.8396   3.8410   3.8430
     3.9373   3.9382   3.9419   3.9442   4.0270   4.0298   4.0322   4.0410
     4.0622   4.0667   4.0736   4.1072   4.1115   4.1158   4.1178   4.1683
     4.2703   4.2742   4.2758   4.2907   4.3146   4.3597   4.3617   4.3638
     4.4146   4.4167   4.4213   4.4911   4.4942   4.4953   4.5071   4.5122
     4.5652   4.6629   4.6676   4.6732   5.1477   5.1551   5.1568   5.1581
     5.1591   5.1809   5.1832   5.1846   5.1964   5.1977   5.2005   5.2109
     5.2234   5.2250   5.2277   5.2517   5.2521   5.2532   5.2567   5.2692
     5.2987   5.3024   5.3045   5.3093   5.3272   5.3304   5.3305   5.3678
     5.3684   5.3692   5.3742   5.3925   5.3970   5.4068   5.4097   5.4112
     5.4317   5.4339   5.4346   5.4389   5.4836   5.4851   5.4860   5.4913
     5.5371   5.5399   5.5414   5.5436   5.5660   5.5669   5.5676   5.6050
     5.6055   5.6075   5.6365   5.6408   5.6702   5.6731   5.6744   5.7034
     5.7041   5.7049   5.7172   5.7567   5.7602   5.7625   5.8009   5.8073
     5.8211   5.8227   5.8243   5.8280   5.8880   5.8918   5.8929   6.0562
     6.0596   6.0601   6.0618   6.0772   6.1189   6.1211   6.1227   6.1349
     6.1959   6.2370   6.2385   6.2391   6.2842   6.3015   6.3018   6.3040
     6.3067   6.3840   6.3859   6.3870   6.4497   6.4660   6.4681   6.4699
     6.4920   6.4930   6.5584   6.5600   6.5612   6.6457   6.6840   6.6855
     6.6876   6.7604   6.7768   6.7786   6.7801   6.7934   6.8534   6.8553
     6.8564   6.9340   6.9361   6.9391

     highest occupied level (ev):     7.1819

!    total energy              =   -9077.18749756 Ry
     estimated scf accuracy    <          4.3E-10 Ry

     The total energy is the sum of the following terms:
     one-electron contribution =   -2776.62323704 Ry
     hartree contribution      =    2020.06820212 Ry
     xc contribution           =   -2269.38774779 Ry
     ewald contribution        =   -3895.44834571 Ry
     one-center paw contrib.   =   -2155.79636914 Ry

     convergence has been achieved in  21 iterations

     negative rho (up, down):  7.902E-01 0.000E+00

     Forces acting on atoms (cartesian axes, Ry/au):

     atom    1 type  1   force =    -0.00006290    0.00056448   -0.00680006
     atom    2 type  1   force =    -0.00013449    0.00026408   -0.00027847
     atom    3 type  1   force =    -0.00014194    0.00027330   -0.00029855
     atom    4 type  1   force =    -0.00014783    0.00028061   -0.00026919
     atom    5 type  1   force =     0.00006497   -0.00020192    0.00035482
     atom    6 type  1   force =    -0.00030336   -0.00041409    0.00035726
     atom    7 type  1   force =    -0.00014214   -0.00022125    0.00014248
     atom    8 type  1   force =    -0.00017676   -0.00024882    0.00013320
     atom    9 type  1   force =     0.00031263   -0.00002799    0.00013382
     atom   10 type  1   force =     0.00047738    0.00015219    0.00035601
     atom   11 type  1   force =     0.00010780   -0.00005305    0.00035395
     atom   12 type  1   force =     0.00035162   -0.00001162    0.00014200
     atom   13 type  2   force =     0.00017749   -0.00031097    0.00058774
     atom   14 type  2   force =     0.00019262   -0.00039746    0.00022897
     atom   15 type  2   force =     0.00018866   -0.00037884    0.00022221
     atom   16 type  2   force =     0.00020406   -0.00039890    0.00021705
     atom   17 type  2   force =     0.00017557    0.00037237    0.00022927
     atom   18 type  2   force =     0.00022413    0.00036987    0.00026692
     atom   19 type  2   force =     0.00022233    0.00037068    0.00024049
     atom   20 type  2   force =     0.00021624    0.00037345    0.00022905
     atom   21 type  2   force =    -0.00090982   -0.00029302    0.00006464
     atom   22 type  2   force =    -0.00042616   -0.00004075    0.00016655
     atom   23 type  2   force =    -0.00044901    0.00003977    0.00009397
     atom   24 type  2   force =    -0.00025575    0.00012887   -0.00007881
     atom   25 type  2   force =    -0.00044031   -0.00003039   -0.00014876
     atom   26 type  2   force =    -0.00046142   -0.00007221   -0.00014908
     atom   27 type  2   force =    -0.00043596   -0.00002841   -0.00010973
     atom   28 type  2   force =    -0.00044169   -0.00002850   -0.00013853
     atom   29 type  2   force =     0.00038906    0.00049759   -0.00047136
     atom   30 type  2   force =    -0.00032522    0.00011716   -0.00032557
     atom   31 type  2   force =     0.00016279    0.00042237   -0.00021114
     atom   32 type  2   force =     0.00021475    0.00036364   -0.00028323
     atom   33 type  2   force =     0.00022247   -0.00036108   -0.00015496
     atom   34 type  2   force =     0.00030153   -0.00042820    0.00018248
     atom   35 type  2   force =     0.00022135   -0.00036913   -0.00014296
     atom   36 type  2   force =     0.00023195   -0.00037935   -0.00014832
     atom   37 type  3   force =     0.00037333   -0.00041523    0.00036492
     atom   38 type  3   force =     0.00025543   -0.00049902    0.00014124
     atom   39 type  3   force =     0.00029392   -0.00045469    0.00014369
     atom   40 type  3   force =     0.00025130   -0.00047071    0.00013860
     atom   41 type  3   force =    -0.00119020    0.00053073    0.00034951
     atom   42 type  3   force =     0.00053046    0.00057405    0.00015162
     atom   43 type  3   force =     0.00069746   -0.00059970   -0.00022157
     atom   44 type  3   force =     0.00016779    0.00044682   -0.00007977
     atom   45 type  3   force =    -0.00061470   -0.00007888   -0.00007692
     atom   46 type  3   force =    -0.00125110   -0.00134720    0.00034873
     atom   47 type  3   force =    -0.00033105    0.00019069    0.00011838
     atom   48 type  3   force =    -0.00127372    0.00092768   -0.00022413
     atom   49 type  4   force =     0.00027121   -0.00001223   -0.00025349
     atom   50 type  4   force =     0.00035515   -0.00004941   -0.00009875
     atom   51 type  4   force =     0.00033322   -0.00007133   -0.00008519
     atom   52 type  4   force =     0.00034848   -0.00005712   -0.00007130
     atom   53 type  4   force =     0.00025238    0.00046174    0.00033811
     atom   54 type  4   force =     0.00001041    0.00033604    0.00030842
     atom   55 type  4   force =    -0.00002178    0.00044172    0.00015833
     atom   56 type  4   force =    -0.00005842    0.00035802    0.00018922
     atom   57 type  4   force =    -0.00026418   -0.00030277   -0.00000867
     atom   58 type  4   force =    -0.00000833   -0.00044867   -0.00010774
     atom   59 type  4   force =    -0.00028370   -0.00022553   -0.00001303
     atom   60 type  4   force =    -0.00022593   -0.00017850    0.00001281
     atom   61 type  4   force =    -0.00024908    0.00028147    0.00015952
     atom   62 type  4   force =    -0.00000445    0.00047271    0.00031531
     atom   63 type  4   force =    -0.00019937    0.00037503    0.00028541
     atom   64 type  4   force =    -0.00015262    0.00027211    0.00012619
     atom   65 type  4   force =     0.00043397    0.00009367   -0.00001937
     atom   66 type  4   force =     0.00030928    0.00012174   -0.00004187
     atom   67 type  4   force =     0.00031509    0.00041475   -0.00013543
     atom   68 type  4   force =     0.00036745    0.00006580   -0.00004115
     atom   69 type  4   force =    -0.00005580   -0.00038004   -0.00009604
     atom   70 type  4   force =    -0.00005207   -0.00047011   -0.00028286
     atom   71 type  4   force =    -0.00004609   -0.00037898   -0.00012541
     atom   72 type  4   force =    -0.00007540   -0.00038640   -0.00011088
     atom   73 type  4   force =     0.00126928   -0.00033718    0.00121138
     atom   74 type  4   force =     0.00001776    0.00019743   -0.00013511
     atom   75 type  4   force =     0.00007326    0.00000236   -0.00022338
     atom   76 type  4   force =    -0.00000380    0.00011910   -0.00023559
     atom   77 type  4   force =    -0.00011504   -0.00009962   -0.00036761
     atom   78 type  4   force =    -0.00011781   -0.00010508   -0.00037346
     atom   79 type  4   force =    -0.00012425   -0.00006419   -0.00033549
     atom   80 type  4   force =    -0.00013177   -0.00007877   -0.00033928
     atom   81 type  4   force =    -0.00000110    0.00009801    0.00035703
     atom   82 type  4   force =     0.00014414   -0.00008674   -0.00022813
     atom   83 type  4   force =     0.00031220   -0.00015834   -0.00019351
     atom   84 type  4   force =     0.00006819   -0.00013252   -0.00014076
     atom   85 type  4   force =     0.00012065    0.00010836    0.00015384
     atom   86 type  4   force =     0.00011176    0.00013442    0.00012531
     atom   87 type  4   force =     0.00010545    0.00013296    0.00011964
     atom   88 type  4   force =     0.00013806    0.00010745    0.00015683
     atom   89 type  4   force =    -0.00005030   -0.00018805    0.00035639
     atom   90 type  4   force =    -0.00006458   -0.00033082    0.00113800
     atom   91 type  4   force =     0.00002546   -0.00013992    0.00026730
     atom   92 type  4   force =     0.00005579    0.00004271    0.00030020
     atom   93 type  4   force =    -0.00018634    0.00006172    0.00024928
     atom   94 type  4   force =     0.00009738    0.00105248    0.00125553
     atom   95 type  4   force =    -0.00011124    0.00004518    0.00035832
     atom   96 type  4   force =    -0.00024611    0.00018633    0.00027268

     Total force =     0.008994     Total SCF correction =     0.000050
     Message from routine punch:
     Nothing written, as per user request (disk_io='none')

     init_run     :     38.99s CPU     42.11s WALL (       1 calls)
     electrons    :   1983.44s CPU   2105.50s WALL (       1 calls)
     forces       :     19.93s CPU     20.92s WALL (       1 calls)

     Called by init_run:
     wfcinit      :     35.51s CPU     38.06s WALL (       1 calls)
     potinit      :      1.09s CPU      1.15s WALL (       1 calls)
     hinit0       :      1.08s CPU      1.11s WALL (       1 calls)

     Called by electrons:
     c_bands      :   1758.88s CPU   1851.97s WALL (      21 calls)
     sum_band     :    200.69s CPU    220.38s WALL (      21 calls)
     v_of_rho     :      4.02s CPU      4.61s WALL (      22 calls)
     newd         :     14.54s CPU     23.58s WALL (      22 calls)
     PAW_pot      :      5.19s CPU      5.22s WALL (      22 calls)
     mix_rho      :      0.63s CPU      0.68s WALL (      21 calls)

     Called by c_bands:
     init_us_2    :     25.49s CPU     26.04s WALL (     308 calls)
     cegterg      :   1700.10s CPU   1792.42s WALL (     147 calls)

     Called by *egterg:
     cdiaghg      :     91.87s CPU     94.72s WALL (     868 calls)
     h_psi        :    915.02s CPU    978.78s WALL (     875 calls)
     s_psi        :    220.67s CPU    223.20s WALL (     875 calls)
     g_psi        :      3.20s CPU      3.24s WALL (     721 calls)

     Called by h_psi:
     h_psi:calbec :    226.04s CPU    230.04s WALL (     875 calls)
     vloc_psi     :    464.00s CPU    514.52s WALL (     875 calls)
     add_vuspsi   :    222.01s CPU    224.90s WALL (     875 calls)

     General routines
     calbec       :    313.93s CPU    319.31s WALL (    1050 calls)
     fft          :      3.74s CPU      4.20s WALL (     295 calls)
     ffts         :      0.76s CPU      0.79s WALL (      43 calls)
     fftw         :    384.81s CPU    427.80s WALL (  424668 calls)
     interpolate  :      0.93s CPU      1.01s WALL (      22 calls)

     Parallel routines

     PWSCF        :  34m 2.64s CPU  36m 9.34s WALL


   This run was terminated on:   2:59:39  21Aug2026            

=------------------------------------------------------------------------------=
   JOB DONE.
=------------------------------------------------------------------------------=
