
     Program PWSCF v.7.3.1 starts on 21Aug2026 at  3:55:44 

     This program is part of the open-source Quantum ESPRESSO suite
     for quantum simulation of materials; please cite
         "P. Giannozzi et al., J. Phys.:Condens. Matter 21 395502 (2009);
         "P. Giannozzi et al., J. Phys.:Condens. Matter 29 465901 (2017);
         "P. Giannozzi et al., J. Chem. Phys. 152 154105 (2020);
          URL http://www.quantum-espresso.org", 
     in publications or presentations arising from this work. More details at
     http://www.quantum-espresso.org/quote

     Parallel version (MPI & OpenMP), running on      32 processor cores
     Number of MPI processes:                32
     Threads/MPI process:                     1

     MPI processes distributed on     1 nodes
     135917 MiB available memory on the printing compute node when the environment starts

     Reading input from scf.in

     Current dimensions of program PWSCF are:
     Max number of different atomic species (ntypx) = 10
     Max number of k-points (npk) =  40000
     Max angular momentum in pseudopotentials (lmaxx) =  4
     file Cu.paw.z_11.ld1.psl.v1.0.0-low.upf: wavefunction(s)  4S 3D renormalized

     K-points division:     npool     =       2
     R & G space division:  proc/nbgrp/npool/nimage =      16
     Subspace diagonalization in iterative solution of the eigenvalue problem:
     one sub-group per band group will be used
     scalapack distributed-memory algorithm (size of sub-group:  4*  4 procs)


     Parallelization info
     --------------------
     sticks:   dense  smooth     PW     G-vecs:    dense   smooth      PW
     Min        1193     597    157               163743    57882    7779
     Max        1194     599    158               163747    57885    7784
     Sum       19099    9565   2515              2619931   926125  124485

     Using Slab Decomposition



     bravais-lattice index     =            0
     lattice parameter (alat)  =      24.0273  a.u.
     unit-cell volume          =   14752.0463 (a.u.)^3
     number of atoms/cell      =           96
     number of atomic types    =            4
     number of electrons       =       840.00
     number of Kohn-Sham states=          420
     kinetic-energy cutoff     =      60.0000  Ry
     charge density cutoff     =     480.0000  Ry
     scf convergence threshold =      1.0E-09
     mixing beta               =       0.3000
     number of iterations used =            8  plain     mixing
     Exchange-correlation=  SLA  PW   PBX  PBC
                           (   1   4   3   4   0   0   0)

     celldm(1)=  24.027274  celldm(2)=   0.000000  celldm(3)=   0.000000
     celldm(4)=   0.000000  celldm(5)=   0.000000  celldm(6)=   0.000000

     crystal axes: (cart. coord. in units of alat)
               a(1) = (   1.000000   0.000000   0.000000 )  
               a(2) = (  -0.500000   0.866025   0.000000 )  
               a(3) = (   0.000000   0.000000   1.228028 )  

     reciprocal axes: (cart. coord. in units 2 pi/alat)
               b(1) = (  1.000000  0.577351 -0.000000 )  
               b(2) = (  0.000000  1.154701  0.000000 )  
               b(3) = (  0.000000 -0.000000  0.814314 )  


     PseudoPot. # 1 for Sr read from file:
     /home/yuhansun/pseudos/SSSP-1.3.0-PBE-precision/Sr_pbe_v1.uspp.F.UPF
     MD5 check sum: 6b418c05fbe9db5448babca5e47b7a5b
     Pseudo is Ultrasoft + core correction, Zval = 10.0
     Generated by new atomic code, or converted to UPF format
     Using radial grid of  883 points,  6 beta functions with: 
                l(1) =   0
                l(2) =   0
                l(3) =   1
                l(4) =   1
                l(5) =   2
                l(6) =   2
     Q(r) pseudized with  6 coefficients,  rinner =    1.400   1.400   1.400
                                                       1.400   1.400

     PseudoPot. # 2 for Cu read from file:
     /home/yuhansun/pseudos/SSSP-1.3.0-PBE-precision/Cu.paw.z_11.ld1.psl.v1.0.0-low.upf
     MD5 check sum: 619f40885d92a09a85a8b37550532d0c
     Pseudo is Projector augmented-wave + core cor, Zval = 11.0
     Generated using &quot;atomic&quot; code by A. Dal Corso  v.6.3MaX
     Shape of augmentation charge: PSQ
     Using radial grid of 1199 points,  6 beta functions with: 
                l(1) =   0
                l(2) =   0
                l(3) =   1
                l(4) =   1
                l(5) =   2
                l(6) =   2
     Q(r) pseudized with 0 coefficients 


     PseudoPot. # 3 for Sn read from file:
     /home/yuhansun/pseudos/SSSP-1.3.0-PBE-precision/Sn_pbe_v1.uspp.F.UPF
     MD5 check sum: 4cf58ce39ec5d5d420df3dd08604eb00
     Pseudo is Ultrasoft + core correction, Zval = 14.0
     Generated by new atomic code, or converted to UPF format
     Using radial grid of  891 points,  6 beta functions with: 
                l(1) =   0
                l(2) =   0
                l(3) =   1
                l(4) =   1
                l(5) =   2
                l(6) =   2
     Q(r) pseudized with  6 coefficients,  rinner =    1.200   1.200   1.200
                                                       1.200   1.200

     PseudoPot. # 4 for S  read from file:
     /home/yuhansun/pseudos/SSSP-1.3.0-PBE-precision/s_pbe_v1.4.uspp.F.UPF
     MD5 check sum: 88d86576ff6df21479756cfb9bdac1df
     Pseudo is Ultrasoft + core correction, Zval =  6.0
     Generated by new atomic code, or converted to UPF format
     Using radial grid of  907 points,  6 beta functions with: 
                l(1) =   0
                l(2) =   0
                l(3) =   1
                l(4) =   1
                l(5) =   2
                l(6) =   2
     Q(r) pseudized with  8 coefficients,  rinner =    1.300   1.300   1.300
                                                       1.300   1.300

     atomic species   valence    mass     pseudopotential
     Sr               10.00    87.62000     Sr( 1.00)
     Cu               11.00    63.54600     Cu( 1.00)
     Sn               14.00   118.71000     Sn( 1.00)
     S                 6.00    32.06500     S ( 1.00)

     No symmetry found



   Cartesian axes

     site n.     atom                  positions (alat units)
         1        Sr     tau(   1) = (  -0.1405753   0.2434834   0.2046717  )
         2        Sr     tau(   2) = (   0.3594247   0.2434834   0.2046717  )
         3        Sr     tau(   3) = (  -0.3905753   0.6764960   0.2046717  )
         4        Sr     tau(   4) = (   0.1094247   0.6764960   0.2046717  )
         5        Sr     tau(   5) = (   0.1094247   0.1895292   0.6140139  )
         6        Sr     tau(   6) = (   0.6094247   0.1895292   0.6140139  )
         7        Sr     tau(   7) = (  -0.1405753   0.6225418   0.6140139  )
         8        Sr     tau(   8) = (   0.3594247   0.6225418   0.6140139  )
         9        Sr     tau(   9) = (   0.2811505   0.0000000   1.0233574  )
        10        Sr     tau(  10) = (   0.7811505   0.0000000   1.0233574  )
        11        Sr     tau(  11) = (   0.0311505   0.4330126   1.0233574  )
        12        Sr     tau(  12) = (   0.5311505   0.4330126   1.0233574  )
        13        Cu     tau(  13) = (  -0.1226788   0.2753211   0.5061747  )
        14        Cu     tau(  14) = (   0.3773212   0.2753211   0.5061747  )
        15        Cu     tau(  15) = (  -0.3726788   0.7083337   0.5061747  )
        16        Cu     tau(  16) = (   0.1273212   0.7083337   0.5061747  )
        17        Cu     tau(  17) = (   0.0729045   0.1891087   0.9155169  )
        18        Cu     tau(  18) = (   0.5729045   0.1891087   0.9155169  )
        19        Cu     tau(  19) = (  -0.1770956   0.6221213   0.9155169  )
        20        Cu     tau(  20) = (   0.3229044   0.6221213   0.9155169  )
        21        Cu     tau(  21) = (   0.0497750   0.4015949   0.0968325  )
        22        Cu     tau(  22) = (   0.5497750   0.4015949   0.0968325  )
        23        Cu     tau(  23) = (  -0.2002251   0.8346075   0.0968325  )
        24        Cu     tau(  24) = (   0.2997749   0.8346075   0.0968325  )
        25        Cu     tau(  25) = (   0.2997745   0.0314177   0.7218532  )
        26        Cu     tau(  26) = (   0.7997745   0.0314177   0.7218532  )
        27        Cu     tau(  27) = (   0.0497745   0.4644302   0.7218532  )
        28        Cu     tau(  28) = (   0.5497745   0.4644302   0.7218532  )
        29        Cu     tau(  29) = (   0.1273207   0.1576915   0.3125110  )
        30        Cu     tau(  30) = (   0.6273207   0.1576915   0.3125110  )
        31        Cu     tau(  31) = (  -0.1226793   0.5907041   0.3125110  )
        32        Cu     tau(  32) = (   0.3773207   0.5907041   0.3125110  )
        33        Cu     tau(  33) = (   0.3229040   0.2439039   1.1311954  )
        34        Cu     tau(  34) = (   0.8229040   0.2439039   1.1311954  )
        35        Cu     tau(  35) = (   0.0729039   0.6769164   1.1311954  )
        36        Cu     tau(  36) = (   0.5729039   0.6769164   1.1311954  )
        37        Sn     tau(  37) = (  -0.1762580   0.3052877   0.8186857  )
        38        Sn     tau(  38) = (   0.3237420   0.3052877   0.8186857  )
        39        Sn     tau(  39) = (  -0.4262581   0.7383003   0.8186857  )
        40        Sn     tau(  40) = (   0.0737419   0.7383003   0.8186857  )
        41        Sn     tau(  41) = (   0.0737420   0.1277249   0.0000000  )
        42        Sn     tau(  42) = (   0.5737420   0.1277249   0.0000000  )
        43        Sn     tau(  43) = (  -0.1762581   0.5607374   0.0000000  )
        44        Sn     tau(  44) = (   0.3237419   0.5607374   0.0000000  )
        45        Sn     tau(  45) = (   0.3525160   0.0000000   0.4093422  )
        46        Sn     tau(  46) = (   0.8525160   0.0000000   0.4093422  )
        47        Sn     tau(  47) = (   0.1025160   0.4330126   0.4093422  )
        48        Sn     tau(  48) = (   0.6025160   0.4330126   0.4093422  )
        49        S      tau(  49) = (  -0.0988203   0.2103164   0.9671149  )
        50        S      tau(  50) = (   0.4011797   0.2103164   0.9671149  )
        51        S      tau(  51) = (  -0.3488203   0.6433290   0.9671149  )
        52        S      tau(  52) = (   0.1511797   0.6433290   0.9671149  )
        53        S      tau(  53) = (   0.1172707   0.2422736   0.1484293  )
        54        S      tau(  54) = (   0.6172707   0.2422736   0.1484293  )
        55        S      tau(  55) = (  -0.1327293   0.6752862   0.1484293  )
        56        S      tau(  56) = (   0.3672707   0.6752862   0.1484293  )
        57        S      tau(  57) = (  -0.0184505   0.4134352   0.5577727  )
        58        S      tau(  58) = (   0.4815495   0.4134352   0.5577727  )
        59        S      tau(  59) = (  -0.2684506   0.8464478   0.5577727  )
        60        S      tau(  60) = (   0.2315494   0.8464478   0.5577727  )
        61        S      tau(  61) = (   0.2315495   0.0195774   0.2609129  )
        62        S      tau(  62) = (   0.7315495   0.0195774   0.2609129  )
        63        S      tau(  63) = (  -0.0184505   0.4525899   0.2609129  )
        64        S      tau(  64) = (   0.4815495   0.4525899   0.2609129  )
        65        S      tau(  65) = (   0.1511797   0.2226962   1.0795986  )
        66        S      tau(  66) = (   0.6511797   0.2226962   1.0795986  )
        67        S      tau(  67) = (  -0.0988203   0.6557088   1.0795986  )
        68        S      tau(  68) = (   0.4011797   0.6557088   1.0795986  )
        69        S      tau(  69) = (   0.3672707   0.1907390   0.6702552  )
        70        S      tau(  70) = (   0.8672707   0.1907390   0.6702552  )
        71        S      tau(  71) = (   0.1172707   0.6237516   0.6702552  )
        72        S      tau(  72) = (   0.6172707   0.6237516   0.6702552  )
        73        S      tau(  73) = (  -0.0284012   0.1553638   0.4035914  )
        74        S      tau(  74) = (   0.4703502   0.1532012   0.4035914  )
        75        S      tau(  75) = (  -0.2796498   0.5862137   0.4035914  )
        76        S      tau(  76) = (   0.2203502   0.5862137   0.4035914  )
        77        S      tau(  77) = (   0.1321490   0.3307341   0.8129336  )
        78        S      tau(  78) = (   0.6321490   0.3307341   0.8129336  )
        79        S      tau(  79) = (  -0.1178511   0.7637467   0.8129336  )
        80        S      tau(  80) = (   0.3821489   0.7637467   0.8129336  )
        81        S      tau(  81) = (  -0.1024985   0.3820894   1.2222770  )
        82        S      tau(  82) = (   0.3975015   0.3820894   1.2222770  )
        83        S      tau(  83) = (  -0.3524986   0.8151020   1.2222770  )
        84        S      tau(  84) = (   0.1475014   0.8151020   1.2222770  )
        85        S      tau(  85) = (   0.1475010   0.0509231   0.8244365  )
        86        S      tau(  86) = (   0.6475010   0.0509231   0.8244365  )
        87        S      tau(  87) = (  -0.1024990   0.4839357   0.8244365  )
        88        S      tau(  88) = (   0.3975010   0.4839357   0.8244365  )
        89        S      tau(  89) = (   0.2203497   0.2798114   0.4150943  )
        90        S      tau(  90) = (   0.7203497   0.2798114   0.4150943  )
        91        S      tau(  91) = (  -0.0296503   0.7128240   0.4150943  )
        92        S      tau(  92) = (   0.4703497   0.7128240   0.4150943  )
        93        S      tau(  93) = (   0.3821485   0.1022784   0.0057509  )
        94        S      tau(  94) = (   0.8821485   0.1022784   0.0057509  )
        95        S      tau(  95) = (   0.1321485   0.5352910   0.0057509  )
        96        S      tau(  96) = (   0.6321485   0.5352910   0.0057509  )

     number of k points=    14
                       cart. coord. in units 2pi/alat
        k(    1) = (   0.0000000   0.0000000   0.0000000), wk =   0.0740741
        k(    2) = (   0.0000000   0.0000000   0.2714379), wk =   0.1481481
        k(    3) = (   0.0000000   0.3849003   0.0000000), wk =   0.1481481
        k(    4) = (   0.0000000   0.3849003   0.2714379), wk =   0.1481481
        k(    5) = (   0.3333333   0.5773505   0.0000000), wk =   0.1481481
        k(    6) = (   0.3333333   0.5773505   0.2714379), wk =   0.1481481
        k(    7) = (  -0.3333333   0.1924501   0.0000000), wk =   0.1481481
        k(    8) = (   0.3333333   0.1924502   0.0000000), wk =   0.1481481
        k(    9) = (   0.0000000  -0.3849003   0.2714379), wk =   0.1481481
        k(   10) = (  -0.3333333   0.1924501   0.2714379), wk =   0.1481481
        k(   11) = (   0.3333333   0.1924502   0.2714379), wk =   0.1481481
        k(   12) = (  -0.3333333  -0.1924502   0.2714379), wk =   0.1481481
        k(   13) = (   0.3333333  -0.1924501   0.2714379), wk =   0.1481481
        k(   14) = (  -0.3333333  -0.5773505   0.2714379), wk =   0.1481481

     Dense  grid:  2619931 G-vectors     FFT dimensions: ( 180, 180, 216)

     Smooth grid:   926125 G-vectors     FFT dimensions: ( 120, 120, 150)

     Estimated max dynamical RAM per process >       1.07 GB

     Estimated total dynamical RAM >      33.54 GB

     Initial potential from superposition of free atoms

     starting charge     827.5884, renormalised to     840.0000

     negative rho (up, down):  7.777E-01 0.000E+00
     Starting wfcs are  672 randomized atomic wfcs
     Checking if some PAW data can be deallocated... 

     total cpu time spent up to now is       46.0 secs

     Self-consistent Calculation

     iteration #  1     ecut=    60.00 Ry     beta= 0.30
     Davidson diagonalization with overlap
     ethr =  1.00E-02,  avg # of iterations =  2.0

     negative rho (up, down):  7.747E-01 0.000E+00

     total cpu time spent up to now is      129.9 secs

     total energy              =   -9070.26732195 Ry
     estimated scf accuracy    <      22.03270507 Ry

     iteration #  2     ecut=    60.00 Ry     beta= 0.30
     Davidson diagonalization with overlap
     ethr =  2.62E-03,  avg # of iterations =  4.8

     negative rho (up, down):  7.752E-01 0.000E+00

     total cpu time spent up to now is      233.1 secs

     total energy              =   -9076.61124127 Ry
     estimated scf accuracy    <       8.28345703 Ry

     iteration #  3     ecut=    60.00 Ry     beta= 0.30
     Davidson diagonalization with overlap
     ethr =  9.86E-04,  avg # of iterations =  2.0

     negative rho (up, down):  7.804E-01 0.000E+00

     total cpu time spent up to now is      316.7 secs

     total energy              =   -9076.48433707 Ry
     estimated scf accuracy    <       1.63377927 Ry

     iteration #  4     ecut=    60.00 Ry     beta= 0.30
     Davidson diagonalization with overlap
     ethr =  1.94E-04,  avg # of iterations =  6.0

     negative rho (up, down):  7.829E-01 0.000E+00

     total cpu time spent up to now is      434.2 secs

     total energy              =   -9076.70073941 Ry
     estimated scf accuracy    <       2.08451795 Ry

     iteration #  5     ecut=    60.00 Ry     beta= 0.30
     Davidson diagonalization with overlap
     ethr =  1.94E-04,  avg # of iterations =  4.9

     negative rho (up, down):  7.882E-01 0.000E+00

     total cpu time spent up to now is      525.9 secs

     total energy              =   -9077.13608544 Ry
     estimated scf accuracy    <       0.13934504 Ry

     iteration #  6     ecut=    60.00 Ry     beta= 0.30
     Davidson diagonalization with overlap
     ethr =  1.66E-05,  avg # of iterations =  6.9

     negative rho (up, down):  7.901E-01 0.000E+00

     total cpu time spent up to now is      628.5 secs

     total energy              =   -9077.18467106 Ry
     estimated scf accuracy    <       0.01429766 Ry

     iteration #  7     ecut=    60.00 Ry     beta= 0.30
     Davidson diagonalization with overlap
     ethr =  1.70E-06,  avg # of iterations =  5.4

     negative rho (up, down):  7.907E-01 0.000E+00

     total cpu time spent up to now is      733.9 secs

     total energy              =   -9077.18876348 Ry
     estimated scf accuracy    <       0.00610179 Ry

     iteration #  8     ecut=    60.00 Ry     beta= 0.30
     Davidson diagonalization with overlap
     ethr =  7.26E-07,  avg # of iterations =  6.1

     negative rho (up, down):  7.912E-01 0.000E+00

     total cpu time spent up to now is      860.5 secs

     total energy              =   -9077.17852602 Ry
     estimated scf accuracy    <       0.05144939 Ry

     iteration #  9     ecut=    60.00 Ry     beta= 0.30
     Davidson diagonalization with overlap
     ethr =  7.26E-07,  avg # of iterations =  6.3

     negative rho (up, down):  7.911E-01 0.000E+00

     total cpu time spent up to now is      993.7 secs

     total energy              =   -9077.18743828 Ry
     estimated scf accuracy    <       0.00193390 Ry

     iteration # 10     ecut=    60.00 Ry     beta= 0.30
     Davidson diagonalization with overlap
     ethr =  2.30E-07,  avg # of iterations =  2.9

     negative rho (up, down):  7.908E-01 0.000E+00

     total cpu time spent up to now is     1076.8 secs

     total energy              =   -9077.18732074 Ry
     estimated scf accuracy    <       0.00055859 Ry

     iteration # 11     ecut=    60.00 Ry     beta= 0.30
     Davidson diagonalization with overlap
     ethr =  6.65E-08,  avg # of iterations =  5.4

     negative rho (up, down):  7.905E-01 0.000E+00

     total cpu time spent up to now is     1188.2 secs

     total energy              =   -9077.18750962 Ry
     estimated scf accuracy    <       0.00018646 Ry

     iteration # 12     ecut=    60.00 Ry     beta= 0.30
     Davidson diagonalization with overlap
     ethr =  2.22E-08,  avg # of iterations =  4.1

     negative rho (up, down):  7.904E-01 0.000E+00

     total cpu time spent up to now is     1283.7 secs

     total energy              =   -9077.18753839 Ry
     estimated scf accuracy    <       0.00003148 Ry

     iteration # 13     ecut=    60.00 Ry     beta= 0.30
     Davidson diagonalization with overlap
     ethr =  3.75E-09,  avg # of iterations =  5.3

     negative rho (up, down):  7.903E-01 0.000E+00

     total cpu time spent up to now is     1387.0 secs

     total energy              =   -9077.18754617 Ry
     estimated scf accuracy    <       0.00000951 Ry

     iteration # 14     ecut=    60.00 Ry     beta= 0.30
     Davidson diagonalization with overlap
     ethr =  1.13E-09,  avg # of iterations =  2.7

     negative rho (up, down):  7.902E-01 0.000E+00

     total cpu time spent up to now is     1469.6 secs

     total energy              =   -9077.18754691 Ry
     estimated scf accuracy    <       0.00000353 Ry

     iteration # 15     ecut=    60.00 Ry     beta= 0.30
     Davidson diagonalization with overlap
     ethr =  4.20E-10,  avg # of iterations =  3.9

     negative rho (up, down):  7.902E-01 0.000E+00

     total cpu time spent up to now is     1559.2 secs

     total energy              =   -9077.18754762 Ry
     estimated scf accuracy    <       0.00000042 Ry

     iteration # 16     ecut=    60.00 Ry     beta= 0.30
     Davidson diagonalization with overlap
     ethr =  4.99E-11,  avg # of iterations =  7.0

     negative rho (up, down):  7.902E-01 0.000E+00

     total cpu time spent up to now is     1685.3 secs

     total energy              =   -9077.18754789 Ry
     estimated scf accuracy    <       0.00000020 Ry

     iteration # 17     ecut=    60.00 Ry     beta= 0.30
     Davidson diagonalization with overlap
     ethr =  2.35E-11,  avg # of iterations =  2.0

     negative rho (up, down):  7.902E-01 0.000E+00

     total cpu time spent up to now is     1762.4 secs

     total energy              =   -9077.18754791 Ry
     estimated scf accuracy    <       0.00000006 Ry

     iteration # 18     ecut=    60.00 Ry     beta= 0.30
     Davidson diagonalization with overlap
     ethr =  6.69E-12,  avg # of iterations =  6.9

     negative rho (up, down):  7.902E-01 0.000E+00

     total cpu time spent up to now is     1877.3 secs

     total energy              =   -9077.18754794 Ry
     estimated scf accuracy    <       0.00000002 Ry

     iteration # 19     ecut=    60.00 Ry     beta= 0.30
     Davidson diagonalization with overlap
     ethr =  2.37E-12,  avg # of iterations =  5.1

     negative rho (up, down):  7.902E-01 0.000E+00

     total cpu time spent up to now is     1971.7 secs

     total energy              =   -9077.18754795 Ry
     estimated scf accuracy    <          5.1E-09 Ry

     iteration # 20     ecut=    60.00 Ry     beta= 0.30
     Davidson diagonalization with overlap
     ethr =  6.10E-13,  avg # of iterations =  4.5

     negative rho (up, down):  7.902E-01 0.000E+00

     total cpu time spent up to now is     2070.0 secs

     total energy              =   -9077.18754795 Ry
     estimated scf accuracy    <          2.0E-09 Ry

     iteration # 21     ecut=    60.00 Ry     beta= 0.30
     Davidson diagonalization with overlap
     ethr =  2.41E-13,  avg # of iterations =  5.2

     negative rho (up, down):  7.902E-01 0.000E+00

     total cpu time spent up to now is     2162.9 secs

     End of self-consistent calculation

          k = 0.0000 0.0000 0.0000 (115723 PWs)   bands (ev):

   -28.2770 -28.2768 -28.2767 -28.2758 -28.2756 -28.2754 -28.2753 -28.2752
   -28.2751 -28.2747 -28.2715 -28.2673 -14.9237 -14.9234 -14.9231 -14.9229
   -14.9229 -14.9226 -14.9224 -14.9223 -14.9221 -14.9221 -14.9214 -14.9186
   -14.9178 -14.9175 -14.9172 -14.9170 -14.9170 -14.9167 -14.9165 -14.9164
   -14.9163 -14.9161 -14.9154 -14.9112 -14.9058 -14.9053 -14.9051 -14.9050
   -14.9049 -14.9046 -14.9044 -14.9044 -14.9042 -14.9041 -14.9034 -14.8981
   -14.8656 -14.8651 -14.8650 -14.8648 -14.8647 -14.8644 -14.8642 -14.8642
   -14.8641 -14.8640 -14.8633 -14.8614 -14.8204 -14.8200 -14.8198 -14.8196
   -14.8195 -14.8193 -14.8190 -14.8190 -14.8189 -14.8187 -14.8180 -14.8165
   -10.3388 -10.3384 -10.3382 -10.3368 -10.3366 -10.3364 -10.3353 -10.3345
   -10.3330 -10.3304 -10.3283 -10.3229 -10.3092 -10.3090 -10.3081 -10.3043
   -10.3038 -10.3013 -10.3009 -10.2990 -10.2925 -10.2919 -10.2905 -10.2811
   -10.2706 -10.2705 -10.2697 -10.2650 -10.2646 -10.2641 -10.2624 -10.2620
   -10.2609 -10.2579 -10.2561 -10.2525  -6.8621  -6.5549  -6.5525  -6.4170
    -6.4166  -6.4133  -6.2994  -6.2990  -6.2940  -6.2182  -6.2179  -6.2122
    -5.9906  -5.9900  -5.9885  -5.8495  -5.8494  -5.8480  -5.7968  -5.7962
    -5.7949  -5.7371  -5.7361  -5.6194  -5.6185  -5.6181  -5.6139  -5.6135
    -5.6119  -5.6002  -5.5588  -5.5586  -5.5568  -5.5453  -5.5449  -5.5421
    -5.5174  -5.5164  -5.4316  -5.4288  -5.4287  -5.4282  -5.3728  -5.3708
    -5.3464  -5.3453  -5.3446  -5.2511  -0.6120  -0.6115  -0.6105  -0.3889
    -0.3885  -0.3880  -0.3494  -0.3156  -0.3151  -0.3141  -0.3011  -0.2986
     1.3842   1.3850   1.3864   1.5907   1.5929   1.6546   1.7167   1.7170
     1.7180   1.8033   1.8057   1.8066   2.0196   2.0408   2.0419   2.0838
     2.0847   2.0856   2.2477   2.2483   2.2493   2.3090   2.3115   2.4044
     2.4047   2.4055   2.4602   2.4609   2.4622   2.5483   2.5509   2.6598
     2.6628   2.6631   2.7828   2.7843   2.7856   2.8709   2.8716   2.9248
     2.9254   2.9259   2.9523   2.9537   2.9546   3.0270   3.0274   3.0275
     3.0458   3.0459   3.0494   3.1635   3.2144   3.2148   3.2173   3.2258
     3.2272   3.2548   3.2573   3.2576   3.3758   3.3771   3.3775   3.3920
     3.3932   3.4267   3.4273   3.4274   3.4337   3.4358   3.4362   3.4751
     3.4758   3.4760   3.4926   3.4937   3.4949   3.4954   3.5166   3.5174
     3.5841   3.5846   3.5865   3.6263   3.6266   3.6289   3.6879   3.6881
     3.6899   3.6905   3.6920   3.7049   3.7947   3.7953   3.8245   3.8250
     3.8256   3.9623   4.0188   4.0203   4.0212   4.0353   4.0357   4.0362
     4.1240   4.1246   4.1251   4.1256   4.1721   4.1732   4.1743   4.2002
     4.2085   4.2091   4.2096   4.2432   4.2442   4.2447   4.2811   4.2818
     4.4236   4.4245   4.4249   4.5178   4.5187   4.5189   4.5355   4.5358
     4.6200   4.6211   4.6213   4.8558   5.1233   5.1536   5.1546   5.1549
     5.1726   5.1735   5.1738   5.1762   5.1783   5.2212   5.2252   5.2268
     5.2274   5.2280   5.2290   5.2505   5.2512   5.2514   5.2645   5.2663
     5.2666   5.2756   5.2781   5.2783   5.3094   5.3104   5.3111   5.3117
     5.3119   5.3237   5.3366   5.3369   5.3371   5.3737   5.3748   5.3753
     5.4376   5.4382   5.4704   5.4707   5.4714   5.4735   5.4764   5.4765
     5.4771   5.4977   5.4991   5.5997   5.6009   5.6015   5.6176   5.6179
     5.6182   5.6261   5.6461   5.6468   5.6474   5.6586   5.6594   5.6596
     5.7248   5.7252   5.7443   5.7819   5.7823   5.7837   5.8195   5.8211
     5.8225   5.9019   5.9029   5.9035   5.9262   5.9267   5.9279   5.9950
     5.9960   6.0260   6.0266   6.0274   6.1493   6.1506   6.1512   6.1520
     6.2617   6.2619   6.2624   6.2628   6.2634   6.2638   6.2894   6.2902
     6.3332   6.3344   6.3360   6.3624   6.3627   6.3650   6.3888   6.3894
     6.3907   6.5523   6.5704   6.5712   6.5720   6.6373   6.6380   6.6413
     6.7469   6.7473   6.7494   6.7653   6.7672   6.7800   6.7817   6.7823
     6.8082   6.9647   7.1807   7.1816

          k = 0.0000 0.0000 0.2714 (115879 PWs)   bands (ev):

   -28.2770 -28.2768 -28.2767 -28.2758 -28.2756 -28.2754 -28.2753 -28.2752
   -28.2752 -28.2747 -28.2715 -28.2673 -14.9237 -14.9234 -14.9231 -14.9229
   -14.9229 -14.9226 -14.9224 -14.9223 -14.9221 -14.9221 -14.9214 -14.9186
   -14.9178 -14.9175 -14.9172 -14.9170 -14.9170 -14.9167 -14.9165 -14.9165
   -14.9163 -14.9161 -14.9154 -14.9112 -14.9058 -14.9053 -14.9051 -14.9050
   -14.9049 -14.9046 -14.9044 -14.9044 -14.9042 -14.9041 -14.9034 -14.8981
   -14.8656 -14.8651 -14.8650 -14.8648 -14.8647 -14.8644 -14.8642 -14.8642
   -14.8641 -14.8640 -14.8633 -14.8614 -14.8204 -14.8200 -14.8198 -14.8196
   -14.8195 -14.8193 -14.8190 -14.8190 -14.8189 -14.8187 -14.8180 -14.8165
   -10.3397 -10.3393 -10.3391 -10.3373 -10.3368 -10.3363 -10.3339 -10.3335
   -10.3325 -10.3307 -10.3269 -10.3237 -10.3119 -10.3077 -10.3076 -10.3067
   -10.3018 -10.3015 -10.3001 -10.2938 -10.2937 -10.2928 -10.2906 -10.2835
   -10.2701 -10.2699 -10.2693 -10.2657 -10.2652 -10.2645 -10.2620 -10.2615
   -10.2607 -10.2577 -10.2561 -10.2535  -6.8229  -6.7122  -6.4088  -6.4086
    -6.4082  -6.4031  -6.3041  -6.3036  -6.2989  -6.2304  -6.2303  -6.2247
    -5.9925  -5.9917  -5.9898  -5.8536  -5.8349  -5.8346  -5.8323  -5.7741
    -5.7734  -5.7723  -5.6570  -5.6559  -5.6554  -5.6517  -5.6133  -5.6121
    -5.6119  -5.6100  -5.5565  -5.5523  -5.5518  -5.5503  -5.5452  -5.5447
    -5.5414  -5.4536  -5.4350  -5.4345  -5.4344  -5.4323  -5.3742  -5.3454
    -5.3385  -5.3375  -5.3367  -5.2815  -0.6041  -0.6036  -0.6028  -0.4124
    -0.4119  -0.4112  -0.3469  -0.3313  -0.3010  -0.3005  -0.2993  -0.2731
     1.4087   1.4093   1.4107   1.5697   1.6136   1.6176   1.6188   1.6201
     1.6571   1.9334   1.9352   1.9362   2.0050   2.0464   2.0518   2.0529
     2.0538   2.0684   2.2761   2.2766   2.2778   2.3058   2.3891   2.3897
     2.3902   2.3918   2.4164   2.4169   2.4173   2.4561   2.6194   2.6227
     2.6234   2.6669   2.7182   2.7912   2.7980   2.7983   2.7994   2.8710
     2.8721   2.8735   2.9753   2.9758   2.9765   3.0452   3.0462   3.0477
     3.1060   3.1068   3.1083   3.1746   3.1978   3.2045   3.2050   3.2062
     3.2720   3.2742   3.2749   3.2831   3.3739   3.3828   3.3835   3.3840
     3.4189   3.4196   3.4203   3.4378   3.4399   3.4402   3.4481   3.4486
     3.4495   3.4762   3.4985   3.5174   3.5185   3.5191   3.5374   3.5436
     3.5493   3.5497   3.5515   3.6381   3.6439   3.6447   3.6467   3.6497
     3.6791   3.6803   3.6826   3.7728   3.8290   3.8752   3.8759   3.8761
     3.9075   3.9207   3.9937   3.9946   3.9955   4.0550   4.0556   4.0563
     4.0745   4.1162   4.1173   4.1177   4.1472   4.1482   4.1494   4.1656
     4.1715   4.1716   4.1719   4.2109   4.2498   4.2506   4.2517   4.2675
     4.4207   4.4218   4.4220   4.4832   4.5593   4.5599   4.5604   4.6051
     4.6060   4.6062   4.6764   4.8062   5.1345   5.1462   5.1526   5.1534
     5.1536   5.1630   5.1851   5.1864   5.1867   5.2149   5.2153   5.2163
     5.2167   5.2465   5.2473   5.2478   5.2572   5.2585   5.2589   5.2593
     5.2747   5.2756   5.2767   5.2769   5.3281   5.3291   5.3295   5.3316
     5.3325   5.3344   5.3406   5.3418   5.3421   5.3648   5.3732   5.3739
     5.3742   5.3888   5.4018   5.4188   5.4197   5.4202   5.5254   5.5314
     5.5323   5.5327   5.5817   5.5870   5.5880   5.5883   5.5888   5.6190
     5.6196   5.6203   5.6512   5.6518   5.6523   5.6604   5.6811   5.6816
     5.6819   5.7540   5.7546   5.7562   5.7905   5.7986   5.8161   5.8175
     5.8185   5.8699   5.8825   5.8828   5.8837   5.9879   5.9884   5.9892
     6.0420   6.0425   6.0435   6.0972   6.0977   6.0988   6.1744   6.1907
     6.1918   6.1923   6.2364   6.2684   6.2686   6.2699   6.3250   6.3258
     6.3272   6.3587   6.3598   6.3695   6.3709   6.3721   6.3949   6.4288
     6.4294   6.4313   6.4811   6.6407   6.6411   6.6420   6.6428   6.6436
     6.6467   6.6703   6.7082   6.7091   6.7102   6.7525   6.7529   6.7542
     6.9413   7.0064   7.0948   7.1709

          k = 0.0000 0.3849 0.0000 (115797 PWs)   bands (ev):

   -28.2770 -28.2768 -28.2767 -28.2758 -28.2756 -28.2754 -28.2753 -28.2752
   -28.2751 -28.2747 -28.2715 -28.2673 -14.9237 -14.9233 -14.9231 -14.9229
   -14.9229 -14.9225 -14.9224 -14.9223 -14.9221 -14.9221 -14.9214 -14.9186
   -14.9178 -14.9174 -14.9172 -14.9170 -14.9170 -14.9167 -14.9165 -14.9165
   -14.9163 -14.9162 -14.9154 -14.9112 -14.9058 -14.9053 -14.9052 -14.9050
   -14.9049 -14.9046 -14.9044 -14.9044 -14.9043 -14.9041 -14.9034 -14.8981
   -14.8656 -14.8651 -14.8650 -14.8648 -14.8647 -14.8644 -14.8642 -14.8642
   -14.8641 -14.8640 -14.8633 -14.8614 -14.8204 -14.8200 -14.8198 -14.8196
   -14.8195 -14.8193 -14.8190 -14.8190 -14.8189 -14.8187 -14.8180 -14.8165
   -10.3386 -10.3380 -10.3367 -10.3362 -10.3358 -10.3351 -10.3340 -10.3338
   -10.3327 -10.3310 -10.3291 -10.3248 -10.3074 -10.3071 -10.3062 -10.3040
   -10.3030 -10.3016 -10.3011 -10.2992 -10.2944 -10.2937 -10.2897 -10.2837
   -10.2699 -10.2694 -10.2687 -10.2660 -10.2658 -10.2636 -10.2627 -10.2622
   -10.2620 -10.2594 -10.2576 -10.2539  -6.7870  -6.5892  -6.4994  -6.4955
    -6.4379  -6.4343  -6.3654  -6.3458  -6.2846  -6.2825  -6.2480  -6.2447
    -5.9112  -5.9105  -5.8201  -5.8185  -5.8173  -5.7770  -5.7682  -5.7659
    -5.7318  -5.7236  -5.7226  -5.6903  -5.6890  -5.6467  -5.6382  -5.6367
    -5.6289  -5.5946  -5.5843  -5.5838  -5.5680  -5.5271  -5.5191  -5.5182
    -5.5153  -5.5033  -5.4623  -5.4513  -5.4365  -5.4362  -5.4204  -5.4144
    -5.3490  -5.3474  -5.3133  -5.2705  -0.5710  -0.5705  -0.5616  -0.4339
    -0.4038  -0.4036  -0.3769  -0.3378  -0.3371  -0.3344  -0.3125  -0.3033
     1.4186   1.4870   1.4892   1.5014   1.6388   1.6517   1.6860   1.7231
     1.7252   1.8284   1.8765   1.8777   1.9529   1.9559   1.9567   2.0274
     2.1158   2.2075   2.2298   2.2305   2.3391   2.3641   2.3860   2.3874
     2.3937   2.4096   2.4497   2.5374   2.5387   2.6123   2.6134   2.6182
     2.6568   2.7362   2.8131   2.8151   2.8225   2.8407   2.8417   2.8441
     2.8545   2.8845   2.9079   2.9087   2.9152   2.9618   2.9623   3.0045
     3.0504   3.0565   3.0570   3.1239   3.1469   3.1748   3.2041   3.2118
     3.2119   3.2337   3.2592   3.2610   3.2687   3.3233   3.3293   3.3306
     3.3386   3.3719   3.3948   3.3953   3.4326   3.4400   3.4412   3.4492
     3.4963   3.4977   3.5000   3.5090   3.5104   3.5137   3.5218   3.5428
     3.5607   3.6046   3.6053   3.6097   3.6336   3.6451   3.6790   3.6797
     3.6936   3.7011   3.7040   3.7079   3.7771   3.7790   3.8489   3.8595
     3.8952   3.9741   3.9744   3.9773   3.9800   4.0297   4.0380   4.0385
     4.0924   4.1116   4.1191   4.1211   4.1255   4.1624   4.1626   4.1768
     4.2476   4.2660   4.2672   4.2826   4.3028   4.3227   4.3233   4.3679
     4.3782   4.4152   4.4166   4.4832   4.5178   4.5277   4.5284   4.5293
     4.5910   4.5915   4.6270   4.7482   5.1431   5.1435   5.1453   5.1520
     5.1591   5.1597   5.1684   5.1741   5.2141   5.2183   5.2188   5.2201
     5.2263   5.2361   5.2479   5.2483   5.2489   5.2601   5.2668   5.2710
     5.2713   5.2881   5.3028   5.3036   5.3134   5.3177   5.3259   5.3269
     5.3361   5.3490   5.3515   5.3520   5.3559   5.3644   5.4129   5.4135
     5.4328   5.4498   5.4600   5.4609   5.4850   5.4926   5.4997   5.5003
     5.5020   5.5121   5.5264   5.5431   5.5556   5.5565   5.5605   5.6020
     5.6032   5.6300   5.6307   5.6316   5.6674   5.6777   5.6952   5.6956
     5.6967   5.7172   5.7292   5.7554   5.7745   5.7755   5.8087   5.8174
     5.8195   5.8636   5.8745   5.8767   5.9505   5.9515   5.9647   5.9654
     5.9898   6.0058   6.0070   6.0196   6.1381   6.1399   6.1441   6.1602
     6.2249   6.2295   6.2302   6.2510   6.2702   6.2890   6.2897   6.2991
     6.3620   6.3626   6.3776   6.3893   6.3905   6.4414   6.4847   6.4872
     6.5240   6.5376   6.5384   6.5757   6.6043   6.6508   6.6853   6.6918
     6.6934   6.7307   6.7367   6.7392   6.7628   6.7780   6.7935   6.8113
     6.8131   6.9047   6.9093   7.0813

          k = 0.0000 0.3849 0.2714 (115773 PWs)   bands (ev):

   -28.2770 -28.2768 -28.2767 -28.2758 -28.2756 -28.2754 -28.2753 -28.2752
   -28.2751 -28.2747 -28.2715 -28.2673 -14.9237 -14.9233 -14.9231 -14.9229
   -14.9229 -14.9225 -14.9224 -14.9223 -14.9221 -14.9221 -14.9214 -14.9186
   -14.9178 -14.9174 -14.9172 -14.9170 -14.9170 -14.9167 -14.9165 -14.9165
   -14.9163 -14.9161 -14.9154 -14.9112 -14.9058 -14.9053 -14.9052 -14.9050
   -14.9049 -14.9046 -14.9044 -14.9044 -14.9043 -14.9041 -14.9034 -14.8981
   -14.8656 -14.8651 -14.8650 -14.8648 -14.8647 -14.8644 -14.8642 -14.8642
   -14.8641 -14.8640 -14.8633 -14.8614 -14.8204 -14.8200 -14.8198 -14.8196
   -14.8195 -14.8193 -14.8190 -14.8190 -14.8189 -14.8187 -14.8180 -14.8165
   -10.3393 -10.3388 -10.3379 -10.3366 -10.3362 -10.3344 -10.3337 -10.3328
   -10.3320 -10.3309 -10.3284 -10.3251 -10.3103 -10.3068 -10.3065 -10.3051
   -10.3013 -10.3002 -10.2994 -10.2962 -10.2958 -10.2931 -10.2902 -10.2859
   -10.2700 -10.2693 -10.2682 -10.2661 -10.2659 -10.2639 -10.2624 -10.2619
   -10.2615 -10.2600 -10.2574 -10.2548  -6.7499  -6.6455  -6.5600  -6.4708
    -6.4221  -6.4182  -6.3623  -6.3285  -6.3267  -6.2568  -6.2241  -6.2210
    -5.9050  -5.9039  -5.8229  -5.8215  -5.8079  -5.8071  -5.7921  -5.7607
    -5.7587  -5.7318  -5.7103  -5.7097  -5.6716  -5.6350  -5.6289  -5.6275
    -5.6255  -5.6080  -5.5997  -5.5994  -5.5682  -5.5273  -5.5224  -5.5210
    -5.5204  -5.4938  -5.4676  -5.4325  -5.4285  -5.4283  -5.4227  -5.3628
    -5.3487  -5.3468  -5.3221  -5.2998  -0.5593  -0.5587  -0.5579  -0.4356
    -0.4350  -0.4230  -0.3937  -0.3731  -0.3182  -0.3173  -0.2990  -0.2787
     1.4334   1.4851   1.4865   1.4880   1.6247   1.6404   1.7714   1.7743
     1.7809   1.7898   1.8002   1.8013   1.9146   1.9959   1.9963   2.0759
     2.1555   2.2005   2.2114   2.2481   2.2489   2.3600   2.3929   2.3940
     2.3991   2.4491   2.5119   2.5123   2.5474   2.5891   2.5914   2.6074
     2.6439   2.7107   2.7615   2.7683   2.7698   2.7896   2.8090   2.8106
     2.8392   2.8748   2.9156   2.9160   2.9187   2.9820   3.0230   3.0241
     3.0686   3.1063   3.1068   3.1313   3.1705   3.1923   3.1929   3.1947
     3.2001   3.2315   3.2629   3.2646   3.2757   3.3168   3.3202   3.3217
     3.3237   3.3889   3.3894   3.4098   3.4450   3.4454   3.4674   3.4691
     3.4716   3.4728   3.4755   3.4768   3.5331   3.5351   3.5360   3.5896
     3.6100   3.6111   3.6130   3.6326   3.6414   3.6470   3.6584   3.6595
     3.6669   3.7093   3.7111   3.7119   3.8348   3.8353   3.8794   3.8882
     3.9034   3.9491   3.9500   3.9746   3.9814   4.0194   4.0469   4.0487
     4.0496   4.0655   4.1098   4.1109   4.1196   4.1321   4.1332   4.1473
     4.1903   4.2553   4.2655   4.2674   4.2880   4.2891   4.2942   4.3870
     4.3972   4.4374   4.4381   4.4674   4.5247   4.5251   4.5355   4.5960
     4.6105   4.6114   4.6223   4.7209   5.1504   5.1506   5.1531   5.1547
     5.1697   5.1742   5.1747   5.1824   5.1893   5.1964   5.2006   5.2069
     5.2075   5.2333   5.2342   5.2347   5.2536   5.2623   5.2644   5.2652
     5.2782   5.2972   5.3068   5.3117   5.3121   5.3277   5.3349   5.3357
     5.3569   5.3578   5.3591   5.3627   5.3792   5.3912   5.4064   5.4067
     5.4120   5.4312   5.4326   5.4441   5.4448   5.4918   5.5010   5.5021
     5.5081   5.5148   5.5529   5.5593   5.5733   5.5745   5.6021   5.6103
     5.6112   5.6180   5.6237   5.6255   5.6426   5.6696   5.6813   5.7138
     5.7146   5.7165   5.7336   5.7718   5.7726   5.7730   5.8005   5.8026
     5.8096   5.8579   5.8738   5.8765   5.8784   5.9145   5.9589   5.9596
     6.0335   6.0343   6.0346   6.0592   6.0780   6.0794   6.1727   6.2063
     6.2126   6.2139   6.2667   6.2670   6.2689   6.2769   6.2853   6.3482
     6.3495   6.3653   6.3728   6.4152   6.4243   6.4256   6.4269   6.4711
     6.4971   6.4989   6.5457   6.5599   6.5956   6.5963   6.6660   6.6678
     6.6767   6.7201   6.7349   6.7375   6.7492   6.8130   6.8139   6.8449
     6.8690   6.9290   6.9374   7.0528

          k = 0.3333 0.5774 0.0000 (115752 PWs)   bands (ev):

   -28.2770 -28.2768 -28.2767 -28.2758 -28.2756 -28.2754 -28.2753 -28.2752
   -28.2751 -28.2747 -28.2715 -28.2673 -14.9237 -14.9233 -14.9231 -14.9229
   -14.9228 -14.9226 -14.9223 -14.9223 -14.9222 -14.9221 -14.9214 -14.9186
   -14.9178 -14.9174 -14.9172 -14.9171 -14.9169 -14.9167 -14.9165 -14.9164
   -14.9163 -14.9162 -14.9154 -14.9112 -14.9058 -14.9053 -14.9052 -14.9050
   -14.9049 -14.9046 -14.9044 -14.9044 -14.9043 -14.9041 -14.9034 -14.8981
   -14.8656 -14.8651 -14.8650 -14.8648 -14.8647 -14.8644 -14.8642 -14.8642
   -14.8641 -14.8640 -14.8633 -14.8614 -14.8204 -14.8200 -14.8198 -14.8196
   -14.8195 -14.8193 -14.8190 -14.8190 -14.8189 -14.8187 -14.8180 -14.8165
   -10.3389 -10.3364 -10.3362 -10.3358 -10.3352 -10.3350 -10.3347 -10.3338
   -10.3316 -10.3309 -10.3295 -10.3261 -10.3073 -10.3056 -10.3049 -10.3038
   -10.3022 -10.3020 -10.3010 -10.2996 -10.2976 -10.2905 -10.2897 -10.2868
   -10.2698 -10.2675 -10.2673 -10.2667 -10.2658 -10.2652 -10.2645 -10.2635
   -10.2613 -10.2592 -10.2580 -10.2550  -6.6505  -6.6503  -6.6469  -6.3990
    -6.3989  -6.3987  -6.3985  -6.3981  -6.3899  -6.2924  -6.2891  -6.1906
    -5.8652  -5.8514  -5.8494  -5.7495  -5.7486  -5.7475  -5.7324  -5.7319
    -5.7304  -5.7081  -5.7069  -5.6948  -5.6944  -5.6923  -5.6851  -5.6845
    -5.6824  -5.6448  -5.5417  -5.5410  -5.5384  -5.5293  -5.5290  -5.5259
    -5.5116  -5.4720  -5.4716  -5.4695  -5.4668  -5.4663  -5.4658  -5.3970
    -5.3967  -5.3026  -5.3018  -5.3007  -0.5440  -0.5146  -0.5140  -0.5124
    -0.3961  -0.3954  -0.3902  -0.3899  -0.3889  -0.3098  -0.3096  -0.3070
     1.4833   1.4841   1.4857   1.6735   1.6752   1.6766   1.6847   1.6863
     1.6868   1.7337   1.7355   1.7990   2.0790   2.0817   2.0822   2.0827
     2.0844   2.1439   2.1446   2.1458   2.2555   2.3970   2.3976   2.3986
     2.4941   2.4945   2.4961   2.5632   2.5643   2.5655   2.5973   2.5990
     2.7736   2.7744   2.7751   2.8372   2.8376   2.8433   2.8442   2.8466
     2.8500   2.8524   2.8530   2.8538   2.8677   3.0085   3.0099   3.0109
     3.0250   3.0256   3.0264   3.0621   3.1329   3.1339   3.1342   3.1953
     3.1969   3.1975   3.2574   3.2595   3.2596   3.2698   3.2708   3.3608
     3.3695   3.3718   3.3721   3.3729   3.4241   3.4249   3.4263   3.4860
     3.4870   3.5016   3.5021   3.5029   3.5290   3.5293   3.5301   3.5465
     3.5477   3.5775   3.5795   3.5800   3.6497   3.6503   3.6508   3.7183
     3.7202   3.7210   3.7270   3.7288   3.7558   3.8003   3.8013   3.8017
     3.9577   3.9589   3.9596   3.9860   3.9867   4.0287   4.0298   4.0309
     4.0839   4.0845   4.0854   4.1402   4.1498   4.1507   4.1512   4.2846
     4.2854   4.2938   4.3184   4.3191   4.3197   4.3203   4.3207   4.3223
     4.3856   4.3866   4.3872   4.4970   4.5139   4.5151   4.5196   4.5205
     4.5221   4.6538   4.6546   4.6551   5.1366   5.1425   5.1429   5.1436
     5.1720   5.1725   5.1867   5.1871   5.1876   5.1954   5.1960   5.1964
     5.2454   5.2463   5.2470   5.2645   5.2649   5.2655   5.2966   5.2980
     5.2984   5.2999   5.3019   5.3023   5.3127   5.3174   5.3182   5.3188
     5.3395   5.3396   5.3400   5.4009   5.4022   5.4034   5.4071   5.4079
     5.4544   5.4549   5.4554   5.4571   5.4820   5.4827   5.4836   5.4878
     5.4880   5.5341   5.5350   5.5356   5.5633   5.5639   5.5644   5.5698
     5.5701   5.5715   5.6407   5.6712   5.6720   5.6944   5.6947   5.6949
     5.7061   5.7067   5.7080   5.7793   5.7798   5.7804   5.7982   5.7990
     5.7996   5.8233   5.8245   5.8437   5.9305   5.9306   5.9327   6.0457
     6.0463   6.0469   6.0478   6.0481   6.1379   6.1383   6.1388   6.1582
     6.2178   6.2189   6.2196   6.2596   6.2598   6.2613   6.2837   6.2844
     6.3750   6.4098   6.4105   6.4109   6.4168   6.4171   6.4227   6.4516
     6.4528   6.4533   6.6144   6.6160   6.6169   6.6749   6.6764   6.6772
     6.7250   6.7407   6.7418   6.8053   6.8060   6.8077   6.8104   6.8110
     6.8123   6.9387   6.9398   6.9412

          k = 0.3333 0.5774 0.2714 (115827 PWs)   bands (ev):

   -28.2770 -28.2768 -28.2767 -28.2758 -28.2756 -28.2754 -28.2753 -28.2752
   -28.2751 -28.2747 -28.2715 -28.2673 -14.9237 -14.9233 -14.9231 -14.9229
   -14.9228 -14.9226 -14.9223 -14.9223 -14.9222 -14.9221 -14.9214 -14.9186
   -14.9178 -14.9174 -14.9172 -14.9171 -14.9169 -14.9167 -14.9165 -14.9164
   -14.9163 -14.9162 -14.9154 -14.9112 -14.9058 -14.9053 -14.9052 -14.9050
   -14.9049 -14.9046 -14.9044 -14.9044 -14.9043 -14.9041 -14.9034 -14.8981
   -14.8656 -14.8651 -14.8650 -14.8648 -14.8647 -14.8644 -14.8642 -14.8642
   -14.8641 -14.8640 -14.8633 -14.8614 -14.8204 -14.8200 -14.8198 -14.8196
   -14.8195 -14.8193 -14.8190 -14.8190 -14.8189 -14.8187 -14.8180 -14.8165
   -10.3391 -10.3382 -10.3373 -10.3366 -10.3351 -10.3341 -10.3334 -10.3330
   -10.3312 -10.3305 -10.3297 -10.3260 -10.3084 -10.3077 -10.3066 -10.3041
   -10.3011 -10.3005 -10.2978 -10.2972 -10.2950 -10.2921 -10.2916 -10.2882
   -10.2698 -10.2688 -10.2670 -10.2664 -10.2649 -10.2646 -10.2638 -10.2636
   -10.2611 -10.2598 -10.2586 -10.2556  -6.6183  -6.6181  -6.6148  -6.5249
    -6.5245  -6.5208  -6.3070  -6.2893  -6.2888  -6.2836  -6.2562  -6.2120
    -5.8749  -5.8581  -5.8436  -5.7801  -5.7794  -5.7785  -5.7429  -5.7421
    -5.7403  -5.7144  -5.6885  -5.6879  -5.6861  -5.6731  -5.6720  -5.6717
    -5.6694  -5.6428  -5.5570  -5.5562  -5.5528  -5.5253  -5.5245  -5.5218
    -5.5051  -5.5033  -5.5027  -5.4992  -5.4586  -5.3984  -5.3979  -5.3969
    -5.3580  -5.3236  -5.3227  -5.3215  -0.5199  -0.5055  -0.5052  -0.5037
    -0.4609  -0.4172  -0.4165  -0.4150  -0.3547  -0.2928  -0.2925  -0.2903
     1.4812   1.4821   1.4838   1.6369   1.6383   1.6394   1.6907   1.7745
     1.7757   1.7763   1.7786   1.7938   1.9798   1.9816   1.9821   2.0547
     2.1703   2.1928   2.1931   2.1949   2.2469   2.3972   2.3976   2.3992
     2.4890   2.4892   2.4910   2.5579   2.5877   2.5880   2.5891   2.5935
     2.6794   2.7361   2.7373   2.7391   2.8226   2.8234   2.8239   2.8282
     2.9009   2.9024   2.9037   2.9242   2.9364   2.9544   2.9559   2.9562
     3.0588   3.0598   3.0605   3.0876   3.0883   3.0888   3.1270   3.1805
     3.2432   3.2444   3.2448   3.2683   3.2705   3.2711   3.3207   3.3268
     3.3276   3.3282   3.3733   3.4067   3.4202   3.4646   3.4650   3.4657
     3.4914   3.4982   3.4992   3.4998   3.5362   3.5368   3.5375   3.5399
     3.5600   3.6141   3.6159   3.6163   3.6537   3.6545   3.6552   3.6965
     3.6977   3.6984   3.7202   3.7426   3.8206   3.8402   3.8406   3.8411
     3.9376   3.9395   3.9406   3.9414   4.0283   4.0296   4.0304   4.0396
     4.0664   4.0678   4.0681   4.1085   4.1134   4.1139   4.1148   4.1678
     4.2722   4.2735   4.2737   4.2894   4.3145   4.3608   4.3615   4.3631
     4.4156   4.4169   4.4172   4.4926   4.4933   4.4943   4.5079   4.5121
     4.5636   4.6665   4.6669   4.6679   5.1478   5.1553   5.1561   5.1567
     5.1569   5.1809   5.1821   5.1823   5.1965   5.1973   5.1978   5.2101
     5.2237   5.2244   5.2247   5.2505   5.2514   5.2518   5.2556   5.2674
     5.3001   5.3010   5.3017   5.3087   5.3280   5.3284   5.3289   5.3672
     5.3675   5.3680   5.3739   5.3924   5.3946   5.4079   5.4087   5.4092
     5.4317   5.4326   5.4336   5.4378   5.4830   5.4841   5.4843   5.4903
     5.5380   5.5385   5.5391   5.5431   5.5653   5.5660   5.5667   5.6048
     5.6055   5.6059   5.6371   5.6386   5.6713   5.6721   5.6730   5.7028
     5.7031   5.7039   5.7167   5.7588   5.7591   5.7595   5.8008   5.8080
     5.8202   5.8232   5.8234   5.8245   5.8899   5.8900   5.8918   6.0566
     6.0596   6.0602   6.0610   6.0768   6.1191   6.1198   6.1206   6.1345
     6.1951   6.2372   6.2384   6.2393   6.2838   6.3017   6.3024   6.3031
     6.3063   6.3848   6.3855   6.3864   6.4504   6.4674   6.4678   6.4690
     6.4920   6.4928   6.5585   6.5593   6.5615   6.6460   6.6846   6.6855
     6.6861   6.7601   6.7775   6.7784   6.7802   6.7935   6.8540   6.8550
     6.8567   6.9355   6.9361   6.9384

          k =-0.3333 0.1925 0.0000 (115797 PWs)   bands (ev):

   -28.2770 -28.2768 -28.2767 -28.2758 -28.2756 -28.2754 -28.2753 -28.2752
   -28.2751 -28.2747 -28.2715 -28.2673 -14.9237 -14.9233 -14.9231 -14.9229
   -14.9228 -14.9226 -14.9223 -14.9223 -14.9221 -14.9221 -14.9214 -14.9186
   -14.9178 -14.9174 -14.9173 -14.9171 -14.9169 -14.9168 -14.9165 -14.9164
   -14.9163 -14.9162 -14.9154 -14.9112 -14.9058 -14.9053 -14.9052 -14.9050
   -14.9049 -14.9046 -14.9044 -14.9044 -14.9043 -14.9041 -14.9034 -14.8981
   -14.8656 -14.8651 -14.8650 -14.8648 -14.8647 -14.8644 -14.8642 -14.8642
   -14.8641 -14.8640 -14.8633 -14.8614 -14.8204 -14.8200 -14.8198 -14.8196
   -14.8195 -14.8193 -14.8190 -14.8190 -14.8189 -14.8187 -14.8180 -14.8165
   -10.3382 -10.3380 -10.3371 -10.3367 -10.3359 -10.3350 -10.3342 -10.3336
   -10.3323 -10.3313 -10.3288 -10.3248 -10.3074 -10.3073 -10.3058 -10.3042
   -10.3029 -10.3019 -10.3011 -10.2997 -10.2943 -10.2925 -10.2900 -10.2841
   -10.2698 -10.2695 -10.2683 -10.2667 -10.2661 -10.2636 -10.2630 -10.2621
   -10.2605 -10.2593 -10.2580 -10.2544  -6.7868  -6.5885  -6.4985  -6.4963
    -6.4384  -6.4364  -6.3635  -6.3481  -6.2850  -6.2806  -6.2482  -6.2438
    -5.9110  -5.9099  -5.8201  -5.8187  -5.8159  -5.7770  -5.7680  -5.7670
    -5.7315  -5.7238  -5.7229  -5.6904  -5.6896  -5.6479  -5.6381  -5.6376
    -5.6294  -5.5956  -5.5842  -5.5832  -5.5661  -5.5262  -5.5190  -5.5185
    -5.5155  -5.5039  -5.4606  -5.4514  -5.4366  -5.4364  -5.4219  -5.4138
    -5.3484  -5.3481  -5.3132  -5.2705  -0.5714  -0.5698  -0.5619  -0.4349
    -0.4039  -0.4026  -0.3767  -0.3380  -0.3378  -0.3364  -0.3114  -0.3013
     1.4197   1.4870   1.4877   1.5009   1.6395   1.6505   1.6885   1.7225
     1.7242   1.8274   1.8764   1.8777   1.9541   1.9552   1.9572   2.0285
     2.1152   2.2067   2.2303   2.2311   2.3396   2.3647   2.3856   2.3866
     2.3930   2.4091   2.4500   2.5376   2.5389   2.6126   2.6137   2.6170
     2.6582   2.7336   2.8126   2.8135   2.8204   2.8416   2.8431   2.8437
     2.8539   2.8846   2.9080   2.9103   2.9152   2.9618   2.9666   3.0032
     3.0499   3.0564   3.0571   3.1235   3.1477   3.1744   3.2032   3.2112
     3.2124   3.2334   3.2593   3.2609   3.2684   3.3226   3.3292   3.3306
     3.3382   3.3719   3.3946   3.3968   3.4336   3.4395   3.4413   3.4495
     3.4962   3.4981   3.4996   3.5102   3.5108   3.5134   3.5218   3.5426
     3.5608   3.6038   3.6051   3.6101   3.6343   3.6461   3.6790   3.6813
     3.6941   3.7024   3.7030   3.7073   3.7775   3.7791   3.8486   3.8587
     3.8951   3.9729   3.9737   3.9777   3.9796   4.0294   4.0381   4.0386
     4.0921   4.1118   4.1201   4.1211   4.1251   4.1621   4.1629   4.1767
     4.2480   4.2664   4.2674   4.2825   4.3029   4.3225   4.3228   4.3686
     4.3779   4.4163   4.4167   4.4837   4.5178   4.5274   4.5280   4.5295
     4.5904   4.5914   4.6262   4.7477   5.1415   5.1432   5.1459   5.1536
     5.1594   5.1598   5.1689   5.1733   5.2136   5.2170   5.2187   5.2209
     5.2270   5.2365   5.2475   5.2485   5.2490   5.2598   5.2668   5.2703
     5.2713   5.2883   5.3031   5.3039   5.3132   5.3180   5.3257   5.3269
     5.3358   5.3488   5.3518   5.3526   5.3563   5.3645   5.4119   5.4133
     5.4329   5.4509   5.4609   5.4612   5.4847   5.4930   5.4990   5.5001
     5.5021   5.5117   5.5269   5.5423   5.5552   5.5565   5.5606   5.6018
     5.6033   5.6300   5.6304   5.6310   5.6679   5.6785   5.6946   5.6958
     5.6967   5.7170   5.7288   5.7555   5.7748   5.7753   5.8089   5.8187
     5.8191   5.8628   5.8749   5.8754   5.9503   5.9521   5.9643   5.9645
     5.9899   6.0061   6.0067   6.0199   6.1386   6.1397   6.1444   6.1602
     6.2250   6.2289   6.2308   6.2505   6.2704   6.2885   6.2899   6.2993
     6.3611   6.3627   6.3776   6.3896   6.3902   6.4410   6.4856   6.4866
     6.5244   6.5372   6.5386   6.5753   6.6049   6.6506   6.6836   6.6926
     6.6946   6.7300   6.7374   6.7392   6.7627   6.7779   6.7932   6.8119
     6.8126   6.9050   6.9092   7.0817

          k = 0.3333 0.1925 0.0000 (115797 PWs)   bands (ev):

   -28.2770 -28.2768 -28.2767 -28.2758 -28.2756 -28.2754 -28.2753 -28.2752
   -28.2751 -28.2747 -28.2715 -28.2673 -14.9237 -14.9233 -14.9230 -14.9229
   -14.9228 -14.9226 -14.9223 -14.9223 -14.9222 -14.9221 -14.9214 -14.9186
   -14.9178 -14.9174 -14.9172 -14.9171 -14.9169 -14.9168 -14.9165 -14.9164
   -14.9163 -14.9161 -14.9154 -14.9112 -14.9058 -14.9053 -14.9051 -14.9050
   -14.9049 -14.9046 -14.9044 -14.9044 -14.9043 -14.9041 -14.9034 -14.8981
   -14.8656 -14.8651 -14.8650 -14.8648 -14.8647 -14.8644 -14.8642 -14.8642
   -14.8641 -14.8640 -14.8633 -14.8614 -14.8204 -14.8200 -14.8198 -14.8196
   -14.8195 -14.8193 -14.8190 -14.8190 -14.8189 -14.8187 -14.8180 -14.8165
   -10.3385 -10.3380 -10.3368 -10.3363 -10.3359 -10.3351 -10.3342 -10.3336
   -10.3324 -10.3313 -10.3290 -10.3248 -10.3076 -10.3069 -10.3060 -10.3039
   -10.3033 -10.3018 -10.3014 -10.2988 -10.2947 -10.2934 -10.2896 -10.2839
   -10.2698 -10.2694 -10.2688 -10.2665 -10.2656 -10.2636 -10.2628 -10.2625
   -10.2608 -10.2598 -10.2578 -10.2539  -6.7869  -6.5887  -6.4985  -6.4963
    -6.4381  -6.4359  -6.3633  -6.3481  -6.2848  -6.2812  -6.2483  -6.2440
    -5.9114  -5.9110  -5.8197  -5.8188  -5.8178  -5.7768  -5.7680  -5.7669
    -5.7313  -5.7240  -5.7211  -5.6900  -5.6889  -5.6474  -5.6380  -5.6366
    -5.6286  -5.5948  -5.5843  -5.5821  -5.5678  -5.5280  -5.5190  -5.5176
    -5.5164  -5.5041  -5.4613  -5.4514  -5.4367  -5.4360  -5.4218  -5.4141
    -5.3483  -5.3477  -5.3135  -5.2705  -0.5711  -0.5708  -0.5615  -0.4346
    -0.4039  -0.4033  -0.3764  -0.3377  -0.3375  -0.3360  -0.3116  -0.3016
     1.4182   1.4875   1.4892   1.5000   1.6399   1.6507   1.6890   1.7232
     1.7247   1.8284   1.8755   1.8773   1.9538   1.9552   1.9564   2.0281
     2.1156   2.2073   2.2295   2.2308   2.3394   2.3646   2.3861   2.3872
     2.3934   2.4088   2.4504   2.5377   2.5380   2.6123   2.6132   2.6183
     2.6584   2.7340   2.8130   2.8141   2.8216   2.8412   2.8425   2.8440
     2.8544   2.8845   2.9081   2.9091   2.9159   2.9617   2.9622   3.0033
     3.0500   3.0564   3.0572   3.1234   3.1478   3.1749   3.2028   3.2105
     3.2122   3.2335   3.2603   3.2611   3.2678   3.3225   3.3300   3.3304
     3.3387   3.3711   3.3940   3.3948   3.4337   3.4396   3.4409   3.4486
     3.4975   3.4980   3.4995   3.5105   3.5113   3.5126   3.5223   3.5423
     3.5615   3.6048   3.6061   3.6105   3.6336   3.6464   3.6787   3.6795
     3.6920   3.7026   3.7034   3.7072   3.7785   3.7789   3.8482   3.8588
     3.8960   3.9722   3.9744   3.9781   3.9796   4.0291   4.0383   4.0391
     4.0925   4.1116   4.1198   4.1214   4.1251   4.1625   4.1639   4.1767
     4.2477   4.2671   4.2673   4.2824   4.3029   4.3223   4.3242   4.3675
     4.3782   4.4164   4.4170   4.4833   4.5172   4.5275   4.5280   4.5287
     4.5904   4.5911   4.6263   4.7479   5.1423   5.1431   5.1459   5.1540
     5.1594   5.1598   5.1684   5.1729   5.2133   5.2181   5.2188   5.2208
     5.2272   5.2366   5.2477   5.2481   5.2495   5.2602   5.2662   5.2703
     5.2713   5.2883   5.3031   5.3039   5.3124   5.3176   5.3265   5.3271
     5.3359   5.3487   5.3520   5.3520   5.3566   5.3648   5.4129   5.4136
     5.4327   5.4500   5.4602   5.4606   5.4849   5.4926   5.4986   5.5004
     5.5015   5.5119   5.5274   5.5439   5.5559   5.5567   5.5597   5.6028
     5.6031   5.6299   5.6309   5.6317   5.6674   5.6772   5.6939   5.6954
     5.6962   5.7174   5.7297   5.7557   5.7743   5.7753   5.8085   5.8185
     5.8198   5.8628   5.8749   5.8758   5.9502   5.9511   5.9644   5.9655
     5.9895   6.0063   6.0072   6.0202   6.1385   6.1393   6.1446   6.1600
     6.2249   6.2286   6.2300   6.2510   6.2705   6.2884   6.2896   6.2989
     6.3616   6.3618   6.3772   6.3896   6.3905   6.4414   6.4861   6.4879
     6.5241   6.5376   6.5385   6.5762   6.6047   6.6511   6.6838   6.6922
     6.6943   6.7303   6.7372   6.7386   6.7631   6.7775   6.7927   6.8118
     6.8136   6.9039   6.9094   7.0809

          k = 0.0000-0.3849 0.2714 (115773 PWs)   bands (ev):

   -28.2770 -28.2768 -28.2767 -28.2758 -28.2756 -28.2754 -28.2753 -28.2752
   -28.2751 -28.2747 -28.2715 -28.2673 -14.9237 -14.9233 -14.9231 -14.9229
   -14.9229 -14.9225 -14.9224 -14.9223 -14.9221 -14.9221 -14.9214 -14.9186
   -14.9178 -14.9174 -14.9172 -14.9170 -14.9170 -14.9167 -14.9165 -14.9165
   -14.9163 -14.9161 -14.9154 -14.9112 -14.9058 -14.9053 -14.9052 -14.9050
   -14.9049 -14.9046 -14.9044 -14.9044 -14.9043 -14.9041 -14.9034 -14.8981
   -14.8656 -14.8651 -14.8650 -14.8648 -14.8647 -14.8644 -14.8642 -14.8642
   -14.8641 -14.8640 -14.8633 -14.8614 -14.8204 -14.8200 -14.8198 -14.8196
   -14.8195 -14.8193 -14.8190 -14.8190 -14.8189 -14.8187 -14.8180 -14.8165
   -10.3394 -10.3389 -10.3379 -10.3364 -10.3360 -10.3347 -10.3336 -10.3330
   -10.3319 -10.3307 -10.3285 -10.3252 -10.3101 -10.3076 -10.3055 -10.3048
   -10.3024 -10.3016 -10.2973 -10.2955 -10.2952 -10.2936 -10.2918 -10.2853
   -10.2696 -10.2690 -10.2684 -10.2667 -10.2663 -10.2630 -10.2621 -10.2619
   -10.2618 -10.2602 -10.2578 -10.2546  -6.7501  -6.6454  -6.5608  -6.4673
    -6.4188  -6.4147  -6.3619  -6.3401  -6.3386  -6.2635  -6.2103  -6.2072
    -5.9137  -5.9129  -5.8247  -5.8218  -5.8181  -5.8166  -5.7651  -5.7633
    -5.7527  -5.7333  -5.6830  -5.6820  -5.6813  -5.6633  -5.6423  -5.6404
    -5.6366  -5.6069  -5.5858  -5.5854  -5.5726  -5.5296  -5.5274  -5.5250
    -5.5161  -5.4861  -5.4633  -5.4387  -5.4371  -5.4368  -5.3991  -5.3704
    -5.3450  -5.3432  -5.3317  -5.2961  -0.5622  -0.5618  -0.5511  -0.4319
    -0.4286  -0.4272  -0.4110  -0.3606  -0.3214  -0.3205  -0.2901  -0.2829
     1.4048   1.4937   1.4960   1.5150   1.6127   1.7112   1.7133   1.7224
     1.7349   1.7713   1.8452   1.8460   1.9657   1.9859   2.0213   2.0224
     2.1294   2.1996   2.2092   2.2101   2.2853   2.3341   2.3969   2.4265
     2.4279   2.5190   2.5286   2.5291   2.5571   2.5582   2.5592   2.5617
     2.6002   2.6783   2.7634   2.7645   2.8240   2.8253   2.8273   2.8294
     2.8503   2.8538   2.8952   2.8957   2.9056   3.0082   3.0177   3.0185
     3.0775   3.0779   3.1182   3.1186   3.1331   3.1806   3.1810   3.1877
     3.2129   3.2451   3.2655   3.2832   3.2854   3.2942   3.3293   3.3310
     3.3747   3.3770   3.3787   3.3789   3.4459   3.4475   3.4494   3.4762
     3.4786   3.4800   3.5058   3.5191   3.5330   3.5340   3.5362   3.5580
     3.5853   3.5869   3.6107   3.6295   3.6388   3.6430   3.6819   3.6840
     3.6862   3.6954   3.7032   3.7043   3.8347   3.8368   3.8781   3.8799
     3.9405   3.9451   3.9456   3.9478   3.9713   4.0319   4.0533   4.0560
     4.0597   4.0603   4.0993   4.1007   4.1220   4.1224   4.1298   4.1333
     4.2236   4.2400   4.2676   4.2689   4.2901   4.2911   4.3132   4.3670
     4.3915   4.4340   4.4348   4.4806   4.5213   4.5446   4.5456   4.5853
     4.5957   4.5966   4.6315   4.7292   5.1469   5.1474   5.1509   5.1629
     5.1675   5.1676   5.1686   5.1711   5.1984   5.2034   5.2121   5.2175
     5.2183   5.2283   5.2397   5.2406   5.2594   5.2625   5.2630   5.2641
     5.2646   5.2727   5.3092   5.3093   5.3178   5.3331   5.3455   5.3463
     5.3596   5.3619   5.3627   5.3667   5.3681   5.3796   5.3877   5.3885
     5.4091   5.4321   5.4466   5.4508   5.4511   5.4682   5.4962   5.4974
     5.5167   5.5227   5.5551   5.5567   5.5678   5.5685   5.6011   5.6023
     5.6067   5.6197   5.6306   5.6489   5.6503   5.6605   5.6742   5.7083
     5.7087   5.7387   5.7594   5.7605   5.7701   5.7840   5.8037   5.8054
     5.8143   5.8393   5.8660   5.8683   5.8749   5.8945   5.9688   5.9694
     6.0187   6.0243   6.0254   6.1010   6.1014   6.1111   6.1591   6.1867
     6.2024   6.2031   6.2043   6.2621   6.2635   6.2869   6.3182   6.3426
     6.3551   6.3689   6.3693   6.4129   6.4197   6.4213   6.4520   6.4806
     6.4823   6.5073   6.5577   6.5672   6.6065   6.6073   6.6474   6.6663
     6.6685   6.7367   6.7382   6.7410   6.7486   6.8034   6.8052   6.8509
     6.8665   6.9186   6.9468   7.0390

          k =-0.3333 0.1925 0.2714 (115773 PWs)   bands (ev):

   -28.2770 -28.2768 -28.2767 -28.2758 -28.2756 -28.2754 -28.2753 -28.2752
   -28.2751 -28.2747 -28.2715 -28.2673 -14.9237 -14.9233 -14.9231 -14.9229
   -14.9228 -14.9226 -14.9223 -14.9223 -14.9221 -14.9221 -14.9214 -14.9186
   -14.9178 -14.9174 -14.9173 -14.9171 -14.9169 -14.9168 -14.9165 -14.9164
   -14.9163 -14.9162 -14.9154 -14.9112 -14.9058 -14.9053 -14.9052 -14.9050
   -14.9049 -14.9046 -14.9044 -14.9044 -14.9043 -14.9041 -14.9034 -14.8981
   -14.8656 -14.8651 -14.8650 -14.8648 -14.8647 -14.8644 -14.8642 -14.8642
   -14.8641 -14.8640 -14.8633 -14.8614 -14.8204 -14.8200 -14.8198 -14.8196
   -14.8195 -14.8193 -14.8190 -14.8190 -14.8189 -14.8187 -14.8180 -14.8165
   -10.3391 -10.3389 -10.3378 -10.3370 -10.3362 -10.3347 -10.3337 -10.3330
   -10.3320 -10.3303 -10.3281 -10.3254 -10.3099 -10.3079 -10.3052 -10.3048
   -10.3029 -10.3019 -10.2975 -10.2956 -10.2949 -10.2927 -10.2913 -10.2860
   -10.2695 -10.2691 -10.2683 -10.2672 -10.2665 -10.2631 -10.2622 -10.2617
   -10.2612 -10.2595 -10.2576 -10.2555  -6.7499  -6.6454  -6.5598  -6.4675
    -6.4193  -6.4178  -6.3622  -6.3407  -6.3362  -6.2639  -6.2106  -6.2053
    -5.9138  -5.9123  -5.8246  -5.8218  -5.8179  -5.8159  -5.7650  -5.7636
    -5.7533  -5.7339  -5.6831  -5.6822  -5.6812  -5.6630  -5.6419  -5.6413
    -5.6378  -5.6078  -5.5859  -5.5845  -5.5710  -5.5296  -5.5273  -5.5270
    -5.5147  -5.4845  -5.4649  -5.4384  -5.4373  -5.4365  -5.3994  -5.3700
    -5.3444  -5.3439  -5.3315  -5.2962  -0.5626  -0.5610  -0.5515  -0.4329
    -0.4288  -0.4276  -0.4104  -0.3592  -0.3222  -0.3215  -0.2893  -0.2820
     1.4058   1.4938   1.4944   1.5151   1.6112   1.7107   1.7125   1.7222
     1.7374   1.7731   1.8441   1.8458   1.9658   1.9859   2.0213   2.0226
     2.1297   2.1989   2.2092   2.2099   2.2854   2.3344   2.3976   2.4268
     2.4273   2.5184   2.5294   2.5307   2.5569   2.5582   2.5587   2.5600
     2.6001   2.6771   2.7644   2.7656   2.8238   2.8248   2.8251   2.8289
     2.8501   2.8530   2.8949   2.8980   2.9043   3.0080   3.0178   3.0209
     3.0761   3.0780   3.1180   3.1194   3.1330   3.1804   3.1820   3.1872
     3.2127   3.2453   3.2657   3.2836   3.2854   3.2943   3.3299   3.3308
     3.3736   3.3761   3.3781   3.3794   3.4464   3.4478   3.4497   3.4767
     3.4788   3.4798   3.5057   3.5189   3.5335   3.5350   3.5359   3.5576
     3.5849   3.5864   3.6098   3.6311   3.6397   3.6442   3.6826   3.6839
     3.6859   3.6954   3.7026   3.7054   3.8359   3.8362   3.8772   3.8794
     3.9413   3.9443   3.9448   3.9475   3.9715   4.0317   4.0535   4.0559
     4.0599   4.0607   4.1001   4.1004   4.1217   4.1224   4.1292   4.1336
     4.2229   4.2403   4.2682   4.2687   4.2903   4.2914   4.3139   4.3665
     4.3918   4.4342   4.4348   4.4809   4.5216   4.5444   4.5448   4.5854
     4.5955   4.5968   4.6309   4.7289   5.1456   5.1471   5.1526   5.1635
     5.1670   5.1678   5.1682   5.1720   5.1987   5.2037   5.2111   5.2156
     5.2181   5.2283   5.2398   5.2407   5.2595   5.2632   5.2638   5.2641
     5.2651   5.2722   5.3093   5.3099   5.3177   5.3330   5.3459   5.3462
     5.3590   5.3619   5.3625   5.3675   5.3688   5.3798   5.3874   5.3884
     5.4093   5.4325   5.4462   5.4504   5.4512   5.4684   5.4949   5.4969
     5.5165   5.5233   5.5557   5.5565   5.5675   5.5686   5.6014   5.6020
     5.6066   5.6203   5.6307   5.6492   5.6498   5.6605   5.6738   5.7076
     5.7091   5.7385   5.7598   5.7602   5.7703   5.7836   5.8045   5.8054
     5.8143   5.8387   5.8668   5.8669   5.8745   5.8953   5.9683   5.9690
     6.0188   6.0247   6.0254   6.1006   6.1015   6.1117   6.1594   6.1874
     6.2023   6.2030   6.2038   6.2621   6.2633   6.2870   6.3170   6.3421
     6.3550   6.3692   6.3708   6.4138   6.4190   6.4200   6.4521   6.4812
     6.4817   6.5062   6.5577   6.5661   6.6068   6.6081   6.6478   6.6666
     6.6679   6.7376   6.7380   6.7410   6.7486   6.8042   6.8051   6.8509
     6.8669   6.9183   6.9463   7.0398

          k = 0.3333 0.1925 0.2714 (115773 PWs)   bands (ev):

   -28.2770 -28.2768 -28.2767 -28.2758 -28.2756 -28.2754 -28.2753 -28.2752
   -28.2751 -28.2747 -28.2715 -28.2673 -14.9237 -14.9233 -14.9230 -14.9229
   -14.9228 -14.9226 -14.9223 -14.9223 -14.9222 -14.9221 -14.9214 -14.9186
   -14.9178 -14.9174 -14.9172 -14.9171 -14.9169 -14.9168 -14.9165 -14.9164
   -14.9163 -14.9161 -14.9154 -14.9112 -14.9058 -14.9053 -14.9051 -14.9050
   -14.9049 -14.9046 -14.9044 -14.9044 -14.9043 -14.9041 -14.9034 -14.8981
   -14.8656 -14.8651 -14.8650 -14.8648 -14.8647 -14.8644 -14.8642 -14.8642
   -14.8641 -14.8640 -14.8633 -14.8614 -14.8204 -14.8200 -14.8198 -14.8196
   -14.8195 -14.8193 -14.8190 -14.8190 -14.8189 -14.8187 -14.8180 -14.8165
   -10.3393 -10.3389 -10.3375 -10.3370 -10.3357 -10.3350 -10.3338 -10.3327
   -10.3318 -10.3309 -10.3283 -10.3252 -10.3100 -10.3079 -10.3053 -10.3045
   -10.3029 -10.3013 -10.2974 -10.2956 -10.2952 -10.2936 -10.2914 -10.2855
   -10.2694 -10.2691 -10.2685 -10.2671 -10.2660 -10.2631 -10.2625 -10.2619
   -10.2610 -10.2598 -10.2583 -10.2546  -6.7499  -6.6454  -6.5601  -6.4674
    -6.4190  -6.4172  -6.3621  -6.3405  -6.3363  -6.2636  -6.2106  -6.2063
    -5.9139  -5.9134  -5.8247  -5.8211  -5.8181  -5.8179  -5.7652  -5.7637
    -5.7521  -5.7334  -5.6825  -5.6823  -5.6800  -5.6625  -5.6417  -5.6410
    -5.6374  -5.6069  -5.5858  -5.5832  -5.5728  -5.5303  -5.5273  -5.5255
    -5.5161  -5.4854  -5.4650  -5.4390  -5.4373  -5.4367  -5.3991  -5.3699
    -5.3441  -5.3437  -5.3321  -5.2962  -0.5623  -0.5618  -0.5512  -0.4326
    -0.4289  -0.4283  -0.4100  -0.3593  -0.3219  -0.3211  -0.2895  -0.2822
     1.4045   1.4944   1.4958   1.5142   1.6117   1.7111   1.7127   1.7223
     1.7373   1.7735   1.8437   1.8467   1.9666   1.9860   2.0196   2.0213
     2.1300   2.1993   2.2089   2.2099   2.2861   2.3343   2.3972   2.4267
     2.4282   2.5184   2.5292   2.5308   2.5574   2.5579   2.5587   2.5593
     2.6006   2.6776   2.7641   2.7665   2.8237   2.8243   2.8255   2.8291
     2.8505   2.8531   2.8951   2.8959   2.9063   3.0074   3.0174   3.0188
     3.0763   3.0775   3.1179   3.1187   3.1333   3.1795   3.1814   3.1875
     3.2130   3.2438   3.2652   3.2850   3.2853   3.2946   3.3305   3.3307
     3.3748   3.3764   3.3780   3.3785   3.4458   3.4473   3.4491   3.4767
     3.4795   3.4803   3.5057   3.5184   3.5340   3.5344   3.5356   3.5579
     3.5857   3.5867   3.6098   3.6311   3.6397   3.6440   3.6823   3.6836
     3.6862   3.6946   3.7037   3.7053   3.8357   3.8363   3.8772   3.8790
     3.9418   3.9435   3.9457   3.9477   3.9717   4.0314   4.0536   4.0557
     4.0602   4.0612   4.0999   4.1008   4.1218   4.1232   4.1290   4.1332
     4.2237   4.2402   4.2686   4.2695   4.2907   4.2914   4.3134   4.3661
     4.3919   4.4346   4.4349   4.4802   4.5206   4.5444   4.5455   4.5848
     4.5952   4.5964   4.6308   4.7294   5.1461   5.1469   5.1527   5.1638
     5.1670   5.1678   5.1680   5.1718   5.1985   5.2039   5.2112   5.2169
     5.2179   5.2276   5.2400   5.2405   5.2590   5.2637   5.2642   5.2644
     5.2651   5.2719   5.3086   5.3095   5.3177   5.3324   5.3459   5.3462
     5.3592   5.3619   5.3624   5.3675   5.3689   5.3797   5.3883   5.3887
     5.4092   5.4326   5.4469   5.4499   5.4511   5.4681   5.4966   5.4971
     5.5162   5.5237   5.5546   5.5572   5.5675   5.5687   5.6013   5.6019
     5.6071   5.6195   5.6308   5.6494   5.6500   5.6600   5.6743   5.7074
     5.7085   5.7391   5.7594   5.7598   5.7708   5.7836   5.8045   5.8053
     5.8137   5.8390   5.8671   5.8678   5.8745   5.8939   5.9684   5.9696
     6.0182   6.0248   6.0252   6.1011   6.1015   6.1116   6.1592   6.1866
     6.2026   6.2028   6.2040   6.2622   6.2629   6.2876   6.3185   6.3421
     6.3545   6.3685   6.3699   6.4127   6.4195   6.4203   6.4519   6.4815
     6.4827   6.5076   6.5582   6.5666   6.6071   6.6074   6.6469   6.6670
     6.6676   6.7370   6.7393   6.7403   6.7480   6.8042   6.8054   6.8512
     6.8660   6.9183   6.9464   7.0389

          k =-0.3333-0.1925 0.2714 (115773 PWs)   bands (ev):

   -28.2770 -28.2768 -28.2767 -28.2758 -28.2756 -28.2754 -28.2753 -28.2752
   -28.2751 -28.2747 -28.2715 -28.2673 -14.9237 -14.9233 -14.9230 -14.9229
   -14.9228 -14.9226 -14.9223 -14.9223 -14.9222 -14.9221 -14.9214 -14.9186
   -14.9178 -14.9174 -14.9172 -14.9171 -14.9169 -14.9168 -14.9165 -14.9164
   -14.9163 -14.9161 -14.9154 -14.9112 -14.9058 -14.9053 -14.9051 -14.9050
   -14.9049 -14.9046 -14.9044 -14.9044 -14.9043 -14.9041 -14.9034 -14.8981
   -14.8656 -14.8651 -14.8650 -14.8648 -14.8647 -14.8644 -14.8642 -14.8642
   -14.8641 -14.8640 -14.8633 -14.8614 -14.8204 -14.8200 -14.8198 -14.8196
   -14.8195 -14.8193 -14.8190 -14.8190 -14.8189 -14.8187 -14.8180 -14.8165
   -10.3392 -10.3388 -10.3377 -10.3372 -10.3359 -10.3345 -10.3338 -10.3328
   -10.3322 -10.3306 -10.3285 -10.3251 -10.3103 -10.3069 -10.3065 -10.3047
   -10.3017 -10.3004 -10.2992 -10.2964 -10.2955 -10.2931 -10.2901 -10.2860
   -10.2698 -10.2696 -10.2681 -10.2665 -10.2656 -10.2639 -10.2627 -10.2620
   -10.2606 -10.2597 -10.2581 -10.2547  -6.7498  -6.6456  -6.5593  -6.4708
    -6.4223  -6.4204  -6.3624  -6.3288  -6.3248  -6.2570  -6.2244  -6.2201
    -5.9053  -5.9048  -5.8228  -5.8215  -5.8086  -5.8074  -5.7916  -5.7601
    -5.7588  -5.7306  -5.7103  -5.7099  -5.6710  -5.6348  -5.6285  -5.6275
    -5.6262  -5.6080  -5.5999  -5.5969  -5.5691  -5.5282  -5.5224  -5.5213
    -5.5198  -5.4964  -5.4665  -5.4318  -5.4288  -5.4283  -5.4224  -5.3635
    -5.3478  -5.3474  -5.3224  -5.2998  -0.5594  -0.5588  -0.5579  -0.4359
    -0.4354  -0.4244  -0.3927  -0.3719  -0.3186  -0.3179  -0.2985  -0.2778
     1.4329   1.4856   1.4861   1.4872   1.6257   1.6410   1.7729   1.7740
     1.7823   1.7904   1.7981   1.8006   1.9151   1.9938   1.9960   2.0775
     2.1555   2.2006   2.2110   2.2475   2.2483   2.3603   2.3931   2.3943
     2.3988   2.4488   2.5117   2.5131   2.5481   2.5899   2.5910   2.6085
     2.6427   2.7108   2.7617   2.7684   2.7699   2.7883   2.8090   2.8097
     2.8390   2.8745   2.9149   2.9160   2.9194   2.9808   3.0234   3.0246
     3.0676   3.1060   3.1073   3.1322   3.1695   3.1921   3.1934   3.1937
     3.1993   3.2308   3.2642   3.2644   3.2756   3.3167   3.3210   3.3216
     3.3230   3.3885   3.3889   3.4104   3.4441   3.4452   3.4686   3.4695
     3.4712   3.4726   3.4749   3.4769   3.5328   3.5357   3.5366   3.5913
     3.6098   3.6122   3.6123   3.6324   3.6416   3.6480   3.6587   3.6604
     3.6665   3.7093   3.7109   3.7119   3.8348   3.8357   3.8785   3.8878
     3.9039   3.9482   3.9500   3.9739   3.9813   4.0199   4.0475   4.0487
     4.0499   4.0650   4.1101   4.1109   4.1190   4.1328   4.1338   4.1468
     4.1906   4.2556   4.2668   4.2678   4.2884   4.2897   4.2941   4.3863
     4.3973   4.4376   4.4384   4.4673   4.5244   4.5253   4.5349   4.5957
     4.6101   4.6109   4.6217   4.7204   5.1490   5.1495   5.1535   5.1558
     5.1710   5.1751   5.1757   5.1822   5.1892   5.1965   5.2002   5.2062
     5.2070   5.2334   5.2338   5.2344   5.2536   5.2634   5.2645   5.2653
     5.2779   5.2969   5.3064   5.3120   5.3124   5.3280   5.3360   5.3365
     5.3572   5.3578   5.3592   5.3627   5.3791   5.3919   5.4059   5.4064
     5.4120   5.4305   5.4324   5.4440   5.4442   5.4916   5.5013   5.5020
     5.5087   5.5153   5.5526   5.5598   5.5736   5.5748   5.6014   5.6105
     5.6109   5.6187   5.6239   5.6246   5.6427   5.6692   5.6811   5.7128
     5.7139   5.7173   5.7335   5.7715   5.7725   5.7730   5.8016   5.8027
     5.8100   5.8576   5.8752   5.8755   5.8779   5.9137   5.9584   5.9594
     6.0339   6.0344   6.0355   6.0585   6.0782   6.0789   6.1727   6.2057
     6.2122   6.2129   6.2655   6.2667   6.2695   6.2771   6.2857   6.3488
     6.3497   6.3654   6.3724   6.4154   6.4234   6.4245   6.4275   6.4710
     6.4980   6.5006   6.5465   6.5589   6.5961   6.5968   6.6667   6.6679
     6.6767   6.7192   6.7355   6.7371   6.7481   6.8131   6.8146   6.8448
     6.8687   6.9287   6.9375   7.0523

          k = 0.3333-0.1925 0.2714 (115773 PWs)   bands (ev):

   -28.2770 -28.2768 -28.2767 -28.2758 -28.2756 -28.2754 -28.2753 -28.2752
   -28.2751 -28.2747 -28.2715 -28.2673 -14.9237 -14.9233 -14.9231 -14.9229
   -14.9228 -14.9226 -14.9223 -14.9223 -14.9221 -14.9221 -14.9214 -14.9186
   -14.9178 -14.9174 -14.9173 -14.9170 -14.9169 -14.9168 -14.9165 -14.9164
   -14.9163 -14.9162 -14.9154 -14.9112 -14.9058 -14.9053 -14.9052 -14.9050
   -14.9049 -14.9046 -14.9044 -14.9044 -14.9043 -14.9041 -14.9034 -14.8981
   -14.8656 -14.8651 -14.8650 -14.8648 -14.8647 -14.8644 -14.8642 -14.8642
   -14.8641 -14.8640 -14.8633 -14.8614 -14.8204 -14.8200 -14.8198 -14.8196
   -14.8195 -14.8193 -14.8190 -14.8190 -14.8189 -14.8187 -14.8180 -14.8165
   -10.3391 -10.3387 -10.3379 -10.3373 -10.3364 -10.3343 -10.3337 -10.3329
   -10.3317 -10.3309 -10.3281 -10.3252 -10.3102 -10.3071 -10.3065 -10.3047
   -10.3016 -10.3008 -10.2993 -10.2963 -10.2951 -10.2924 -10.2906 -10.2862
   -10.2698 -10.2696 -10.2676 -10.2667 -10.2662 -10.2639 -10.2626 -10.2619
   -10.2603 -10.2596 -10.2579 -10.2554  -6.7497  -6.6456  -6.5590  -6.4709
    -6.4225  -6.4210  -6.3624  -6.3290  -6.3247  -6.2573  -6.2244  -6.2192
    -5.9050  -5.9035  -5.8232  -5.8217  -5.8082  -5.8044  -5.7921  -5.7602
    -5.7600  -5.7322  -5.7105  -5.7101  -5.6715  -5.6357  -5.6289  -5.6276
    -5.6268  -5.6080  -5.6000  -5.5986  -5.5676  -5.5283  -5.5224  -5.5220
    -5.5178  -5.4965  -5.4660  -5.4309  -5.4286  -5.4281  -5.4225  -5.3638
    -5.3480  -5.3476  -5.3221  -5.2997  -0.5594  -0.5591  -0.5574  -0.4359
    -0.4347  -0.4247  -0.3930  -0.3720  -0.3189  -0.3183  -0.2982  -0.2775
     1.4341   1.4850   1.4857   1.4871   1.6261   1.6404   1.7720   1.7731
     1.7817   1.7892   1.7988   1.8011   1.9155   1.9949   1.9971   2.0769
     2.1551   2.2001   2.2105   2.2480   2.2486   2.3606   2.3930   2.3936
     2.3995   2.4488   2.5117   2.5137   2.5474   2.5905   2.5913   2.6080
     2.6423   2.7110   2.7609   2.7688   2.7693   2.7879   2.8089   2.8105
     2.8388   2.8745   2.9150   2.9173   2.9186   2.9808   3.0237   3.0262
     3.0674   3.1064   3.1080   3.1322   3.1692   3.1924   3.1932   3.1935
     3.1999   3.2303   3.2629   3.2648   3.2763   3.3175   3.3206   3.3215
     3.3231   3.3880   3.3900   3.4099   3.4450   3.4454   3.4679   3.4702
     3.4717   3.4729   3.4755   3.4767   3.5329   3.5353   3.5363   3.5907
     3.6095   3.6118   3.6133   3.6321   3.6423   3.6476   3.6574   3.6593
     3.6678   3.7098   3.7109   3.7117   3.8352   3.8356   3.8788   3.8877
     3.9032   3.9490   3.9498   3.9738   3.9813   4.0197   4.0470   4.0483
     4.0493   4.0646   4.1103   4.1109   4.1195   4.1325   4.1329   4.1479
     4.1904   4.2550   4.2663   4.2673   4.2882   4.2890   4.2947   4.3866
     4.3979   4.4377   4.4382   4.4679   4.5243   4.5247   4.5363   4.5957
     4.6100   4.6113   4.6213   4.7207   5.1485   5.1503   5.1534   5.1559
     5.1714   5.1748   5.1756   5.1823   5.1895   5.1970   5.2000   5.2053
     5.2070   5.2328   5.2340   5.2344   5.2535   5.2629   5.2640   5.2650
     5.2782   5.2971   5.3065   5.3113   5.3124   5.3278   5.3356   5.3364
     5.3576   5.3581   5.3593   5.3623   5.3792   5.3919   5.4059   5.4068
     5.4120   5.4313   5.4328   5.4432   5.4442   5.4918   5.5012   5.5015
     5.5087   5.5152   5.5532   5.5590   5.5729   5.5742   5.6022   5.6097
     5.6109   5.6181   5.6241   5.6249   5.6421   5.6696   5.6820   5.7139
     5.7147   5.7166   5.7328   5.7719   5.7728   5.7730   5.8017   5.8021
     5.8102   5.8575   5.8746   5.8751   5.8788   5.9139   5.9585   5.9590
     6.0338   6.0344   6.0347   6.0595   6.0783   6.0789   6.1727   6.2058
     6.2120   6.2132   6.2662   6.2671   6.2698   6.2768   6.2856   6.3486
     6.3492   6.3656   6.3721   6.4151   6.4241   6.4262   6.4271   6.4716
     6.4975   6.4984   6.5449   6.5596   6.5950   6.5967   6.6667   6.6685
     6.6766   6.7199   6.7362   6.7375   6.7469   6.8131   6.8145   6.8444
     6.8700   6.9297   6.9367   7.0532

          k =-0.3333-0.5774 0.2714 (115827 PWs)   bands (ev):

   -28.2770 -28.2768 -28.2767 -28.2758 -28.2756 -28.2754 -28.2753 -28.2752
   -28.2751 -28.2747 -28.2715 -28.2673 -14.9237 -14.9233 -14.9231 -14.9229
   -14.9228 -14.9226 -14.9223 -14.9223 -14.9222 -14.9221 -14.9214 -14.9186
   -14.9178 -14.9174 -14.9172 -14.9171 -14.9169 -14.9167 -14.9165 -14.9164
   -14.9163 -14.9162 -14.9154 -14.9112 -14.9058 -14.9053 -14.9052 -14.9050
   -14.9049 -14.9046 -14.9044 -14.9044 -14.9043 -14.9041 -14.9034 -14.8981
   -14.8656 -14.8651 -14.8650 -14.8648 -14.8647 -14.8644 -14.8642 -14.8642
   -14.8641 -14.8640 -14.8633 -14.8614 -14.8204 -14.8200 -14.8198 -14.8196
   -14.8195 -14.8193 -14.8190 -14.8190 -14.8189 -14.8187 -14.8180 -14.8165
   -10.3390 -10.3383 -10.3374 -10.3366 -10.3351 -10.3341 -10.3334 -10.3324
   -10.3316 -10.3310 -10.3293 -10.3260 -10.3085 -10.3077 -10.3063 -10.3045
   -10.3011 -10.3004 -10.2977 -10.2970 -10.2955 -10.2924 -10.2912 -10.2883
   -10.2698 -10.2688 -10.2669 -10.2661 -10.2657 -10.2645 -10.2640 -10.2626
   -10.2616 -10.2600 -10.2584 -10.2556  -6.6183  -6.6181  -6.6147  -6.5249
    -6.5246  -6.5208  -6.3071  -6.2893  -6.2888  -6.2837  -6.2553  -6.2126
    -5.8744  -5.8570  -5.8452  -5.7800  -5.7796  -5.7786  -5.7428  -5.7421
    -5.7403  -5.7147  -5.6886  -5.6879  -5.6860  -5.6729  -5.6720  -5.6714
    -5.6688  -5.6437  -5.5570  -5.5562  -5.5529  -5.5252  -5.5246  -5.5215
    -5.5047  -5.5033  -5.5027  -5.4995  -5.4587  -5.3986  -5.3979  -5.3968
    -5.3580  -5.3234  -5.3226  -5.3217  -0.5202  -0.5056  -0.5052  -0.5036
    -0.4604  -0.4171  -0.4166  -0.4151  -0.3548  -0.2928  -0.2925  -0.2902
     1.4815   1.4821   1.4837   1.6367   1.6384   1.6389   1.6904   1.7751
     1.7760   1.7763   1.7789   1.7932   1.9796   1.9812   1.9831   2.0547
     2.1697   2.1927   2.1936   2.1942   2.2474   2.3972   2.3980   2.3990
     2.4889   2.4893   2.4911   2.5580   2.5873   2.5881   2.5888   2.5933
     2.6798   2.7361   2.7372   2.7380   2.8227   2.8233   2.8250   2.8284
     2.9015   2.9028   2.9034   2.9249   2.9356   2.9539   2.9553   2.9567
     3.0595   3.0601   3.0604   3.0871   3.0882   3.0887   3.1269   3.1803
     3.2425   3.2443   3.2448   3.2696   3.2707   3.2710   3.3205   3.3267
     3.3273   3.3286   3.3738   3.4058   3.4199   3.4646   3.4652   3.4656
     3.4925   3.4985   3.4992   3.5000   3.5358   3.5367   3.5371   3.5393
     3.5607   3.6147   3.6159   3.6164   3.6534   3.6547   3.6551   3.6955
     3.6976   3.6983   3.7185   3.7441   3.8212   3.8397   3.8407   3.8413
     3.9370   3.9398   3.9408   3.9414   4.0287   4.0296   4.0305   4.0399
     4.0665   4.0680   4.0681   4.1082   4.1131   4.1140   4.1144   4.1683
     4.2720   4.2733   4.2740   4.2896   4.3142   4.3608   4.3619   4.3627
     4.4158   4.4170   4.4175   4.4923   4.4931   4.4941   4.5073   4.5126
     4.5636   4.6667   4.6669   4.6678   5.1475   5.1556   5.1559   5.1569
     5.1570   5.1812   5.1820   5.1824   5.1964   5.1974   5.1977   5.2097
     5.2234   5.2241   5.2245   5.2507   5.2513   5.2520   5.2560   5.2677
     5.3002   5.3011   5.3018   5.3083   5.3277   5.3287   5.3289   5.3668
     5.3675   5.3681   5.3740   5.3926   5.3945   5.4076   5.4084   5.4089
     5.4313   5.4327   5.4334   5.4376   5.4838   5.4842   5.4852   5.4902
     5.5380   5.5389   5.5393   5.5431   5.5652   5.5660   5.5667   5.6047
     5.6052   5.6056   5.6376   5.6383   5.6716   5.6721   5.6730   5.7027
     5.7035   5.7039   5.7166   5.7580   5.7591   5.7592   5.8010   5.8073
     5.8205   5.8233   5.8238   5.8249   5.8898   5.8902   5.8919   6.0563
     6.0593   6.0599   6.0608   6.0767   6.1192   6.1203   6.1207   6.1350
     6.1955   6.2373   6.2378   6.2393   6.2839   6.3011   6.3021   6.3034
     6.3062   6.3849   6.3856   6.3862   6.4507   6.4674   6.4680   6.4694
     6.4913   6.4929   6.5589   6.5593   6.5613   6.6458   6.6845   6.6855
     6.6869   6.7607   6.7777   6.7788   6.7791   6.7925   6.8544   6.8549
     6.8561   6.9356   6.9367   6.9380

     highest occupied level (ev):     7.1816

!    total energy              =   -9077.18754795 Ry
     estimated scf accuracy    <          9.0E-10 Ry

     The total energy is the sum of the following terms:
     one-electron contribution =   -2776.58294866 Ry
     hartree contribution      =    2020.04147830 Ry
     xc contribution           =   -2269.38071560 Ry
     ewald contribution        =   -3895.46783554 Ry
     one-center paw contrib.   =   -2155.79752645 Ry

     convergence has been achieved in  21 iterations

     negative rho (up, down):  7.902E-01 0.000E+00

     Forces acting on atoms (cartesian axes, Ry/au):

     atom    1 type  1   force =     0.00002041    0.00038427    0.00011467
     atom    2 type  1   force =    -0.00020501    0.00029290    0.00001520
     atom    3 type  1   force =    -0.00011755    0.00024899   -0.00005064
     atom    4 type  1   force =    -0.00020825    0.00016497   -0.00002123
     atom    5 type  1   force =    -0.00014464   -0.00018554   -0.00007618
     atom    6 type  1   force =    -0.00015542   -0.00023421    0.00000396
     atom    7 type  1   force =    -0.00010233   -0.00034335    0.00000401
     atom    8 type  1   force =    -0.00017724   -0.00030521    0.00007342
     atom    9 type  1   force =     0.00030101    0.00000921   -0.00000754
     atom   10 type  1   force =     0.00031432    0.00001058   -0.00001442
     atom   11 type  1   force =     0.00031198   -0.00001548   -0.00001581
     atom   12 type  1   force =     0.00030730   -0.00000416   -0.00001083
     atom   13 type  2   force =    -0.00006125    0.00028661    0.00052739
     atom   14 type  2   force =     0.00011984   -0.00031283    0.00011215
     atom   15 type  2   force =     0.00015921   -0.00041152    0.00016148
     atom   16 type  2   force =     0.00025316   -0.00035640    0.00023543
     atom   17 type  2   force =     0.00024047    0.00037527    0.00018779
     atom   18 type  2   force =     0.00023286    0.00036976    0.00018459
     atom   19 type  2   force =     0.00023339    0.00036004    0.00018420
     atom   20 type  2   force =     0.00023261    0.00036408    0.00018583
     atom   21 type  2   force =    -0.00042848   -0.00000946    0.00020882
     atom   22 type  2   force =    -0.00043205    0.00001778    0.00018194
     atom   23 type  2   force =    -0.00043064    0.00001698    0.00017742
     atom   24 type  2   force =    -0.00048381    0.00003840    0.00017142
     atom   25 type  2   force =    -0.00043007   -0.00002004   -0.00017530
     atom   26 type  2   force =    -0.00045844   -0.00002550   -0.00018358
     atom   27 type  2   force =    -0.00047509   -0.00005122   -0.00026562
     atom   28 type  2   force =    -0.00043374   -0.00002597   -0.00019899
     atom   29 type  2   force =     0.00121472    0.00039194   -0.00070561
     atom   30 type  2   force =     0.00020149    0.00037174   -0.00018901
     atom   31 type  2   force =     0.00021285    0.00036320   -0.00019097
     atom   32 type  2   force =     0.00022226    0.00038081   -0.00022822
     atom   33 type  2   force =     0.00023088   -0.00036808   -0.00018820
     atom   34 type  2   force =     0.00023004   -0.00036058   -0.00019072
     atom   35 type  2   force =     0.00023856   -0.00038222   -0.00018795
     atom   36 type  2   force =     0.00023465   -0.00036777   -0.00019265
     atom   37 type  3   force =     0.00026779   -0.00047087   -0.00002002
     atom   38 type  3   force =     0.00024434   -0.00047568   -0.00001376
     atom   39 type  3   force =     0.00028508   -0.00044760    0.00001424
     atom   40 type  3   force =     0.00028186   -0.00044967   -0.00000879
     atom   41 type  3   force =     0.00035146    0.00057457    0.00007761
     atom   42 type  3   force =     0.00024192    0.00050075   -0.00001459
     atom   43 type  3   force =     0.00027784    0.00045528   -0.00001023
     atom   44 type  3   force =     0.00024945    0.00043889   -0.00004874
     atom   45 type  3   force =    -0.00051875    0.00003718    0.00006444
     atom   46 type  3   force =     0.00422827    0.00656090   -0.00003167
     atom   47 type  3   force =    -0.00062873   -0.00015510    0.00008190
     atom   48 type  3   force =    -0.00054733   -0.00009081    0.00005065
     atom   49 type  4   force =     0.00035727   -0.00011070    0.00002412
     atom   50 type  4   force =     0.00036044   -0.00009988    0.00002217
     atom   51 type  4   force =     0.00035081   -0.00010546    0.00000922
     atom   52 type  4   force =     0.00035157   -0.00009609    0.00001696
     atom   53 type  4   force =     0.00010576    0.00042808   -0.00057055
     atom   54 type  4   force =    -0.00011207    0.00035555    0.00002340
     atom   55 type  4   force =    -0.00009546    0.00038020    0.00001661
     atom   56 type  4   force =    -0.00008221    0.00037815    0.00003768
     atom   57 type  4   force =    -0.00009933    0.00057109    0.00047840
     atom   58 type  4   force =    -0.00025320   -0.00020619    0.00004458
     atom   59 type  4   force =    -0.00023110   -0.00030748   -0.00000712
     atom   60 type  4   force =    -0.00038741   -0.00032515    0.00018718
     atom   61 type  4   force =    -0.00028972    0.00032775   -0.00006456
     atom   62 type  4   force =    -0.00008065    0.00048913   -0.00009592
     atom   63 type  4   force =    -0.00019295    0.00043172   -0.00004629
     atom   64 type  4   force =    -0.00027842    0.00033752   -0.00002207
     atom   65 type  4   force =     0.00034295    0.00008464   -0.00005360
     atom   66 type  4   force =     0.00035244    0.00009271   -0.00000794
     atom   67 type  4   force =     0.00035151    0.00010625   -0.00000968
     atom   68 type  4   force =     0.00035438    0.00010498   -0.00000209
     atom   69 type  4   force =    -0.00005325   -0.00035640   -0.00000646
     atom   70 type  4   force =    -0.00014051   -0.00034298   -0.00007982
     atom   71 type  4   force =    -0.00004198   -0.00025694   -0.00002204
     atom   72 type  4   force =    -0.00010731   -0.00035673   -0.00002026
     atom   73 type  4   force =    -0.00726302   -0.00946305   -0.00024112
     atom   74 type  4   force =     0.00001516    0.00010583   -0.00025582
     atom   75 type  4   force =     0.00002139    0.00019085   -0.00026776
     atom   76 type  4   force =     0.00001709    0.00020407   -0.00022650
     atom   77 type  4   force =    -0.00013106   -0.00001802   -0.00019493
     atom   78 type  4   force =    -0.00015397   -0.00005293   -0.00024104
     atom   79 type  4   force =    -0.00013887   -0.00006785   -0.00024361
     atom   80 type  4   force =    -0.00014525   -0.00007076   -0.00025373
     atom   81 type  4   force =     0.00012885   -0.00007453   -0.00024841
     atom   82 type  4   force =     0.00013194   -0.00008071   -0.00024600
     atom   83 type  4   force =     0.00011733   -0.00009768   -0.00024297
     atom   84 type  4   force =     0.00013202   -0.00009847   -0.00021584
     atom   85 type  4   force =     0.00013337    0.00006494    0.00026508
     atom   86 type  4   force =     0.00012700    0.00010467    0.00026349
     atom   87 type  4   force =     0.00012457    0.00010580    0.00026656
     atom   88 type  4   force =     0.00012520    0.00009966    0.00025033
     atom   89 type  4   force =     0.00105515    0.00045847    0.00044678
     atom   90 type  4   force =    -0.00003657   -0.00017208    0.00029448
     atom   91 type  4   force =    -0.00000409   -0.00011308    0.00021244
     atom   92 type  4   force =     0.00029534    0.00004129    0.00027602
     atom   93 type  4   force =    -0.00012449    0.00006125    0.00024116
     atom   94 type  4   force =    -0.00014345    0.00004618    0.00022685
     atom   95 type  4   force =    -0.00012389    0.00009005    0.00025102
     atom   96 type  4   force =    -0.00014255    0.00006651    0.00025435

     Total force =     0.014948     Total SCF correction =     0.000064
     Message from routine punch:
     Nothing written, as per user request (disk_io='none')

     init_run     :     42.56s CPU     45.54s WALL (       1 calls)
     electrons    :   2006.40s CPU   2116.96s WALL (       1 calls)
     forces       :     19.32s CPU     19.79s WALL (       1 calls)

     Called by init_run:
     wfcinit      :     38.38s CPU     41.05s WALL (       1 calls)
     potinit      :      1.14s CPU      1.18s WALL (       1 calls)
     hinit0       :      1.17s CPU      1.20s WALL (       1 calls)

     Called by electrons:
     c_bands      :   1776.69s CPU   1866.19s WALL (      21 calls)
     sum_band     :    201.10s CPU    218.12s WALL (      21 calls)
     v_of_rho     :      3.66s CPU      4.10s WALL (      22 calls)
     newd         :     19.80s CPU     23.42s WALL (      22 calls)
     PAW_pot      :      5.58s CPU      5.62s WALL (      22 calls)
     mix_rho      :      0.69s CPU      0.74s WALL (      21 calls)

     Called by c_bands:
     init_us_2    :     16.94s CPU     17.13s WALL (     308 calls)
     cegterg      :   1725.48s CPU   1814.53s WALL (     147 calls)

     Called by *egterg:
     cdiaghg      :     90.06s CPU     94.17s WALL (     883 calls)
     h_psi        :    946.56s CPU   1019.92s WALL (     890 calls)
     s_psi        :    214.54s CPU    216.36s WALL (     890 calls)
     g_psi        :      3.02s CPU      3.05s WALL (     736 calls)

     Called by h_psi:
     h_psi:calbec :    224.57s CPU    227.22s WALL (     890 calls)
     vloc_psi     :    504.12s CPU    570.62s WALL (     890 calls)
     add_vuspsi   :    214.93s CPU    216.73s WALL (     890 calls)

     General routines
     calbec       :    311.78s CPU    315.51s WALL (    1065 calls)
     fft          :      4.33s CPU      4.81s WALL (     295 calls)
     ffts         :      0.76s CPU      0.79s WALL (      43 calls)
     fftw         :    455.28s CPU    524.98s WALL (  424194 calls)
     interpolate  :      0.91s CPU      0.98s WALL (      22 calls)

     Parallel routines

     PWSCF        :  34m28.57s CPU  36m23.10s WALL


   This run was terminated on:   4:32: 7  21Aug2026            

=------------------------------------------------------------------------------=
   JOB DONE.
=------------------------------------------------------------------------------=
