
     Program PWSCF v.7.5 starts on 30Jun2026 at  3:54:52 
        Git branch: develop
        Last git commit: ea9b1b3d7915154c244e4a71786faaa0fdafa55c
        Last git commit date: Mon Mar 16 14:03:30 2026 +0000
        Last git commit subject: Merge branch 'dev_td_porting' into 'develop'

     This program is part of the open-source Quantum ESPRESSO suite
     for quantum simulation of materials; please cite
         "P. Giannozzi et al., J. Phys.:Condens. Matter 21 395502 (2009);
         "P. Giannozzi et al., J. Phys.:Condens. Matter 29 465901 (2017);
         "P. Giannozzi et al., J. Chem. Phys. 152 154105 (2020);
          URL http://www.quantum-espresso.org", 
     in publications or presentations arising from this work. More details at
     http://www.quantum-espresso.org/quote

     Parallel version (MPI), running on     4 processors

     MPI processes distributed on     1 nodes
     0 MiB available memory on the printing compute node when the environment starts

     Reading input from inputs/ecut_80.in
Warning: card &CELL ignored

     Current dimensions of program PWSCF are:
     Max number of different atomic species (ntypx) = 10
     Max number of k-points (npk) =  40000
     Max angular momentum in pseudopotentials (lmaxx) =  4
     file Cu.paw.z_11.ld1.psl.v1.0.0-low.upf: wavefunction(s)  4S 3D renormalized

     Exact exchange band parallelism type set to band_pairs

     Message from routine setup:
     using ibrav=0 with symmetry is DISCOURAGED, use correct ibrav instead

     R & G space division:  proc/nbgrp/npool/nimage =       4
     Subspace diagonalization in iterative solution of the eigenvalue problem:
     a serial algorithm will be used


     Parallelization info
     --------------------
     sticks:   dense  smooth     PW     G-vecs:    dense   smooth      PW
     Min        1588     795    211               250884    88715   12287
     Max        1589     796    212               250891    88718   12300
     Sum        6355    3181    847              1003551   354863   49185

     Using Slab Decomposition



     bravais-lattice index     =            0
     lattice parameter (alat)  =      11.9933  a.u.
     unit-cell volume          =    3670.3121 (a.u.)^3
     number of atoms/cell      =           24
     number of atomic types    =            4
     number of electrons       =       210.00
     number of Kohn-Sham states=          105
     kinetic-energy cutoff     =      80.0000  Ry
     charge density cutoff     =     640.0000  Ry
     scf convergence threshold =      1.0E-08
     mixing beta               =       0.3000
     number of iterations used =            8  plain     mixing
     Exchange-correlation= SLA  PW   PBE  PBE
                           (   1   4   3   4   0   0   0)

     celldm(1)=  11.993304  celldm(2)=   0.000000  celldm(3)=   0.000000
     celldm(4)=   0.000000  celldm(5)=   0.000000  celldm(6)=   0.000000

     crystal axes: (cart. coord. in units of alat)
               a(1) = (   1.000000   0.000000   0.000000 )  
               a(2) = (  -0.500000   0.866025   0.000000 )  
               a(3) = (   0.000000   0.000000   2.456722 )  

     reciprocal axes: (cart. coord. in units 2 pi/alat)
               b(1) = (  1.000000  0.577350 -0.000000 )  
               b(2) = (  0.000000  1.154701  0.000000 )  
               b(3) = (  0.000000 -0.000000  0.407047 )  


     PseudoPot. # 1 for Cu read from file:
     /Users/kaede/scientific-tools/pseudopotentials/SSSP/1.3.0/PBE/precision/Cu.paw.z_11.ld1.psl.v1.0.0-low.upf
     MD5 check sum: 619f40885d92a09a85a8b37550532d0c
     Pseudo is Projector augmented-wave + core cor, Zval = 11.0
     Generated using &quot;atomic&quot; code by A. Dal Corso  v.6.3MaX
     Shape of augmentation charge: PSQ
     Using radial grid of 1199 points,  6 beta functions with: 
                l(1) =   0
                l(2) =   0
                l(3) =   1
                l(4) =   1
                l(5) =   2
                l(6) =   2
     Q(r) pseudized with 0 coefficients 


     PseudoPot. # 2 for S  read from file:
     /Users/kaede/scientific-tools/pseudopotentials/SSSP/1.3.0/PBE/precision/s_pbe_v1.4.uspp.F.UPF
     MD5 check sum: 88d86576ff6df21479756cfb9bdac1df
     Pseudo is Ultrasoft + core correction, Zval =  6.0
     Generated by new atomic code, or converted to UPF format
     Using radial grid of  907 points,  6 beta functions with: 
                l(1) =   0
                l(2) =   0
                l(3) =   1
                l(4) =   1
                l(5) =   2
                l(6) =   2
     Q(r) pseudized with  8 coefficients,  rinner =    1.300   1.300   1.300
                                                       1.300   1.300

     PseudoPot. # 3 for Sn read from file:
     /Users/kaede/scientific-tools/pseudopotentials/SSSP/1.3.0/PBE/precision/Sn_pbe_v1.uspp.F.UPF
     MD5 check sum: 4cf58ce39ec5d5d420df3dd08604eb00
     Pseudo is Ultrasoft + core correction, Zval = 14.0
     Generated by new atomic code, or converted to UPF format
     Using radial grid of  891 points,  6 beta functions with: 
                l(1) =   0
                l(2) =   0
                l(3) =   1
                l(4) =   1
                l(5) =   2
                l(6) =   2
     Q(r) pseudized with  6 coefficients,  rinner =    1.200   1.200   1.200
                                                       1.200   1.200

     PseudoPot. # 4 for Sr read from file:
     /Users/kaede/scientific-tools/pseudopotentials/SSSP/1.3.0/PBE/precision/Sr_pbe_v1.uspp.F.UPF
     MD5 check sum: 6b418c05fbe9db5448babca5e47b7a5b
     Pseudo is Ultrasoft + core correction, Zval = 10.0
     Generated by new atomic code, or converted to UPF format
     Using radial grid of  883 points,  6 beta functions with: 
                l(1) =   0
                l(2) =   0
                l(3) =   1
                l(4) =   1
                l(5) =   2
                l(6) =   2
     Q(r) pseudized with  6 coefficients,  rinner =    1.400   1.400   1.400
                                                       1.400   1.400

     atomic species   valence    mass     pseudopotential
     Cu               11.00    63.54600     Cu( 1.00)
     S                 6.00    32.06500     S ( 1.00)
     Sn               14.00   118.71000     Sn( 1.00)
     Sr               10.00    87.62000     Sr( 1.00)

      6 Sym. Ops. (no inversion) found ( 4 have fractional translation)


                                    s                        frac. trans.

      isym =  1     identity                                     

 cryst.   s( 1) = (     1          0          0      )
                  (     0          1          0      )
                  (     0          0          1      )

 cart.    s( 1) = (  1.0000000  0.0000000  0.0000000 )
                  (  0.0000000  1.0000000  0.0000000 )
                  (  0.0000000  0.0000000  1.0000000 )


      isym =  2     180 deg rotation - cart. axis [1,0,0]        

 cryst.   s( 2) = (     1          0          0      )    f =( -0.0000000 )
                  (    -1         -1          0      )       (  0.0000000 )
                  (     0          0         -1      )       (  0.3333330 )

 cart.    s( 2) = (  1.0000000  0.0000002  0.0000000 )    f =( -0.0000000 )
                  (  0.0000000 -1.0000000  0.0000000 )       (  0.0000000 )
                  (  0.0000000  0.0000000 -1.0000000 )       (  0.8189064 )


      isym =  3     120 deg rotation - cryst. axis [0,0,1]       

 cryst.   s( 3) = (     0          1          0      )    f =(  0.0000000 )
                  (    -1         -1          0      )       (  0.0000000 )
                  (     0          0          1      )       ( -0.3333330 )

 cart.    s( 3) = ( -0.5000001 -0.8660256  0.0000000 )    f =(  0.0000000 )
                  (  0.8660252 -0.4999999  0.0000000 )       (  0.0000000 )
                  (  0.0000000  0.0000000  1.0000000 )       ( -0.8189064 )


      isym =  4     120 deg rotation - cryst. axis [0,0,-1]      

 cryst.   s( 4) = (    -1         -1          0      )    f =(  0.0000000 )
                  (     1          0          0      )       (  0.0000000 )
                  (     0          0          1      )       (  0.3333330 )

 cart.    s( 4) = ( -0.4999999  0.8660256  0.0000000 )    f =(  0.0000000 )
                  ( -0.8660252 -0.5000001  0.0000000 )       (  0.0000000 )
                  (  0.0000000  0.0000000  1.0000000 )       (  0.8189064 )


      isym =  5     180 deg rotation - cryst. axis [0,1,0]       

 cryst.   s( 5) = (    -1         -1          0      )    f =(  0.0000000 )
                  (     0          1          0      )       (  0.0000000 )
                  (     0          0         -1      )       ( -0.3333340 )

 cart.    s( 5) = ( -0.4999999 -0.8660257  0.0000000 )    f =(  0.0000000 )
                  ( -0.8660252  0.4999999  0.0000000 )       (  0.0000000 )
                  (  0.0000000  0.0000000 -1.0000000 )       ( -0.8189089 )


      isym =  6     180 deg rotation - cryst. axis [1,1,0]       

 cryst.   s( 6) = (     0          1          0      )
                  (     1          0          0      )
                  (     0          0         -1      )

 cart.    s( 6) = ( -0.5000001  0.8660255  0.0000000 )
                  (  0.8660252  0.5000001  0.0000000 )
                  (  0.0000000  0.0000000 -1.0000000 )


   Cartesian axes

     site n.     atom                  positions (alat units)
         1        Sr     tau(   1) = (  -0.2810720   0.4868309   0.4094544  )
         2        Sr     tau(   2) = (   0.2189280   0.3791943   1.2283608  )
         3        Sr     tau(   3) = (   0.5621440   0.0000000   2.0472697  )
         4        Cu     tau(   4) = (  -0.2454151   0.5509306   1.0124690  )
         5        Cu     tau(   5) = (   0.1455875   0.3780243   1.8313755  )
         6        Cu     tau(   6) = (   0.0998274   0.8030955   0.1935626  )
         7        Cu     tau(   7) = (   0.5998275   0.0629297   1.4442526  )
         8        Cu     tau(   8) = (   0.2545850   0.3150946   0.6253462  )
         9        Cu     tau(   9) = (   0.6455875   0.4880009   2.2631590  )
        10        Sn     tau(  10) = (  -0.3524466   0.6104551   1.6378153  )
        11        Sn     tau(  11) = (   0.1475535   0.2555701   0.0000000  )
        12        Sn     tau(  12) = (   0.7048930   0.0000000   0.8189064  )
        13        S      tau(  13) = (  -0.1978795   0.4210502   1.9339682  )
        14        S      tau(  14) = (   0.2342995   0.4841315   0.2961529  )
        15        S      tau(  15) = (  -0.0364201   0.8268688   1.1150617  )
        16        S      tau(  16) = (   0.4635800   0.0391565   0.5227535  )
        17        S      tau(  17) = (   0.3021205   0.4449750   2.1605688  )
        18        S      tau(  18) = (   0.7342995   0.3818937   1.3416599  )
        19        S      tau(  19) = (  -0.0595230   0.3059840   0.8074605  )
        20        S      tau(  20) = (   0.2647714   0.6614848   1.6263669  )
        21        S      tau(  21) = (  -0.2052486   0.7645816   2.4452758  )
        22        S      tau(  22) = (   0.2947515   0.1014436   1.6492611  )
        23        S      tau(  23) = (   0.4404769   0.5600412   0.8303547  )
        24        S      tau(  24) = (   0.7647715   0.2045404   0.0114459  )

   Crystallographic axes

     site n.     atom                  positions (cryst. coord.)
         1        Sr     tau(   1) = (  0.0000000  0.5621440  0.1666670  )
         2        Sr     tau(   2) = (  0.4378560  0.4378560  0.5000000  )
         3        Sr     tau(   3) = (  0.5621440  0.0000000  0.8333340  )
         4        Cu     tau(   4) = (  0.0726650  0.6361600  0.4121220  )
         5        Cu     tau(   5) = (  0.3638400  0.4365050  0.7454550  )
         6        Cu     tau(   6) = (  0.5634950  0.9273350  0.0787890  )
         7        Cu     tau(   7) = (  0.6361600  0.0726650  0.5878780  )
         8        Cu     tau(   8) = (  0.4365050  0.3638400  0.2545450  )
         9        Cu     tau(   9) = (  0.9273350  0.5634950  0.9212110  )
        10        Sn     tau(  10) = (  0.0000000  0.7048930  0.6666670  )
        11        Sn     tau(  11) = (  0.2951070  0.2951070  0.0000000  )
        12        Sn     tau(  12) = (  0.7048930  0.0000000  0.3333330  )
        13        S      tau(  13) = (  0.0452140  0.4861870  0.7872150  )
        14        S      tau(  14) = (  0.5138130  0.5590270  0.1205480  )
        15        S      tau(  15) = (  0.4409730  0.9547860  0.4538820  )
        16        S      tau(  16) = (  0.4861870  0.0452140  0.2127850  )
        17        S      tau(  17) = (  0.5590270  0.5138130  0.8794520  )
        18        S      tau(  18) = (  0.9547860  0.4409730  0.5461180  )
        19        S      tau(  19) = (  0.1171370  0.3533200  0.3286740  )
        20        S      tau(  20) = (  0.6466800  0.7638170  0.6620070  )
        21        S      tau(  21) = (  0.2361830  0.8828630  0.9953410  )
        22        S      tau(  22) = (  0.3533200  0.1171370  0.6713260  )
        23        S      tau(  23) = (  0.7638170  0.6466800  0.3379930  )
        24        S      tau(  24) = (  0.8828630  0.2361830  0.0046590  )

     number of k points=     4
                       cart. coord. in units 2pi/alat
        k(    1) = (   0.0000000   0.0000000   0.0000000), wk =   0.2500000
        k(    2) = (   0.0000000   0.0000000  -0.2035233), wk =   0.2500000
        k(    3) = (   0.0000000  -0.5773504   0.0000000), wk =   0.7500000
        k(    4) = (   0.0000000  -0.5773504  -0.2035233), wk =   0.7500000

                       cryst. coord.
        k(    1) = (   0.0000000   0.0000000   0.0000000), wk =   0.2500000
        k(    2) = (   0.0000000   0.0000000  -0.5000000), wk =   0.2500000
        k(    3) = (   0.0000000  -0.5000000   0.0000000), wk =   0.7500000
        k(    4) = (   0.0000000  -0.5000000  -0.5000000), wk =   0.7500000

     Dense  grid:  1003551 G-vectors     FFT dimensions: ( 100, 100, 240)

     Smooth grid:   354863 G-vectors     FFT dimensions: (  72,  72, 180)

     Dynamical RAM for                 wfc:      17.76 MB

     Dynamical RAM for     wfc (w. buffer):      88.82 MB

     Dynamical RAM for           str. fact:      15.31 MB

     Dynamical RAM for           local pot:       0.00 MB

     Dynamical RAM for          nlocal pot:      73.08 MB

     Dynamical RAM for                qrad:       8.12 MB

     Dynamical RAM for          rho,v,vnew:      25.22 MB

     Dynamical RAM for               rhoin:       8.41 MB

     Dynamical RAM for            rho*nmix:      61.25 MB

     Dynamical RAM for           G-vectors:      15.03 MB

     Dynamical RAM for          h,s,v(r/c):       2.02 MB

     Dynamical RAM for          <psi|beta>:       0.69 MB

     Dynamical RAM for                 psi:      35.53 MB

     Dynamical RAM for                hpsi:      35.53 MB

     Dynamical RAM for                spsi:      35.53 MB

     Dynamical RAM for      wfcinit/wfcrot:      35.78 MB

     Dynamical RAM for           addusdens:     758.00 MB

     Dynamical RAM for         addusstress:     769.49 MB

     Estimated static dynamical RAM per process >     276.02 MB

     Estimated max dynamical RAM per process >       1.08 GB

     Estimated total dynamical RAM >       4.32 GB

     Initial potential from superposition of free atoms

     starting charge     206.8971, renormalised to     210.0000

     negative rho (up, down):  1.951E-01 0.000E+00
     Starting wfcs are  168 randomized atomic wfcs
     Checking if some PAW data can be deallocated... 
       PAW data deallocated on    2 nodes for type:  1

     total cpu time spent up to now is        5.9 secs

     Self-consistent Calculation

     iteration #  1     ecut=    80.00 Ry     beta= 0.30
     Davidson diagonalization with overlap

---- Real-time Memory Report at c_bands before calling an iterative solver
             0 MiB given to the printing process from OS
             0 MiB allocation reported by mallinfo(arena+hblkhd)
             0 MiB available memory on the node where the printing process lives
------------------
     ethr =  1.00E-02,  avg # of iterations =  2.0

     negative rho (up, down):  1.945E-01 0.000E+00

     total cpu time spent up to now is       15.7 secs

     total energy              =   -2267.59260756 Ry
     estimated scf accuracy    <       5.46136113 Ry

     iteration #  2     ecut=    80.00 Ry     beta= 0.30
     Davidson diagonalization with overlap

---- Real-time Memory Report at c_bands before calling an iterative solver
             0 MiB given to the printing process from OS
             0 MiB allocation reported by mallinfo(arena+hblkhd)
             0 MiB available memory on the node where the printing process lives
------------------
     ethr =  2.60E-03,  avg # of iterations =  5.5

     negative rho (up, down):  1.946E-01 0.000E+00

     total cpu time spent up to now is       27.3 secs

     total energy              =   -2269.15630446 Ry
     estimated scf accuracy    <       2.07805875 Ry

     iteration #  3     ecut=    80.00 Ry     beta= 0.30
     Davidson diagonalization with overlap

---- Real-time Memory Report at c_bands before calling an iterative solver
             0 MiB given to the printing process from OS
             0 MiB allocation reported by mallinfo(arena+hblkhd)
             0 MiB available memory on the node where the printing process lives
------------------
     ethr =  9.90E-04,  avg # of iterations =  2.0

     negative rho (up, down):  1.960E-01 0.000E+00

     total cpu time spent up to now is       37.2 secs

     total energy              =   -2269.12223673 Ry
     estimated scf accuracy    <       0.41042797 Ry

     iteration #  4     ecut=    80.00 Ry     beta= 0.30
     Davidson diagonalization with overlap

---- Real-time Memory Report at c_bands before calling an iterative solver
             0 MiB given to the printing process from OS
             0 MiB allocation reported by mallinfo(arena+hblkhd)
             0 MiB available memory on the node where the printing process lives
------------------
     ethr =  1.95E-04,  avg # of iterations =  6.0

     negative rho (up, down):  1.966E-01 0.000E+00

     total cpu time spent up to now is       50.4 secs

     total energy              =   -2269.17522847 Ry
     estimated scf accuracy    <       0.53130811 Ry

     iteration #  5     ecut=    80.00 Ry     beta= 0.30
     Davidson diagonalization with overlap

---- Real-time Memory Report at c_bands before calling an iterative solver
             0 MiB given to the printing process from OS
             0 MiB allocation reported by mallinfo(arena+hblkhd)
             0 MiB available memory on the node where the printing process lives
------------------
     ethr =  1.95E-04,  avg # of iterations =  4.5

     negative rho (up, down):  1.982E-01 0.000E+00

     total cpu time spent up to now is       61.6 secs

     total energy              =   -2269.28434942 Ry
     estimated scf accuracy    <       0.04222763 Ry

     iteration #  6     ecut=    80.00 Ry     beta= 0.30
     Davidson diagonalization with overlap

---- Real-time Memory Report at c_bands before calling an iterative solver
             0 MiB given to the printing process from OS
             0 MiB allocation reported by mallinfo(arena+hblkhd)
             0 MiB available memory on the node where the printing process lives
------------------
     ethr =  2.01E-05,  avg # of iterations =  5.2

     negative rho (up, down):  1.986E-01 0.000E+00

     total cpu time spent up to now is       73.4 secs

     total energy              =   -2269.29566924 Ry
     estimated scf accuracy    <       0.00963963 Ry

     iteration #  7     ecut=    80.00 Ry     beta= 0.30
     Davidson diagonalization with overlap

---- Real-time Memory Report at c_bands before calling an iterative solver
             0 MiB given to the printing process from OS
             0 MiB allocation reported by mallinfo(arena+hblkhd)
             0 MiB available memory on the node where the printing process lives
------------------
     ethr =  4.59E-06,  avg # of iterations =  5.0

     negative rho (up, down):  1.987E-01 0.000E+00

     total cpu time spent up to now is       85.4 secs

     total energy              =   -2269.29760836 Ry
     estimated scf accuracy    <       0.00396004 Ry

     iteration #  8     ecut=    80.00 Ry     beta= 0.30
     Davidson diagonalization with overlap

---- Real-time Memory Report at c_bands before calling an iterative solver
             0 MiB given to the printing process from OS
             0 MiB allocation reported by mallinfo(arena+hblkhd)
             0 MiB available memory on the node where the printing process lives
------------------
     ethr =  1.89E-06,  avg # of iterations =  5.0

     negative rho (up, down):  1.989E-01 0.000E+00

     total cpu time spent up to now is       97.0 secs

     total energy              =   -2269.29824734 Ry
     estimated scf accuracy    <       0.00109895 Ry

     iteration #  9     ecut=    80.00 Ry     beta= 0.30
     Davidson diagonalization with overlap

---- Real-time Memory Report at c_bands before calling an iterative solver
             0 MiB given to the printing process from OS
             0 MiB allocation reported by mallinfo(arena+hblkhd)
             0 MiB available memory on the node where the printing process lives
------------------
     ethr =  5.23E-07,  avg # of iterations =  4.0

     negative rho (up, down):  1.988E-01 0.000E+00

     total cpu time spent up to now is      108.5 secs

     total energy              =   -2269.29855240 Ry
     estimated scf accuracy    <       0.00002816 Ry

     iteration # 10     ecut=    80.00 Ry     beta= 0.30
     Davidson diagonalization with overlap

---- Real-time Memory Report at c_bands before calling an iterative solver
             0 MiB given to the printing process from OS
             0 MiB allocation reported by mallinfo(arena+hblkhd)
             0 MiB available memory on the node where the printing process lives
------------------
     ethr =  1.34E-08,  avg # of iterations =  7.2

     negative rho (up, down):  1.986E-01 0.000E+00

     total cpu time spent up to now is      126.2 secs

     total energy              =   -2269.29854299 Ry
     estimated scf accuracy    <       0.00010773 Ry

     iteration # 11     ecut=    80.00 Ry     beta= 0.30
     Davidson diagonalization with overlap

---- Real-time Memory Report at c_bands before calling an iterative solver
             0 MiB given to the printing process from OS
             0 MiB allocation reported by mallinfo(arena+hblkhd)
             0 MiB available memory on the node where the printing process lives
------------------
     ethr =  1.34E-08,  avg # of iterations =  6.5

     negative rho (up, down):  1.986E-01 0.000E+00

     total cpu time spent up to now is      140.5 secs

     total energy              =   -2269.29857564 Ry
     estimated scf accuracy    <       0.00001323 Ry

     iteration # 12     ecut=    80.00 Ry     beta= 0.30
     Davidson diagonalization with overlap

---- Real-time Memory Report at c_bands before calling an iterative solver
             0 MiB given to the printing process from OS
             0 MiB allocation reported by mallinfo(arena+hblkhd)
             0 MiB available memory on the node where the printing process lives
------------------
     ethr =  6.30E-09,  avg # of iterations =  2.8

     negative rho (up, down):  1.986E-01 0.000E+00

     total cpu time spent up to now is      150.5 secs

     total energy              =   -2269.29857771 Ry
     estimated scf accuracy    <       0.00000187 Ry

     iteration # 13     ecut=    80.00 Ry     beta= 0.30
     Davidson diagonalization with overlap

---- Real-time Memory Report at c_bands before calling an iterative solver
             0 MiB given to the printing process from OS
             0 MiB allocation reported by mallinfo(arena+hblkhd)
             0 MiB available memory on the node where the printing process lives
------------------
     ethr =  8.92E-10,  avg # of iterations =  6.8

     negative rho (up, down):  1.986E-01 0.000E+00

     total cpu time spent up to now is      164.9 secs

     total energy              =   -2269.29857940 Ry
     estimated scf accuracy    <       0.00000156 Ry

     iteration # 14     ecut=    80.00 Ry     beta= 0.30
     Davidson diagonalization with overlap

---- Real-time Memory Report at c_bands before calling an iterative solver
             0 MiB given to the printing process from OS
             0 MiB allocation reported by mallinfo(arena+hblkhd)
             0 MiB available memory on the node where the printing process lives
------------------
     ethr =  7.42E-10,  avg # of iterations =  3.0

     negative rho (up, down):  1.985E-01 0.000E+00

     total cpu time spent up to now is      175.2 secs

     total energy              =   -2269.29857987 Ry
     estimated scf accuracy    <       0.00000015 Ry

     iteration # 15     ecut=    80.00 Ry     beta= 0.30
     Davidson diagonalization with overlap

---- Real-time Memory Report at c_bands before calling an iterative solver
             0 MiB given to the printing process from OS
             0 MiB allocation reported by mallinfo(arena+hblkhd)
             0 MiB available memory on the node where the printing process lives
------------------
     ethr =  7.07E-11,  avg # of iterations =  8.5

     negative rho (up, down):  1.985E-01 0.000E+00

     total cpu time spent up to now is      191.0 secs

     total energy              =   -2269.29858017 Ry
     estimated scf accuracy    <       0.00000018 Ry

     iteration # 16     ecut=    80.00 Ry     beta= 0.30
     Davidson diagonalization with overlap

---- Real-time Memory Report at c_bands before calling an iterative solver
             0 MiB given to the printing process from OS
             0 MiB allocation reported by mallinfo(arena+hblkhd)
             0 MiB available memory on the node where the printing process lives
------------------
     ethr =  7.07E-11,  avg # of iterations =  2.0

     negative rho (up, down):  1.985E-01 0.000E+00

     total cpu time spent up to now is      200.5 secs

     total energy              =   -2269.29858024 Ry
     estimated scf accuracy    <       0.00000005 Ry

     iteration # 17     ecut=    80.00 Ry     beta= 0.30
     Davidson diagonalization with overlap

---- Real-time Memory Report at c_bands before calling an iterative solver
             0 MiB given to the printing process from OS
             0 MiB allocation reported by mallinfo(arena+hblkhd)
             0 MiB available memory on the node where the printing process lives
------------------
     ethr =  2.46E-11,  avg # of iterations =  5.5

     negative rho (up, down):  1.985E-01 0.000E+00

     total cpu time spent up to now is      212.6 secs

     End of self-consistent calculation

          k = 0.0000 0.0000 0.0000 ( 44303 PWs)   bands (ev):

   -28.2187 -28.2186 -28.2184 -14.8652 -14.8651 -14.8650 -14.8616 -14.8615
   -14.8613 -14.8470 -14.8469 -14.8468 -14.8041 -14.8040 -14.8039 -14.7596
   -14.7595 -14.7594 -10.2756 -10.2755 -10.2688 -10.2499 -10.2497 -10.2269
   -10.2029 -10.2028 -10.1991  -6.8415  -6.5318  -6.5317  -5.6953  -5.6952
    -5.5614  -5.4785  -5.4784  -5.3933  -5.3328  -5.3326  -5.2069  -0.3133
    -0.2585  -0.2584   1.6251   1.6252   1.6975   2.0555   2.0757   2.0757
     2.3391   2.3434   2.5886   2.5887   2.9098   2.9098   3.2031   3.2680
     3.2680   3.4380   3.4380   3.5372   3.5569   3.5569   3.7321   3.7323
     3.7514   3.8402   3.8403   4.0113   4.1656   4.2456   4.3204   4.3205
     4.5809   4.5809   4.8978   5.1748   5.2277   5.2277   5.2690   5.2806
     5.2806   5.3626   5.3626   5.3713   5.4863   5.4863   5.5278   5.5468
     5.5468   5.6774   5.7736   5.7736   5.7936   6.0500   6.0500   6.2039
     6.3435   6.3436   6.6117   6.8211   6.8211   6.8595   7.0160   7.2371
     7.2371

     occupation numbers 
     1.0000   1.0000   1.0000   1.0000   1.0000   1.0000   1.0000   1.0000
     1.0000   1.0000   1.0000   1.0000   1.0000   1.0000   1.0000   1.0000
     1.0000   1.0000   1.0000   1.0000   1.0000   1.0000   1.0000   1.0000
     1.0000   1.0000   1.0000   1.0000   1.0000   1.0000   1.0000   1.0000
     1.0000   1.0000   1.0000   1.0000   1.0000   1.0000   1.0000   1.0000
     1.0000   1.0000   1.0000   1.0000   1.0000   1.0000   1.0000   1.0000
     1.0000   1.0000   1.0000   1.0000   1.0000   1.0000   1.0000   1.0000
     1.0000   1.0000   1.0000   1.0000   1.0000   1.0000   1.0000   1.0000
     1.0000   1.0000   1.0000   1.0000   1.0000   1.0000   1.0000   1.0000
     1.0000   1.0000   1.0000   1.0000   1.0000   1.0000   1.0000   1.0000
     1.0000   1.0000   1.0000   1.0000   1.0000   1.0000   1.0000   1.0000
     1.0000   1.0000   1.0000   1.0000   1.0000   1.0000   1.0000   1.0000
     1.0000   1.0000   1.0000   1.0000   1.0000   1.0000   1.0000   1.0000
     1.0000

          k = 0.0000 0.0000-0.2035 ( 44292 PWs)   bands (ev):

   -28.2187 -28.2186 -28.2184 -14.8652 -14.8651 -14.8650 -14.8616 -14.8614
   -14.8613 -14.8470 -14.8469 -14.8468 -14.8041 -14.8040 -14.8039 -14.7596
   -14.7595 -14.7594 -10.2774 -10.2713 -10.2711 -10.2592 -10.2332 -10.2330
   -10.2026 -10.2018 -10.2017  -6.7543  -6.7542  -6.3588  -5.8344  -5.5887
    -5.5885  -5.5229  -5.3997  -5.3995  -5.3352  -5.2716  -5.2714  -0.3036
    -0.3034  -0.2257   1.6234   1.6235   1.7022   2.0333   2.0997   2.0998
     2.3698   2.3699   2.6165   2.6165   2.7133   2.8246   3.2256   3.2258
     3.3625   3.3720   3.5451   3.5452   3.5872   3.6346   3.6347   3.7008
     3.8149   3.9253   3.9253   4.0411   4.0412   4.1690   4.2806   4.2807
     4.5257   4.7910   4.7911   5.1905   5.1986   5.1987   5.2658   5.3418
     5.3419   5.3798   5.3798   5.3955   5.3976   5.3976   5.4382   5.6073
     5.6073   5.6642   5.6810   5.8559   5.8560   5.9040   6.3275   6.3275
     6.4095   6.4095   6.4277   6.5473   6.5473   7.0795   7.0796   7.1193
     7.2001

     occupation numbers 
     1.0000   1.0000   1.0000   1.0000   1.0000   1.0000   1.0000   1.0000
     1.0000   1.0000   1.0000   1.0000   1.0000   1.0000   1.0000   1.0000
     1.0000   1.0000   1.0000   1.0000   1.0000   1.0000   1.0000   1.0000
     1.0000   1.0000   1.0000   1.0000   1.0000   1.0000   1.0000   1.0000
     1.0000   1.0000   1.0000   1.0000   1.0000   1.0000   1.0000   1.0000
     1.0000   1.0000   1.0000   1.0000   1.0000   1.0000   1.0000   1.0000
     1.0000   1.0000   1.0000   1.0000   1.0000   1.0000   1.0000   1.0000
     1.0000   1.0000   1.0000   1.0000   1.0000   1.0000   1.0000   1.0000
     1.0000   1.0000   1.0000   1.0000   1.0000   1.0000   1.0000   1.0000
     1.0000   1.0000   1.0000   1.0000   1.0000   1.0000   1.0000   1.0000
     1.0000   1.0000   1.0000   1.0000   1.0000   1.0000   1.0000   1.0000
     1.0000   1.0000   1.0000   1.0000   1.0000   1.0000   1.0000   1.0000
     1.0000   1.0000   1.0000   1.0000   1.0000   1.0000   1.0000   1.0000
     1.0000

          k = 0.0000-0.5774 0.0000 ( 44340 PWs)   bands (ev):

   -28.2186 -28.2185 -28.2184 -14.8648 -14.8647 -14.8646 -14.8615 -14.8612
   -14.8612 -14.8468 -14.8466 -14.8466 -14.8041 -14.8040 -14.8039 -14.7596
   -14.7595 -14.7593 -10.2833 -10.2813 -10.2805 -10.2544 -10.2465 -10.2373
   -10.2155 -10.2097 -10.2075  -6.3925  -6.2766  -6.1967  -5.9532  -5.8105
    -5.7598  -5.5766  -5.5739  -5.5202  -5.5061  -5.3847  -5.3024  -0.5692
    -0.3424  -0.2710   1.4172   1.7471   1.8436   2.1234   2.2809   2.4422
     2.4961   2.7007   2.8187   2.9635   2.9899   3.0671   3.0826   3.2508
     3.2969   3.4213   3.4734   3.4800   3.5204   3.5385   3.6291   3.6679
     3.7332   3.8693   4.0648   4.0831   4.1698   4.2172   4.2527   4.2928
     4.4691   4.5608   4.6651   5.2042   5.2218   5.2782   5.3010   5.3156
     5.3275   5.3588   5.3859   5.4257   5.5215   5.5268   5.6527   5.6698
     5.7001   5.7089   5.8362   5.8708   5.9542   5.9799   6.0792   6.2029
     6.3141   6.3154   6.3901   6.4178   6.4412   6.6231   6.6928   6.8003
     6.8341

     occupation numbers 
     1.0000   1.0000   1.0000   1.0000   1.0000   1.0000   1.0000   1.0000
     1.0000   1.0000   1.0000   1.0000   1.0000   1.0000   1.0000   1.0000
     1.0000   1.0000   1.0000   1.0000   1.0000   1.0000   1.0000   1.0000
     1.0000   1.0000   1.0000   1.0000   1.0000   1.0000   1.0000   1.0000
     1.0000   1.0000   1.0000   1.0000   1.0000   1.0000   1.0000   1.0000
     1.0000   1.0000   1.0000   1.0000   1.0000   1.0000   1.0000   1.0000
     1.0000   1.0000   1.0000   1.0000   1.0000   1.0000   1.0000   1.0000
     1.0000   1.0000   1.0000   1.0000   1.0000   1.0000   1.0000   1.0000
     1.0000   1.0000   1.0000   1.0000   1.0000   1.0000   1.0000   1.0000
     1.0000   1.0000   1.0000   1.0000   1.0000   1.0000   1.0000   1.0000
     1.0000   1.0000   1.0000   1.0000   1.0000   1.0000   1.0000   1.0000
     1.0000   1.0000   1.0000   1.0000   1.0000   1.0000   1.0000   1.0000
     1.0000   1.0000   1.0000   1.0000   1.0000   1.0000   1.0000   1.0000
     1.0000

          k = 0.0000-0.5774-0.2035 ( 44416 PWs)   bands (ev):

   -28.2186 -28.2185 -28.2184 -14.8648 -14.8647 -14.8646 -14.8615 -14.8612
   -14.8612 -14.8468 -14.8466 -14.8466 -14.8041 -14.8040 -14.8039 -14.7596
   -14.7595 -14.7594 -10.2847 -10.2821 -10.2784 -10.2521 -10.2474 -10.2391
   -10.2146 -10.2107 -10.2068  -6.3815  -6.2831  -6.2116  -5.9568  -5.7926
    -5.7249  -5.6280  -5.5725  -5.5123  -5.5056  -5.3924  -5.2919  -0.5586
    -0.3734  -0.2520   1.4528   1.6262   2.0342   2.0511   2.3249   2.4026
     2.4499   2.6482   2.8278   2.9090   3.0135   3.1228   3.1237   3.2440
     3.3220   3.4307   3.4617   3.4815   3.4882   3.5766   3.5769   3.7007
     3.7116   3.9412   4.0270   4.1145   4.1548   4.1883   4.1971   4.3017
     4.4654   4.6210   4.6397   5.2124   5.2216   5.2770   5.2973   5.3028
     5.3205   5.3812   5.4019   5.4078   5.4786   5.5846   5.6366   5.6697
     5.7062   5.7441   5.7995   5.8665   5.9291   6.0672   6.1148   6.1199
     6.2078   6.3189   6.3968   6.4205   6.4966   6.7003   6.7200   6.7505
     6.7830

     occupation numbers 
     1.0000   1.0000   1.0000   1.0000   1.0000   1.0000   1.0000   1.0000
     1.0000   1.0000   1.0000   1.0000   1.0000   1.0000   1.0000   1.0000
     1.0000   1.0000   1.0000   1.0000   1.0000   1.0000   1.0000   1.0000
     1.0000   1.0000   1.0000   1.0000   1.0000   1.0000   1.0000   1.0000
     1.0000   1.0000   1.0000   1.0000   1.0000   1.0000   1.0000   1.0000
     1.0000   1.0000   1.0000   1.0000   1.0000   1.0000   1.0000   1.0000
     1.0000   1.0000   1.0000   1.0000   1.0000   1.0000   1.0000   1.0000
     1.0000   1.0000   1.0000   1.0000   1.0000   1.0000   1.0000   1.0000
     1.0000   1.0000   1.0000   1.0000   1.0000   1.0000   1.0000   1.0000
     1.0000   1.0000   1.0000   1.0000   1.0000   1.0000   1.0000   1.0000
     1.0000   1.0000   1.0000   1.0000   1.0000   1.0000   1.0000   1.0000
     1.0000   1.0000   1.0000   1.0000   1.0000   1.0000   1.0000   1.0000
     1.0000   1.0000   1.0000   1.0000   1.0000   1.0000   1.0000   1.0000
     1.0000

     highest occupied level (ev):     7.2371

!    total energy              =   -2269.29858035 Ry
     estimated scf accuracy    <          2.3E-09 Ry

     The total energy is the sum of the following terms:
     one-electron contribution =    -691.84426865 Ry
     hartree contribution      =     504.26649175 Ry
     xc contribution           =    -567.40789031 Ry
     ewald contribution        =    -975.36458091 Ry
     one-center paw contrib.   =    -538.94833222 Ry
      -> PAW hartree energy AE =     295.23567982 Ry
      -> PAW hartree energy PS =    -293.05040160 Ry
      -> PAW xc energy AE      =    -404.97739364 Ry
      -> PAW xc energy PS      =     133.31794930 Ry
      -> total E_H with PAW    =     506.45176998 Ry
      -> total E_XC with PAW   =    -839.06733465 Ry

     convergence has been achieved in  17 iterations


     Computing stress (Cartesian axis) and pressure


     negative rho (up, down):  1.985E-01 0.000E+00
          total   stress  (Ry/bohr**3)                   (kbar)     P=        2.05
   0.00001035   0.00000000   0.00000000            1.52        0.00        0.00
   0.00000000   0.00001035   0.00000000            0.00        1.52        0.00
   0.00000000   0.00000000   0.00002115            0.00        0.00        3.11

     kinetic stress (kbar)   9019.23      0.00      0.00
                                0.00   9019.23     -0.00
                                0.00     -0.00   9039.75

     local   stress (kbar)  -2572.90      0.01     -0.01
                                0.01  -2572.88      0.01
                               -0.01      0.01  -3015.20

     nonloc. stress (kbar)   4102.90      0.00      0.00
                                0.00   4102.90     -0.00
                                0.00     -0.00   4100.10

     hartree stress (kbar)   6676.01     -0.00     -0.00
                               -0.00   6676.01      0.00
                               -0.00      0.00   6858.84

     exc-cor stress (kbar)   8558.27     -0.00      0.00
                               -0.00   8558.27     -0.00
                                0.00     -0.00   8558.64

     corecor stress (kbar) -12669.88      0.00     -0.00
                                0.00 -12669.88     -0.00
                               -0.00     -0.00 -12670.93

     ewald   stress (kbar) -13112.12     -0.01      0.01
                               -0.01 -13112.12     -0.01
                                0.01     -0.01 -12868.10

     hubbard stress (kbar)      0.00      0.00      0.00
                                0.00      0.00      0.00
                                0.00      0.00      0.00

     DFT-D   stress (kbar)      0.00      0.00      0.00
                                0.00      0.00      0.00
                                0.00      0.00      0.00

     XDM     stress (kbar)      0.00      0.00      0.00
                                0.00      0.00      0.00
                                0.00      0.00      0.00

     dft-nl  stress (kbar)      0.00      0.00      0.00
                                0.00      0.00      0.00
                                0.00      0.00      0.00

     TS-vdW  stress (kbar)      0.00      0.00      0.00
                                0.00      0.00      0.00
                                0.00      0.00      0.00

     MDB     stress (kbar)      0.00      0.00      0.00
                                0.00      0.00      0.00
                                0.00      0.00      0.00

     3D-RISM stress (kbar)      0.00      0.00      0.00
                                0.00      0.00      0.00
                                0.00      0.00      0.00


     Writing all to output data dir ./tmp/ecut_80/SrCu2SnS4_ecut_80.save/ :
     XML data file, charge density, pseudopotentials, collected wavefunctions

     init_run     :      5.60s CPU      5.68s WALL (       1 calls)
     electrons    :    205.62s CPU    206.71s WALL (       1 calls)
     stress       :     14.17s CPU     14.29s WALL (       1 calls)

     Called by init_run:
     wfcinit      :      3.91s CPU      3.94s WALL (       1 calls)
     wfcinit:atom :      0.01s CPU      0.01s WALL (       4 calls)
     wfcinit:wfcr :      3.75s CPU      3.76s WALL (       4 calls)
     potinit      :      0.35s CPU      0.36s WALL (       1 calls)
     hinit0       :      0.19s CPU      0.19s WALL (       1 calls)

     Called by electrons:
     c_bands      :    150.15s CPU    150.81s WALL (      17 calls)
     sum_band     :     32.84s CPU     33.09s WALL (      17 calls)
     v_of_rho     :      2.09s CPU      2.13s WALL (      18 calls)
     v_h          :      0.13s CPU      0.14s WALL (      18 calls)
     v_xc         :      2.08s CPU      2.12s WALL (      19 calls)
     newd         :     17.50s CPU     17.65s WALL (      18 calls)
     PAW_pot      :      3.81s CPU      3.84s WALL (      18 calls)
     mix_rho      :      0.32s CPU      0.33s WALL (      17 calls)

     Called by c_bands:
     init_us_2    :      0.72s CPU      0.73s WALL (     144 calls)
     cegterg      :    145.09s CPU    145.72s WALL (      68 calls)

     Called by sum_band:
     sum_band:wei :      0.00s CPU      0.00s WALL (      17 calls)
     sum_band:loo :     14.20s CPU     14.27s WALL (      17 calls)
     sum_band:buf :      0.06s CPU      0.06s WALL (      68 calls)
     sum_band:ini :      0.34s CPU      0.34s WALL (      68 calls)
     sum_band:cal :      6.77s CPU      6.79s WALL (      68 calls)
     sum_band:bec :      0.01s CPU      0.01s WALL (      68 calls)
     addusdens    :     17.71s CPU     17.87s WALL (      17 calls)
                                        0.00s GPU  (      17 calls)
     addusd:skk   :      0.09s CPU      0.10s WALL (      68 calls)
                                        0.00s GPU  (      68 calls)

     Called by *egterg:
     cdiaghg      :      2.85s CPU      2.86s WALL (     394 calls)
     cegterg:over :     12.21s CPU     12.27s WALL (     326 calls)
     cegterg:upda :      7.24s CPU      7.27s WALL (     326 calls)
     cegterg:last :     17.22s CPU     17.27s WALL (     172 calls)
     h_psi        :     83.24s CPU     83.63s WALL (     398 calls)
     s_psi        :     21.60s CPU     21.67s WALL (     398 calls)
     g_psi        :      0.13s CPU      0.13s WALL (     326 calls)

     Called by h_psi:
     h_psi:calbec :     21.31s CPU     21.37s WALL (     398 calls)
     vloc_psi     :     39.79s CPU     40.04s WALL (     398 calls)
                                        0.00s GPU  (     398 calls)
     add_vuspsi   :     21.96s CPU     22.05s WALL (     398 calls)

     General routines
     calbec       :     33.42s CPU     33.53s WALL (     518 calls)
     fft          :      1.59s CPU      1.60s WALL (     246 calls)
     ffts         :      0.06s CPU      0.06s WALL (      35 calls)
     fftw         :     42.09s CPU     42.34s WALL (   50770 calls)
     interpolate  :      0.16s CPU      0.16s WALL (      18 calls)

     Parallel routines

     PAW routines
     PAW_pot      :      3.81s CPU      3.84s WALL (      18 calls)
     PAW_symme    :      0.00s CPU      0.00s WALL (      35 calls)

     PWSCF        :   3m45.61s CPU   3m47.00s WALL


   This run was terminated on:   3:58:39  30Jun2026            

=------------------------------------------------------------------------------=
   JOB DONE.
=------------------------------------------------------------------------------=
