
     Program PWSCF v.7.3.1 starts on 21Aug2026 at  3:59:19 

     This program is part of the open-source Quantum ESPRESSO suite
     for quantum simulation of materials; please cite
         "P. Giannozzi et al., J. Phys.:Condens. Matter 21 395502 (2009);
         "P. Giannozzi et al., J. Phys.:Condens. Matter 29 465901 (2017);
         "P. Giannozzi et al., J. Chem. Phys. 152 154105 (2020);
          URL http://www.quantum-espresso.org", 
     in publications or presentations arising from this work. More details at
     http://www.quantum-espresso.org/quote

     Parallel version (MPI & OpenMP), running on      32 processor cores
     Number of MPI processes:                32
     Threads/MPI process:                     1

     MPI processes distributed on     1 nodes
     239704 MiB available memory on the printing compute node when the environment starts

     Reading input from scf.in

     Current dimensions of program PWSCF are:
     Max number of different atomic species (ntypx) = 10
     Max number of k-points (npk) =  40000
     Max angular momentum in pseudopotentials (lmaxx) =  4
     file Cu.paw.z_11.ld1.psl.v1.0.0-low.upf: wavefunction(s)  4S 3D renormalized

     K-points division:     npool     =       2
     R & G space division:  proc/nbgrp/npool/nimage =      16
     Subspace diagonalization in iterative solution of the eigenvalue problem:
     one sub-group per band group will be used
     scalapack distributed-memory algorithm (size of sub-group:  4*  4 procs)


     Parallelization info
     --------------------
     sticks:   dense  smooth     PW     G-vecs:    dense   smooth      PW
     Min        1193     597    157               163743    57882    7779
     Max        1194     599    158               163747    57885    7784
     Sum       19099    9565   2515              2619931   926125  124485

     Using Slab Decomposition



     bravais-lattice index     =            0
     lattice parameter (alat)  =      24.0273  a.u.
     unit-cell volume          =   14752.0463 (a.u.)^3
     number of atoms/cell      =           96
     number of atomic types    =            4
     number of electrons       =       840.00
     number of Kohn-Sham states=          420
     kinetic-energy cutoff     =      60.0000  Ry
     charge density cutoff     =     480.0000  Ry
     scf convergence threshold =      1.0E-09
     mixing beta               =       0.3000
     number of iterations used =            8  plain     mixing
     Exchange-correlation=  SLA  PW   PBX  PBC
                           (   1   4   3   4   0   0   0)

     celldm(1)=  24.027274  celldm(2)=   0.000000  celldm(3)=   0.000000
     celldm(4)=   0.000000  celldm(5)=   0.000000  celldm(6)=   0.000000

     crystal axes: (cart. coord. in units of alat)
               a(1) = (   1.000000   0.000000   0.000000 )  
               a(2) = (  -0.500000   0.866025   0.000000 )  
               a(3) = (   0.000000   0.000000   1.228028 )  

     reciprocal axes: (cart. coord. in units 2 pi/alat)
               b(1) = (  1.000000  0.577351 -0.000000 )  
               b(2) = (  0.000000  1.154701  0.000000 )  
               b(3) = (  0.000000 -0.000000  0.814314 )  


     PseudoPot. # 1 for Sr read from file:
     /home/yuhansun/pseudos/SSSP-1.3.0-PBE-precision/Sr_pbe_v1.uspp.F.UPF
     MD5 check sum: 6b418c05fbe9db5448babca5e47b7a5b
     Pseudo is Ultrasoft + core correction, Zval = 10.0
     Generated by new atomic code, or converted to UPF format
     Using radial grid of  883 points,  6 beta functions with: 
                l(1) =   0
                l(2) =   0
                l(3) =   1
                l(4) =   1
                l(5) =   2
                l(6) =   2
     Q(r) pseudized with  6 coefficients,  rinner =    1.400   1.400   1.400
                                                       1.400   1.400

     PseudoPot. # 2 for Cu read from file:
     /home/yuhansun/pseudos/SSSP-1.3.0-PBE-precision/Cu.paw.z_11.ld1.psl.v1.0.0-low.upf
     MD5 check sum: 619f40885d92a09a85a8b37550532d0c
     Pseudo is Projector augmented-wave + core cor, Zval = 11.0
     Generated using &quot;atomic&quot; code by A. Dal Corso  v.6.3MaX
     Shape of augmentation charge: PSQ
     Using radial grid of 1199 points,  6 beta functions with: 
                l(1) =   0
                l(2) =   0
                l(3) =   1
                l(4) =   1
                l(5) =   2
                l(6) =   2
     Q(r) pseudized with 0 coefficients 


     PseudoPot. # 3 for Sn read from file:
     /home/yuhansun/pseudos/SSSP-1.3.0-PBE-precision/Sn_pbe_v1.uspp.F.UPF
     MD5 check sum: 4cf58ce39ec5d5d420df3dd08604eb00
     Pseudo is Ultrasoft + core correction, Zval = 14.0
     Generated by new atomic code, or converted to UPF format
     Using radial grid of  891 points,  6 beta functions with: 
                l(1) =   0
                l(2) =   0
                l(3) =   1
                l(4) =   1
                l(5) =   2
                l(6) =   2
     Q(r) pseudized with  6 coefficients,  rinner =    1.200   1.200   1.200
                                                       1.200   1.200

     PseudoPot. # 4 for S  read from file:
     /home/yuhansun/pseudos/SSSP-1.3.0-PBE-precision/s_pbe_v1.4.uspp.F.UPF
     MD5 check sum: 88d86576ff6df21479756cfb9bdac1df
     Pseudo is Ultrasoft + core correction, Zval =  6.0
     Generated by new atomic code, or converted to UPF format
     Using radial grid of  907 points,  6 beta functions with: 
                l(1) =   0
                l(2) =   0
                l(3) =   1
                l(4) =   1
                l(5) =   2
                l(6) =   2
     Q(r) pseudized with  8 coefficients,  rinner =    1.300   1.300   1.300
                                                       1.300   1.300

     atomic species   valence    mass     pseudopotential
     Sr               10.00    87.62000     Sr( 1.00)
     Cu               11.00    63.54600     Cu( 1.00)
     Sn               14.00   118.71000     Sn( 1.00)
     S                 6.00    32.06500     S ( 1.00)

     No symmetry found



   Cartesian axes

     site n.     atom                  positions (alat units)
         1        Sr     tau(   1) = (  -0.1405753   0.2434834   0.2046717  )
         2        Sr     tau(   2) = (   0.3594247   0.2434834   0.2046717  )
         3        Sr     tau(   3) = (  -0.3905753   0.6764960   0.2046717  )
         4        Sr     tau(   4) = (   0.1094247   0.6764960   0.2046717  )
         5        Sr     tau(   5) = (   0.1094247   0.1895292   0.6140139  )
         6        Sr     tau(   6) = (   0.6094247   0.1895292   0.6140139  )
         7        Sr     tau(   7) = (  -0.1405753   0.6225418   0.6140139  )
         8        Sr     tau(   8) = (   0.3594247   0.6225418   0.6140139  )
         9        Sr     tau(   9) = (   0.2811505   0.0000000   1.0233574  )
        10        Sr     tau(  10) = (   0.7811505   0.0000000   1.0233574  )
        11        Sr     tau(  11) = (   0.0311505   0.4330126   1.0233574  )
        12        Sr     tau(  12) = (   0.5311505   0.4330126   1.0233574  )
        13        Cu     tau(  13) = (  -0.1226788   0.2753211   0.5061747  )
        14        Cu     tau(  14) = (   0.3773212   0.2753211   0.5061747  )
        15        Cu     tau(  15) = (  -0.3726788   0.7083337   0.5061747  )
        16        Cu     tau(  16) = (   0.1273212   0.7083337   0.5061747  )
        17        Cu     tau(  17) = (   0.0729045   0.1891087   0.9155169  )
        18        Cu     tau(  18) = (   0.5729045   0.1891087   0.9155169  )
        19        Cu     tau(  19) = (  -0.1770956   0.6221213   0.9155169  )
        20        Cu     tau(  20) = (   0.3229044   0.6221213   0.9155169  )
        21        Cu     tau(  21) = (   0.0497750   0.4015949   0.0968325  )
        22        Cu     tau(  22) = (   0.5497750   0.4015949   0.0968325  )
        23        Cu     tau(  23) = (  -0.2002251   0.8346075   0.0968325  )
        24        Cu     tau(  24) = (   0.2997749   0.8346075   0.0968325  )
        25        Cu     tau(  25) = (   0.2997745   0.0314177   0.7218532  )
        26        Cu     tau(  26) = (   0.7997745   0.0314177   0.7218532  )
        27        Cu     tau(  27) = (   0.0497745   0.4644302   0.7218532  )
        28        Cu     tau(  28) = (   0.5497745   0.4644302   0.7218532  )
        29        Cu     tau(  29) = (   0.1273207   0.1576915   0.3125110  )
        30        Cu     tau(  30) = (   0.6273207   0.1576915   0.3125110  )
        31        Cu     tau(  31) = (  -0.1226793   0.5907041   0.3125110  )
        32        Cu     tau(  32) = (   0.3773207   0.5907041   0.3125110  )
        33        Cu     tau(  33) = (   0.3229040   0.2439039   1.1311954  )
        34        Cu     tau(  34) = (   0.8229040   0.2439039   1.1311954  )
        35        Cu     tau(  35) = (   0.0729039   0.6769164   1.1311954  )
        36        Cu     tau(  36) = (   0.5729039   0.6769164   1.1311954  )
        37        Sn     tau(  37) = (  -0.1762580   0.3052877   0.8186857  )
        38        Sn     tau(  38) = (   0.3237420   0.3052877   0.8186857  )
        39        Sn     tau(  39) = (  -0.4262581   0.7383003   0.8186857  )
        40        Sn     tau(  40) = (   0.0737419   0.7383003   0.8186857  )
        41        Sn     tau(  41) = (   0.0737420   0.1277249   0.0000000  )
        42        Sn     tau(  42) = (   0.5737420   0.1277249   0.0000000  )
        43        Sn     tau(  43) = (  -0.1762581   0.5607374   0.0000000  )
        44        Sn     tau(  44) = (   0.3237419   0.5607374   0.0000000  )
        45        Sn     tau(  45) = (   0.3525160   0.0000000   0.4093422  )
        46        Sn     tau(  46) = (   0.8525160   0.0000000   0.4093422  )
        47        Sn     tau(  47) = (   0.1025160   0.4330126   0.4093422  )
        48        Sn     tau(  48) = (   0.6025160   0.4330126   0.4093422  )
        49        S      tau(  49) = (  -0.0988203   0.2103164   0.9671149  )
        50        S      tau(  50) = (   0.4011797   0.2103164   0.9671149  )
        51        S      tau(  51) = (  -0.3488203   0.6433290   0.9671149  )
        52        S      tau(  52) = (   0.1511797   0.6433290   0.9671149  )
        53        S      tau(  53) = (   0.1172707   0.2422736   0.1484293  )
        54        S      tau(  54) = (   0.6172707   0.2422736   0.1484293  )
        55        S      tau(  55) = (  -0.1327293   0.6752862   0.1484293  )
        56        S      tau(  56) = (   0.3672707   0.6752862   0.1484293  )
        57        S      tau(  57) = (  -0.0184505   0.4134352   0.5577727  )
        58        S      tau(  58) = (   0.4815495   0.4134352   0.5577727  )
        59        S      tau(  59) = (  -0.2684506   0.8464478   0.5577727  )
        60        S      tau(  60) = (   0.2315494   0.8464478   0.5577727  )
        61        S      tau(  61) = (   0.2315495   0.0195774   0.2609129  )
        62        S      tau(  62) = (   0.7315495   0.0195774   0.2609129  )
        63        S      tau(  63) = (  -0.0184505   0.4525899   0.2609129  )
        64        S      tau(  64) = (   0.4815495   0.4525899   0.2609129  )
        65        S      tau(  65) = (   0.1511797   0.2226962   1.0795986  )
        66        S      tau(  66) = (   0.6511797   0.2226962   1.0795986  )
        67        S      tau(  67) = (  -0.0988203   0.6557088   1.0795986  )
        68        S      tau(  68) = (   0.4011797   0.6557088   1.0795986  )
        69        S      tau(  69) = (   0.3672707   0.1907390   0.6702552  )
        70        S      tau(  70) = (   0.8672707   0.1907390   0.6702552  )
        71        S      tau(  71) = (   0.1172707   0.6237516   0.6702552  )
        72        S      tau(  72) = (   0.6172707   0.6237516   0.6702552  )
        73        S      tau(  73) = (  -0.0321469   0.1575264   0.4035914  )
        74        S      tau(  74) = (   0.4703502   0.1532012   0.4035914  )
        75        S      tau(  75) = (  -0.2796498   0.5862137   0.4035914  )
        76        S      tau(  76) = (   0.2203502   0.5862137   0.4035914  )
        77        S      tau(  77) = (   0.1321490   0.3307341   0.8129336  )
        78        S      tau(  78) = (   0.6321490   0.3307341   0.8129336  )
        79        S      tau(  79) = (  -0.1178511   0.7637467   0.8129336  )
        80        S      tau(  80) = (   0.3821489   0.7637467   0.8129336  )
        81        S      tau(  81) = (  -0.1024985   0.3820894   1.2222770  )
        82        S      tau(  82) = (   0.3975015   0.3820894   1.2222770  )
        83        S      tau(  83) = (  -0.3524986   0.8151020   1.2222770  )
        84        S      tau(  84) = (   0.1475014   0.8151020   1.2222770  )
        85        S      tau(  85) = (   0.1475010   0.0509231   0.8244365  )
        86        S      tau(  86) = (   0.6475010   0.0509231   0.8244365  )
        87        S      tau(  87) = (  -0.1024990   0.4839357   0.8244365  )
        88        S      tau(  88) = (   0.3975010   0.4839357   0.8244365  )
        89        S      tau(  89) = (   0.2203497   0.2798114   0.4150943  )
        90        S      tau(  90) = (   0.7203497   0.2798114   0.4150943  )
        91        S      tau(  91) = (  -0.0296503   0.7128240   0.4150943  )
        92        S      tau(  92) = (   0.4703497   0.7128240   0.4150943  )
        93        S      tau(  93) = (   0.3821485   0.1022784   0.0057509  )
        94        S      tau(  94) = (   0.8821485   0.1022784   0.0057509  )
        95        S      tau(  95) = (   0.1321485   0.5352910   0.0057509  )
        96        S      tau(  96) = (   0.6321485   0.5352910   0.0057509  )

     number of k points=    14
                       cart. coord. in units 2pi/alat
        k(    1) = (   0.0000000   0.0000000   0.0000000), wk =   0.0740741
        k(    2) = (   0.0000000   0.0000000   0.2714379), wk =   0.1481481
        k(    3) = (   0.0000000   0.3849003   0.0000000), wk =   0.1481481
        k(    4) = (   0.0000000   0.3849003   0.2714379), wk =   0.1481481
        k(    5) = (   0.3333333   0.5773505   0.0000000), wk =   0.1481481
        k(    6) = (   0.3333333   0.5773505   0.2714379), wk =   0.1481481
        k(    7) = (  -0.3333333   0.1924501   0.0000000), wk =   0.1481481
        k(    8) = (   0.3333333   0.1924502   0.0000000), wk =   0.1481481
        k(    9) = (   0.0000000  -0.3849003   0.2714379), wk =   0.1481481
        k(   10) = (  -0.3333333   0.1924501   0.2714379), wk =   0.1481481
        k(   11) = (   0.3333333   0.1924502   0.2714379), wk =   0.1481481
        k(   12) = (  -0.3333333  -0.1924502   0.2714379), wk =   0.1481481
        k(   13) = (   0.3333333  -0.1924501   0.2714379), wk =   0.1481481
        k(   14) = (  -0.3333333  -0.5773505   0.2714379), wk =   0.1481481

     Dense  grid:  2619931 G-vectors     FFT dimensions: ( 180, 180, 216)

     Smooth grid:   926125 G-vectors     FFT dimensions: ( 120, 120, 150)

     Estimated max dynamical RAM per process >       1.07 GB

     Estimated total dynamical RAM >      33.54 GB

     Initial potential from superposition of free atoms

     starting charge     827.5884, renormalised to     840.0000

     negative rho (up, down):  7.777E-01 0.000E+00
     Starting wfcs are  672 randomized atomic wfcs
     Checking if some PAW data can be deallocated... 

     total cpu time spent up to now is       45.3 secs

     Self-consistent Calculation

     iteration #  1     ecut=    60.00 Ry     beta= 0.30
     Davidson diagonalization with overlap
     ethr =  1.00E-02,  avg # of iterations =  2.0

     negative rho (up, down):  7.747E-01 0.000E+00

     total cpu time spent up to now is      127.5 secs

     total energy              =   -9070.27277355 Ry
     estimated scf accuracy    <      22.01918934 Ry

     iteration #  2     ecut=    60.00 Ry     beta= 0.30
     Davidson diagonalization with overlap
     ethr =  2.62E-03,  avg # of iterations =  4.8

     negative rho (up, down):  7.752E-01 0.000E+00

     total cpu time spent up to now is      233.3 secs

     total energy              =   -9076.61157287 Ry
     estimated scf accuracy    <       8.26519384 Ry

     iteration #  3     ecut=    60.00 Ry     beta= 0.30
     Davidson diagonalization with overlap
     ethr =  9.84E-04,  avg # of iterations =  2.0

     negative rho (up, down):  7.804E-01 0.000E+00

     total cpu time spent up to now is      318.0 secs

     total energy              =   -9076.48464248 Ry
     estimated scf accuracy    <       1.63128474 Ry

     iteration #  4     ecut=    60.00 Ry     beta= 0.30
     Davidson diagonalization with overlap
     ethr =  1.94E-04,  avg # of iterations =  6.0

     negative rho (up, down):  7.829E-01 0.000E+00

     total cpu time spent up to now is      439.0 secs

     total energy              =   -9076.69946051 Ry
     estimated scf accuracy    <       2.08049448 Ry

     iteration #  5     ecut=    60.00 Ry     beta= 0.30
     Davidson diagonalization with overlap
     ethr =  1.94E-04,  avg # of iterations =  5.2

     negative rho (up, down):  7.883E-01 0.000E+00

     total cpu time spent up to now is      539.2 secs

     total energy              =   -9077.13629646 Ry
     estimated scf accuracy    <       0.14443776 Ry

     iteration #  6     ecut=    60.00 Ry     beta= 0.30
     Davidson diagonalization with overlap
     ethr =  1.72E-05,  avg # of iterations =  6.2

     negative rho (up, down):  7.902E-01 0.000E+00

     total cpu time spent up to now is      642.8 secs

     total energy              =   -9077.18380781 Ry
     estimated scf accuracy    <       0.01345208 Ry

     iteration #  7     ecut=    60.00 Ry     beta= 0.30
     Davidson diagonalization with overlap
     ethr =  1.60E-06,  avg # of iterations =  5.0

     negative rho (up, down):  7.907E-01 0.000E+00

     total cpu time spent up to now is      756.1 secs

     total energy              =   -9077.18805092 Ry
     estimated scf accuracy    <       0.00572819 Ry

     iteration #  8     ecut=    60.00 Ry     beta= 0.30
     Davidson diagonalization with overlap
     ethr =  6.82E-07,  avg # of iterations =  6.5

     negative rho (up, down):  7.912E-01 0.000E+00

     total cpu time spent up to now is      889.6 secs

     total energy              =   -9077.17845577 Ry
     estimated scf accuracy    <       0.04976201 Ry

     iteration #  9     ecut=    60.00 Ry     beta= 0.30
     Davidson diagonalization with overlap
     ethr =  6.82E-07,  avg # of iterations =  6.6

     negative rho (up, down):  7.911E-01 0.000E+00

     total cpu time spent up to now is     1027.9 secs

     total energy              =   -9077.18696805 Ry
     estimated scf accuracy    <       0.00160004 Ry

     iteration # 10     ecut=    60.00 Ry     beta= 0.30
     Davidson diagonalization with overlap
     ethr =  1.90E-07,  avg # of iterations =  2.6

     negative rho (up, down):  7.907E-01 0.000E+00

     total cpu time spent up to now is     1109.8 secs

     total energy              =   -9077.18678255 Ry
     estimated scf accuracy    <       0.00061868 Ry

     iteration # 11     ecut=    60.00 Ry     beta= 0.30
     Davidson diagonalization with overlap
     ethr =  7.37E-08,  avg # of iterations =  5.0

     negative rho (up, down):  7.905E-01 0.000E+00

     total cpu time spent up to now is     1217.9 secs

     total energy              =   -9077.18696929 Ry
     estimated scf accuracy    <       0.00018549 Ry

     iteration # 12     ecut=    60.00 Ry     beta= 0.30
     Davidson diagonalization with overlap
     ethr =  2.21E-08,  avg # of iterations =  4.3

     negative rho (up, down):  7.904E-01 0.000E+00

     total cpu time spent up to now is     1313.5 secs

     total energy              =   -9077.18699487 Ry
     estimated scf accuracy    <       0.00005164 Ry

     iteration # 13     ecut=    60.00 Ry     beta= 0.30
     Davidson diagonalization with overlap
     ethr =  6.15E-09,  avg # of iterations =  5.6

     negative rho (up, down):  7.903E-01 0.000E+00

     total cpu time spent up to now is     1410.6 secs

     total energy              =   -9077.18700544 Ry
     estimated scf accuracy    <       0.00000924 Ry

     iteration # 14     ecut=    60.00 Ry     beta= 0.30
     Davidson diagonalization with overlap
     ethr =  1.10E-09,  avg # of iterations =  4.5

     negative rho (up, down):  7.902E-01 0.000E+00

     total cpu time spent up to now is     1505.6 secs

     total energy              =   -9077.18700719 Ry
     estimated scf accuracy    <       0.00000185 Ry

     iteration # 15     ecut=    60.00 Ry     beta= 0.30
     Davidson diagonalization with overlap
     ethr =  2.21E-10,  avg # of iterations =  5.1

     negative rho (up, down):  7.902E-01 0.000E+00

     total cpu time spent up to now is     1610.3 secs

     total energy              =   -9077.18700781 Ry
     estimated scf accuracy    <       0.00000045 Ry

     iteration # 16     ecut=    60.00 Ry     beta= 0.30
     Davidson diagonalization with overlap
     ethr =  5.41E-11,  avg # of iterations =  4.9

     negative rho (up, down):  7.902E-01 0.000E+00

     total cpu time spent up to now is     1719.5 secs

     total energy              =   -9077.18700803 Ry
     estimated scf accuracy    <       0.00000016 Ry

     iteration # 17     ecut=    60.00 Ry     beta= 0.30
     Davidson diagonalization with overlap
     ethr =  1.93E-11,  avg # of iterations =  2.0

     negative rho (up, down):  7.902E-01 0.000E+00

     total cpu time spent up to now is     1806.1 secs

     total energy              =   -9077.18700806 Ry
     estimated scf accuracy    <       0.00000006 Ry

     iteration # 18     ecut=    60.00 Ry     beta= 0.30
     Davidson diagonalization with overlap
     ethr =  6.74E-12,  avg # of iterations =  5.8

     negative rho (up, down):  7.902E-01 0.000E+00

     total cpu time spent up to now is     1908.6 secs

     total energy              =   -9077.18700809 Ry
     estimated scf accuracy    <       0.00000001 Ry

     iteration # 19     ecut=    60.00 Ry     beta= 0.30
     Davidson diagonalization with overlap
     ethr =  1.32E-12,  avg # of iterations =  4.2

     negative rho (up, down):  7.902E-01 0.000E+00

     total cpu time spent up to now is     2010.0 secs

     total energy              =   -9077.18700810 Ry
     estimated scf accuracy    <          4.0E-09 Ry

     iteration # 20     ecut=    60.00 Ry     beta= 0.30
     Davidson diagonalization with overlap
     ethr =  4.75E-13,  avg # of iterations =  3.5

     negative rho (up, down):  7.902E-01 0.000E+00

     total cpu time spent up to now is     2103.8 secs

     total energy              =   -9077.18700810 Ry
     estimated scf accuracy    <          1.4E-09 Ry

     iteration # 21     ecut=    60.00 Ry     beta= 0.30
     Davidson diagonalization with overlap
     ethr =  1.67E-13,  avg # of iterations =  5.1

     negative rho (up, down):  7.902E-01 0.000E+00

     total cpu time spent up to now is     2216.1 secs

     End of self-consistent calculation

          k = 0.0000 0.0000 0.0000 (115723 PWs)   bands (ev):

   -28.2819 -28.2774 -28.2774 -28.2754 -28.2754 -28.2751 -28.2749 -28.2748
   -28.2747 -28.2746 -28.2743 -28.2520 -14.9242 -14.9231 -14.9228 -14.9224
   -14.9223 -14.9223 -14.9222 -14.9220 -14.9216 -14.9210 -14.9210 -14.9183
   -14.9172 -14.9169 -14.9167 -14.9166 -14.9165 -14.9165 -14.9163 -14.9160
   -14.9158 -14.9152 -14.9149 -14.9114 -14.9062 -14.9051 -14.9047 -14.9045
   -14.9044 -14.9044 -14.9043 -14.9040 -14.9031 -14.9030 -14.9027 -14.8992
   -14.8661 -14.8649 -14.8645 -14.8643 -14.8643 -14.8642 -14.8642 -14.8639
   -14.8637 -14.8630 -14.8629 -14.8587 -14.8211 -14.8209 -14.8198 -14.8194
   -14.8191 -14.8191 -14.8190 -14.8189 -14.8185 -14.8177 -14.8175 -14.8140
   -10.3426 -10.3387 -10.3383 -10.3374 -10.3364 -10.3363 -10.3355 -10.3348
   -10.3324 -10.3310 -10.3262 -10.3148 -10.3104 -10.3091 -10.3074 -10.3051
   -10.3036 -10.3018 -10.3007 -10.2980 -10.2931 -10.2917 -10.2867 -10.2768
   -10.2726 -10.2703 -10.2690 -10.2672 -10.2644 -10.2635 -10.2627 -10.2619
   -10.2595 -10.2588 -10.2554 -10.2428  -6.8627  -6.5545  -6.5539  -6.4167
    -6.4163  -6.4156  -6.2996  -6.2982  -6.2959  -6.2179  -6.2175  -6.2131
    -5.9946  -5.9895  -5.9887  -5.8514  -5.8488  -5.8470  -5.7978  -5.7958
    -5.7947  -5.7369  -5.7359  -5.6197  -5.6181  -5.6178  -5.6145  -5.6131
    -5.6127  -5.6001  -5.5586  -5.5580  -5.5575  -5.5455  -5.5444  -5.5441
    -5.5168  -5.5163  -5.4321  -5.4290  -5.4283  -5.4278  -5.3730  -5.3722
    -5.3460  -5.3448  -5.3439  -5.2508  -0.6114  -0.6111  -0.6090  -0.3891
    -0.3886  -0.3869  -0.3493  -0.3164  -0.3150  -0.3136  -0.3007  -0.2990
     1.3837   1.3856   1.3871   1.5906   1.5941   1.6554   1.7169   1.7181
     1.7191   1.8020   1.8061   1.8073   2.0174   2.0388   2.0420   2.0791
     2.0852   2.0855   2.2476   2.2483   2.2503   2.3083   2.3115   2.4048
     2.4050   2.4069   2.4570   2.4604   2.4622   2.5469   2.5511   2.6585
     2.6634   2.6641   2.7797   2.7841   2.7866   2.8691   2.8721   2.9250
     2.9255   2.9259   2.9518   2.9538   2.9568   3.0242   3.0271   3.0278
     3.0455   3.0464   3.0522   3.1635   3.2128   3.2157   3.2189   3.2272
     3.2282   3.2552   3.2577   3.2590   3.3762   3.3777   3.3782   3.3916
     3.3929   3.4261   3.4263   3.4276   3.4316   3.4354   3.4366   3.4742
     3.4761   3.4773   3.4927   3.4933   3.4956   3.4972   3.5156   3.5173
     3.5809   3.5852   3.5857   3.6207   3.6258   3.6281   3.6784   3.6885
     3.6906   3.6910   3.6923   3.7049   3.7945   3.7969   3.8228   3.8252
     3.8263   3.9625   4.0168   4.0198   4.0222   4.0350   4.0355   4.0384
     4.1211   4.1251   4.1259   4.1278   4.1706   4.1737   4.1742   4.1998
     4.2061   4.2091   4.2127   4.2423   4.2442   4.2462   4.2816   4.2837
     4.4215   4.4249   4.4255   4.5155   4.5188   4.5210   4.5355   4.5368
     4.6187   4.6208   4.6218   4.8542   5.1243   5.1531   5.1554   5.1558
     5.1705   5.1742   5.1746   5.1782   5.1788   5.2199   5.2243   5.2266
     5.2278   5.2284   5.2304   5.2483   5.2521   5.2526   5.2644   5.2662
     5.2676   5.2744   5.2781   5.2791   5.3065   5.3105   5.3118   5.3121
     5.3136   5.3250   5.3357   5.3380   5.3393   5.3732   5.3752   5.3770
     5.4372   5.4384   5.4696   5.4715   5.4725   5.4744   5.4753   5.4773
     5.4796   5.4980   5.4999   5.6003   5.6009   5.6023   5.6169   5.6180
     5.6194   5.6266   5.6467   5.6468   5.6475   5.6580   5.6595   5.6606
     5.7248   5.7271   5.7455   5.7818   5.7826   5.7843   5.8204   5.8215
     5.8231   5.9019   5.9036   5.9042   5.9259   5.9288   5.9293   5.9944
     5.9967   6.0256   6.0269   6.0281   6.1492   6.1501   6.1515   6.1530
     6.2608   6.2616   6.2629   6.2633   6.2639   6.2651   6.2893   6.2909
     6.3343   6.3352   6.3358   6.3617   6.3635   6.3643   6.3876   6.3890
     6.3909   6.5521   6.5693   6.5713   6.5725   6.6379   6.6380   6.6427
     6.7469   6.7479   6.7502   6.7654   6.7694   6.7796   6.7822   6.7838
     6.8076   6.9651   7.1808   7.1814

          k = 0.0000 0.0000 0.2714 (115879 PWs)   bands (ev):

   -28.2819 -28.2774 -28.2774 -28.2754 -28.2754 -28.2751 -28.2750 -28.2748
   -28.2747 -28.2746 -28.2743 -28.2520 -14.9242 -14.9231 -14.9228 -14.9224
   -14.9223 -14.9223 -14.9222 -14.9220 -14.9216 -14.9210 -14.9210 -14.9183
   -14.9172 -14.9169 -14.9167 -14.9166 -14.9165 -14.9165 -14.9163 -14.9160
   -14.9158 -14.9152 -14.9149 -14.9114 -14.9062 -14.9051 -14.9047 -14.9045
   -14.9044 -14.9044 -14.9043 -14.9040 -14.9031 -14.9030 -14.9027 -14.8992
   -14.8661 -14.8649 -14.8645 -14.8643 -14.8643 -14.8642 -14.8642 -14.8639
   -14.8637 -14.8630 -14.8629 -14.8587 -14.8211 -14.8209 -14.8198 -14.8194
   -14.8191 -14.8191 -14.8190 -14.8189 -14.8185 -14.8177 -14.8175 -14.8140
   -10.3429 -10.3393 -10.3390 -10.3387 -10.3367 -10.3362 -10.3342 -10.3335
   -10.3328 -10.3297 -10.3266 -10.3151 -10.3120 -10.3086 -10.3073 -10.3062
   -10.3026 -10.3014 -10.2992 -10.2945 -10.2934 -10.2930 -10.2879 -10.2782
   -10.2719 -10.2695 -10.2687 -10.2676 -10.2649 -10.2642 -10.2621 -10.2615
   -10.2594 -10.2584 -10.2564 -10.2430  -6.8234  -6.7128  -6.4087  -6.4082
    -6.4077  -6.4062  -6.3041  -6.3027  -6.3015  -6.2302  -6.2297  -6.2254
    -5.9962  -5.9913  -5.9901  -5.8532  -5.8364  -5.8341  -5.8317  -5.7753
    -5.7731  -5.7722  -5.6565  -5.6559  -5.6550  -5.6515  -5.6141  -5.6125
    -5.6115  -5.6106  -5.5563  -5.5528  -5.5516  -5.5499  -5.5452  -5.5440
    -5.5435  -5.4536  -5.4349  -5.4343  -5.4339  -5.4328  -5.3750  -5.3457
    -5.3381  -5.3370  -5.3361  -5.2813  -0.6036  -0.6033  -0.6013  -0.4127
    -0.4118  -0.4102  -0.3468  -0.3312  -0.3017  -0.3006  -0.2991  -0.2729
     1.4083   1.4099   1.4111   1.5702   1.6140   1.6175   1.6191   1.6225
     1.6575   1.9315   1.9355   1.9365   2.0051   2.0434   2.0491   2.0532
     2.0538   2.0668   2.2761   2.2767   2.2780   2.3056   2.3862   2.3896
     2.3905   2.3921   2.4160   2.4169   2.4192   2.4561   2.6188   2.6232
     2.6255   2.6652   2.7182   2.7900   2.7955   2.7983   2.7997   2.8680
     2.8718   2.8739   2.9743   2.9765   2.9781   3.0449   3.0462   3.0498
     3.1059   3.1070   3.1113   3.1746   3.1974   3.2034   3.2054   3.2081
     3.2704   3.2745   3.2770   3.2833   3.3739   3.3835   3.3844   3.3852
     3.4171   3.4194   3.4212   3.4331   3.4390   3.4408   3.4478   3.4494
     3.4504   3.4759   3.4987   3.5164   3.5181   3.5209   3.5360   3.5413
     3.5487   3.5501   3.5519   3.6361   3.6390   3.6442   3.6461   3.6503
     3.6753   3.6809   3.6822   3.7739   3.8297   3.8733   3.8757   3.8769
     3.9064   3.9211   3.9913   3.9944   3.9965   4.0544   4.0553   4.0581
     4.0744   4.1127   4.1175   4.1187   4.1456   4.1492   4.1494   4.1653
     4.1704   4.1720   4.1758   4.2122   4.2484   4.2514   4.2522   4.2691
     4.4180   4.4223   4.4234   4.4838   4.5575   4.5601   4.5619   4.6039
     4.6059   4.6066   4.6762   4.8052   5.1353   5.1466   5.1517   5.1538
     5.1548   5.1641   5.1846   5.1861   5.1878   5.2121   5.2156   5.2170
     5.2182   5.2458   5.2468   5.2488   5.2549   5.2582   5.2595   5.2604
     5.2735   5.2760   5.2765   5.2787   5.3275   5.3291   5.3300   5.3318
     5.3333   5.3355   5.3405   5.3430   5.3437   5.3646   5.3733   5.3745
     5.3773   5.3893   5.4023   5.4183   5.4192   5.4222   5.5256   5.5315
     5.5324   5.5338   5.5815   5.5866   5.5882   5.5890   5.5899   5.6183
     5.6197   5.6210   5.6508   5.6522   5.6526   5.6614   5.6811   5.6828
     5.6834   5.7537   5.7549   5.7568   5.7913   5.7994   5.8171   5.8180
     5.8200   5.8698   5.8818   5.8840   5.8850   5.9879   5.9895   5.9907
     6.0409   6.0430   6.0439   6.0964   6.0976   6.0992   6.1744   6.1897
     6.1923   6.1927   6.2379   6.2681   6.2696   6.2707   6.3238   6.3262
     6.3277   6.3586   6.3605   6.3689   6.3706   6.3720   6.3948   6.4286
     6.4295   6.4323   6.4826   6.6399   6.6412   6.6422   6.6433   6.6437
     6.6481   6.6707   6.7082   6.7095   6.7110   6.7523   6.7531   6.7559
     6.9408   7.0074   7.0945   7.1710

          k = 0.0000 0.3849 0.0000 (115797 PWs)   bands (ev):

   -28.2819 -28.2774 -28.2774 -28.2754 -28.2754 -28.2751 -28.2749 -28.2748
   -28.2747 -28.2746 -28.2743 -28.2520 -14.9242 -14.9231 -14.9227 -14.9224
   -14.9224 -14.9223 -14.9223 -14.9220 -14.9217 -14.9211 -14.9210 -14.9183
   -14.9172 -14.9169 -14.9167 -14.9166 -14.9165 -14.9165 -14.9164 -14.9160
   -14.9159 -14.9152 -14.9149 -14.9114 -14.9062 -14.9051 -14.9047 -14.9045
   -14.9044 -14.9044 -14.9044 -14.9040 -14.9031 -14.9030 -14.9027 -14.8992
   -14.8661 -14.8649 -14.8645 -14.8643 -14.8643 -14.8642 -14.8642 -14.8639
   -14.8637 -14.8630 -14.8629 -14.8587 -14.8211 -14.8209 -14.8198 -14.8194
   -14.8191 -14.8191 -14.8190 -14.8190 -14.8185 -14.8177 -14.8175 -14.8140
   -10.3420 -10.3384 -10.3381 -10.3363 -10.3358 -10.3346 -10.3345 -10.3334
   -10.3325 -10.3321 -10.3279 -10.3151 -10.3086 -10.3071 -10.3058 -10.3049
   -10.3027 -10.3023 -10.3010 -10.2977 -10.2948 -10.2925 -10.2880 -10.2782
   -10.2717 -10.2693 -10.2689 -10.2677 -10.2649 -10.2635 -10.2626 -10.2622
   -10.2613 -10.2599 -10.2575 -10.2435  -6.7874  -6.5893  -6.4989  -6.4968
    -6.4377  -6.4368  -6.3650  -6.3471  -6.2840  -6.2835  -6.2472  -6.2466
    -5.9109  -5.9102  -5.8231  -5.8183  -5.8167  -5.7770  -5.7689  -5.7665
    -5.7313  -5.7237  -5.7223  -5.6910  -5.6888  -5.6468  -5.6397  -5.6367
    -5.6291  -5.5951  -5.5843  -5.5835  -5.5677  -5.5270  -5.5191  -5.5182
    -5.5153  -5.5036  -5.4619  -5.4518  -5.4363  -5.4358  -5.4220  -5.4145
    -5.3488  -5.3467  -5.3128  -5.2701  -0.5705  -0.5701  -0.5604  -0.4336
    -0.4035  -0.4030  -0.3767  -0.3392  -0.3367  -0.3342  -0.3121  -0.3028
     1.4194   1.4865   1.4898   1.5018   1.6385   1.6519   1.6853   1.7231
     1.7262   1.8270   1.8755   1.8777   1.9521   1.9560   1.9578   2.0279
     2.1157   2.2046   2.2301   2.2310   2.3391   2.3640   2.3857   2.3890
     2.3934   2.4100   2.4507   2.5377   2.5389   2.6069   2.6130   2.6176
     2.6564   2.7346   2.8116   2.8149   2.8217   2.8406   2.8422   2.8438
     2.8555   2.8847   2.9079   2.9090   2.9153   2.9621   2.9631   3.0052
     3.0493   3.0561   3.0574   3.1220   3.1468   3.1753   3.2046   3.2124
     3.2129   3.2363   3.2584   3.2612   3.2691   3.3236   3.3278   3.3310
     3.3373   3.3716   3.3950   3.3956   3.4323   3.4396   3.4414   3.4498
     3.4944   3.4976   3.5002   3.5096   3.5115   3.5141   3.5217   3.5426
     3.5608   3.6025   3.6057   3.6072   3.6317   3.6418   3.6761   3.6802
     3.6939   3.7004   3.7034   3.7080   3.7745   3.7796   3.8495   3.8600
     3.8947   3.9734   3.9751   3.9779   3.9810   4.0298   4.0365   4.0414
     4.0906   4.1120   4.1188   4.1203   4.1263   4.1620   4.1629   4.1766
     4.2480   4.2623   4.2691   4.2850   4.3032   4.3217   4.3247   4.3682
     4.3787   4.4124   4.4182   4.4839   4.5181   4.5269   4.5284   4.5294
     4.5906   4.5922   4.6258   4.7467   5.1429   5.1442   5.1460   5.1531
     5.1577   5.1608   5.1694   5.1746   5.2135   5.2171   5.2190   5.2205
     5.2270   5.2368   5.2476   5.2485   5.2502   5.2603   5.2663   5.2705
     5.2725   5.2887   5.3027   5.3031   5.3140   5.3185   5.3248   5.3276
     5.3362   5.3479   5.3517   5.3537   5.3578   5.3664   5.4123   5.4142
     5.4326   5.4504   5.4605   5.4611   5.4853   5.4928   5.5006   5.5010
     5.5025   5.5134   5.5258   5.5431   5.5560   5.5567   5.5614   5.6025
     5.6034   5.6302   5.6305   5.6320   5.6678   5.6782   5.6947   5.6964
     5.6968   5.7184   5.7297   5.7556   5.7748   5.7759   5.8095   5.8179
     5.8204   5.8640   5.8749   5.8761   5.9509   5.9519   5.9659   5.9671
     5.9904   6.0061   6.0080   6.0197   6.1385   6.1393   6.1453   6.1615
     6.2239   6.2288   6.2306   6.2510   6.2700   6.2893   6.2904   6.2998
     6.3609   6.3636   6.3785   6.3894   6.3908   6.4425   6.4840   6.4866
     6.5241   6.5375   6.5392   6.5757   6.6045   6.6510   6.6850   6.6925
     6.6933   6.7324   6.7372   6.7391   6.7628   6.7781   6.7928   6.8117
     6.8132   6.9051   6.9095   7.0813

          k = 0.0000 0.3849 0.2714 (115773 PWs)   bands (ev):

   -28.2819 -28.2774 -28.2774 -28.2754 -28.2754 -28.2751 -28.2749 -28.2748
   -28.2747 -28.2746 -28.2743 -28.2520 -14.9242 -14.9231 -14.9227 -14.9224
   -14.9224 -14.9223 -14.9223 -14.9220 -14.9217 -14.9211 -14.9210 -14.9183
   -14.9172 -14.9169 -14.9167 -14.9166 -14.9165 -14.9165 -14.9164 -14.9160
   -14.9159 -14.9152 -14.9149 -14.9114 -14.9062 -14.9051 -14.9047 -14.9045
   -14.9044 -14.9044 -14.9044 -14.9040 -14.9031 -14.9030 -14.9027 -14.8992
   -14.8661 -14.8649 -14.8645 -14.8643 -14.8643 -14.8642 -14.8642 -14.8639
   -14.8637 -14.8630 -14.8629 -14.8587 -14.8211 -14.8209 -14.8198 -14.8194
   -14.8191 -14.8191 -14.8190 -14.8190 -14.8185 -14.8177 -14.8175 -14.8140
   -10.3423 -10.3390 -10.3387 -10.3376 -10.3357 -10.3343 -10.3338 -10.3328
   -10.3323 -10.3308 -10.3284 -10.3152 -10.3106 -10.3075 -10.3066 -10.3044
   -10.3018 -10.3010 -10.2984 -10.2964 -10.2952 -10.2930 -10.2893 -10.2790
   -10.2717 -10.2692 -10.2686 -10.2674 -10.2650 -10.2640 -10.2625 -10.2614
   -10.2612 -10.2600 -10.2585 -10.2436  -6.7503  -6.6461  -6.5600  -6.4712
    -6.4217  -6.4209  -6.3629  -6.3279  -6.3275  -6.2574  -6.2234  -6.2225
    -5.9048  -5.9036  -5.8253  -5.8212  -5.8083  -5.8064  -5.7917  -5.7624
    -5.7589  -5.7314  -5.7105  -5.7084  -5.6713  -5.6355  -5.6301  -5.6281
    -5.6259  -5.6083  -5.5998  -5.5989  -5.5683  -5.5281  -5.5222  -5.5214
    -5.5200  -5.4951  -5.4672  -5.4323  -5.4283  -5.4279  -5.4224  -5.3637
    -5.3484  -5.3462  -5.3218  -5.2993  -0.5588  -0.5583  -0.5569  -0.4356
    -0.4343  -0.4228  -0.3931  -0.3728  -0.3197  -0.3165  -0.2988  -0.2783
     1.4338   1.4847   1.4870   1.4889   1.6256   1.6394   1.7690   1.7748
     1.7811   1.7883   1.8005   1.8019   1.9153   1.9961   1.9965   2.0760
     2.1557   2.2000   2.2085   2.2482   2.2493   2.3603   2.3933   2.3943
     2.3989   2.4497   2.5115   2.5127   2.5473   2.5852   2.5920   2.6066
     2.6429   2.7086   2.7594   2.7677   2.7709   2.7892   2.8083   2.8133
     2.8400   2.8743   2.9145   2.9165   2.9196   2.9816   3.0232   3.0248
     3.0662   3.1061   3.1073   3.1316   3.1707   3.1913   3.1936   3.1971
     3.1994   3.2318   3.2615   3.2646   3.2761   3.3160   3.3200   3.3223
     3.3245   3.3889   3.3893   3.4103   3.4444   3.4462   3.4663   3.4688
     3.4718   3.4733   3.4758   3.4771   3.5326   3.5351   3.5371   3.5829
     3.6074   3.6113   3.6130   3.6325   3.6410   3.6443   3.6579   3.6604
     3.6672   3.7090   3.7112   3.7126   3.8317   3.8357   3.8798   3.8880
     3.9046   3.9485   3.9510   3.9753   3.9818   4.0177   4.0449   4.0481
     4.0511   4.0662   4.1097   4.1107   4.1203   4.1306   4.1330   4.1475
     4.1904   4.2562   4.2635   4.2685   4.2864   4.2912   4.2960   4.3874
     4.3976   4.4361   4.4387   4.4680   4.5234   4.5246   4.5359   4.5964
     4.6102   4.6122   4.6212   4.7194   5.1496   5.1513   5.1534   5.1560
     5.1690   5.1743   5.1762   5.1829   5.1903   5.1954   5.2012   5.2071
     5.2076   5.2323   5.2350   5.2351   5.2534   5.2616   5.2643   5.2671
     5.2793   5.2981   5.3068   5.3103   5.3130   5.3272   5.3341   5.3385
     5.3563   5.3576   5.3602   5.3638   5.3800   5.3922   5.4065   5.4071
     5.4117   5.4317   5.4336   5.4442   5.4457   5.4922   5.5014   5.5023
     5.5079   5.5159   5.5531   5.5594   5.5730   5.5747   5.6027   5.6103
     5.6113   5.6182   5.6245   5.6253   5.6431   5.6698   5.6816   5.7139
     5.7151   5.7171   5.7342   5.7713   5.7728   5.7752   5.8014   5.8032
     5.8105   5.8578   5.8748   5.8762   5.8790   5.9148   5.9599   5.9613
     6.0332   6.0341   6.0358   6.0595   6.0782   6.0797   6.1728   6.2067
     6.2120   6.2139   6.2661   6.2671   6.2684   6.2765   6.2858   6.3487
     6.3499   6.3658   6.3747   6.4162   6.4238   6.4255   6.4273   6.4722
     6.4974   6.4986   6.5463   6.5608   6.5955   6.5973   6.6660   6.6677
     6.6763   6.7204   6.7352   6.7368   6.7494   6.8123   6.8151   6.8447
     6.8697   6.9293   6.9375   7.0529

          k = 0.3333 0.5774 0.0000 (115752 PWs)   bands (ev):

   -28.2819 -28.2774 -28.2774 -28.2754 -28.2754 -28.2751 -28.2749 -28.2748
   -28.2747 -28.2746 -28.2743 -28.2520 -14.9242 -14.9230 -14.9227 -14.9224
   -14.9224 -14.9223 -14.9223 -14.9220 -14.9217 -14.9211 -14.9210 -14.9183
   -14.9172 -14.9168 -14.9167 -14.9166 -14.9165 -14.9165 -14.9164 -14.9160
   -14.9159 -14.9152 -14.9149 -14.9114 -14.9062 -14.9051 -14.9047 -14.9045
   -14.9044 -14.9044 -14.9044 -14.9040 -14.9031 -14.9030 -14.9027 -14.8992
   -14.8661 -14.8649 -14.8645 -14.8643 -14.8643 -14.8642 -14.8642 -14.8639
   -14.8637 -14.8630 -14.8629 -14.8587 -14.8211 -14.8209 -14.8198 -14.8194
   -14.8191 -14.8191 -14.8190 -14.8190 -14.8185 -14.8177 -14.8175 -14.8140
   -10.3417 -10.3383 -10.3367 -10.3359 -10.3350 -10.3348 -10.3345 -10.3342
   -10.3319 -10.3307 -10.3301 -10.3149 -10.3082 -10.3058 -10.3051 -10.3043
   -10.3026 -10.3015 -10.3012 -10.2999 -10.2953 -10.2904 -10.2900 -10.2791
   -10.2711 -10.2694 -10.2672 -10.2666 -10.2660 -10.2652 -10.2639 -10.2639
   -10.2608 -10.2591 -10.2583 -10.2441  -6.6505  -6.6497  -6.6490  -6.3989
    -6.3986  -6.3982  -6.3979  -6.3977  -6.3948  -6.2920  -6.2904  -6.1909
    -5.8665  -5.8533  -5.8496  -5.7499  -5.7486  -5.7480  -5.7320  -5.7315
    -5.7303  -5.7080  -5.7065  -5.6953  -5.6940  -5.6924  -5.6851  -5.6839
    -5.6820  -5.6446  -5.5431  -5.5404  -5.5384  -5.5303  -5.5286  -5.5280
    -5.5117  -5.4734  -5.4711  -5.4697  -5.4670  -5.4661  -5.4650  -5.3968
    -5.3962  -5.3022  -5.3012  -5.3004  -0.5432  -0.5143  -0.5134  -0.5120
    -0.3956  -0.3955  -0.3899  -0.3895  -0.3886  -0.3095  -0.3092  -0.3078
     1.4830   1.4846   1.4861   1.6700   1.6753   1.6774   1.6851   1.6865
     1.6882   1.7337   1.7359   1.7974   2.0777   2.0816   2.0823   2.0837
     2.0872   2.1422   2.1442   2.1467   2.2566   2.3966   2.3973   2.3989
     2.4924   2.4945   2.4967   2.5627   2.5637   2.5659   2.5958   2.5987
     2.7705   2.7744   2.7757   2.8344   2.8378   2.8402   2.8444   2.8470
     2.8483   2.8522   2.8527   2.8541   2.8695   3.0078   3.0103   3.0121
     3.0248   3.0253   3.0267   3.0630   3.1306   3.1346   3.1361   3.1962
     3.1966   3.1986   3.2564   3.2598   3.2609   3.2707   3.2714   3.3602
     3.3692   3.3710   3.3724   3.3731   3.4233   3.4255   3.4270   3.4854
     3.4881   3.5005   3.5025   3.5036   3.5278   3.5293   3.5305   3.5443
     3.5480   3.5739   3.5800   3.5812   3.6433   3.6509   3.6513   3.7125
     3.7204   3.7212   3.7272   3.7286   3.7558   3.7993   3.8016   3.8024
     3.9578   3.9593   3.9618   3.9848   3.9869   4.0264   4.0297   4.0317
     4.0827   4.0842   4.0882   4.1399   4.1485   4.1514   4.1519   4.2839
     4.2856   4.2935   4.3157   4.3190   4.3197   4.3207   4.3216   4.3270
     4.3848   4.3868   4.3874   4.4963   4.5132   4.5155   4.5198   4.5209
     4.5220   4.6514   4.6543   4.6569   5.1353   5.1420   5.1436   5.1448
     5.1718   5.1725   5.1849   5.1884   5.1889   5.1955   5.1963   5.1980
     5.2442   5.2470   5.2476   5.2637   5.2649   5.2666   5.2956   5.2975
     5.2993   5.3006   5.3023   5.3033   5.3126   5.3164   5.3190   5.3193
     5.3391   5.3401   5.3423   5.4004   5.4029   5.4041   5.4067   5.4086
     5.4539   5.4553   5.4566   5.4588   5.4814   5.4829   5.4842   5.4880
     5.4887   5.5344   5.5351   5.5368   5.5632   5.5637   5.5654   5.5699
     5.5713   5.5727   5.6410   5.6710   5.6725   5.6933   5.6957   5.6970
     5.7059   5.7074   5.7098   5.7788   5.7796   5.7812   5.7983   5.7994
     5.8004   5.8240   5.8250   5.8447   5.9301   5.9307   5.9340   6.0453
     6.0464   6.0473   6.0482   6.0496   6.1379   6.1388   6.1396   6.1589
     6.2166   6.2187   6.2201   6.2590   6.2604   6.2645   6.2832   6.2853
     6.3755   6.4094   6.4102   6.4116   6.4165   6.4181   6.4226   6.4516
     6.4529   6.4540   6.6149   6.6157   6.6188   6.6746   6.6764   6.6777
     6.7243   6.7403   6.7421   6.8049   6.8067   6.8073   6.8103   6.8106
     6.8132   6.9387   6.9394   6.9421

          k = 0.3333 0.5774 0.2714 (115827 PWs)   bands (ev):

   -28.2819 -28.2774 -28.2774 -28.2754 -28.2754 -28.2751 -28.2749 -28.2748
   -28.2747 -28.2746 -28.2743 -28.2520 -14.9242 -14.9230 -14.9227 -14.9224
   -14.9224 -14.9223 -14.9223 -14.9220 -14.9217 -14.9211 -14.9210 -14.9183
   -14.9172 -14.9169 -14.9167 -14.9166 -14.9165 -14.9165 -14.9164 -14.9160
   -14.9159 -14.9152 -14.9149 -14.9114 -14.9062 -14.9051 -14.9047 -14.9045
   -14.9044 -14.9044 -14.9044 -14.9040 -14.9031 -14.9030 -14.9027 -14.8992
   -14.8661 -14.8649 -14.8645 -14.8643 -14.8643 -14.8642 -14.8642 -14.8639
   -14.8637 -14.8630 -14.8629 -14.8587 -14.8211 -14.8209 -14.8198 -14.8194
   -14.8191 -14.8191 -14.8190 -14.8190 -14.8185 -14.8177 -14.8175 -14.8140
   -10.3419 -10.3388 -10.3381 -10.3368 -10.3356 -10.3341 -10.3334 -10.3326
   -10.3318 -10.3308 -10.3300 -10.3150 -10.3088 -10.3077 -10.3064 -10.3050
   -10.3012 -10.3002 -10.2979 -10.2971 -10.2950 -10.2922 -10.2915 -10.2796
   -10.2713 -10.2691 -10.2683 -10.2662 -10.2655 -10.2642 -10.2638 -10.2630
   -10.2613 -10.2595 -10.2594 -10.2442  -6.6183  -6.6175  -6.6168  -6.5247
    -6.5241  -6.5230  -6.3072  -6.2890  -6.2884  -6.2863  -6.2563  -6.2128
    -5.8762  -5.8583  -5.8452  -5.7800  -5.7791  -5.7784  -5.7428  -5.7419
    -5.7409  -5.7141  -5.6889  -5.6878  -5.6861  -5.6730  -5.6722  -5.6713
    -5.6685  -5.6430  -5.5585  -5.5555  -5.5538  -5.5262  -5.5239  -5.5221
    -5.5058  -5.5037  -5.5021  -5.5013  -5.4582  -5.3985  -5.3972  -5.3965
    -5.3577  -5.3233  -5.3222  -5.3213  -0.5194  -0.5054  -0.5046  -0.5031
    -0.4601  -0.4170  -0.4159  -0.4148  -0.3548  -0.2928  -0.2920  -0.2907
     1.4807   1.4823   1.4842   1.6354   1.6386   1.6408   1.6913   1.7720
     1.7761   1.7766   1.7795   1.7929   1.9776   1.9817   1.9836   2.0555
     2.1708   2.1918   2.1930   2.1949   2.2483   2.3959   2.3976   2.3993
     2.4883   2.4890   2.4912   2.5578   2.5861   2.5877   2.5906   2.5943
     2.6773   2.7329   2.7373   2.7390   2.8215   2.8235   2.8244   2.8273
     2.8970   2.9031   2.9044   2.9255   2.9376   2.9539   2.9555   2.9570
     3.0568   3.0600   3.0619   3.0870   3.0885   3.0891   3.1268   3.1810
     3.2411   3.2442   3.2454   3.2678   3.2709   3.2718   3.3213   3.3265
     3.3279   3.3313   3.3744   3.4063   3.4197   3.4633   3.4655   3.4668
     3.4897   3.4981   3.4993   3.5004   3.5326   3.5370   3.5380   3.5405
     3.5601   3.6073   3.6164   3.6171   3.6503   3.6550   3.6556   3.6953
     3.6977   3.6984   3.7198   3.7422   3.8196   3.8395   3.8403   3.8420
     3.9363   3.9398   3.9412   3.9429   4.0264   4.0301   4.0309   4.0397
     4.0646   4.0680   4.0704   4.1077   4.1118   4.1142   4.1154   4.1676
     4.2707   4.2735   4.2748   4.2901   4.3145   4.3604   4.3624   4.3645
     4.4146   4.4174   4.4185   4.4920   4.4936   4.4949   4.5077   4.5111
     4.5640   4.6649   4.6668   4.6683   5.1460   5.1548   5.1567   5.1573
     5.1583   5.1803   5.1821   5.1835   5.1965   5.1979   5.1988   5.2112
     5.2227   5.2247   5.2255   5.2500   5.2521   5.2529   5.2559   5.2677
     5.2990   5.3007   5.3030   5.3087   5.3265   5.3293   5.3314   5.3662
     5.3681   5.3684   5.3744   5.3925   5.3953   5.4070   5.4089   5.4099
     5.4316   5.4337   5.4350   5.4390   5.4833   5.4836   5.4852   5.4900
     5.5381   5.5394   5.5404   5.5435   5.5640   5.5665   5.5673   5.6053
     5.6059   5.6071   5.6374   5.6382   5.6719   5.6735   5.6739   5.7020
     5.7035   5.7058   5.7175   5.7579   5.7591   5.7608   5.8010   5.8085
     5.8216   5.8219   5.8241   5.8264   5.8900   5.8904   5.8936   6.0561
     6.0594   6.0606   6.0624   6.0778   6.1192   6.1203   6.1208   6.1352
     6.1951   6.2356   6.2383   6.2401   6.2835   6.3013   6.3024   6.3043
     6.3061   6.3845   6.3860   6.3875   6.4507   6.4677   6.4681   6.4709
     6.4919   6.4934   6.5582   6.5598   6.5631   6.6454   6.6846   6.6855
     6.6872   6.7594   6.7774   6.7781   6.7807   6.7937   6.8537   6.8552
     6.8567   6.9352   6.9361   6.9388

          k =-0.3333 0.1925 0.0000 (115797 PWs)   bands (ev):

   -28.2819 -28.2774 -28.2774 -28.2754 -28.2754 -28.2751 -28.2749 -28.2748
   -28.2747 -28.2746 -28.2743 -28.2520 -14.9242 -14.9231 -14.9227 -14.9224
   -14.9224 -14.9223 -14.9223 -14.9220 -14.9216 -14.9211 -14.9210 -14.9183
   -14.9172 -14.9168 -14.9167 -14.9166 -14.9165 -14.9165 -14.9164 -14.9160
   -14.9158 -14.9152 -14.9149 -14.9114 -14.9062 -14.9051 -14.9047 -14.9045
   -14.9044 -14.9044 -14.9044 -14.9040 -14.9031 -14.9030 -14.9027 -14.8992
   -14.8661 -14.8649 -14.8645 -14.8643 -14.8643 -14.8642 -14.8642 -14.8639
   -14.8637 -14.8630 -14.8629 -14.8587 -14.8211 -14.8209 -14.8198 -14.8194
   -14.8191 -14.8191 -14.8191 -14.8189 -14.8185 -14.8177 -14.8175 -14.8140
   -10.3418 -10.3383 -10.3374 -10.3365 -10.3359 -10.3355 -10.3342 -10.3333
   -10.3329 -10.3318 -10.3279 -10.3150 -10.3088 -10.3069 -10.3059 -10.3046
   -10.3033 -10.3018 -10.3009 -10.2980 -10.2950 -10.2925 -10.2879 -10.2782
   -10.2716 -10.2695 -10.2689 -10.2670 -10.2654 -10.2638 -10.2633 -10.2622
   -10.2612 -10.2596 -10.2570 -10.2435  -6.7874  -6.5892  -6.4984  -6.4973
    -6.4381  -6.4368  -6.3642  -6.3481  -6.2846  -6.2823  -6.2479  -6.2455
    -5.9145  -5.9108  -5.8207  -5.8183  -5.8169  -5.7766  -5.7682  -5.7664
    -5.7312  -5.7233  -5.7223  -5.6898  -5.6895  -5.6471  -5.6378  -5.6366
    -5.6290  -5.5948  -5.5845  -5.5830  -5.5696  -5.5273  -5.5192  -5.5178
    -5.5159  -5.5044  -5.4623  -5.4507  -5.4366  -5.4360  -5.4216  -5.4150
    -5.3478  -5.3474  -5.3130  -5.2702  -0.5708  -0.5700  -0.5608  -0.4341
    -0.4040  -0.4033  -0.3758  -0.3377  -0.3372  -0.3360  -0.3110  -0.3014
     1.4188   1.4875   1.4885   1.5011   1.6406   1.6502   1.6891   1.7228
     1.7246   1.8271   1.8757   1.8775   1.9505   1.9550   1.9585   2.0272
     2.1144   2.2064   2.2292   2.2317   2.3390   2.3636   2.3861   2.3876
     2.3923   2.4092   2.4492   2.5380   2.5400   2.6128   2.6134   2.6173
     2.6584   2.7324   2.8109   2.8145   2.8186   2.8399   2.8416   2.8441
     2.8548   2.8846   2.9072   2.9112   2.9149   2.9610   2.9670   3.0042
     3.0505   3.0546   3.0565   3.1245   3.1484   3.1752   3.2023   3.2114
     3.2137   3.2338   3.2604   3.2626   3.2677   3.3233   3.3305   3.3316
     3.3382   3.3716   3.3944   3.3969   3.4339   3.4388   3.4400   3.4496
     3.4942   3.4986   3.5004   3.5108   3.5120   3.5132   3.5226   3.5412
     3.5588   3.5938   3.6040   3.6110   3.6331   3.6464   3.6782   3.6806
     3.6931   3.6998   3.7034   3.7072   3.7775   3.7795   3.8477   3.8577
     3.8963   3.9725   3.9741   3.9787   3.9798   4.0287   4.0384   4.0397
     4.0922   4.1121   4.1191   4.1218   4.1241   4.1612   4.1634   4.1766
     4.2476   4.2662   4.2678   4.2826   4.3048   4.3218   4.3241   4.3682
     4.3797   4.4148   4.4182   4.4834   4.5175   4.5264   4.5281   4.5291
     4.5887   4.5930   4.6266   4.7470   5.1410   5.1423   5.1463   5.1543
     5.1584   5.1612   5.1685   5.1738   5.2134   5.2157   5.2196   5.2220
     5.2275   5.2373   5.2472   5.2496   5.2498   5.2601   5.2649   5.2705
     5.2726   5.2883   5.3034   5.3046   5.3119   5.3179   5.3265   5.3273
     5.3371   5.3491   5.3520   5.3538   5.3567   5.3654   5.4107   5.4141
     5.4339   5.4502   5.4607   5.4616   5.4851   5.4942   5.4989   5.5008
     5.5030   5.5134   5.5283   5.5440   5.5553   5.5572   5.5608   5.6019
     5.6033   5.6296   5.6306   5.6329   5.6683   5.6792   5.6943   5.6958
     5.6986   5.7167   5.7294   5.7563   5.7745   5.7760   5.8094   5.8186
     5.8198   5.8626   5.8756   5.8765   5.9497   5.9514   5.9644   5.9657
     5.9899   6.0071   6.0082   6.0207   6.1395   6.1397   6.1447   6.1610
     6.2252   6.2283   6.2300   6.2503   6.2708   6.2881   6.2901   6.3006
     6.3619   6.3627   6.3785   6.3897   6.3912   6.4409   6.4864   6.4869
     6.5242   6.5380   6.5386   6.5757   6.6051   6.6503   6.6837   6.6922
     6.6953   6.7300   6.7367   6.7403   6.7630   6.7783   6.7943   6.8113
     6.8128   6.9050   6.9095   7.0816

          k = 0.3333 0.1925 0.0000 (115797 PWs)   bands (ev):

   -28.2819 -28.2774 -28.2774 -28.2754 -28.2754 -28.2751 -28.2749 -28.2748
   -28.2747 -28.2746 -28.2743 -28.2520 -14.9242 -14.9230 -14.9227 -14.9224
   -14.9224 -14.9224 -14.9222 -14.9220 -14.9217 -14.9211 -14.9210 -14.9183
   -14.9172 -14.9169 -14.9167 -14.9166 -14.9165 -14.9165 -14.9164 -14.9160
   -14.9159 -14.9152 -14.9149 -14.9114 -14.9062 -14.9051 -14.9047 -14.9045
   -14.9044 -14.9044 -14.9043 -14.9040 -14.9031 -14.9030 -14.9027 -14.8992
   -14.8661 -14.8649 -14.8645 -14.8643 -14.8643 -14.8642 -14.8642 -14.8639
   -14.8637 -14.8630 -14.8629 -14.8587 -14.8211 -14.8209 -14.8198 -14.8194
   -14.8191 -14.8190 -14.8190 -14.8190 -14.8185 -14.8177 -14.8175 -14.8140
   -10.3420 -10.3384 -10.3374 -10.3368 -10.3359 -10.3354 -10.3342 -10.3337
   -10.3326 -10.3318 -10.3277 -10.3146 -10.3087 -10.3074 -10.3055 -10.3045
   -10.3030 -10.3021 -10.3012 -10.2992 -10.2944 -10.2912 -10.2879 -10.2785
   -10.2718 -10.2695 -10.2684 -10.2676 -10.2657 -10.2642 -10.2628 -10.2619
   -10.2607 -10.2595 -10.2570 -10.2441  -6.7874  -6.5892  -6.4986  -6.4972
    -6.4388  -6.4361  -6.3645  -6.3481  -6.2850  -6.2816  -6.2481  -6.2446
    -5.9147  -5.9099  -5.8207  -5.8193  -5.8174  -5.7771  -5.7683  -5.7668
    -5.7316  -5.7235  -5.7216  -5.6901  -5.6888  -5.6473  -5.6387  -5.6369
    -5.6285  -5.5948  -5.5845  -5.5825  -5.5676  -5.5279  -5.5197  -5.5181
    -5.5159  -5.5039  -5.4621  -5.4512  -5.4366  -5.4357  -5.4219  -5.4147
    -5.3480  -5.3476  -5.3128  -5.2701  -0.5709  -0.5681  -0.5617  -0.4347
    -0.4038  -0.4017  -0.3768  -0.3375  -0.3371  -0.3362  -0.3125  -0.3019
     1.4190   1.4869   1.4887   1.5002   1.6399   1.6519   1.6892   1.7207
     1.7251   1.8291   1.8760   1.8799   1.9526   1.9547   1.9582   2.0275
     2.1153   2.2060   2.2284   2.2303   2.3397   2.3655   2.3846   2.3877
     2.3938   2.4085   2.4504   2.5377   2.5394   2.6085   2.6137   2.6186
     2.6562   2.7334   2.8096   2.8132   2.8215   2.8415   2.8433   2.8444
     2.8538   2.8827   2.9076   2.9107   2.9150   2.9613   2.9631   3.0039
     3.0492   3.0563   3.0572   3.1229   3.1476   3.1748   3.2035   3.2117
     3.2139   3.2343   3.2604   3.2618   3.2692   3.3221   3.3302   3.3310
     3.3388   3.3716   3.3946   3.3964   3.4317   3.4366   3.4411   3.4478
     3.4959   3.4988   3.5007   3.5093   3.5123   3.5137   3.5222   3.5436
     3.5608   3.6006   3.6062   3.6103   3.6326   3.6453   3.6736   3.6792
     3.6895   3.7023   3.7036   3.7066   3.7777   3.7795   3.8476   3.8583
     3.8960   3.9695   3.9742   3.9788   3.9811   4.0299   4.0363   4.0394
     4.0936   4.1132   4.1204   4.1215   4.1255   4.1626   4.1643   4.1768
     4.2478   4.2662   4.2678   4.2831   4.3028   4.3224   4.3241   4.3678
     4.3767   4.4168   4.4174   4.4838   4.5172   4.5270   4.5278   4.5291
     4.5878   4.5933   4.6270   4.7475   5.1391   5.1447   5.1467   5.1542
     5.1592   5.1604   5.1686   5.1743   5.2138   5.2169   5.2181   5.2214
     5.2273   5.2364   5.2480   5.2486   5.2503   5.2602   5.2684   5.2705
     5.2716   5.2885   5.3020   5.3049   5.3134   5.3186   5.3249   5.3281
     5.3361   5.3477   5.3510   5.3540   5.3576   5.3651   5.4131   5.4143
     5.4320   5.4514   5.4606   5.4627   5.4842   5.4926   5.4985   5.5010
     5.5026   5.5117   5.5266   5.5439   5.5559   5.5573   5.5611   5.6022
     5.6039   5.6296   5.6313   5.6336   5.6674   5.6767   5.6947   5.6953
     5.6969   5.7185   5.7300   5.7566   5.7759   5.7768   5.8094   5.8189
     5.8206   5.8640   5.8752   5.8759   5.9492   5.9527   5.9644   5.9663
     5.9912   6.0063   6.0072   6.0200   6.1381   6.1398   6.1440   6.1615
     6.2243   6.2285   6.2299   6.2514   6.2715   6.2885   6.2905   6.2990
     6.3616   6.3634   6.3771   6.3891   6.3916   6.4420   6.4864   6.4879
     6.5243   6.5367   6.5382   6.5755   6.6053   6.6513   6.6842   6.6920
     6.6939   6.7310   6.7374   6.7395   6.7633   6.7772   6.7930   6.8111
     6.8138   6.9046   6.9097   7.0811

          k = 0.0000-0.3849 0.2714 (115773 PWs)   bands (ev):

   -28.2819 -28.2774 -28.2774 -28.2754 -28.2754 -28.2751 -28.2749 -28.2748
   -28.2747 -28.2746 -28.2743 -28.2520 -14.9242 -14.9231 -14.9227 -14.9224
   -14.9224 -14.9223 -14.9223 -14.9220 -14.9217 -14.9211 -14.9210 -14.9183
   -14.9172 -14.9169 -14.9167 -14.9166 -14.9165 -14.9164 -14.9164 -14.9160
   -14.9159 -14.9152 -14.9149 -14.9114 -14.9062 -14.9051 -14.9047 -14.9045
   -14.9044 -14.9044 -14.9044 -14.9040 -14.9031 -14.9030 -14.9027 -14.8992
   -14.8661 -14.8649 -14.8645 -14.8643 -14.8643 -14.8642 -14.8642 -14.8639
   -14.8637 -14.8630 -14.8629 -14.8587 -14.8211 -14.8209 -14.8198 -14.8194
   -14.8191 -14.8191 -14.8190 -14.8190 -14.8185 -14.8177 -14.8175 -14.8140
   -10.3423 -10.3391 -10.3387 -10.3374 -10.3355 -10.3345 -10.3342 -10.3331
   -10.3320 -10.3304 -10.3286 -10.3154 -10.3099 -10.3081 -10.3059 -10.3048
   -10.3037 -10.3001 -10.2973 -10.2960 -10.2949 -10.2938 -10.2898 -10.2789
   -10.2715 -10.2690 -10.2688 -10.2677 -10.2652 -10.2633 -10.2623 -10.2617
   -10.2611 -10.2599 -10.2590 -10.2436  -6.7505  -6.6459  -6.5608  -6.4678
    -6.4185  -6.4176  -6.3626  -6.3397  -6.3393  -6.2639  -6.2096  -6.2087
    -5.9134  -5.9126  -5.8256  -5.8238  -5.8184  -5.8159  -5.7654  -5.7634
    -5.7527  -5.7333  -5.6827  -5.6822  -5.6804  -5.6629  -5.6452  -5.6404
    -5.6376  -5.6067  -5.5854  -5.5850  -5.5721  -5.5302  -5.5271  -5.5261
    -5.5157  -5.4856  -5.4646  -5.4393  -5.4369  -5.4364  -5.3995  -5.3699
    -5.3447  -5.3426  -5.3312  -5.2960  -0.5618  -0.5613  -0.5499  -0.4317
    -0.4282  -0.4269  -0.4106  -0.3601  -0.3231  -0.3197  -0.2897  -0.2827
     1.4055   1.4933   1.4968   1.5153   1.6120   1.7104   1.7140   1.7217
     1.7363   1.7712   1.8446   1.8464   1.9640   1.9859   2.0212   2.0223
     2.1297   2.1970   2.2095   2.2104   2.2860   2.3346   2.3962   2.4265
     2.4304   2.5175   2.5272   2.5293   2.5552   2.5577   2.5593   2.5618
     2.5992   2.6781   2.7601   2.7655   2.8229   2.8249   2.8271   2.8329
     2.8489   2.8533   2.8948   2.8960   2.9061   3.0082   3.0181   3.0190
     3.0750   3.0774   3.1168   3.1191   3.1337   3.1811   3.1818   3.1879
     3.2151   3.2457   3.2659   3.2826   3.2859   3.2932   3.3285   3.3317
     3.3732   3.3775   3.3790   3.3792   3.4465   3.4475   3.4500   3.4757
     3.4773   3.4802   3.5064   3.5191   3.5334   3.5339   3.5371   3.5555
     3.5825   3.5876   3.6108   3.6247   3.6380   3.6419   3.6815   3.6832
     3.6872   3.6960   3.7016   3.7051   3.8314   3.8385   3.8787   3.8804
     3.9387   3.9449   3.9461   3.9489   3.9722   4.0315   4.0516   4.0565
     4.0584   4.0628   4.0981   4.1003   4.1215   4.1227   4.1301   4.1338
     4.2242   4.2409   4.2647   4.2717   4.2888   4.2928   4.3139   4.3674
     4.3919   4.4328   4.4352   4.4811   4.5214   4.5431   4.5448   4.5857
     4.5957   4.5978   4.6304   4.7276   5.1463   5.1480   5.1526   5.1624
     5.1669   5.1681   5.1699   5.1721   5.1984   5.2039   5.2124   5.2166
     5.2190   5.2283   5.2401   5.2404   5.2576   5.2616   5.2638   5.2646
     5.2667   5.2735   5.3077   5.3107   5.3192   5.3332   5.3449   5.3477
     5.3605   5.3618   5.3629   5.3673   5.3696   5.3804   5.3875   5.3895
     5.4093   5.4320   5.4468   5.4506   5.4522   5.4687   5.4963   5.4982
     5.5168   5.5225   5.5553   5.5565   5.5679   5.5694   5.6012   5.6023
     5.6076   5.6204   5.6311   5.6491   5.6500   5.6612   5.6743   5.7081
     5.7095   5.7390   5.7595   5.7610   5.7713   5.7846   5.8043   5.8065
     5.8152   5.8400   5.8672   5.8682   5.8751   5.8950   5.9696   5.9708
     6.0189   6.0243   6.0262   6.1002   6.1021   6.1116   6.1595   6.1873
     6.2017   6.2025   6.2052   6.2623   6.2635   6.2858   6.3184   6.3431
     6.3560   6.3696   6.3702   6.4129   6.4191   6.4215   6.4524   6.4806
     6.4820   6.5089   6.5583   6.5677   6.6055   6.6083   6.6480   6.6662
     6.6689   6.7369   6.7382   6.7417   6.7483   6.8037   6.8053   6.8505
     6.8666   6.9185   6.9474   7.0394

          k =-0.3333 0.1925 0.2714 (115773 PWs)   bands (ev):

   -28.2819 -28.2774 -28.2774 -28.2754 -28.2754 -28.2751 -28.2749 -28.2748
   -28.2747 -28.2746 -28.2743 -28.2520 -14.9242 -14.9231 -14.9227 -14.9224
   -14.9224 -14.9223 -14.9223 -14.9220 -14.9216 -14.9211 -14.9210 -14.9183
   -14.9172 -14.9168 -14.9167 -14.9166 -14.9165 -14.9165 -14.9164 -14.9160
   -14.9158 -14.9152 -14.9149 -14.9114 -14.9062 -14.9051 -14.9047 -14.9045
   -14.9044 -14.9044 -14.9044 -14.9040 -14.9031 -14.9030 -14.9027 -14.8992
   -14.8661 -14.8649 -14.8645 -14.8643 -14.8643 -14.8642 -14.8642 -14.8639
   -14.8637 -14.8630 -14.8629 -14.8587 -14.8211 -14.8209 -14.8198 -14.8194
   -14.8191 -14.8191 -14.8191 -14.8189 -14.8185 -14.8177 -14.8175 -14.8140
   -10.3422 -10.3390 -10.3383 -10.3369 -10.3362 -10.3351 -10.3341 -10.3328
   -10.3319 -10.3309 -10.3283 -10.3151 -10.3104 -10.3081 -10.3057 -10.3043
   -10.3031 -10.3009 -10.2972 -10.2964 -10.2950 -10.2938 -10.2896 -10.2788
   -10.2711 -10.2693 -10.2684 -10.2677 -10.2657 -10.2634 -10.2629 -10.2617
   -10.2612 -10.2597 -10.2581 -10.2436  -6.7505  -6.6459  -6.5607  -6.4677
    -6.4188  -6.4178  -6.3626  -6.3405  -6.3381  -6.2642  -6.2100  -6.2073
    -5.9169  -5.9133  -5.8243  -5.8216  -5.8180  -5.8173  -5.7655  -5.7630
    -5.7524  -5.7332  -5.6832  -5.6821  -5.6803  -5.6630  -5.6415  -5.6408
    -5.6371  -5.6072  -5.5862  -5.5837  -5.5739  -5.5296  -5.5276  -5.5263
    -5.5167  -5.4857  -5.4647  -5.4399  -5.4368  -5.4366  -5.3986  -5.3703
    -5.3437  -5.3434  -5.3314  -5.2959  -0.5620  -0.5611  -0.5506  -0.4322
    -0.4285  -0.4281  -0.4093  -0.3592  -0.3220  -0.3214  -0.2890  -0.2818
     1.4052   1.4945   1.4952   1.5152   1.6111   1.7107   1.7128   1.7233
     1.7383   1.7728   1.8428   1.8460   1.9648   1.9852   2.0178   2.0228
     2.1278   2.1985   2.2094   2.2114   2.2844   2.3342   2.3974   2.4263
     2.4279   2.5185   2.5296   2.5303   2.5560   2.5582   2.5594   2.5632
     2.5995   2.6753   2.7641   2.7662   2.8231   2.8245   2.8257   2.8285
     2.8491   2.8530   2.8916   2.8966   2.9054   3.0071   3.0178   3.0225
     3.0767   3.0788   3.1167   3.1186   3.1340   3.1801   3.1813   3.1880
     3.2139   3.2456   3.2657   3.2837   3.2866   3.2945   3.3300   3.3313
     3.3736   3.3761   3.3783   3.3830   3.4456   3.4478   3.4497   3.4743
     3.4775   3.4807   3.5061   3.5172   3.5334   3.5356   3.5368   3.5549
     3.5797   3.5856   3.6081   3.6312   3.6403   3.6445   3.6788   3.6835
     3.6863   3.6948   3.7015   3.7053   3.8358   3.8366   3.8763   3.8792
     3.9417   3.9440   3.9456   3.9486   3.9724   4.0296   4.0529   4.0543
     4.0601   4.0625   4.0983   4.1007   4.1211   4.1224   4.1289   4.1341
     4.2245   4.2406   4.2681   4.2693   4.2905   4.2920   4.3150   4.3683
     4.3901   4.4325   4.4356   4.4807   4.5211   4.5443   4.5452   4.5844
     4.5936   4.5993   4.6315   4.7285   5.1440   5.1464   5.1529   5.1632
     5.1668   5.1682   5.1690   5.1734   5.1989   5.2037   5.2117   5.2146
     5.2184   5.2275   5.2409   5.2413   5.2588   5.2634   5.2642   5.2652
     5.2664   5.2721   5.3089   5.3104   5.3180   5.3330   5.3463   5.3478
     5.3594   5.3620   5.3635   5.3680   5.3690   5.3789   5.3868   5.3899
     5.4107   5.4335   5.4464   5.4492   5.4515   5.4696   5.4965   5.4976
     5.5177   5.5244   5.5557   5.5575   5.5674   5.5684   5.6010   5.6019
     5.6081   5.6211   5.6321   5.6482   5.6503   5.6610   5.6742   5.7080
     5.7093   5.7392   5.7592   5.7608   5.7708   5.7851   5.8051   5.8062
     5.8146   5.8394   5.8672   5.8685   5.8749   5.8943   5.9685   5.9699
     6.0185   6.0254   6.0262   6.1011   6.1021   6.1122   6.1591   6.1880
     6.2008   6.2028   6.2047   6.2606   6.2635   6.2875   6.3170   6.3433
     6.3553   6.3691   6.3711   6.4135   6.4195   6.4215   6.4534   6.4815
     6.4831   6.5063   6.5583   6.5670   6.6069   6.6087   6.6471   6.6665
     6.6691   6.7369   6.7379   6.7409   6.7492   6.8038   6.8059   6.8509
     6.8668   6.9181   6.9469   7.0395

          k = 0.3333 0.1925 0.2714 (115773 PWs)   bands (ev):

   -28.2819 -28.2774 -28.2774 -28.2754 -28.2754 -28.2751 -28.2749 -28.2748
   -28.2747 -28.2746 -28.2743 -28.2520 -14.9242 -14.9230 -14.9227 -14.9224
   -14.9224 -14.9224 -14.9222 -14.9220 -14.9217 -14.9211 -14.9210 -14.9183
   -14.9172 -14.9169 -14.9167 -14.9166 -14.9165 -14.9165 -14.9164 -14.9160
   -14.9159 -14.9152 -14.9149 -14.9114 -14.9062 -14.9051 -14.9047 -14.9045
   -14.9044 -14.9044 -14.9043 -14.9040 -14.9031 -14.9030 -14.9027 -14.8992
   -14.8661 -14.8649 -14.8645 -14.8643 -14.8643 -14.8642 -14.8642 -14.8639
   -14.8637 -14.8630 -14.8629 -14.8587 -14.8211 -14.8209 -14.8198 -14.8194
   -14.8191 -14.8190 -14.8190 -14.8190 -14.8185 -14.8177 -14.8175 -14.8140
   -10.3423 -10.3392 -10.3381 -10.3373 -10.3364 -10.3349 -10.3341 -10.3330
   -10.3321 -10.3304 -10.3282 -10.3148 -10.3101 -10.3080 -10.3062 -10.3045
   -10.3031 -10.3016 -10.2982 -10.2954 -10.2951 -10.2931 -10.2886 -10.2794
   -10.2715 -10.2691 -10.2684 -10.2677 -10.2660 -10.2638 -10.2622 -10.2613
   -10.2610 -10.2604 -10.2575 -10.2442  -6.7505  -6.6460  -6.5607  -6.4679
    -6.4195  -6.4176  -6.3626  -6.3410  -6.3364  -6.2645  -6.2105  -6.2069
    -5.9171  -5.9124  -5.8245  -5.8215  -5.8187  -5.8170  -5.7660  -5.7637
    -5.7531  -5.7330  -5.6833  -5.6819  -5.6798  -5.6625  -5.6420  -5.6412
    -5.6374  -5.6070  -5.5871  -5.5837  -5.5722  -5.5301  -5.5271  -5.5262
    -5.5160  -5.4856  -5.4651  -5.4400  -5.4368  -5.4363  -5.3989  -5.3702
    -5.3439  -5.3436  -5.3311  -5.2958  -0.5620  -0.5593  -0.5513  -0.4327
    -0.4284  -0.4269  -0.4107  -0.3592  -0.3218  -0.3211  -0.2902  -0.2824
     1.4051   1.4936   1.4949   1.5142   1.6130   1.7101   1.7139   1.7227
     1.7372   1.7740   1.8419   1.8480   1.9676   1.9874   2.0201   2.0221
     2.1282   2.1977   2.2076   2.2105   2.2851   2.3346   2.3976   2.4257
     2.4280   2.5187   2.5281   2.5303   2.5546   2.5578   2.5591   2.5598
     2.6019   2.6756   2.7638   2.7670   2.8221   2.8244   2.8257   2.8280
     2.8510   2.8533   2.8941   2.8961   2.9075   3.0049   3.0171   3.0186
     3.0764   3.0770   3.1181   3.1196   3.1328   3.1800   3.1828   3.1883
     3.2133   3.2438   3.2654   3.2839   3.2871   3.2947   3.3302   3.3313
     3.3740   3.3768   3.3791   3.3798   3.4441   3.4468   3.4499   3.4761
     3.4788   3.4801   3.5045   3.5201   3.5323   3.5350   3.5365   3.5568
     3.5820   3.5873   3.6079   3.6308   3.6393   3.6435   3.6798   3.6828
     3.6858   3.6940   3.7033   3.7048   3.8345   3.8369   3.8758   3.8792
     3.9398   3.9422   3.9455   3.9485   3.9723   4.0325   4.0538   4.0555
     4.0601   4.0615   4.0989   4.1010   4.1209   4.1239   4.1294   4.1352
     4.2235   4.2398   4.2682   4.2697   4.2904   4.2921   4.3142   4.3648
     4.3924   4.4347   4.4356   4.4812   4.5209   4.5444   4.5453   4.5839
     4.5928   4.5983   4.6311   4.7293   5.1439   5.1485   5.1533   5.1629
     5.1671   5.1680   5.1700   5.1723   5.1988   5.2044   5.2112   5.2142
     5.2195   5.2285   5.2389   5.2411   5.2588   5.2627   5.2642   5.2647
     5.2658   5.2739   5.3074   5.3104   5.3179   5.3336   5.3446   5.3483
     5.3595   5.3617   5.3639   5.3669   5.3697   5.3812   5.3887   5.3901
     5.4094   5.4328   5.4474   5.4508   5.4519   5.4688   5.4951   5.4970
     5.5158   5.5229   5.5551   5.5574   5.5680   5.5694   5.6008   5.6028
     5.6064   5.6197   5.6308   5.6494   5.6524   5.6598   5.6749   5.7081
     5.7098   5.7402   5.7600   5.7615   5.7712   5.7838   5.8047   5.8065
     5.8152   5.8387   5.8671   5.8677   5.8745   5.8958   5.9688   5.9698
     6.0194   6.0244   6.0258   6.1003   6.1023   6.1119   6.1599   6.1871
     6.2025   6.2029   6.2043   6.2622   6.2640   6.2879   6.3183   6.3426
     6.3546   6.3681   6.3704   6.4130   6.4195   6.4206   6.4523   6.4816
     6.4825   6.5081   6.5586   6.5662   6.6070   6.6079   6.6479   6.6664
     6.6681   6.7371   6.7390   6.7398   6.7484   6.8038   6.8053   6.8511
     6.8671   6.9188   6.9475   7.0387

          k =-0.3333-0.1925 0.2714 (115773 PWs)   bands (ev):

   -28.2819 -28.2774 -28.2774 -28.2754 -28.2754 -28.2751 -28.2749 -28.2748
   -28.2747 -28.2746 -28.2743 -28.2520 -14.9242 -14.9230 -14.9227 -14.9224
   -14.9224 -14.9224 -14.9222 -14.9220 -14.9217 -14.9211 -14.9210 -14.9183
   -14.9172 -14.9169 -14.9167 -14.9166 -14.9165 -14.9165 -14.9164 -14.9160
   -14.9159 -14.9152 -14.9149 -14.9114 -14.9062 -14.9051 -14.9047 -14.9045
   -14.9044 -14.9044 -14.9043 -14.9040 -14.9031 -14.9030 -14.9027 -14.8992
   -14.8661 -14.8649 -14.8645 -14.8643 -14.8643 -14.8642 -14.8642 -14.8639
   -14.8637 -14.8630 -14.8629 -14.8587 -14.8211 -14.8209 -14.8198 -14.8194
   -14.8191 -14.8190 -14.8190 -14.8190 -14.8185 -14.8177 -14.8175 -14.8140
   -10.3423 -10.3391 -10.3381 -10.3376 -10.3365 -10.3344 -10.3342 -10.3329
   -10.3321 -10.3308 -10.3280 -10.3149 -10.3101 -10.3075 -10.3068 -10.3053
   -10.3019 -10.3007 -10.2991 -10.2962 -10.2951 -10.2917 -10.2896 -10.2793
   -10.2716 -10.2693 -10.2681 -10.2673 -10.2657 -10.2642 -10.2629 -10.2618
   -10.2604 -10.2593 -10.2583 -10.2442  -6.7503  -6.6461  -6.5598  -6.4714
    -6.4228  -6.4206  -6.3630  -6.3294  -6.3250  -6.2577  -6.2242  -6.2206
    -5.9084  -5.9038  -5.8229  -5.8211  -5.8095  -5.8069  -5.7924  -5.7599
    -5.7594  -5.7311  -5.7104  -5.7093  -5.6715  -5.6346  -5.6288  -5.6274
    -5.6264  -5.6080  -5.6006  -5.5974  -5.5689  -5.5280  -5.5229  -5.5211
    -5.5201  -5.4963  -5.4672  -5.4331  -5.4285  -5.4276  -5.4222  -5.3632
    -5.3477  -5.3471  -5.3216  -5.2995  -0.5591  -0.5586  -0.5557  -0.4355
    -0.4339  -0.4245  -0.3932  -0.3721  -0.3185  -0.3179  -0.2992  -0.2778
     1.4339   1.4843   1.4858   1.4875   1.6254   1.6415   1.7708   1.7736
     1.7832   1.7912   1.7984   1.8038   1.9154   1.9928   1.9969   2.0773
     2.1535   2.2007   2.2101   2.2462   2.2486   2.3604   2.3927   2.3950
     2.3991   2.4493   2.5113   2.5141   2.5492   2.5866   2.5912   2.6064
     2.6431   2.7100   2.7614   2.7656   2.7695   2.7878   2.8091   2.8104
     2.8391   2.8742   2.9142   2.9158   2.9195   2.9797   3.0223   3.0249
     3.0674   3.1066   3.1090   3.1317   3.1701   3.1921   3.1937   3.1956
     3.1988   3.2316   3.2643   3.2652   3.2760   3.3153   3.3210   3.3222
     3.3245   3.3880   3.3904   3.4082   3.4431   3.4448   3.4655   3.4698
     3.4710   3.4735   3.4758   3.4777   3.5334   3.5352   3.5378   3.5897
     3.6038   3.6116   3.6127   3.6325   3.6418   3.6478   3.6567   3.6599
     3.6647   3.7068   3.7114   3.7128   3.8338   3.8360   3.8784   3.8873
     3.9041   3.9460   3.9501   3.9748   3.9819   4.0193   4.0445   4.0483
     4.0503   4.0653   4.1101   4.1129   4.1213   4.1321   4.1336   4.1476
     4.1897   4.2553   4.2663   4.2675   4.2888   4.2897   4.2956   4.3853
     4.3976   4.4380   4.4394   4.4684   4.5243   4.5253   4.5354   4.5948
     4.6070   4.6123   4.6223   4.7202   5.1464   5.1517   5.1538   5.1573
     5.1714   5.1743   5.1760   5.1828   5.1902   5.1969   5.2004   5.2060
     5.2072   5.2317   5.2339   5.2363   5.2544   5.2626   5.2646   5.2657
     5.2792   5.2968   5.3066   5.3107   5.3136   5.3287   5.3362   5.3374
     5.3574   5.3586   5.3604   5.3620   5.3795   5.3924   5.4068   5.4077
     5.4109   5.4309   5.4326   5.4439   5.4443   5.4923   5.5003   5.5022
     5.5089   5.5155   5.5537   5.5601   5.5735   5.5750   5.6009   5.6103
     5.6113   5.6176   5.6243   5.6264   5.6432   5.6686   5.6816   5.7141
     5.7154   5.7175   5.7352   5.7723   5.7728   5.7753   5.8016   5.8031
     5.8116   5.8580   5.8749   5.8756   5.8806   5.9140   5.9579   5.9598
     6.0324   6.0348   6.0367   6.0595   6.0773   6.0799   6.1730   6.2062
     6.2130   6.2134   6.2658   6.2673   6.2699   6.2768   6.2865   6.3479
     6.3501   6.3652   6.3728   6.4154   6.4235   6.4255   6.4286   6.4706
     6.4979   6.5006   6.5465   6.5592   6.5953   6.5975   6.6658   6.6691
     6.6774   6.7195   6.7351   6.7379   6.7484   6.8121   6.8149   6.8447
     6.8694   6.9288   6.9378   7.0528

          k = 0.3333-0.1925 0.2714 (115773 PWs)   bands (ev):

   -28.2819 -28.2774 -28.2774 -28.2754 -28.2754 -28.2751 -28.2749 -28.2748
   -28.2747 -28.2746 -28.2743 -28.2520 -14.9242 -14.9231 -14.9227 -14.9224
   -14.9224 -14.9223 -14.9223 -14.9220 -14.9216 -14.9211 -14.9210 -14.9183
   -14.9172 -14.9168 -14.9167 -14.9166 -14.9165 -14.9165 -14.9164 -14.9160
   -14.9158 -14.9152 -14.9149 -14.9114 -14.9062 -14.9051 -14.9047 -14.9045
   -14.9044 -14.9044 -14.9044 -14.9040 -14.9031 -14.9030 -14.9027 -14.8992
   -14.8661 -14.8649 -14.8645 -14.8643 -14.8643 -14.8642 -14.8642 -14.8639
   -14.8637 -14.8630 -14.8629 -14.8587 -14.8211 -14.8209 -14.8198 -14.8194
   -14.8191 -14.8191 -14.8191 -14.8189 -14.8185 -14.8177 -14.8175 -14.8140
   -10.3422 -10.3390 -10.3382 -10.3369 -10.3363 -10.3353 -10.3339 -10.3328
   -10.3322 -10.3306 -10.3283 -10.3151 -10.3106 -10.3074 -10.3063 -10.3049
   -10.3016 -10.3005 -10.2995 -10.2966 -10.2951 -10.2925 -10.2893 -10.2789
   -10.2714 -10.2694 -10.2691 -10.2668 -10.2654 -10.2637 -10.2632 -10.2618
   -10.2609 -10.2598 -10.2581 -10.2436  -6.7503  -6.6460  -6.5599  -6.4711
    -6.4221  -6.4211  -6.3630  -6.3288  -6.3264  -6.2576  -6.2239  -6.2211
    -5.9082  -5.9046  -5.8225  -5.8213  -5.8091  -5.8066  -5.7912  -5.7604
    -5.7593  -5.7315  -5.7101  -5.7096  -5.6710  -5.6353  -5.6290  -5.6270
    -5.6259  -5.6074  -5.6004  -5.5980  -5.5699  -5.5281  -5.5231  -5.5214
    -5.5200  -5.4959  -5.4676  -5.4329  -5.4286  -5.4279  -5.4217  -5.3632
    -5.3473  -5.3471  -5.3219  -5.2996  -0.5591  -0.5584  -0.5569  -0.4357
    -0.4351  -0.4240  -0.3921  -0.3716  -0.3188  -0.3182  -0.2978  -0.2776
     1.4330   1.4851   1.4863   1.4880   1.6273   1.6413   1.7720   1.7740
     1.7809   1.7892   1.7982   1.8010   1.9151   1.9909   1.9977   2.0767
     2.1534   2.1981   2.2102   2.2478   2.2493   2.3604   2.3933   2.3940
     2.3992   2.4475   2.5115   2.5139   2.5475   2.5908   2.5923   2.6093
     2.6418   2.7110   2.7596   2.7685   2.7720   2.7862   2.8088   2.8097
     2.8387   2.8742   2.9121   2.9155   2.9204   2.9800   3.0237   3.0280
     3.0686   3.1040   3.1065   3.1330   3.1685   3.1925   3.1935   3.1943
     3.2006   3.2306   3.2629   3.2660   3.2766   3.3179   3.3203   3.3224
     3.3235   3.3880   3.3921   3.4099   3.4400   3.4455   3.4672   3.4705
     3.4718   3.4729   3.4752   3.4774   3.5325   3.5363   3.5380   3.5896
     3.6041   3.6124   3.6137   3.6302   3.6418   3.6484   3.6538   3.6588
     3.6672   3.7050   3.7110   3.7123   3.8355   3.8360   3.8783   3.8871
     3.9041   3.9479   3.9508   3.9717   3.9822   4.0204   4.0481   4.0488
     4.0515   4.0626   4.1083   4.1107   4.1173   4.1326   4.1338   4.1481
     4.1912   4.2568   4.2661   4.2677   4.2880   4.2898   4.2954   4.3879
     4.3967   4.4357   4.4385   4.4677   4.5243   4.5262   4.5356   4.5942
     4.6088   4.6125   4.6222   4.7210   5.1456   5.1504   5.1535   5.1564
     5.1712   5.1756   5.1767   5.1827   5.1890   5.1962   5.1999   5.2043
     5.2082   5.2327   5.2344   5.2351   5.2535   5.2635   5.2650   5.2666
     5.2768   5.2959   5.3061   5.3113   5.3137   5.3287   5.3359   5.3375
     5.3580   5.3585   5.3600   5.3641   5.3795   5.3917   5.4057   5.4074
     5.4141   5.4322   5.4342   5.4430   5.4449   5.4913   5.5008   5.5024
     5.5095   5.5155   5.5531   5.5607   5.5736   5.5746   5.6035   5.6101
     5.6112   5.6194   5.6234   5.6247   5.6435   5.6698   5.6830   5.7135
     5.7152   5.7171   5.7333   5.7723   5.7730   5.7739   5.8024   5.8029
     5.8101   5.8576   5.8751   5.8759   5.8786   5.9142   5.9588   5.9600
     6.0338   6.0346   6.0366   6.0588   6.0785   6.0801   6.1731   6.2053
     6.2107   6.2131   6.2656   6.2677   6.2702   6.2768   6.2865   6.3483
     6.3495   6.3668   6.3726   6.4151   6.4243   6.4248   6.4276   6.4727
     6.4986   6.4996   6.5452   6.5605   6.5952   6.5991   6.6667   6.6690
     6.6761   6.7197   6.7359   6.7373   6.7477   6.8131   6.8140   6.8445
     6.8698   6.9303   6.9366   7.0531

          k =-0.3333-0.5774 0.2714 (115827 PWs)   bands (ev):

   -28.2819 -28.2774 -28.2774 -28.2754 -28.2754 -28.2751 -28.2749 -28.2748
   -28.2747 -28.2746 -28.2743 -28.2520 -14.9242 -14.9230 -14.9227 -14.9224
   -14.9224 -14.9223 -14.9223 -14.9220 -14.9217 -14.9211 -14.9210 -14.9183
   -14.9172 -14.9169 -14.9167 -14.9166 -14.9165 -14.9165 -14.9164 -14.9160
   -14.9159 -14.9152 -14.9149 -14.9114 -14.9062 -14.9051 -14.9047 -14.9045
   -14.9044 -14.9044 -14.9044 -14.9040 -14.9031 -14.9030 -14.9027 -14.8992
   -14.8661 -14.8649 -14.8645 -14.8643 -14.8643 -14.8642 -14.8642 -14.8639
   -14.8637 -14.8630 -14.8629 -14.8587 -14.8211 -14.8209 -14.8198 -14.8194
   -14.8191 -14.8191 -14.8190 -14.8190 -14.8185 -14.8177 -14.8175 -14.8140
   -10.3419 -10.3388 -10.3378 -10.3369 -10.3357 -10.3341 -10.3336 -10.3327
   -10.3312 -10.3307 -10.3304 -10.3150 -10.3087 -10.3078 -10.3070 -10.3041
   -10.3017 -10.3003 -10.2981 -10.2972 -10.2944 -10.2921 -10.2919 -10.2795
   -10.2714 -10.2691 -10.2684 -10.2661 -10.2648 -10.2647 -10.2642 -10.2631
   -10.2608 -10.2602 -10.2590 -10.2442  -6.6183  -6.6175  -6.6167  -6.5248
    -6.5241  -6.5229  -6.3072  -6.2890  -6.2884  -6.2863  -6.2564  -6.2126
    -5.8764  -5.8586  -5.8446  -5.7798  -5.7790  -5.7784  -5.7433  -5.7419
    -5.7408  -5.7140  -5.6888  -5.6877  -5.6856  -5.6733  -5.6720  -5.6714
    -5.6690  -5.6434  -5.5587  -5.5554  -5.5538  -5.5259  -5.5241  -5.5222
    -5.5049  -5.5032  -5.5020  -5.5012  -5.4587  -5.3990  -5.3975  -5.3966
    -5.3577  -5.3228  -5.3221  -5.3216  -0.5194  -0.5052  -0.5047  -0.5033
    -0.4602  -0.4170  -0.4159  -0.4146  -0.3547  -0.2929  -0.2920  -0.2907
     1.4810   1.4824   1.4844   1.6349   1.6385   1.6394   1.6909   1.7729
     1.7759   1.7772   1.7800   1.7920   1.9786   1.9818   1.9852   2.0557
     2.1702   2.1919   2.1933   2.1943   2.2477   2.3961   2.3974   2.3986
     2.4877   2.4885   2.4912   2.5576   2.5850   2.5883   2.5893   2.5930
     2.6801   2.7347   2.7371   2.7396   2.8201   2.8233   2.8246   2.8281
     2.8997   2.9023   2.9042   2.9247   2.9360   2.9527   2.9558   2.9584
     3.0578   3.0599   3.0615   3.0850   3.0888   3.0904   3.1276   3.1808
     3.2424   3.2449   3.2456   3.2687   3.2710   3.2718   3.3208   3.3245
     3.3279   3.3303   3.3734   3.4047   3.4212   3.4642   3.4653   3.4663
     3.4905   3.4984   3.4992   3.5005   3.5325   3.5370   3.5376   3.5393
     3.5618   3.6102   3.6156   3.6174   3.6484   3.6549   3.6555   3.6932
     3.6979   3.6989   3.7185   3.7441   3.8202   3.8383   3.8406   3.8416
     3.9363   3.9403   3.9410   3.9442   4.0268   4.0297   4.0305   4.0388
     4.0644   4.0672   4.0692   4.1075   4.1129   4.1139   4.1167   4.1685
     4.2714   4.2741   4.2750   4.2895   4.3155   4.3601   4.3618   4.3651
     4.4135   4.4169   4.4184   4.4920   4.4932   4.4945   4.5062   4.5124
     4.5641   4.6653   4.6671   4.6688   5.1463   5.1537   5.1563   5.1576
     5.1579   5.1809   5.1825   5.1835   5.1947   5.1977   5.1987   5.2096
     5.2231   5.2247   5.2252   5.2500   5.2517   5.2531   5.2575   5.2680
     5.2995   5.3016   5.3037   5.3090   5.3268   5.3290   5.3298   5.3663
     5.3682   5.3695   5.3754   5.3912   5.3953   5.4075   5.4090   5.4104
     5.4308   5.4329   5.4348   5.4378   5.4824   5.4844   5.4862   5.4915
     5.5366   5.5386   5.5391   5.5434   5.5656   5.5666   5.5674   5.6047
     5.6058   5.6074   5.6371   5.6390   5.6711   5.6727   5.6737   5.7032
     5.7041   5.7063   5.7172   5.7576   5.7595   5.7606   5.8017   5.8081
     5.8203   5.8238   5.8248   5.8261   5.8892   5.8902   5.8932   6.0563
     6.0590   6.0607   6.0615   6.0769   6.1194   6.1200   6.1224   6.1356
     6.1952   6.2372   6.2382   6.2401   6.2840   6.2993   6.3026   6.3039
     6.3070   6.3847   6.3857   6.3871   6.4507   6.4668   6.4684   6.4710
     6.4913   6.4927   6.5587   6.5605   6.5636   6.6464   6.6843   6.6856
     6.6869   6.7602   6.7781   6.7786   6.7797   6.7918   6.8540   6.8551
     6.8564   6.9357   6.9363   6.9383

     highest occupied level (ev):     7.1814

!    total energy              =   -9077.18700810 Ry
     estimated scf accuracy    <          5.6E-10 Ry

     The total energy is the sum of the following terms:
     one-electron contribution =   -2776.95761077 Ry
     hartree contribution      =    2020.23800257 Ry
     xc contribution           =   -2269.38647503 Ry
     ewald contribution        =   -3895.28353660 Ry
     one-center paw contrib.   =   -2155.79738827 Ry

     convergence has been achieved in  21 iterations

     negative rho (up, down):  7.902E-01 0.000E+00

     Forces acting on atoms (cartesian axes, Ry/au):

     atom    1 type  1   force =    -0.00080902    0.00084569   -0.00098588
     atom    2 type  1   force =    -0.00018543    0.00031802    0.00003212
     atom    3 type  1   force =    -0.00007325    0.00018452   -0.00015486
     atom    4 type  1   force =    -0.00016470    0.00026854   -0.00002246
     atom    5 type  1   force =    -0.00021094    0.00004016   -0.00017105
     atom    6 type  1   force =    -0.00019370   -0.00020222   -0.00005992
     atom    7 type  1   force =    -0.00007104   -0.00037153    0.00001823
     atom    8 type  1   force =    -0.00025194   -0.00036930    0.00018093
     atom    9 type  1   force =     0.00030910    0.00000806    0.00000739
     atom   10 type  1   force =     0.00031853    0.00002374    0.00002341
     atom   11 type  1   force =     0.00028820   -0.00001655    0.00001821
     atom   12 type  1   force =     0.00030655   -0.00000856   -0.00000925
     atom   13 type  2   force =    -0.00195206    0.00335132    0.00356199
     atom   14 type  2   force =     0.00014402   -0.00032315    0.00012724
     atom   15 type  2   force =     0.00016264   -0.00047433    0.00016870
     atom   16 type  2   force =     0.00023299   -0.00036553    0.00020676
     atom   17 type  2   force =     0.00023047    0.00037400    0.00019224
     atom   18 type  2   force =     0.00024130    0.00036540    0.00018674
     atom   19 type  2   force =     0.00023289    0.00035835    0.00018922
     atom   20 type  2   force =     0.00022162    0.00035336    0.00018604
     atom   21 type  2   force =    -0.00045015    0.00000348    0.00020176
     atom   22 type  2   force =    -0.00042628    0.00000830    0.00018183
     atom   23 type  2   force =    -0.00043076   -0.00001968    0.00006126
     atom   24 type  2   force =    -0.00046602    0.00004706    0.00019143
     atom   25 type  2   force =    -0.00042565    0.00000369   -0.00014270
     atom   26 type  2   force =    -0.00041682   -0.00002986   -0.00015243
     atom   27 type  2   force =    -0.00048184   -0.00002703   -0.00026481
     atom   28 type  2   force =    -0.00041502   -0.00002910   -0.00023111
     atom   29 type  2   force =    -0.00212087    0.00110493    0.00129273
     atom   30 type  2   force =     0.00031236    0.00037841   -0.00012934
     atom   31 type  2   force =     0.00023511    0.00035179   -0.00020349
     atom   32 type  2   force =     0.00014978    0.00032752   -0.00032496
     atom   33 type  2   force =     0.00022456   -0.00036154   -0.00018710
     atom   34 type  2   force =     0.00025148   -0.00037137   -0.00018477
     atom   35 type  2   force =     0.00023456   -0.00036806   -0.00018538
     atom   36 type  2   force =     0.00023418   -0.00036814   -0.00018310
     atom   37 type  3   force =     0.00029134   -0.00061900    0.00004513
     atom   38 type  3   force =     0.00028324   -0.00046205    0.00000396
     atom   39 type  3   force =     0.00026681   -0.00046116    0.00003117
     atom   40 type  3   force =     0.00031281   -0.00045201   -0.00002279
     atom   41 type  3   force =     0.00022387    0.00055762    0.00004531
     atom   42 type  3   force =     0.00029589    0.00048728    0.00003528
     atom   43 type  3   force =     0.00028424    0.00039383   -0.00004183
     atom   44 type  3   force =     0.00025674    0.00043360   -0.00002811
     atom   45 type  3   force =    -0.00039174    0.00006910    0.00007386
     atom   46 type  3   force =     0.00207369    0.00568685   -0.00022249
     atom   47 type  3   force =    -0.00050557   -0.00013302   -0.00004828
     atom   48 type  3   force =    -0.00054841   -0.00073056    0.00006594
     atom   49 type  4   force =     0.00035486   -0.00009128    0.00007958
     atom   50 type  4   force =     0.00035883   -0.00010264    0.00001516
     atom   51 type  4   force =     0.00035033   -0.00009084   -0.00000518
     atom   52 type  4   force =     0.00034342   -0.00009445    0.00000764
     atom   53 type  4   force =    -0.00010177    0.00013547    0.00005220
     atom   54 type  4   force =    -0.00020906    0.00033359    0.00002857
     atom   55 type  4   force =    -0.00010028    0.00042242    0.00006563
     atom   56 type  4   force =    -0.00008155    0.00042666    0.00000698
     atom   57 type  4   force =    -0.00009923    0.00096863    0.00086727
     atom   58 type  4   force =    -0.00040242   -0.00005033    0.00012376
     atom   59 type  4   force =    -0.00046257   -0.00017240    0.00000446
     atom   60 type  4   force =    -0.00032101   -0.00039535    0.00000930
     atom   61 type  4   force =    -0.00125755    0.00068460    0.00040074
     atom   62 type  4   force =    -0.00045440    0.00002649   -0.00019887
     atom   63 type  4   force =    -0.00013267    0.00051189   -0.00001833
     atom   64 type  4   force =    -0.00034429    0.00049797    0.00000587
     atom   65 type  4   force =     0.00036772    0.00009133   -0.00005828
     atom   66 type  4   force =     0.00033956    0.00009563   -0.00000843
     atom   67 type  4   force =     0.00034925    0.00012291   -0.00001651
     atom   68 type  4   force =     0.00035594    0.00010399    0.00000206
     atom   69 type  4   force =    -0.00010731   -0.00036700   -0.00001713
     atom   70 type  4   force =    -0.00031901   -0.00003083    0.00072455
     atom   71 type  4   force =    -0.00005864   -0.00030486    0.00000987
     atom   72 type  4   force =    -0.00011276   -0.00035963   -0.00003184
     atom   73 type  4   force =     0.00539634   -0.01458944   -0.00571320
     atom   74 type  4   force =    -0.00001017    0.00006887   -0.00025756
     atom   75 type  4   force =    -0.00001762    0.00024026   -0.00025296
     atom   76 type  4   force =    -0.00000085    0.00025079   -0.00017586
     atom   77 type  4   force =    -0.00015147   -0.00008778   -0.00031058
     atom   78 type  4   force =    -0.00015550   -0.00004795   -0.00025241
     atom   79 type  4   force =    -0.00015522   -0.00006173   -0.00026077
     atom   80 type  4   force =    -0.00012673   -0.00006454   -0.00026655
     atom   81 type  4   force =     0.00015081    0.00003119   -0.00032799
     atom   82 type  4   force =     0.00012911   -0.00008974   -0.00025177
     atom   83 type  4   force =     0.00012051   -0.00010963   -0.00022819
     atom   84 type  4   force =     0.00011756   -0.00008458   -0.00025778
     atom   85 type  4   force =     0.00011303    0.00011139    0.00021041
     atom   86 type  4   force =     0.00011328    0.00009144    0.00026462
     atom   87 type  4   force =     0.00011315    0.00009699    0.00024997
     atom   88 type  4   force =     0.00009830    0.00009896    0.00027434
     atom   89 type  4   force =     0.00027230   -0.00009971    0.00048949
     atom   90 type  4   force =    -0.00194202    0.00118013    0.00010203
     atom   91 type  4   force =    -0.00002380   -0.00011964    0.00026088
     atom   92 type  4   force =     0.00062340    0.00086040    0.00036185
     atom   93 type  4   force =    -0.00017039    0.00004259    0.00025951
     atom   94 type  4   force =    -0.00011100   -0.00000887    0.00014638
     atom   95 type  4   force =    -0.00011944    0.00007123    0.00025282
     atom   96 type  4   force =    -0.00014673    0.00007649    0.00026149

     Total force =     0.019378     Total SCF correction =     0.000066
     Message from routine punch:
     Nothing written, as per user request (disk_io='none')

     init_run     :     42.15s CPU     44.81s WALL (       1 calls)
     electrons    :   2065.05s CPU   2170.83s WALL (       1 calls)
     forces       :     19.55s CPU     19.93s WALL (       1 calls)

     Called by init_run:
     wfcinit      :     38.45s CPU     40.89s WALL (       1 calls)
     potinit      :      1.12s CPU      1.17s WALL (       1 calls)
     hinit0       :      1.14s CPU      1.17s WALL (       1 calls)

     Called by electrons:
     c_bands      :   1831.32s CPU   1916.62s WALL (      21 calls)
     sum_band     :    205.49s CPU    222.61s WALL (      21 calls)
     v_of_rho     :      3.62s CPU      4.05s WALL (      22 calls)
     newd         :     19.54s CPU     22.46s WALL (      22 calls)
     PAW_pot      :      5.31s CPU      5.34s WALL (      22 calls)
     mix_rho      :      0.58s CPU      0.63s WALL (      21 calls)

     Called by c_bands:
     init_us_2    :     16.64s CPU     16.80s WALL (     308 calls)
     cegterg      :   1756.15s CPU   1840.84s WALL (     147 calls)

     Called by *egterg:
     cdiaghg      :     93.51s CPU     97.32s WALL (     856 calls)
     h_psi        :    971.44s CPU   1042.25s WALL (     863 calls)
     s_psi        :    219.09s CPU    220.77s WALL (     863 calls)
     g_psi        :      3.01s CPU      3.04s WALL (     709 calls)

     Called by h_psi:
     h_psi:calbec :    222.82s CPU    225.22s WALL (     863 calls)
     vloc_psi     :    526.82s CPU    591.60s WALL (     863 calls)
     add_vuspsi   :    219.01s CPU    220.67s WALL (     863 calls)

     General routines
     calbec       :    310.43s CPU    313.79s WALL (    1038 calls)
     fft          :     10.18s CPU     10.75s WALL (     295 calls)
     ffts         :      0.76s CPU      0.79s WALL (      43 calls)
     fftw         :    477.63s CPU    550.05s WALL (  423628 calls)
     interpolate  :      0.89s CPU      0.97s WALL (      22 calls)

     Parallel routines

     PWSCF        :  35m27.03s CPU  37m16.38s WALL


   This run was terminated on:   4:36:35  21Aug2026            

=------------------------------------------------------------------------------=
   JOB DONE.
=------------------------------------------------------------------------------=
