
     Program PWSCF v.7.3.1 starts on 21Aug2026 at  1:47:10 

     This program is part of the open-source Quantum ESPRESSO suite
     for quantum simulation of materials; please cite
         "P. Giannozzi et al., J. Phys.:Condens. Matter 21 395502 (2009);
         "P. Giannozzi et al., J. Phys.:Condens. Matter 29 465901 (2017);
         "P. Giannozzi et al., J. Chem. Phys. 152 154105 (2020);
          URL http://www.quantum-espresso.org", 
     in publications or presentations arising from this work. More details at
     http://www.quantum-espresso.org/quote

     Parallel version (MPI & OpenMP), running on      32 processor cores
     Number of MPI processes:                32
     Threads/MPI process:                     1

     MPI processes distributed on     1 nodes
     317222 MiB available memory on the printing compute node when the environment starts

     Reading input from scf.in

     Current dimensions of program PWSCF are:
     Max number of different atomic species (ntypx) = 10
     Max number of k-points (npk) =  40000
     Max angular momentum in pseudopotentials (lmaxx) =  4
     file Cu.paw.z_11.ld1.psl.v1.0.0-low.upf: wavefunction(s)  4S 3D renormalized

     K-points division:     npool     =       2
     R & G space division:  proc/nbgrp/npool/nimage =      16
     Subspace diagonalization in iterative solution of the eigenvalue problem:
     one sub-group per band group will be used
     scalapack distributed-memory algorithm (size of sub-group:  4*  4 procs)


     Parallelization info
     --------------------
     sticks:   dense  smooth     PW     G-vecs:    dense   smooth      PW
     Min        1193     597    157               163743    57882    7779
     Max        1194     599    158               163747    57885    7784
     Sum       19099    9565   2515              2619931   926125  124485

     Using Slab Decomposition



     bravais-lattice index     =            0
     lattice parameter (alat)  =      24.0273  a.u.
     unit-cell volume          =   14752.0463 (a.u.)^3
     number of atoms/cell      =           96
     number of atomic types    =            4
     number of electrons       =       840.00
     number of Kohn-Sham states=          420
     kinetic-energy cutoff     =      60.0000  Ry
     charge density cutoff     =     480.0000  Ry
     scf convergence threshold =      1.0E-09
     mixing beta               =       0.3000
     number of iterations used =            8  plain     mixing
     Exchange-correlation=  SLA  PW   PBX  PBC
                           (   1   4   3   4   0   0   0)

     celldm(1)=  24.027274  celldm(2)=   0.000000  celldm(3)=   0.000000
     celldm(4)=   0.000000  celldm(5)=   0.000000  celldm(6)=   0.000000

     crystal axes: (cart. coord. in units of alat)
               a(1) = (   1.000000   0.000000   0.000000 )  
               a(2) = (  -0.500000   0.866025   0.000000 )  
               a(3) = (   0.000000   0.000000   1.228028 )  

     reciprocal axes: (cart. coord. in units 2 pi/alat)
               b(1) = (  1.000000  0.577351 -0.000000 )  
               b(2) = (  0.000000  1.154701  0.000000 )  
               b(3) = (  0.000000 -0.000000  0.814314 )  


     PseudoPot. # 1 for Sr read from file:
     /home/yuhansun/pseudos/SSSP-1.3.0-PBE-precision/Sr_pbe_v1.uspp.F.UPF
     MD5 check sum: 6b418c05fbe9db5448babca5e47b7a5b
     Pseudo is Ultrasoft + core correction, Zval = 10.0
     Generated by new atomic code, or converted to UPF format
     Using radial grid of  883 points,  6 beta functions with: 
                l(1) =   0
                l(2) =   0
                l(3) =   1
                l(4) =   1
                l(5) =   2
                l(6) =   2
     Q(r) pseudized with  6 coefficients,  rinner =    1.400   1.400   1.400
                                                       1.400   1.400

     PseudoPot. # 2 for Cu read from file:
     /home/yuhansun/pseudos/SSSP-1.3.0-PBE-precision/Cu.paw.z_11.ld1.psl.v1.0.0-low.upf
     MD5 check sum: 619f40885d92a09a85a8b37550532d0c
     Pseudo is Projector augmented-wave + core cor, Zval = 11.0
     Generated using &quot;atomic&quot; code by A. Dal Corso  v.6.3MaX
     Shape of augmentation charge: PSQ
     Using radial grid of 1199 points,  6 beta functions with: 
                l(1) =   0
                l(2) =   0
                l(3) =   1
                l(4) =   1
                l(5) =   2
                l(6) =   2
     Q(r) pseudized with 0 coefficients 


     PseudoPot. # 3 for Sn read from file:
     /home/yuhansun/pseudos/SSSP-1.3.0-PBE-precision/Sn_pbe_v1.uspp.F.UPF
     MD5 check sum: 4cf58ce39ec5d5d420df3dd08604eb00
     Pseudo is Ultrasoft + core correction, Zval = 14.0
     Generated by new atomic code, or converted to UPF format
     Using radial grid of  891 points,  6 beta functions with: 
                l(1) =   0
                l(2) =   0
                l(3) =   1
                l(4) =   1
                l(5) =   2
                l(6) =   2
     Q(r) pseudized with  6 coefficients,  rinner =    1.200   1.200   1.200
                                                       1.200   1.200

     PseudoPot. # 4 for S  read from file:
     /home/yuhansun/pseudos/SSSP-1.3.0-PBE-precision/s_pbe_v1.4.uspp.F.UPF
     MD5 check sum: 88d86576ff6df21479756cfb9bdac1df
     Pseudo is Ultrasoft + core correction, Zval =  6.0
     Generated by new atomic code, or converted to UPF format
     Using radial grid of  907 points,  6 beta functions with: 
                l(1) =   0
                l(2) =   0
                l(3) =   1
                l(4) =   1
                l(5) =   2
                l(6) =   2
     Q(r) pseudized with  8 coefficients,  rinner =    1.300   1.300   1.300
                                                       1.300   1.300

     atomic species   valence    mass     pseudopotential
     Sr               10.00    87.62000     Sr( 1.00)
     Cu               11.00    63.54600     Cu( 1.00)
     Sn               14.00   118.71000     Sn( 1.00)
     S                 6.00    32.06500     S ( 1.00)

     No symmetry found



   Cartesian axes

     site n.     atom                  positions (alat units)
         1        Sr     tau(   1) = (  -0.1405753   0.2434834   0.2046717  )
         2        Sr     tau(   2) = (   0.3594247   0.2434834   0.2046717  )
         3        Sr     tau(   3) = (  -0.3905753   0.6764960   0.2046717  )
         4        Sr     tau(   4) = (   0.1094247   0.6764960   0.2046717  )
         5        Sr     tau(   5) = (   0.1094247   0.1895292   0.6140139  )
         6        Sr     tau(   6) = (   0.6094247   0.1895292   0.6140139  )
         7        Sr     tau(   7) = (  -0.1405753   0.6225418   0.6140139  )
         8        Sr     tau(   8) = (   0.3594247   0.6225418   0.6140139  )
         9        Sr     tau(   9) = (   0.2811505   0.0000000   1.0233574  )
        10        Sr     tau(  10) = (   0.7811505   0.0000000   1.0233574  )
        11        Sr     tau(  11) = (   0.0311505   0.4330126   1.0233574  )
        12        Sr     tau(  12) = (   0.5311505   0.4330126   1.0233574  )
        13        Cu     tau(  13) = (  -0.1226788   0.2753211   0.5061747  )
        14        Cu     tau(  14) = (   0.3773212   0.2753211   0.5061747  )
        15        Cu     tau(  15) = (  -0.3726788   0.7083337   0.5061747  )
        16        Cu     tau(  16) = (   0.1273212   0.7083337   0.5061747  )
        17        Cu     tau(  17) = (   0.0729045   0.1891087   0.9155169  )
        18        Cu     tau(  18) = (   0.5729045   0.1891087   0.9155169  )
        19        Cu     tau(  19) = (  -0.1770956   0.6221213   0.9155169  )
        20        Cu     tau(  20) = (   0.3229044   0.6221213   0.9155169  )
        21        Cu     tau(  21) = (   0.0497750   0.4015949   0.0968325  )
        22        Cu     tau(  22) = (   0.5497750   0.4015949   0.0968325  )
        23        Cu     tau(  23) = (  -0.2002251   0.8346075   0.0968325  )
        24        Cu     tau(  24) = (   0.2997749   0.8346075   0.0968325  )
        25        Cu     tau(  25) = (   0.2997745   0.0314177   0.7218532  )
        26        Cu     tau(  26) = (   0.7997745   0.0314177   0.7218532  )
        27        Cu     tau(  27) = (   0.0497745   0.4644302   0.7218532  )
        28        Cu     tau(  28) = (   0.5497745   0.4644302   0.7218532  )
        29        Cu     tau(  29) = (   0.1273207   0.1576915   0.3125110  )
        30        Cu     tau(  30) = (   0.6273207   0.1576915   0.3125110  )
        31        Cu     tau(  31) = (  -0.1226793   0.5907041   0.3125110  )
        32        Cu     tau(  32) = (   0.3773207   0.5907041   0.3125110  )
        33        Cu     tau(  33) = (   0.3229040   0.2439039   1.1311954  )
        34        Cu     tau(  34) = (   0.8229040   0.2439039   1.1311954  )
        35        Cu     tau(  35) = (   0.0729039   0.6769164   1.1311954  )
        36        Cu     tau(  36) = (   0.5729039   0.6769164   1.1311954  )
        37        Sn     tau(  37) = (  -0.1762580   0.3052877   0.8186857  )
        38        Sn     tau(  38) = (   0.3237420   0.3052877   0.8186857  )
        39        Sn     tau(  39) = (  -0.4262581   0.7383003   0.8186857  )
        40        Sn     tau(  40) = (   0.0737419   0.7383003   0.8186857  )
        41        Sn     tau(  41) = (   0.0737420   0.1277249   0.0000000  )
        42        Sn     tau(  42) = (   0.5737420   0.1277249   0.0000000  )
        43        Sn     tau(  43) = (  -0.1762581   0.5607374   0.0000000  )
        44        Sn     tau(  44) = (   0.3237419   0.5607374   0.0000000  )
        45        Sn     tau(  45) = (   0.3525160   0.0000000   0.4093422  )
        46        Sn     tau(  46) = (   0.8525160   0.0000000   0.4093422  )
        47        Sn     tau(  47) = (   0.1025160   0.4330126   0.4093422  )
        48        Sn     tau(  48) = (   0.6025160   0.4330126   0.4093422  )
        49        S      tau(  49) = (  -0.0988203   0.2103164   0.9671149  )
        50        S      tau(  50) = (   0.4011797   0.2103164   0.9671149  )
        51        S      tau(  51) = (  -0.3488203   0.6433290   0.9671149  )
        52        S      tau(  52) = (   0.1511797   0.6433290   0.9671149  )
        53        S      tau(  53) = (   0.1172707   0.2422736   0.1484293  )
        54        S      tau(  54) = (   0.6172707   0.2422736   0.1484293  )
        55        S      tau(  55) = (  -0.1327293   0.6752862   0.1484293  )
        56        S      tau(  56) = (   0.3672707   0.6752862   0.1484293  )
        57        S      tau(  57) = (  -0.0184505   0.4134352   0.5577727  )
        58        S      tau(  58) = (   0.4815495   0.4134352   0.5577727  )
        59        S      tau(  59) = (  -0.2684506   0.8464478   0.5577727  )
        60        S      tau(  60) = (   0.2315494   0.8464478   0.5577727  )
        61        S      tau(  61) = (   0.2315495   0.0195774   0.2609129  )
        62        S      tau(  62) = (   0.7315495   0.0195774   0.2609129  )
        63        S      tau(  63) = (  -0.0184505   0.4525899   0.2609129  )
        64        S      tau(  64) = (   0.4815495   0.4525899   0.2609129  )
        65        S      tau(  65) = (   0.1511797   0.2226962   1.0795986  )
        66        S      tau(  66) = (   0.6511797   0.2226962   1.0795986  )
        67        S      tau(  67) = (  -0.0988203   0.6557088   1.0795986  )
        68        S      tau(  68) = (   0.4011797   0.6557088   1.0795986  )
        69        S      tau(  69) = (   0.3672707   0.1907390   0.6702552  )
        70        S      tau(  70) = (   0.8672707   0.1907390   0.6702552  )
        71        S      tau(  71) = (   0.1172707   0.6237516   0.6702552  )
        72        S      tau(  72) = (   0.6172707   0.6237516   0.6702552  )
        73        S      tau(  73) = (  -0.0296498   0.1532012   0.4060885  )
        74        S      tau(  74) = (   0.4703502   0.1532012   0.4035914  )
        75        S      tau(  75) = (  -0.2796498   0.5862137   0.4035914  )
        76        S      tau(  76) = (   0.2203502   0.5862137   0.4035914  )
        77        S      tau(  77) = (   0.1321490   0.3307341   0.8129336  )
        78        S      tau(  78) = (   0.6321490   0.3307341   0.8129336  )
        79        S      tau(  79) = (  -0.1178511   0.7637467   0.8129336  )
        80        S      tau(  80) = (   0.3821489   0.7637467   0.8129336  )
        81        S      tau(  81) = (  -0.1024985   0.3820894   1.2222770  )
        82        S      tau(  82) = (   0.3975015   0.3820894   1.2222770  )
        83        S      tau(  83) = (  -0.3524986   0.8151020   1.2222770  )
        84        S      tau(  84) = (   0.1475014   0.8151020   1.2222770  )
        85        S      tau(  85) = (   0.1475010   0.0509231   0.8244365  )
        86        S      tau(  86) = (   0.6475010   0.0509231   0.8244365  )
        87        S      tau(  87) = (  -0.1024990   0.4839357   0.8244365  )
        88        S      tau(  88) = (   0.3975010   0.4839357   0.8244365  )
        89        S      tau(  89) = (   0.2203497   0.2798114   0.4150943  )
        90        S      tau(  90) = (   0.7203497   0.2798114   0.4150943  )
        91        S      tau(  91) = (  -0.0296503   0.7128240   0.4150943  )
        92        S      tau(  92) = (   0.4703497   0.7128240   0.4150943  )
        93        S      tau(  93) = (   0.3821485   0.1022784   0.0057509  )
        94        S      tau(  94) = (   0.8821485   0.1022784   0.0057509  )
        95        S      tau(  95) = (   0.1321485   0.5352910   0.0057509  )
        96        S      tau(  96) = (   0.6321485   0.5352910   0.0057509  )

     number of k points=    14
                       cart. coord. in units 2pi/alat
        k(    1) = (   0.0000000   0.0000000   0.0000000), wk =   0.0740741
        k(    2) = (   0.0000000   0.0000000   0.2714379), wk =   0.1481481
        k(    3) = (   0.0000000   0.3849003   0.0000000), wk =   0.1481481
        k(    4) = (   0.0000000   0.3849003   0.2714379), wk =   0.1481481
        k(    5) = (   0.3333333   0.5773505   0.0000000), wk =   0.1481481
        k(    6) = (   0.3333333   0.5773505   0.2714379), wk =   0.1481481
        k(    7) = (  -0.3333333   0.1924501   0.0000000), wk =   0.1481481
        k(    8) = (   0.3333333   0.1924502   0.0000000), wk =   0.1481481
        k(    9) = (   0.0000000  -0.3849003   0.2714379), wk =   0.1481481
        k(   10) = (  -0.3333333   0.1924501   0.2714379), wk =   0.1481481
        k(   11) = (   0.3333333   0.1924502   0.2714379), wk =   0.1481481
        k(   12) = (  -0.3333333  -0.1924502   0.2714379), wk =   0.1481481
        k(   13) = (   0.3333333  -0.1924501   0.2714379), wk =   0.1481481
        k(   14) = (  -0.3333333  -0.5773505   0.2714379), wk =   0.1481481

     Dense  grid:  2619931 G-vectors     FFT dimensions: ( 180, 180, 216)

     Smooth grid:   926125 G-vectors     FFT dimensions: ( 120, 120, 150)

     Estimated max dynamical RAM per process >       1.07 GB

     Estimated total dynamical RAM >      33.54 GB

     Initial potential from superposition of free atoms

     starting charge     827.5884, renormalised to     840.0000

     negative rho (up, down):  7.777E-01 0.000E+00
     Starting wfcs are  672 randomized atomic wfcs
     Checking if some PAW data can be deallocated... 

     total cpu time spent up to now is       44.3 secs

     Self-consistent Calculation

     iteration #  1     ecut=    60.00 Ry     beta= 0.30
     Davidson diagonalization with overlap
     ethr =  1.00E-02,  avg # of iterations =  2.0

     negative rho (up, down):  7.747E-01 0.000E+00

     total cpu time spent up to now is      126.5 secs

     total energy              =   -9070.29479343 Ry
     estimated scf accuracy    <      21.97045549 Ry

     iteration #  2     ecut=    60.00 Ry     beta= 0.30
     Davidson diagonalization with overlap
     ethr =  2.62E-03,  avg # of iterations =  4.9

     negative rho (up, down):  7.752E-01 0.000E+00

     total cpu time spent up to now is      228.7 secs

     total energy              =   -9076.61123203 Ry
     estimated scf accuracy    <       8.25138339 Ry

     iteration #  3     ecut=    60.00 Ry     beta= 0.30
     Davidson diagonalization with overlap
     ethr =  9.82E-04,  avg # of iterations =  2.4

     negative rho (up, down):  7.804E-01 0.000E+00

     total cpu time spent up to now is      312.2 secs

     total energy              =   -9076.48767137 Ry
     estimated scf accuracy    <       1.63169731 Ry

     iteration #  4     ecut=    60.00 Ry     beta= 0.30
     Davidson diagonalization with overlap
     ethr =  1.94E-04,  avg # of iterations =  6.5

     negative rho (up, down):  7.829E-01 0.000E+00

     total cpu time spent up to now is      431.7 secs

     total energy              =   -9076.69889154 Ry
     estimated scf accuracy    <       2.09376291 Ry

     iteration #  5     ecut=    60.00 Ry     beta= 0.30
     Davidson diagonalization with overlap
     ethr =  1.94E-04,  avg # of iterations =  5.3

     negative rho (up, down):  7.883E-01 0.000E+00

     total cpu time spent up to now is      528.4 secs

     total energy              =   -9077.13679892 Ry
     estimated scf accuracy    <       0.14412005 Ry

     iteration #  6     ecut=    60.00 Ry     beta= 0.30
     Davidson diagonalization with overlap
     ethr =  1.72E-05,  avg # of iterations =  6.6

     negative rho (up, down):  7.902E-01 0.000E+00

     total cpu time spent up to now is      630.0 secs

     total energy              =   -9077.18458691 Ry
     estimated scf accuracy    <       0.01325490 Ry

     iteration #  7     ecut=    60.00 Ry     beta= 0.30
     Davidson diagonalization with overlap
     ethr =  1.58E-06,  avg # of iterations =  5.1

     negative rho (up, down):  7.907E-01 0.000E+00

     total cpu time spent up to now is      742.3 secs

     total energy              =   -9077.18878619 Ry
     estimated scf accuracy    <       0.00584126 Ry

     iteration #  8     ecut=    60.00 Ry     beta= 0.30
     Davidson diagonalization with overlap
     ethr =  6.95E-07,  avg # of iterations =  6.8

     negative rho (up, down):  7.911E-01 0.000E+00

     total cpu time spent up to now is      870.5 secs

     total energy              =   -9077.17937954 Ry
     estimated scf accuracy    <       0.04732850 Ry

     iteration #  9     ecut=    60.00 Ry     beta= 0.30
     Davidson diagonalization with overlap
     ethr =  6.95E-07,  avg # of iterations =  6.5

     negative rho (up, down):  7.911E-01 0.000E+00

     total cpu time spent up to now is     1008.8 secs

     total energy              =   -9077.18762361 Ry
     estimated scf accuracy    <       0.00219075 Ry

     iteration # 10     ecut=    60.00 Ry     beta= 0.30
     Davidson diagonalization with overlap
     ethr =  2.61E-07,  avg # of iterations =  2.0

     negative rho (up, down):  7.908E-01 0.000E+00

     total cpu time spent up to now is     1091.4 secs

     total energy              =   -9077.18748484 Ry
     estimated scf accuracy    <       0.00065160 Ry

     iteration # 11     ecut=    60.00 Ry     beta= 0.30
     Davidson diagonalization with overlap
     ethr =  7.76E-08,  avg # of iterations =  5.6

     negative rho (up, down):  7.905E-01 0.000E+00

     total cpu time spent up to now is     1204.5 secs

     total energy              =   -9077.18770427 Ry
     estimated scf accuracy    <       0.00017972 Ry

     iteration # 12     ecut=    60.00 Ry     beta= 0.30
     Davidson diagonalization with overlap
     ethr =  2.14E-08,  avg # of iterations =  5.9

     negative rho (up, down):  7.904E-01 0.000E+00

     total cpu time spent up to now is     1305.2 secs

     total energy              =   -9077.18772920 Ry
     estimated scf accuracy    <       0.00007699 Ry

     iteration # 13     ecut=    60.00 Ry     beta= 0.30
     Davidson diagonalization with overlap
     ethr =  9.17E-09,  avg # of iterations =  2.9

     negative rho (up, down):  7.903E-01 0.000E+00

     total cpu time spent up to now is     1396.5 secs

     total energy              =   -9077.18773438 Ry
     estimated scf accuracy    <       0.00002211 Ry

     iteration # 14     ecut=    60.00 Ry     beta= 0.30
     Davidson diagonalization with overlap
     ethr =  2.63E-09,  avg # of iterations =  6.4

     negative rho (up, down):  7.903E-01 0.000E+00

     total cpu time spent up to now is     1488.4 secs

     total energy              =   -9077.18773749 Ry
     estimated scf accuracy    <       0.00000254 Ry

     iteration # 15     ecut=    60.00 Ry     beta= 0.30
     Davidson diagonalization with overlap
     ethr =  3.03E-10,  avg # of iterations =  5.0

     negative rho (up, down):  7.902E-01 0.000E+00

     total cpu time spent up to now is     1608.2 secs

     total energy              =   -9077.18773871 Ry
     estimated scf accuracy    <       0.00000043 Ry

     iteration # 16     ecut=    60.00 Ry     beta= 0.30
     Davidson diagonalization with overlap
     ethr =  5.09E-11,  avg # of iterations =  6.4

     negative rho (up, down):  7.902E-01 0.000E+00

     total cpu time spent up to now is     1726.0 secs

     total energy              =   -9077.18773888 Ry
     estimated scf accuracy    <       0.00000014 Ry

     iteration # 17     ecut=    60.00 Ry     beta= 0.30
     Davidson diagonalization with overlap
     ethr =  1.69E-11,  avg # of iterations =  6.2

     negative rho (up, down):  7.902E-01 0.000E+00

     total cpu time spent up to now is     1834.6 secs

     total energy              =   -9077.18773892 Ry
     estimated scf accuracy    <       0.00000006 Ry

     iteration # 18     ecut=    60.00 Ry     beta= 0.30
     Davidson diagonalization with overlap
     ethr =  7.35E-12,  avg # of iterations =  3.1

     negative rho (up, down):  7.902E-01 0.000E+00

     total cpu time spent up to now is     1930.6 secs

     total energy              =   -9077.18773894 Ry
     estimated scf accuracy    <       0.00000002 Ry

     iteration # 19     ecut=    60.00 Ry     beta= 0.30
     Davidson diagonalization with overlap
     ethr =  2.46E-12,  avg # of iterations =  6.9

     negative rho (up, down):  7.902E-01 0.000E+00

     total cpu time spent up to now is     2048.5 secs

     total energy              =   -9077.18773895 Ry
     estimated scf accuracy    <       0.00000002 Ry

     iteration # 20     ecut=    60.00 Ry     beta= 0.30
     Davidson diagonalization with overlap
     ethr =  2.35E-12,  avg # of iterations =  2.0

     negative rho (up, down):  7.902E-01 0.000E+00

     total cpu time spent up to now is     2127.0 secs

     total energy              =   -9077.18773895 Ry
     estimated scf accuracy    <          7.8E-09 Ry

     iteration # 21     ecut=    60.00 Ry     beta= 0.30
     Davidson diagonalization with overlap
     ethr =  9.25E-13,  avg # of iterations =  6.0

     negative rho (up, down):  7.902E-01 0.000E+00

     total cpu time spent up to now is     2225.4 secs

     End of self-consistent calculation

          k = 0.0000 0.0000 0.0000 (115723 PWs)   bands (ev):

   -28.2950 -28.2775 -28.2761 -28.2755 -28.2753 -28.2751 -28.2750 -28.2750
   -28.2745 -28.2742 -28.2740 -28.2626 -14.9253 -14.9239 -14.9235 -14.9232
   -14.9229 -14.9222 -14.9220 -14.9217 -14.9217 -14.9214 -14.9212 -14.9195
   -14.9194 -14.9180 -14.9176 -14.9173 -14.9171 -14.9164 -14.9161 -14.9159
   -14.9157 -14.9156 -14.9154 -14.9133 -14.9071 -14.9059 -14.9055 -14.9052
   -14.9050 -14.9042 -14.9040 -14.9039 -14.9036 -14.9035 -14.9034 -14.9014
   -14.8663 -14.8657 -14.8654 -14.8650 -14.8649 -14.8640 -14.8638 -14.8637
   -14.8634 -14.8633 -14.8633 -14.8613 -14.8224 -14.8205 -14.8202 -14.8198
   -14.8197 -14.8189 -14.8186 -14.8185 -14.8182 -14.8181 -14.8181 -14.8159
   -10.3530 -10.3392 -10.3378 -10.3370 -10.3363 -10.3361 -10.3355 -10.3350
   -10.3325 -10.3315 -10.3274 -10.3206 -10.3185 -10.3089 -10.3084 -10.3062
   -10.3029 -10.3026 -10.3008 -10.2994 -10.2940 -10.2921 -10.2891 -10.2821
   -10.2797 -10.2702 -10.2688 -10.2678 -10.2653 -10.2641 -10.2632 -10.2618
   -10.2600 -10.2590 -10.2562 -10.2501  -6.8631  -6.5558  -6.5540  -6.4178
    -6.4165  -6.4162  -6.2999  -6.2988  -6.2986  -6.2191  -6.2180  -6.2167
    -5.9908  -5.9901  -5.9886  -5.8508  -5.8492  -5.8482  -5.7965  -5.7959
    -5.7952  -5.7379  -5.7356  -5.6192  -5.6184  -5.6175  -5.6139  -5.6134
    -5.6129  -5.6004  -5.5597  -5.5593  -5.5571  -5.5457  -5.5445  -5.5436
    -5.5177  -5.5157  -5.4323  -5.4296  -5.4288  -5.4270  -5.3735  -5.3721
    -5.3467  -5.3448  -5.3437  -5.2508  -0.6118  -0.6108  -0.6099  -0.3890
    -0.3887  -0.3877  -0.3506  -0.3165  -0.3151  -0.3148  -0.3018  -0.2998
     1.3846   1.3849   1.3859   1.5921   1.5936   1.6567   1.7168   1.7173
     1.7181   1.8044   1.8061   1.8075   2.0193   2.0404   2.0411   2.0822
     2.0850   2.0862   2.2476   2.2484   2.2493   2.3085   2.3107   2.4027
     2.4049   2.4066   2.4606   2.4614   2.4617   2.5480   2.5505   2.6619
     2.6633   2.6638   2.7826   2.7841   2.7848   2.8709   2.8726   2.9244
     2.9247   2.9262   2.9520   2.9539   2.9544   3.0273   3.0277   3.0281
     3.0456   3.0464   3.0491   3.1648   3.2148   3.2153   3.2164   3.2274
     3.2283   3.2576   3.2581   3.2597   3.3775   3.3782   3.3793   3.3927
     3.3941   3.4266   3.4267   3.4278   3.4356   3.4365   3.4370   3.4758
     3.4765   3.4772   3.4936   3.4949   3.4956   3.4971   3.5168   3.5175
     3.5843   3.5855   3.5860   3.6246   3.6269   3.6279   3.6871   3.6902
     3.6906   3.6912   3.6918   3.7060   3.7944   3.7964   3.8249   3.8257
     3.8267   3.9632   4.0204   4.0214   4.0228   4.0354   4.0360   4.0367
     4.1245   4.1249   4.1253   4.1257   4.1728   4.1738   4.1749   4.2014
     4.2085   4.2101   4.2106   4.2436   4.2441   4.2448   4.2813   4.2815
     4.4233   4.4249   4.4267   4.5172   4.5190   4.5194   4.5351   4.5372
     4.6195   4.6201   4.6212   4.8564   5.1255   5.1557   5.1560   5.1568
     5.1739   5.1748   5.1754   5.1784   5.1795   5.2226   5.2277   5.2279
     5.2282   5.2300   5.2308   5.2517   5.2526   5.2531   5.2668   5.2671
     5.2677   5.2778   5.2793   5.2795   5.3114   5.3116   5.3123   5.3130
     5.3135   5.3251   5.3374   5.3378   5.3386   5.3758   5.3760   5.3775
     5.4392   5.4395   5.4714   5.4716   5.4723   5.4750   5.4773   5.4781
     5.4782   5.4992   5.4998   5.6014   5.6022   5.6026   5.6183   5.6190
     5.6196   5.6269   5.6464   5.6477   5.6487   5.6596   5.6601   5.6609
     5.7252   5.7257   5.7444   5.7821   5.7837   5.7841   5.8215   5.8217
     5.8221   5.9031   5.9041   5.9050   5.9272   5.9279   5.9286   5.9968
     5.9980   6.0261   6.0270   6.0274   6.1498   6.1513   6.1516   6.1526
     6.2628   6.2629   6.2631   6.2636   6.2646   6.2652   6.2897   6.2912
     6.3345   6.3354   6.3368   6.3624   6.3642   6.3649   6.3889   6.3901
     6.3909   6.5528   6.5712   6.5716   6.5724   6.6373   6.6384   6.6393
     6.7465   6.7479   6.7494   6.7647   6.7657   6.7815   6.7821   6.7824
     6.8094   6.9651   7.1809   7.1814

          k = 0.0000 0.0000 0.2714 (115879 PWs)   bands (ev):

   -28.2950 -28.2775 -28.2761 -28.2755 -28.2753 -28.2751 -28.2750 -28.2750
   -28.2745 -28.2742 -28.2740 -28.2626 -14.9253 -14.9239 -14.9235 -14.9232
   -14.9229 -14.9222 -14.9220 -14.9217 -14.9217 -14.9214 -14.9212 -14.9195
   -14.9194 -14.9180 -14.9176 -14.9173 -14.9171 -14.9164 -14.9161 -14.9159
   -14.9157 -14.9156 -14.9154 -14.9133 -14.9071 -14.9059 -14.9055 -14.9052
   -14.9050 -14.9042 -14.9040 -14.9039 -14.9036 -14.9035 -14.9034 -14.9014
   -14.8663 -14.8657 -14.8654 -14.8650 -14.8649 -14.8640 -14.8638 -14.8637
   -14.8634 -14.8633 -14.8633 -14.8613 -14.8224 -14.8205 -14.8202 -14.8198
   -14.8197 -14.8189 -14.8186 -14.8185 -14.8182 -14.8181 -14.8181 -14.8159
   -10.3532 -10.3400 -10.3386 -10.3381 -10.3369 -10.3359 -10.3350 -10.3334
   -10.3328 -10.3300 -10.3273 -10.3209 -10.3187 -10.3111 -10.3073 -10.3060
   -10.3040 -10.3015 -10.3004 -10.2954 -10.2935 -10.2932 -10.2903 -10.2837
   -10.2795 -10.2696 -10.2686 -10.2676 -10.2659 -10.2644 -10.2630 -10.2615
   -10.2598 -10.2589 -10.2568 -10.2505  -6.8239  -6.7133  -6.4101  -6.4085
    -6.4082  -6.4071  -6.3045  -6.3035  -6.3032  -6.2313  -6.2305  -6.2288
    -5.9923  -5.9920  -5.9906  -5.8535  -5.8358  -5.8343  -5.8334  -5.7736
    -5.7732  -5.7726  -5.6568  -5.6558  -5.6555  -5.6516  -5.6130  -5.6123
    -5.6116  -5.6114  -5.5563  -5.5524  -5.5522  -5.5508  -5.5450  -5.5445
    -5.5438  -5.4538  -5.4354  -5.4347  -5.4336  -5.4328  -5.3752  -5.3458
    -5.3387  -5.3370  -5.3360  -5.2813  -0.6041  -0.6030  -0.6020  -0.4127
    -0.4120  -0.4111  -0.3480  -0.3323  -0.3019  -0.3005  -0.3002  -0.2738
     1.4090   1.4094   1.4101   1.5709   1.6152   1.6185   1.6190   1.6200
     1.6584   1.9338   1.9356   1.9367   2.0041   2.0458   2.0511   2.0533
     2.0544   2.0681   2.2759   2.2770   2.2776   2.3054   2.3890   2.3895
     2.3903   2.3911   2.4154   2.4169   2.4183   2.4556   2.6223   2.6233
     2.6241   2.6670   2.7183   2.7910   2.7961   2.7984   2.7989   2.8715
     2.8720   2.8732   2.9754   2.9758   2.9768   3.0451   3.0466   3.0475
     3.1063   3.1072   3.1092   3.1759   3.1988   3.2048   3.2052   3.2063
     3.2743   3.2747   3.2763   3.2844   3.3754   3.3839   3.3845   3.3859
     3.4194   3.4203   3.4205   3.4395   3.4406   3.4410   3.4492   3.4496
     3.4506   3.4773   3.4991   3.5186   3.5192   3.5200   3.5377   3.5441
     3.5498   3.5505   3.5517   3.6381   3.6426   3.6452   3.6457   3.6507
     3.6782   3.6810   3.6816   3.7733   3.8303   3.8753   3.8767   3.8774
     3.9078   3.9216   3.9949   3.9956   3.9969   4.0551   4.0559   4.0566
     4.0750   4.1165   4.1176   4.1181   4.1479   4.1491   4.1504   4.1647
     4.1710   4.1721   4.1729   4.2116   4.2504   4.2514   4.2519   4.2679
     4.4204   4.4223   4.4240   4.4838   4.5587   4.5596   4.5606   4.6046
     4.6053   4.6063   4.6769   4.8068   5.1367   5.1478   5.1543   5.1548
     5.1554   5.1649   5.1872   5.1876   5.1883   5.2165   5.2167   5.2178
     5.2182   5.2485   5.2489   5.2493   5.2584   5.2598   5.2603   5.2610
     5.2768   5.2774   5.2776   5.2787   5.3294   5.3301   5.3303   5.3329
     5.3343   5.3357   5.3416   5.3425   5.3436   5.3663   5.3745   5.3749
     5.3761   5.3902   5.4031   5.4205   5.4214   5.4220   5.5265   5.5328
     5.5330   5.5342   5.5825   5.5883   5.5892   5.5896   5.5909   5.6202
     5.6206   5.6208   5.6515   5.6523   5.6531   5.6611   5.6816   5.6826
     5.6834   5.7546   5.7562   5.7567   5.7908   5.7987   5.8173   5.8182
     5.8186   5.8720   5.8830   5.8842   5.8847   5.9882   5.9893   5.9900
     6.0425   6.0432   6.0439   6.0982   6.0985   6.0996   6.1760   6.1914
     6.1926   6.1932   6.2364   6.2685   6.2698   6.2707   6.3261   6.3267
     6.3279   6.3591   6.3607   6.3711   6.3721   6.3727   6.3958   6.4293
     6.4303   6.4312   6.4805   6.6416   6.6417   6.6424   6.6426   6.6440
     6.6444   6.6709   6.7090   6.7096   6.7107   6.7524   6.7532   6.7541
     6.9422   7.0053   7.0953   7.1703

          k = 0.0000 0.3849 0.0000 (115797 PWs)   bands (ev):

   -28.2950 -28.2775 -28.2761 -28.2755 -28.2753 -28.2751 -28.2750 -28.2750
   -28.2745 -28.2742 -28.2740 -28.2626 -14.9253 -14.9239 -14.9234 -14.9232
   -14.9229 -14.9221 -14.9220 -14.9218 -14.9216 -14.9214 -14.9213 -14.9195
   -14.9194 -14.9180 -14.9176 -14.9173 -14.9171 -14.9163 -14.9161 -14.9159
   -14.9157 -14.9156 -14.9154 -14.9133 -14.9071 -14.9059 -14.9055 -14.9052
   -14.9050 -14.9042 -14.9040 -14.9039 -14.9036 -14.9035 -14.9034 -14.9014
   -14.8663 -14.8657 -14.8654 -14.8650 -14.8649 -14.8640 -14.8638 -14.8637
   -14.8634 -14.8633 -14.8633 -14.8613 -14.8224 -14.8205 -14.8202 -14.8198
   -14.8197 -14.8189 -14.8186 -14.8185 -14.8182 -14.8181 -14.8181 -14.8159
   -10.3527 -10.3386 -10.3371 -10.3363 -10.3356 -10.3349 -10.3342 -10.3337
   -10.3332 -10.3319 -10.3284 -10.3217 -10.3178 -10.3071 -10.3062 -10.3051
   -10.3030 -10.3021 -10.3012 -10.2994 -10.2956 -10.2932 -10.2892 -10.2844
   -10.2798 -10.2691 -10.2687 -10.2675 -10.2652 -10.2645 -10.2628 -10.2626
   -10.2614 -10.2606 -10.2577 -10.2512  -6.7878  -6.5897  -6.4995  -6.4977
    -6.4387  -6.4378  -6.3652  -6.3491  -6.2853  -6.2840  -6.2489  -6.2473
    -5.9114  -5.9100  -5.8205  -5.8190  -5.8173  -5.7768  -5.7683  -5.7674
    -5.7316  -5.7239  -5.7222  -5.6910  -5.6894  -5.6473  -5.6385  -5.6370
    -5.6291  -5.5952  -5.5846  -5.5832  -5.5679  -5.5275  -5.5188  -5.5179
    -5.5160  -5.5046  -5.4621  -5.4517  -5.4369  -5.4353  -5.4225  -5.4148
    -5.3488  -5.3471  -5.3129  -5.2702  -0.5711  -0.5699  -0.5613  -0.4350
    -0.4039  -0.4029  -0.3770  -0.3388  -0.3373  -0.3368  -0.3121  -0.3027
     1.4192   1.4875   1.4885   1.5012   1.6396   1.6520   1.6884   1.7241
     1.7250   1.8277   1.8762   1.8774   1.9542   1.9560   1.9568   2.0279
     2.1159   2.2066   2.2295   2.2308   2.3391   2.3638   2.3853   2.3876
     2.3943   2.4083   2.4502   2.5371   2.5389   2.6119   2.6133   2.6165
     2.6573   2.7348   2.8117   2.8143   2.8220   2.8416   2.8423   2.8439
     2.8544   2.8849   2.9083   2.9092   2.9151   2.9624   2.9630   3.0040
     3.0499   3.0568   3.0574   3.1240   3.1484   3.1758   3.2046   3.2121
     3.2138   3.2359   3.2608   3.2617   3.2693   3.3238   3.3301   3.3318
     3.3390   3.3727   3.3954   3.3957   3.4341   3.4403   3.4415   3.4503
     3.4976   3.4984   3.5007   3.5111   3.5123   3.5141   3.5224   3.5431
     3.5617   3.6052   3.6057   3.6105   3.6350   3.6448   3.6797   3.6806
     3.6939   3.7017   3.7043   3.7085   3.7787   3.7797   3.8496   3.8599
     3.8957   3.9742   3.9750   3.9785   3.9806   4.0300   4.0377   4.0399
     4.0931   4.1120   4.1210   4.1212   4.1262   4.1626   4.1631   4.1779
     4.2481   4.2653   4.2685   4.2822   4.3033   4.3225   4.3237   4.3684
     4.3787   4.4153   4.4184   4.4838   4.5181   4.5265   4.5290   4.5292
     4.5906   4.5918   4.6263   4.7486   5.1444   5.1446   5.1476   5.1553
     5.1602   5.1614   5.1703   5.1751   5.2150   5.2197   5.2202   5.2218
     5.2287   5.2381   5.2493   5.2495   5.2510   5.2617   5.2680   5.2721
     5.2730   5.2895   5.3042   5.3053   5.3146   5.3193   5.3272   5.3285
     5.3371   5.3501   5.3524   5.3533   5.3583   5.3661   5.4140   5.4148
     5.4342   5.4516   5.4617   5.4620   5.4860   5.4937   5.5007   5.5011
     5.5030   5.5130   5.5280   5.5440   5.5572   5.5578   5.5618   5.6033
     5.6042   5.6309   5.6318   5.6326   5.6689   5.6786   5.6953   5.6961
     5.6977   5.7176   5.7297   5.7568   5.7753   5.7763   5.8089   5.8197
     5.8201   5.8640   5.8756   5.8775   5.9506   5.9519   5.9645   5.9661
     5.9906   6.0070   6.0077   6.0218   6.1394   6.1402   6.1451   6.1609
     6.2257   6.2300   6.2308   6.2518   6.2716   6.2895   6.2905   6.2993
     6.3618   6.3630   6.3780   6.3899   6.3915   6.4410   6.4859   6.4877
     6.5245   6.5380   6.5391   6.5761   6.6049   6.6511   6.6844   6.6926
     6.6940   6.7297   6.7373   6.7388   6.7632   6.7782   6.7936   6.8124
     6.8132   6.9046   6.9096   7.0813

          k = 0.0000 0.3849 0.2714 (115773 PWs)   bands (ev):

   -28.2950 -28.2775 -28.2761 -28.2755 -28.2753 -28.2751 -28.2750 -28.2750
   -28.2745 -28.2742 -28.2740 -28.2626 -14.9253 -14.9239 -14.9234 -14.9232
   -14.9229 -14.9221 -14.9220 -14.9218 -14.9216 -14.9214 -14.9213 -14.9195
   -14.9194 -14.9180 -14.9176 -14.9173 -14.9171 -14.9163 -14.9161 -14.9159
   -14.9157 -14.9156 -14.9154 -14.9133 -14.9071 -14.9059 -14.9055 -14.9052
   -14.9050 -14.9042 -14.9040 -14.9039 -14.9036 -14.9035 -14.9034 -14.9014
   -14.8663 -14.8657 -14.8654 -14.8650 -14.8649 -14.8640 -14.8638 -14.8637
   -14.8634 -14.8633 -14.8633 -14.8613 -14.8224 -14.8205 -14.8202 -14.8198
   -14.8197 -14.8189 -14.8186 -14.8185 -14.8182 -14.8181 -14.8181 -14.8159
   -10.3528 -10.3392 -10.3379 -10.3371 -10.3360 -10.3351 -10.3339 -10.3331
   -10.3324 -10.3305 -10.3287 -10.3217 -10.3180 -10.3095 -10.3061 -10.3054
   -10.3026 -10.3007 -10.2992 -10.2972 -10.2955 -10.2937 -10.2900 -10.2859
   -10.2797 -10.2692 -10.2679 -10.2678 -10.2653 -10.2648 -10.2628 -10.2623
   -10.2612 -10.2602 -10.2587 -10.2515  -6.7507  -6.6467  -6.5604  -6.4718
    -6.4232  -6.4220  -6.3638  -6.3286  -6.3281  -6.2589  -6.2245  -6.2239
    -5.9053  -5.9040  -5.8234  -5.8213  -5.8085  -5.8067  -5.7919  -5.7606
    -5.7596  -5.7314  -5.7114  -5.7093  -5.6715  -5.6348  -5.6285  -5.6277
    -5.6269  -5.6081  -5.5995  -5.5992  -5.5690  -5.5290  -5.5220  -5.5216
    -5.5201  -5.4965  -5.4674  -5.4323  -5.4291  -5.4273  -5.4226  -5.3639
    -5.3484  -5.3466  -5.3218  -5.2995  -0.5591  -0.5588  -0.5573  -0.4362
    -0.4346  -0.4247  -0.3932  -0.3731  -0.3193  -0.3182  -0.2990  -0.2785
     1.4338   1.4856   1.4866   1.4876   1.6259   1.6410   1.7720   1.7733
     1.7828   1.7891   1.8003   1.8011   1.9147   1.9963   1.9966   2.0774
     2.1555   2.2004   2.2105   2.2469   2.2489   2.3605   2.3925   2.3946
     2.3985   2.4486   2.5114   2.5129   2.5474   2.5900   2.5911   2.6076
     2.6417   2.7104   2.7618   2.7677   2.7698   2.7888   2.8087   2.8100
     2.8391   2.8743   2.9157   2.9163   2.9190   2.9818   3.0240   3.0256
     3.0674   3.1070   3.1076   3.1326   3.1710   3.1927   3.1937   3.1960
     3.1997   3.2325   3.2643   3.2648   3.2776   3.3184   3.3215   3.3225
     3.3245   3.3892   3.3902   3.4114   3.4454   3.4459   3.4690   3.4698
     3.4724   3.4741   3.4763   3.4776   3.5341   3.5366   3.5375   3.5900
     3.6111   3.6122   3.6136   3.6333   3.6428   3.6456   3.6591   3.6597
     3.6678   3.7096   3.7120   3.7123   3.8353   3.8364   3.8798   3.8886
     3.9044   3.9498   3.9508   3.9748   3.9825   4.0193   4.0471   4.0487
     4.0502   4.0663   4.1111   4.1114   4.1202   4.1326   4.1330   4.1476
     4.1911   4.2558   4.2660   4.2674   4.2878   4.2906   4.2942   4.3874
     4.3978   4.4371   4.4392   4.4682   4.5237   4.5255   4.5358   4.5966
     4.6103   4.6114   4.6218   4.7211   5.1511   5.1515   5.1550   5.1576
     5.1725   5.1760   5.1770   5.1840   5.1910   5.1979   5.2017   5.2081
     5.2085   5.2348   5.2354   5.2359   5.2552   5.2643   5.2663   5.2669
     5.2799   5.2986   5.3078   5.3131   5.3138   5.3288   5.3366   5.3377
     5.3579   5.3589   5.3609   5.3637   5.3805   5.3937   5.4072   5.4075
     5.4134   5.4322   5.4335   5.4454   5.4459   5.4929   5.5025   5.5030
     5.5098   5.5164   5.5541   5.5600   5.5746   5.5756   5.6030   5.6113
     5.6121   5.6191   5.6252   5.6262   5.6436   5.6705   5.6827   5.7144
     5.7153   5.7173   5.7345   5.7724   5.7730   5.7737   5.8027   5.8033
     5.8103   5.8590   5.8750   5.8771   5.8788   5.9148   5.9588   5.9600
     6.0345   6.0351   6.0359   6.0600   6.0792   6.0798   6.1740   6.2070
     6.2129   6.2143   6.2664   6.2675   6.2708   6.2777   6.2864   6.3491
     6.3509   6.3656   6.3721   6.4153   6.4247   6.4255   6.4277   6.4715
     6.4980   6.5003   6.5462   6.5592   6.5957   6.5965   6.6669   6.6678
     6.6772   6.7199   6.7365   6.7373   6.7481   6.8135   6.8144   6.8455
     6.8694   6.9286   6.9373   7.0529

          k = 0.3333 0.5774 0.0000 (115752 PWs)   bands (ev):

   -28.2950 -28.2775 -28.2761 -28.2755 -28.2753 -28.2751 -28.2750 -28.2750
   -28.2745 -28.2742 -28.2740 -28.2626 -14.9253 -14.9238 -14.9235 -14.9232
   -14.9230 -14.9221 -14.9220 -14.9218 -14.9216 -14.9214 -14.9213 -14.9195
   -14.9194 -14.9180 -14.9176 -14.9173 -14.9172 -14.9163 -14.9161 -14.9159
   -14.9157 -14.9155 -14.9155 -14.9133 -14.9071 -14.9059 -14.9055 -14.9052
   -14.9051 -14.9042 -14.9040 -14.9039 -14.9036 -14.9035 -14.9034 -14.9014
   -14.8663 -14.8657 -14.8654 -14.8650 -14.8649 -14.8640 -14.8638 -14.8637
   -14.8634 -14.8633 -14.8633 -14.8613 -14.8224 -14.8205 -14.8202 -14.8198
   -14.8197 -14.8189 -14.8186 -14.8185 -14.8182 -14.8181 -14.8181 -14.8159
   -10.3524 -10.3382 -10.3363 -10.3357 -10.3351 -10.3348 -10.3344 -10.3342
   -10.3325 -10.3306 -10.3299 -10.3222 -10.3175 -10.3066 -10.3049 -10.3042
   -10.3029 -10.3018 -10.3011 -10.3003 -10.2971 -10.2912 -10.2896 -10.2871
   -10.2794 -10.2690 -10.2676 -10.2665 -10.2660 -10.2649 -10.2642 -10.2639
   -10.2620 -10.2593 -10.2585 -10.2521  -6.6510  -6.6499  -6.6498  -6.4011
    -6.3988  -6.3985  -6.3981  -6.3978  -6.3972  -6.2931  -6.2916  -6.1925
    -5.8654  -5.8512  -5.8504  -5.7494  -5.7487  -5.7481  -5.7328  -5.7316
    -5.7306  -5.7083  -5.7067  -5.6942  -5.6941  -5.6933  -5.6849  -5.6841
    -5.6837  -5.6451  -5.5420  -5.5406  -5.5402  -5.5299  -5.5292  -5.5279
    -5.5116  -5.4722  -5.4712  -5.4709  -5.4671  -5.4661  -5.4656  -5.3976
    -5.3956  -5.3020  -5.3012  -5.3010  -0.5435  -0.5143  -0.5138  -0.5134
    -0.3966  -0.3951  -0.3907  -0.3898  -0.3889  -0.3107  -0.3096  -0.3082
     1.4838   1.4846   1.4859   1.6739   1.6755   1.6763   1.6857   1.6871
     1.6874   1.7339   1.7354   1.7987   2.0806   2.0817   2.0825   2.0830
     2.0848   2.1437   2.1449   2.1454   2.2559   2.3963   2.3970   2.3976
     2.4945   2.4949   2.4952   2.5634   2.5637   2.5643   2.5963   2.5978
     2.7737   2.7748   2.7750   2.8360   2.8376   2.8436   2.8446   2.8454
     2.8494   2.8520   2.8532   2.8537   2.8683   3.0093   3.0104   3.0119
     3.0249   3.0260   3.0263   3.0627   3.1334   3.1346   3.1351   3.1972
     3.1977   3.1988   3.2594   3.2601   3.2611   3.2706   3.2733   3.3616
     3.3705   3.3722   3.3725   3.3740   3.4255   3.4259   3.4268   3.4869
     3.4878   3.5023   3.5033   3.5035   3.5296   3.5302   3.5311   3.5470
     3.5484   3.5783   3.5801   3.5810   3.6489   3.6510   3.6513   3.7189
     3.7210   3.7217   3.7282   3.7291   3.7563   3.8014   3.8017   3.8023
     3.9583   3.9599   3.9614   3.9865   3.9876   4.0297   4.0304   4.0311
     4.0842   4.0851   4.0853   4.1407   4.1508   4.1515   4.1520   4.2844
     4.2853   4.2943   4.3178   4.3195   4.3199   4.3212   4.3215   4.3230
     4.3858   4.3867   4.3874   4.4959   4.5138   4.5161   4.5200   4.5210
     4.5218   4.6532   4.6551   4.6561   5.1378   5.1444   5.1446   5.1453
     5.1736   5.1741   5.1879   5.1891   5.1892   5.1967   5.1975   5.1981
     5.2469   5.2479   5.2480   5.2661   5.2666   5.2672   5.2986   5.2993
     5.2995   5.3012   5.3034   5.3036   5.3144   5.3192   5.3194   5.3202
     5.3403   5.3409   5.3412   5.4033   5.4036   5.4046   5.4080   5.4089
     5.4558   5.4560   5.4564   5.4581   5.4838   5.4841   5.4845   5.4892
     5.4899   5.5351   5.5359   5.5371   5.5646   5.5649   5.5655   5.5709
     5.5716   5.5723   5.6415   5.6723   5.6731   5.6948   5.6951   5.6961
     5.7074   5.7080   5.7083   5.7804   5.7810   5.7820   5.7995   5.8002
     5.8009   5.8241   5.8249   5.8448   5.9306   5.9315   5.9321   6.0458
     6.0475   6.0478   6.0483   6.0495   6.1383   6.1392   6.1396   6.1588
     6.2192   6.2197   6.2202   6.2602   6.2608   6.2619   6.2838   6.2850
     6.3752   6.4104   6.4111   6.4115   6.4170   6.4184   6.4233   6.4519
     6.4527   6.4533   6.6150   6.6157   6.6164   6.6765   6.6768   6.6779
     6.7262   6.7408   6.7418   6.8064   6.8069   6.8075   6.8102   6.8111
     6.8115   6.9395   6.9399   6.9406

          k = 0.3333 0.5774 0.2714 (115827 PWs)   bands (ev):

   -28.2950 -28.2775 -28.2761 -28.2755 -28.2753 -28.2751 -28.2750 -28.2750
   -28.2745 -28.2742 -28.2740 -28.2626 -14.9253 -14.9238 -14.9235 -14.9232
   -14.9230 -14.9221 -14.9220 -14.9218 -14.9216 -14.9214 -14.9213 -14.9195
   -14.9194 -14.9180 -14.9176 -14.9173 -14.9172 -14.9163 -14.9161 -14.9159
   -14.9157 -14.9155 -14.9155 -14.9133 -14.9071 -14.9059 -14.9055 -14.9052
   -14.9051 -14.9042 -14.9040 -14.9039 -14.9036 -14.9035 -14.9034 -14.9014
   -14.8663 -14.8657 -14.8654 -14.8650 -14.8649 -14.8640 -14.8638 -14.8637
   -14.8634 -14.8633 -14.8633 -14.8613 -14.8224 -14.8205 -14.8202 -14.8198
   -14.8197 -14.8189 -14.8186 -14.8185 -14.8182 -14.8181 -14.8181 -14.8159
   -10.3525 -10.3386 -10.3374 -10.3369 -10.3363 -10.3339 -10.3332 -10.3328
   -10.3324 -10.3302 -10.3301 -10.3221 -10.3176 -10.3078 -10.3068 -10.3059
   -10.3020 -10.2997 -10.2986 -10.2972 -10.2962 -10.2923 -10.2914 -10.2882
   -10.2795 -10.2689 -10.2678 -10.2670 -10.2659 -10.2642 -10.2636 -10.2630
   -10.2623 -10.2599 -10.2594 -10.2523  -6.6188  -6.6178  -6.6176  -6.5254
    -6.5243  -6.5241  -6.3083  -6.2897  -6.2888  -6.2886  -6.2575  -6.2143
    -5.8747  -5.8577  -5.8451  -5.7803  -5.7791  -5.7786  -5.7423  -5.7416
    -5.7413  -5.7149  -5.6881  -5.6875  -5.6870  -5.6728  -5.6717  -5.6712
    -5.6705  -5.6435  -5.5569  -5.5561  -5.5557  -5.5247  -5.5246  -5.5241
    -5.5047  -5.5031  -5.5024  -5.5021  -5.4585  -5.3983  -5.3975  -5.3971
    -5.3577  -5.3231  -5.3221  -5.3217  -0.5198  -0.5055  -0.5049  -0.5044
    -0.4603  -0.4170  -0.4166  -0.4159  -0.3551  -0.2933  -0.2925  -0.2915
     1.4820   1.4827   1.4839   1.6375   1.6390   1.6396   1.6909   1.7744
     1.7763   1.7768   1.7776   1.7931   1.9810   1.9817   1.9826   2.0555
     2.1709   2.1922   2.1929   2.1942   2.2479   2.3970   2.3975   2.3983
     2.4884   2.4897   2.4899   2.5567   2.5871   2.5886   2.5889   2.5926
     2.6786   2.7348   2.7376   2.7382   2.8226   2.8233   2.8240   2.8275
     2.9014   2.9028   2.9039   2.9245   2.9366   2.9552   2.9557   2.9572
     3.0590   3.0600   3.0612   3.0883   3.0886   3.0893   3.1275   3.1813
     3.2448   3.2451   3.2458   3.2708   3.2714   3.2725   3.3222   3.3278
     3.3281   3.3304   3.3742   3.4076   3.4209   3.4655   3.4661   3.4667
     3.4926   3.4992   3.4999   3.5003   3.5366   3.5374   3.5381   3.5401
     3.5615   3.6140   3.6167   3.6171   3.6544   3.6552   3.6556   3.6965
     3.6984   3.6989   3.7197   3.7439   3.8220   3.8409   3.8414   3.8421
     3.9378   3.9398   3.9412   3.9428   4.0291   4.0304   4.0307   4.0405
     4.0674   4.0685   4.0688   4.1086   4.1132   4.1143   4.1150   4.1682
     4.2730   4.2737   4.2746   4.2904   4.3144   4.3607   4.3621   4.3625
     4.4164   4.4170   4.4180   4.4929   4.4937   4.4946   4.5073   4.5115
     4.5643   4.6656   4.6678   4.6685   5.1491   5.1570   5.1578   5.1582
     5.1591   5.1828   5.1835   5.1839   5.1983   5.1989   5.1994   5.2116
     5.2248   5.2258   5.2260   5.2528   5.2528   5.2536   5.2574   5.2692
     5.3018   5.3024   5.3030   5.3094   5.3290   5.3299   5.3304   5.3677
     5.3688   5.3694   5.3751   5.3941   5.3959   5.4093   5.4096   5.4102
     5.4331   5.4341   5.4345   5.4389   5.4847   5.4853   5.4859   5.4915
     5.5394   5.5399   5.5405   5.5439   5.5662   5.5666   5.5682   5.6061
     5.6067   5.6074   5.6387   5.6394   5.6721   5.6733   5.6741   5.7037
     5.7042   5.7047   5.7177   5.7596   5.7602   5.7610   5.8018   5.8080
     5.8216   5.8235   5.8246   5.8258   5.8901   5.8913   5.8917   6.0564
     6.0601   6.0610   6.0615   6.0778   6.1207   6.1209   6.1216   6.1354
     6.1964   6.2382   6.2386   6.2390   6.2842   6.3022   6.3032   6.3037
     6.3065   6.3852   6.3862   6.3869   6.4512   6.4678   6.4684   6.4689
     6.4924   6.4931   6.5590   6.5602   6.5607   6.6458   6.6854   6.6859
     6.6868   6.7610   6.7782   6.7790   6.7794   6.7937   6.8548   6.8554
     6.8559   6.9360   6.9366   6.9376

          k =-0.3333 0.1925 0.0000 (115797 PWs)   bands (ev):

   -28.2950 -28.2775 -28.2761 -28.2755 -28.2753 -28.2751 -28.2750 -28.2750
   -28.2745 -28.2742 -28.2740 -28.2626 -14.9253 -14.9238 -14.9235 -14.9232
   -14.9230 -14.9222 -14.9219 -14.9218 -14.9216 -14.9214 -14.9213 -14.9195
   -14.9194 -14.9180 -14.9176 -14.9173 -14.9171 -14.9164 -14.9161 -14.9159
   -14.9157 -14.9155 -14.9155 -14.9133 -14.9071 -14.9059 -14.9056 -14.9052
   -14.9051 -14.9042 -14.9040 -14.9039 -14.9036 -14.9035 -14.9034 -14.9014
   -14.8663 -14.8657 -14.8654 -14.8650 -14.8649 -14.8640 -14.8638 -14.8637
   -14.8634 -14.8633 -14.8633 -14.8613 -14.8224 -14.8205 -14.8202 -14.8198
   -14.8197 -14.8189 -14.8186 -14.8185 -14.8182 -14.8181 -14.8181 -14.8159
   -10.3527 -10.3380 -10.3375 -10.3366 -10.3365 -10.3350 -10.3340 -10.3337
   -10.3326 -10.3318 -10.3282 -10.3216 -10.3178 -10.3071 -10.3067 -10.3049
   -10.3030 -10.3022 -10.3015 -10.2996 -10.2945 -10.2920 -10.2904 -10.2848
   -10.2796 -10.2692 -10.2685 -10.2671 -10.2660 -10.2654 -10.2625 -10.2618
   -10.2612 -10.2602 -10.2574 -10.2521  -6.7879  -6.5897  -6.4993  -6.4980
    -6.4386  -6.4379  -6.3651  -6.3493  -6.2852  -6.2839  -6.2486  -6.2473
    -5.9113  -5.9097  -5.8203  -5.8194  -5.8177  -5.7765  -5.7680  -5.7672
    -5.7319  -5.7237  -5.7222  -5.6907  -5.6901  -5.6477  -5.6381  -5.6372
    -5.6292  -5.5957  -5.5846  -5.5832  -5.5681  -5.5273  -5.5187  -5.5181
    -5.5160  -5.5046  -5.4620  -5.4513  -5.4368  -5.4350  -5.4222  -5.4149
    -5.3492  -5.3476  -5.3124  -5.2701  -0.5705  -0.5696  -0.5623  -0.4354
    -0.4036  -0.4028  -0.3765  -0.3388  -0.3380  -0.3369  -0.3120  -0.3025
     1.4190   1.4872   1.4880   1.5018   1.6402   1.6523   1.6878   1.7238
     1.7242   1.8278   1.8773   1.8776   1.9540   1.9554   1.9579   2.0278
     2.1157   2.2065   2.2301   2.2311   2.3394   2.3637   2.3859   2.3865
     2.3935   2.4089   2.4497   2.5363   2.5383   2.6128   2.6139   2.6174
     2.6580   2.7336   2.8128   2.8133   2.8214   2.8404   2.8421   2.8440
     2.8544   2.8853   2.9085   2.9093   2.9148   2.9624   2.9631   3.0047
     3.0501   3.0565   3.0576   3.1235   3.1481   3.1758   3.2046   3.2122
     3.2132   3.2337   3.2613   3.2634   3.2692   3.3244   3.3312   3.3323
     3.3387   3.3726   3.3955   3.3973   3.4338   3.4408   3.4418   3.4506
     3.4978   3.4987   3.5006   3.5108   3.5114   3.5151   3.5221   3.5437
     3.5616   3.6018   3.6060   3.6109   3.6345   3.6461   3.6787   3.6802
     3.6945   3.7017   3.7033   3.7087   3.7785   3.7798   3.8493   3.8601
     3.8956   3.9746   3.9761   3.9777   3.9807   4.0294   4.0385   4.0392
     4.0928   4.1117   4.1211   4.1216   4.1257   4.1630   4.1637   4.1778
     4.2477   4.2665   4.2675   4.2820   4.3040   4.3226   4.3240   4.3680
     4.3796   4.4157   4.4172   4.4832   4.5189   4.5265   4.5283   4.5302
     4.5906   4.5922   4.6256   4.7479   5.1442   5.1451   5.1471   5.1546
     5.1603   5.1614   5.1697   5.1751   5.2157   5.2195   5.2204   5.2223
     5.2282   5.2379   5.2490   5.2499   5.2506   5.2617   5.2683   5.2722
     5.2731   5.2894   5.3043   5.3051   5.3145   5.3191   5.3276   5.3281
     5.3375   5.3503   5.3527   5.3532   5.3577   5.3658   5.4137   5.4152
     5.4343   5.4513   5.4614   5.4617   5.4864   5.4938   5.5005   5.5015
     5.5031   5.5134   5.5278   5.5445   5.5568   5.5576   5.5616   5.6030
     5.6041   5.6313   5.6316   5.6336   5.6683   5.6790   5.6960   5.6967
     5.6970   5.7181   5.7298   5.7568   5.7758   5.7765   5.8088   5.8190
     5.8195   5.8649   5.8757   5.8765   5.9507   5.9530   5.9645   5.9658
     5.9910   6.0068   6.0076   6.0213   6.1391   6.1399   6.1452   6.1609
     6.2255   6.2300   6.2306   6.2519   6.2713   6.2900   6.2916   6.2991
     6.3616   6.3625   6.3777   6.3901   6.3905   6.4413   6.4865   6.4871
     6.5245   6.5382   6.5391   6.5760   6.6052   6.6513   6.6836   6.6933
     6.6943   6.7299   6.7377   6.7384   6.7632   6.7786   6.7931   6.8122
     6.8133   6.9052   6.9097   7.0814

          k = 0.3333 0.1925 0.0000 (115797 PWs)   bands (ev):

   -28.2950 -28.2775 -28.2761 -28.2755 -28.2753 -28.2751 -28.2750 -28.2750
   -28.2745 -28.2742 -28.2740 -28.2626 -14.9253 -14.9238 -14.9235 -14.9231
   -14.9230 -14.9221 -14.9220 -14.9217 -14.9216 -14.9214 -14.9213 -14.9195
   -14.9194 -14.9180 -14.9177 -14.9173 -14.9171 -14.9163 -14.9161 -14.9159
   -14.9157 -14.9156 -14.9155 -14.9133 -14.9071 -14.9059 -14.9056 -14.9052
   -14.9051 -14.9042 -14.9040 -14.9039 -14.9036 -14.9035 -14.9034 -14.9014
   -14.8663 -14.8657 -14.8654 -14.8650 -14.8649 -14.8640 -14.8638 -14.8637
   -14.8634 -14.8633 -14.8633 -14.8613 -14.8224 -14.8205 -14.8202 -14.8198
   -14.8197 -14.8189 -14.8186 -14.8185 -14.8182 -14.8181 -14.8181 -14.8159
   -10.3524 -10.3385 -10.3369 -10.3360 -10.3358 -10.3353 -10.3347 -10.3336
   -10.3327 -10.3320 -10.3285 -10.3218 -10.3177 -10.3071 -10.3064 -10.3046
   -10.3029 -10.3022 -10.3011 -10.2996 -10.2958 -10.2938 -10.2892 -10.2845
   -10.2793 -10.2692 -10.2687 -10.2673 -10.2659 -10.2646 -10.2631 -10.2628
   -10.2614 -10.2595 -10.2575 -10.2512  -6.7879  -6.5900  -6.5002  -6.4970
    -6.4380  -6.4373  -6.3663  -6.3479  -6.2853  -6.2846  -6.2484  -6.2479
    -5.9119  -5.9115  -5.8190  -5.8186  -5.8178  -5.7779  -5.7674  -5.7668
    -5.7320  -5.7242  -5.7222  -5.6894  -5.6890  -5.6468  -5.6383  -5.6378
    -5.6290  -5.5939  -5.5853  -5.5842  -5.5687  -5.5276  -5.5189  -5.5182
    -5.5163  -5.5036  -5.4629  -5.4509  -5.4372  -5.4363  -5.4217  -5.4150
    -5.3475  -5.3469  -5.3137  -5.2704  -0.5711  -0.5701  -0.5610  -0.4347
    -0.4046  -0.4034  -0.3770  -0.3371  -0.3368  -0.3362  -0.3133  -0.3038
     1.4187   1.4878   1.4884   1.5012   1.6406   1.6522   1.6891   1.7230
     1.7245   1.8287   1.8766   1.8778   1.9541   1.9551   1.9568   2.0274
     2.1155   2.2074   2.2288   2.2304   2.3381   2.3632   2.3864   2.3876
     2.3938   2.4085   2.4490   2.5379   2.5397   2.6127   2.6139   2.6177
     2.6564   2.7354   2.8129   2.8139   2.8222   2.8410   2.8421   2.8450
     2.8539   2.8841   2.9079   2.9088   2.9145   2.9611   2.9624   3.0042
     3.0511   3.0570   3.0573   3.1246   3.1488   3.1756   3.2047   3.2119
     3.2140   3.2356   3.2609   3.2617   3.2696   3.3242   3.3306   3.3318
     3.3392   3.3722   3.3946   3.3951   3.4340   3.4407   3.4413   3.4496
     3.4984   3.4989   3.5011   3.5113   3.5120   3.5134   3.5232   3.5418
     3.5605   3.6042   3.6062   3.6111   3.6349   3.6467   3.6792   3.6803
     3.6927   3.7035   3.7044   3.7077   3.7791   3.7798   3.8490   3.8596
     3.8969   3.9732   3.9749   3.9792   3.9808   4.0309   4.0388   4.0396
     4.0932   4.1116   4.1207   4.1214   4.1254   4.1612   4.1629   4.1778
     4.2485   4.2676   4.2682   4.2831   4.3021   4.3222   4.3241   4.3687
     4.3774   4.4172   4.4185   4.4842   4.5169   4.5270   4.5282   4.5290
     4.5895   4.5908   4.6274   4.7488   5.1437   5.1447   5.1477   5.1555
     5.1607   5.1612   5.1700   5.1751   5.2153   5.2191   5.2202   5.2224
     5.2285   5.2380   5.2487   5.2499   5.2506   5.2616   5.2681   5.2721
     5.2727   5.2901   5.3048   5.3052   5.3142   5.3197   5.3276   5.3283
     5.3372   5.3497   5.3528   5.3538   5.3579   5.3661   5.4143   5.4154
     5.4340   5.4515   5.4614   5.4625   5.4857   5.4936   5.5000   5.5010
     5.5036   5.5130   5.5281   5.5443   5.5572   5.5577   5.5618   5.6036
     5.6042   5.6301   5.6315   5.6319   5.6686   5.6787   5.6954   5.6962
     5.6974   5.7179   5.7301   5.7570   5.7749   5.7762   5.8088   5.8194
     5.8203   5.8639   5.8764   5.8771   5.9509   5.9527   5.9651   5.9661
     5.9901   6.0065   6.0077   6.0212   6.1391   6.1399   6.1459   6.1609
     6.2263   6.2296   6.2310   6.2510   6.2712   6.2897   6.2901   6.2999
     6.3617   6.3629   6.3776   6.3902   6.3912   6.4418   6.4862   6.4872
     6.5246   6.5384   6.5388   6.5757   6.6049   6.6516   6.6849   6.6926
     6.6934   6.7303   6.7378   6.7386   6.7628   6.7780   6.7938   6.8122
     6.8134   6.9045   6.9095   7.0812

          k = 0.0000-0.3849 0.2714 (115773 PWs)   bands (ev):

   -28.2950 -28.2775 -28.2761 -28.2755 -28.2753 -28.2751 -28.2750 -28.2750
   -28.2745 -28.2742 -28.2740 -28.2626 -14.9253 -14.9239 -14.9234 -14.9232
   -14.9229 -14.9221 -14.9220 -14.9218 -14.9216 -14.9214 -14.9213 -14.9195
   -14.9194 -14.9180 -14.9176 -14.9173 -14.9171 -14.9163 -14.9161 -14.9159
   -14.9157 -14.9156 -14.9154 -14.9133 -14.9071 -14.9059 -14.9055 -14.9052
   -14.9050 -14.9042 -14.9040 -14.9039 -14.9036 -14.9035 -14.9034 -14.9014
   -14.8663 -14.8657 -14.8654 -14.8650 -14.8649 -14.8640 -14.8638 -14.8637
   -14.8634 -14.8633 -14.8633 -14.8613 -14.8224 -14.8205 -14.8202 -14.8198
   -14.8197 -14.8189 -14.8186 -14.8185 -14.8182 -14.8181 -14.8181 -14.8159
   -10.3528 -10.3392 -10.3380 -10.3372 -10.3359 -10.3351 -10.3340 -10.3331
   -10.3323 -10.3303 -10.3289 -10.3217 -10.3180 -10.3093 -10.3071 -10.3046
   -10.3031 -10.3012 -10.2985 -10.2964 -10.2951 -10.2942 -10.2908 -10.2858
   -10.2797 -10.2691 -10.2685 -10.2674 -10.2655 -10.2645 -10.2624 -10.2620
   -10.2613 -10.2609 -10.2587 -10.2515  -6.7510  -6.6464  -6.5611  -6.4687
    -6.4199  -6.4188  -6.3636  -6.3403  -6.3397  -6.2653  -6.2108  -6.2100
    -5.9140  -5.9125  -5.8246  -5.8218  -5.8187  -5.8168  -5.7650  -5.7643
    -5.7529  -5.7336  -5.6829  -5.6819  -5.6813  -5.6631  -5.6422  -5.6411
    -5.6379  -5.6070  -5.5857  -5.5849  -5.5726  -5.5305  -5.5270  -5.5264
    -5.5161  -5.4858  -5.4656  -5.4395  -5.4376  -5.4360  -5.3995  -5.3702
    -5.3447  -5.3430  -5.3312  -5.2960  -0.5624  -0.5610  -0.5508  -0.4329
    -0.4290  -0.4277  -0.4107  -0.3602  -0.3227  -0.3214  -0.2899  -0.2831
     1.4054   1.4944   1.4954   1.5155   1.6122   1.7117   1.7125   1.7219
     1.7376   1.7726   1.8450   1.8465   1.9663   1.9864   2.0213   2.0223
     2.1295   2.1988   2.2086   2.2102   2.2858   2.3343   2.3969   2.4263
     2.4282   2.5172   2.5296   2.5300   2.5568   2.5581   2.5588   2.5596
     2.6000   2.6780   2.7636   2.7653   2.8231   2.8249   2.8256   2.8299
     2.8498   2.8528   2.8955   2.8964   2.9062   3.0084   3.0182   3.0194
     3.0757   3.0785   3.1184   3.1188   3.1341   3.1812   3.1822   3.1885
     3.2147   3.2467   3.2669   3.2855   3.2858   3.2951   3.3301   3.3319
     3.3759   3.3777   3.3789   3.3795   3.4473   3.4477   3.4508   3.4776
     3.4801   3.4807   3.5063   3.5197   3.5346   3.5354   3.5372   3.5577
     3.5866   3.5871   3.6110   3.6307   3.6387   3.6436   3.6823   3.6844
     3.6872   3.6957   3.7041   3.7049   3.8357   3.8377   3.8787   3.8805
     3.9412   3.9459   3.9460   3.9486   3.9722   4.0329   4.0534   4.0567
     4.0594   4.0616   4.1002   4.1008   4.1222   4.1228   4.1303   4.1333
     4.2237   4.2405   4.2675   4.2708   4.2904   4.2914   4.3137   4.3673
     4.3924   4.4339   4.4360   4.4812   4.5216   4.5435   4.5453   4.5858
     4.5958   4.5968   4.6308   4.7297   5.1482   5.1487   5.1540   5.1652
     5.1685   5.1693   5.1703   5.1734   5.2002   5.2051   5.2130   5.2184
     5.2195   5.2296   5.2415   5.2419   5.2605   5.2643   5.2654   5.2661
     5.2671   5.2739   5.3105   5.3109   5.3191   5.3342   5.3466   5.3475
     5.3601   5.3630   5.3638   5.3687   5.3704   5.3815   5.3887   5.3897
     5.4104   5.4333   5.4480   5.4519   5.4526   5.4697   5.4974   5.4983
     5.5170   5.5247   5.5564   5.5576   5.5691   5.5697   5.6024   5.6030
     5.6080   5.6213   5.6316   5.6501   5.6515   5.6608   5.6750   5.7090
     5.7097   5.7399   5.7599   5.7612   5.7707   5.7844   5.8056   5.8060
     5.8146   5.8395   5.8670   5.8690   5.8760   5.8950   5.9684   5.9704
     6.0197   6.0258   6.0262   6.1021   6.1026   6.1118   6.1601   6.1873
     6.2036   6.2038   6.2048   6.2624   6.2642   6.2879   6.3188   6.3422
     6.3552   6.3694   6.3704   6.4139   6.4194   6.4210   6.4526   6.4818
     6.4829   6.5072   6.5582   6.5668   6.6072   6.6078   6.6478   6.6666
     6.6687   6.7375   6.7387   6.7403   6.7488   6.8047   6.8054   6.8516
     6.8667   6.9186   6.9461   7.0392

          k =-0.3333 0.1925 0.2714 (115773 PWs)   bands (ev):

   -28.2950 -28.2775 -28.2761 -28.2755 -28.2753 -28.2751 -28.2750 -28.2750
   -28.2745 -28.2742 -28.2740 -28.2626 -14.9253 -14.9238 -14.9235 -14.9232
   -14.9230 -14.9222 -14.9219 -14.9218 -14.9216 -14.9214 -14.9213 -14.9195
   -14.9194 -14.9180 -14.9176 -14.9173 -14.9171 -14.9164 -14.9161 -14.9159
   -14.9157 -14.9155 -14.9155 -14.9133 -14.9071 -14.9059 -14.9056 -14.9052
   -14.9051 -14.9042 -14.9040 -14.9039 -14.9036 -14.9035 -14.9034 -14.9014
   -14.8663 -14.8657 -14.8654 -14.8650 -14.8649 -14.8640 -14.8638 -14.8637
   -14.8634 -14.8633 -14.8633 -14.8613 -14.8224 -14.8205 -14.8202 -14.8198
   -14.8197 -14.8189 -14.8186 -14.8185 -14.8182 -14.8181 -14.8181 -14.8159
   -10.3528 -10.3387 -10.3384 -10.3374 -10.3367 -10.3352 -10.3339 -10.3326
   -10.3320 -10.3305 -10.3285 -10.3218 -10.3178 -10.3091 -10.3072 -10.3046
   -10.3035 -10.3024 -10.2976 -10.2958 -10.2948 -10.2938 -10.2907 -10.2866
   -10.2796 -10.2687 -10.2686 -10.2675 -10.2663 -10.2648 -10.2621 -10.2615
   -10.2611 -10.2607 -10.2580 -10.2525  -6.7510  -6.6465  -6.5611  -6.4687
    -6.4198  -6.4190  -6.3636  -6.3403  -6.3395  -6.2655  -6.2108  -6.2098
    -5.9139  -5.9123  -5.8245  -5.8220  -5.8189  -5.8172  -5.7647  -5.7640
    -5.7524  -5.7338  -5.6827  -5.6822  -5.6817  -5.6626  -5.6422  -5.6415
    -5.6384  -5.6076  -5.5858  -5.5845  -5.5730  -5.5304  -5.5271  -5.5267
    -5.5156  -5.4856  -5.4654  -5.4395  -5.4374  -5.4357  -5.3998  -5.3702
    -5.3450  -5.3435  -5.3304  -5.2958  -0.5617  -0.5606  -0.5521  -0.4332
    -0.4288  -0.4279  -0.4100  -0.3604  -0.3227  -0.3219  -0.2899  -0.2828
     1.4054   1.4940   1.4946   1.5161   1.6126   1.7117   1.7125   1.7229
     1.7367   1.7726   1.8450   1.8467   1.9660   1.9858   2.0207   2.0233
     2.1295   2.1988   2.2092   2.2105   2.2853   2.3348   2.3972   2.4262
     2.4273   2.5180   2.5294   2.5300   2.5572   2.5582   2.5588   2.5594
     2.5999   2.6782   2.7642   2.7653   2.8230   2.8248   2.8253   2.8286
     2.8500   2.8527   2.8940   2.8963   2.9067   3.0084   3.0181   3.0195
     3.0763   3.0778   3.1184   3.1197   3.1341   3.1809   3.1821   3.1889
     3.2131   3.2465   3.2664   3.2858   3.2872   3.2953   3.3306   3.3313
     3.3757   3.3773   3.3795   3.3835   3.4468   3.4478   3.4504   3.4769
     3.4797   3.4811   3.5064   3.5205   3.5345   3.5352   3.5375   3.5583
     3.5844   3.5870   3.6109   3.6307   3.6399   3.6442   3.6811   3.6839
     3.6870   3.6958   3.7023   3.7054   3.8361   3.8371   3.8785   3.8808
     3.9413   3.9457   3.9472   3.9486   3.9710   4.0323   4.0536   4.0563
     4.0601   4.0609   4.1009   4.1013   4.1227   4.1231   4.1302   4.1332
     4.2233   4.2396   4.2687   4.2697   4.2908   4.2917   4.3144   4.3680
     4.3920   4.4335   4.4349   4.4813   4.5225   4.5435   4.5449   4.5862
     4.5955   4.5978   4.6303   4.7290   5.1480   5.1485   5.1533   5.1650
     5.1687   5.1694   5.1700   5.1731   5.2000   5.2051   5.2132   5.2188
     5.2192   5.2297   5.2416   5.2424   5.2610   5.2647   5.2650   5.2654
     5.2663   5.2741   5.3105   5.3116   5.3188   5.3351   5.3471   5.3472
     5.3605   5.3630   5.3634   5.3682   5.3695   5.3806   5.3890   5.3896
     5.4108   5.4335   5.4476   5.4519   5.4529   5.4701   5.4971   5.4983
     5.5173   5.5248   5.5566   5.5581   5.5686   5.5697   5.6023   5.6029
     5.6080   5.6205   5.6322   5.6502   5.6507   5.6615   5.6759   5.7093
     5.7099   5.7397   5.7602   5.7613   5.7710   5.7846   5.8051   5.8057
     5.8147   5.8404   5.8675   5.8679   5.8760   5.8955   5.9685   5.9695
     6.0197   6.0256   6.0260   6.1018   6.1027   6.1121   6.1606   6.1874
     6.2032   6.2038   6.2045   6.2622   6.2636   6.2872   6.3190   6.3423
     6.3558   6.3701   6.3707   6.4136   6.4197   6.4200   6.4522   6.4818
     6.4828   6.5074   6.5582   6.5664   6.6075   6.6084   6.6479   6.6671
     6.6678   6.7380   6.7393   6.7398   6.7489   6.8044   6.8053   6.8518
     6.8674   6.9185   6.9457   7.0395

          k = 0.3333 0.1925 0.2714 (115773 PWs)   bands (ev):

   -28.2950 -28.2775 -28.2761 -28.2755 -28.2753 -28.2751 -28.2750 -28.2750
   -28.2745 -28.2742 -28.2740 -28.2626 -14.9253 -14.9238 -14.9235 -14.9231
   -14.9230 -14.9221 -14.9220 -14.9217 -14.9216 -14.9214 -14.9213 -14.9195
   -14.9194 -14.9180 -14.9177 -14.9173 -14.9171 -14.9163 -14.9161 -14.9159
   -14.9157 -14.9156 -14.9155 -14.9133 -14.9071 -14.9059 -14.9056 -14.9052
   -14.9051 -14.9042 -14.9040 -14.9039 -14.9036 -14.9035 -14.9034 -14.9014
   -14.8663 -14.8657 -14.8654 -14.8650 -14.8649 -14.8640 -14.8638 -14.8637
   -14.8634 -14.8633 -14.8633 -14.8613 -14.8224 -14.8205 -14.8202 -14.8198
   -14.8197 -14.8189 -14.8186 -14.8185 -14.8182 -14.8181 -14.8181 -14.8159
   -10.3526 -10.3393 -10.3377 -10.3366 -10.3361 -10.3351 -10.3346 -10.3334
   -10.3319 -10.3306 -10.3287 -10.3219 -10.3179 -10.3094 -10.3060 -10.3048
   -10.3032 -10.3014 -10.2989 -10.2966 -10.2952 -10.2940 -10.2916 -10.2853
   -10.2792 -10.2688 -10.2687 -10.2674 -10.2664 -10.2646 -10.2627 -10.2623
   -10.2613 -10.2599 -10.2583 -10.2514  -6.7510  -6.6466  -6.5618  -6.4681
    -6.4188  -6.4181  -6.3634  -6.3408  -6.3401  -6.2655  -6.2111  -6.2101
    -5.9144  -5.9139  -5.8248  -5.8208  -5.8179  -5.8170  -5.7644  -5.7639
    -5.7542  -5.7329  -5.6825  -5.6816  -5.6810  -5.6640  -5.6420  -5.6411
    -5.6364  -5.6069  -5.5865  -5.5858  -5.5731  -5.5295  -5.5275  -5.5264
    -5.5165  -5.4865  -5.4647  -5.4397  -5.4375  -5.4372  -5.3979  -5.3704
    -5.3434  -5.3428  -5.3327  -5.2961  -0.5624  -0.5614  -0.5503  -0.4324
    -0.4287  -0.4280  -0.4114  -0.3606  -0.3216  -0.3211  -0.2905  -0.2835
     1.4050   1.4948   1.4950   1.5153   1.6131   1.7117   1.7126   1.7231
     1.7376   1.7733   1.8441   1.8461   1.9673   1.9856   2.0207   2.0216
     2.1291   2.1996   2.2091   2.2101   2.2850   2.3329   2.3957   2.4269
     2.4278   2.5189   2.5293   2.5298   2.5578   2.5586   2.5592   2.5603
     2.5991   2.6772   2.7637   2.7656   2.8248   2.8250   2.8258   2.8295
     2.8510   2.8531   2.8945   2.8960   2.9059   3.0077   3.0171   3.0184
     3.0774   3.0785   3.1187   3.1190   3.1338   3.1808   3.1825   3.1887
     3.2146   3.2467   3.2669   3.2851   3.2856   3.2955   3.3313   3.3319
     3.3757   3.3771   3.3782   3.3793   3.4477   3.4485   3.4500   3.4779
     3.4804   3.4810   3.5060   3.5185   3.5348   3.5354   3.5362   3.5576
     3.5859   3.5877   3.6104   3.6319   3.6409   3.6444   3.6834   3.6843
     3.6852   3.6953   3.7034   3.7047   3.8367   3.8372   3.8785   3.8801
     3.9422   3.9448   3.9461   3.9490   3.9728   4.0327   4.0548   4.0558
     4.0608   4.0612   4.0998   4.1008   4.1211   4.1226   4.1293   4.1332
     4.2247   4.2412   4.2688   4.2702   4.2910   4.2921   4.3132   4.3656
     4.3926   4.4346   4.4364   4.4807   4.5198   4.5449   4.5455   4.5848
     4.5949   4.5958   4.6318   4.7303   5.1477   5.1486   5.1545   5.1649
     5.1687   5.1694   5.1699   5.1735   5.2002   5.2055   5.2132   5.2174
     5.2195   5.2294   5.2412   5.2418   5.2610   5.2650   5.2652   5.2659
     5.2667   5.2737   5.3106   5.3110   5.3190   5.3342   5.3470   5.3478
     5.3601   5.3634   5.3639   5.3687   5.3704   5.3810   5.3890   5.3897
     5.4103   5.4337   5.4484   5.4521   5.4526   5.4691   5.4972   5.4981
     5.5173   5.5245   5.5565   5.5576   5.5688   5.5700   5.6023   5.6031
     5.6077   5.6212   5.6309   5.6498   5.6505   5.6616   5.6750   5.7086
     5.7097   5.7397   5.7605   5.7612   5.7705   5.7852   5.8057   5.8065
     5.8147   5.8406   5.8677   5.8685   5.8763   5.8937   5.9690   5.9701
     6.0192   6.0251   6.0259   6.1012   6.1023   6.1128   6.1600   6.1880
     6.2034   6.2043   6.2050   6.2625   6.2641   6.2883   6.3182   6.3429
     6.3553   6.3693   6.3702   6.4135   6.4205   6.4209   6.4525   6.4817
     6.4826   6.5071   6.5578   6.5670   6.6071   6.6074   6.6478   6.6674
     6.6679   6.7373   6.7383   6.7404   6.7488   6.8047   6.8058   6.8518
     6.8665   6.9187   6.9463   7.0389

          k =-0.3333-0.1925 0.2714 (115773 PWs)   bands (ev):

   -28.2950 -28.2775 -28.2761 -28.2755 -28.2753 -28.2751 -28.2750 -28.2750
   -28.2745 -28.2742 -28.2740 -28.2626 -14.9253 -14.9238 -14.9235 -14.9231
   -14.9230 -14.9221 -14.9220 -14.9217 -14.9216 -14.9214 -14.9213 -14.9195
   -14.9194 -14.9180 -14.9177 -14.9173 -14.9171 -14.9163 -14.9161 -14.9159
   -14.9157 -14.9156 -14.9155 -14.9133 -14.9071 -14.9059 -14.9056 -14.9052
   -14.9051 -14.9042 -14.9040 -14.9039 -14.9036 -14.9035 -14.9034 -14.9014
   -14.8663 -14.8657 -14.8654 -14.8650 -14.8649 -14.8640 -14.8638 -14.8637
   -14.8634 -14.8633 -14.8633 -14.8613 -14.8224 -14.8205 -14.8202 -14.8198
   -14.8197 -14.8189 -14.8186 -14.8185 -14.8182 -14.8181 -14.8181 -14.8159
   -10.3526 -10.3392 -10.3377 -10.3367 -10.3363 -10.3353 -10.3342 -10.3332
   -10.3321 -10.3306 -10.3287 -10.3218 -10.3179 -10.3091 -10.3062 -10.3058
   -10.3025 -10.3009 -10.2992 -10.2977 -10.2955 -10.2935 -10.2894 -10.2865
   -10.2796 -10.2694 -10.2689 -10.2667 -10.2657 -10.2647 -10.2630 -10.2626
   -10.2615 -10.2593 -10.2584 -10.2515  -6.7509  -6.6465  -6.5608  -6.4720
    -6.4221  -6.4214  -6.3640  -6.3293  -6.3283  -6.2585  -6.2248  -6.2239
    -5.9056  -5.9052  -5.8221  -5.8211  -5.8081  -5.8075  -5.7934  -5.7595
    -5.7594  -5.7317  -5.7099  -5.7089  -5.6723  -5.6342  -5.6284  -5.6274
    -5.6270  -5.6072  -5.6007  -5.5995  -5.5693  -5.5275  -5.5226  -5.5218
    -5.5211  -5.4956  -5.4684  -5.4332  -5.4291  -5.4284  -5.4215  -5.3628
    -5.3471  -5.3464  -5.3228  -5.2999  -0.5591  -0.5585  -0.5575  -0.4357
    -0.4348  -0.4240  -0.3939  -0.3736  -0.3184  -0.3179  -0.2996  -0.2791
     1.4335   1.4856   1.4864   1.4875   1.6258   1.6423   1.7726   1.7740
     1.7828   1.7912   1.7994   1.8007   1.9145   1.9945   1.9956   2.0771
     2.1546   2.2007   2.2114   2.2477   2.2484   2.3588   2.3936   2.3943
     2.3975   2.4491   2.5119   2.5133   2.5462   2.5908   2.5916   2.6070
     2.6438   2.7113   2.7620   2.7683   2.7690   2.7886   2.8095   2.8098
     2.8393   2.8746   2.9150   2.9162   2.9185   2.9805   3.0225   3.0241
     3.0688   3.1067   3.1075   3.1331   3.1709   3.1932   3.1941   3.1955
     3.2006   3.2325   3.2644   3.2654   3.2777   3.3186   3.3218   3.3224
     3.3244   3.3888   3.3896   3.4109   3.4455   3.4464   3.4697   3.4703
     3.4723   3.4732   3.4752   3.4779   3.5338   3.5366   3.5378   3.5916
     3.6095   3.6126   3.6132   3.6330   3.6411   3.6489   3.6581   3.6597
     3.6660   3.7106   3.7117   3.7125   3.8361   3.8364   3.8799   3.8887
     3.9053   3.9488   3.9506   3.9745   3.9828   4.0207   4.0479   4.0489
     4.0498   4.0655   4.1103   4.1115   4.1196   4.1319   4.1337   4.1470
     4.1916   4.2560   4.2670   4.2678   4.2888   4.2902   4.2941   4.3860
     4.3979   4.4382   4.4395   4.4682   4.5246   4.5256   4.5344   4.5955
     4.6094   4.6107   4.6226   4.7215   5.1504   5.1518   5.1551   5.1578
     5.1728   5.1762   5.1769   5.1838   5.1911   5.1984   5.2020   5.2076
     5.2085   5.2344   5.2355   5.2358   5.2555   5.2646   5.2658   5.2667
     5.2799   5.2984   5.3078   5.3135   5.3136   5.3292   5.3371   5.3378
     5.3586   5.3589   5.3606   5.3636   5.3804   5.3934   5.4069   5.4080
     5.4130   5.4321   5.4336   5.4452   5.4460   5.4931   5.5020   5.5038
     5.5099   5.5164   5.5537   5.5602   5.5748   5.5755   5.6027   5.6112
     5.6117   5.6192   5.6248   5.6255   5.6435   5.6706   5.6831   5.7145
     5.7153   5.7174   5.7345   5.7726   5.7732   5.7738   5.8028   5.8035
     5.8097   5.8595   5.8761   5.8766   5.8780   5.9151   5.9593   5.9599
     6.0344   6.0349   6.0362   6.0600   6.0789   6.0796   6.1736   6.2066
     6.2130   6.2145   6.2666   6.2674   6.2707   6.2776   6.2860   6.3494
     6.3505   6.3663   6.3729   6.4157   6.4247   6.4255   6.4275   6.4715
     6.4984   6.4996   6.5458   6.5595   6.5957   6.5962   6.6671   6.6673
     6.6772   6.7200   6.7368   6.7377   6.7487   6.8134   6.8144   6.8455
     6.8691   6.9285   6.9373   7.0528

          k = 0.3333-0.1925 0.2714 (115773 PWs)   bands (ev):

   -28.2950 -28.2775 -28.2761 -28.2755 -28.2753 -28.2751 -28.2750 -28.2750
   -28.2745 -28.2742 -28.2740 -28.2626 -14.9253 -14.9238 -14.9235 -14.9232
   -14.9230 -14.9222 -14.9219 -14.9218 -14.9216 -14.9214 -14.9213 -14.9195
   -14.9194 -14.9180 -14.9176 -14.9173 -14.9171 -14.9164 -14.9161 -14.9159
   -14.9157 -14.9155 -14.9155 -14.9133 -14.9071 -14.9059 -14.9056 -14.9052
   -14.9051 -14.9042 -14.9040 -14.9039 -14.9036 -14.9035 -14.9034 -14.9014
   -14.8663 -14.8657 -14.8654 -14.8650 -14.8649 -14.8640 -14.8638 -14.8637
   -14.8634 -14.8633 -14.8633 -14.8613 -14.8224 -14.8205 -14.8202 -14.8198
   -14.8197 -14.8189 -14.8186 -14.8185 -14.8182 -14.8181 -14.8181 -14.8159
   -10.3528 -10.3387 -10.3383 -10.3374 -10.3369 -10.3351 -10.3331 -10.3328
   -10.3324 -10.3305 -10.3286 -10.3217 -10.3179 -10.3095 -10.3066 -10.3057
   -10.3019 -10.3007 -10.3002 -10.2959 -10.2952 -10.2928 -10.2913 -10.2863
   -10.2795 -10.2691 -10.2684 -10.2668 -10.2661 -10.2654 -10.2625 -10.2615
   -10.2612 -10.2599 -10.2585 -10.2523  -6.7508  -6.6467  -6.5604  -6.4720
    -6.4230  -6.4221  -6.3639  -6.3287  -6.3278  -6.2590  -6.2245  -6.2237
    -5.9054  -5.9037  -5.8236  -5.8216  -5.8088  -5.8067  -5.7911  -5.7601
    -5.7597  -5.7318  -5.7110  -5.7101  -5.6710  -5.6355  -5.6290  -5.6276
    -5.6270  -5.6082  -5.5998  -5.5990  -5.5695  -5.5286  -5.5218  -5.5216
    -5.5196  -5.4969  -5.4671  -5.4322  -5.4289  -5.4270  -5.4227  -5.3639
    -5.3487  -5.3473  -5.3212  -5.2992  -0.5597  -0.5582  -0.5571  -0.4357
    -0.4350  -0.4254  -0.3930  -0.3725  -0.3194  -0.3186  -0.2987  -0.2785
     1.4339   1.4851   1.4860   1.4881   1.6257   1.6417   1.7721   1.7734
     1.7822   1.7899   1.8002   1.8013   1.9144   1.9950   1.9981   2.0770
     2.1554   2.1998   2.2101   2.2480   2.2492   2.3612   2.3925   2.3935
     2.3990   2.4481   2.5107   2.5127   2.5476   2.5905   2.5917   2.6081
     2.6424   2.7105   2.7610   2.7687   2.7697   2.7885   2.8079   2.8097
     2.8389   2.8747   2.9144   2.9165   2.9195   2.9817   3.0237   3.0252
     3.0674   3.1067   3.1073   3.1323   3.1711   3.1933   3.1936   3.1948
     3.1996   3.2329   3.2649   3.2662   3.2766   3.3181   3.3221   3.3228
     3.3247   3.3895   3.3926   3.4112   3.4451   3.4463   3.4688   3.4698
     3.4725   3.4738   3.4767   3.4778   3.5340   3.5364   3.5373   3.5908
     3.6102   3.6124   3.6130   3.6332   3.6423   3.6476   3.6564   3.6601
     3.6685   3.7078   3.7113   3.7123   3.8357   3.8367   3.8802   3.8882
     3.9040   3.9502   3.9517   3.9746   3.9815   4.0193   4.0476   4.0491
     4.0496   4.0654   4.1108   4.1118   4.1197   4.1332   4.1338   4.1480
     4.1903   4.2557   4.2666   4.2675   4.2890   4.2898   4.2948   4.3877
     4.3983   4.4366   4.4384   4.4679   4.5239   4.5252   4.5366   4.5965
     4.6100   4.6119   4.6212   4.7208   5.1509   5.1518   5.1551   5.1571
     5.1721   5.1763   5.1766   5.1842   5.1907   5.1980   5.2017   5.2078
     5.2089   5.2348   5.2354   5.2359   5.2551   5.2642   5.2661   5.2668
     5.2794   5.2985   5.3079   5.3132   5.3143   5.3293   5.3362   5.3370
     5.3582   5.3592   5.3607   5.3644   5.3805   5.3925   5.4076   5.4079
     5.4142   5.4328   5.4334   5.4452   5.4463   5.4929   5.5017   5.5032
     5.5097   5.5158   5.5546   5.5601   5.5746   5.5756   5.6034   5.6112
     5.6122   5.6196   5.6252   5.6257   5.6435   5.6709   5.6821   5.7148
     5.7150   5.7177   5.7349   5.7725   5.7733   5.7743   5.8020   5.8028
     5.8104   5.8593   5.8754   5.8757   5.8793   5.9151   5.9586   5.9598
     6.0348   6.0351   6.0360   6.0602   6.0790   6.0797   6.1736   6.2069
     6.2127   6.2143   6.2669   6.2676   6.2697   6.2777   6.2856   6.3493
     6.3499   6.3655   6.3726   6.4159   6.4245   6.4254   6.4281   6.4711
     6.4984   6.4995   6.5462   6.5594   6.5961   6.5971   6.6673   6.6679
     6.6777   6.7202   6.7364   6.7376   6.7470   6.8135   6.8147   6.8450
     6.8702   6.9286   6.9376   7.0528

          k =-0.3333-0.5774 0.2714 (115827 PWs)   bands (ev):

   -28.2950 -28.2775 -28.2761 -28.2755 -28.2753 -28.2751 -28.2750 -28.2750
   -28.2745 -28.2742 -28.2740 -28.2626 -14.9253 -14.9238 -14.9235 -14.9232
   -14.9230 -14.9221 -14.9220 -14.9218 -14.9216 -14.9214 -14.9213 -14.9195
   -14.9194 -14.9180 -14.9176 -14.9173 -14.9172 -14.9163 -14.9161 -14.9159
   -14.9157 -14.9155 -14.9155 -14.9133 -14.9071 -14.9059 -14.9055 -14.9052
   -14.9051 -14.9042 -14.9040 -14.9039 -14.9036 -14.9035 -14.9034 -14.9014
   -14.8663 -14.8657 -14.8654 -14.8650 -14.8649 -14.8640 -14.8638 -14.8637
   -14.8634 -14.8633 -14.8633 -14.8613 -14.8224 -14.8205 -14.8202 -14.8198
   -14.8197 -14.8189 -14.8186 -14.8185 -14.8182 -14.8181 -14.8181 -14.8159
   -10.3525 -10.3385 -10.3375 -10.3370 -10.3363 -10.3340 -10.3335 -10.3329
   -10.3316 -10.3306 -10.3300 -10.3221 -10.3176 -10.3079 -10.3070 -10.3051
   -10.3026 -10.2999 -10.2985 -10.2972 -10.2957 -10.2927 -10.2915 -10.2880
   -10.2796 -10.2689 -10.2679 -10.2669 -10.2658 -10.2645 -10.2638 -10.2631
   -10.2614 -10.2604 -10.2592 -10.2523  -6.6189  -6.6178  -6.6176  -6.5254
    -6.5243  -6.5241  -6.3082  -6.2898  -6.2887  -6.2886  -6.2577  -6.2141
    -5.8748  -5.8581  -5.8447  -5.7800  -5.7791  -5.7785  -5.7426  -5.7418
    -5.7413  -5.7149  -5.6880  -5.6875  -5.6871  -5.6725  -5.6719  -5.6712
    -5.6704  -5.6435  -5.5570  -5.5563  -5.5556  -5.5247  -5.5244  -5.5240
    -5.5046  -5.5032  -5.5026  -5.5019  -5.4586  -5.3982  -5.3976  -5.3971
    -5.3578  -5.3229  -5.3222  -5.3218  -0.5195  -0.5055  -0.5049  -0.5045
    -0.4607  -0.4171  -0.4164  -0.4157  -0.3549  -0.2935  -0.2924  -0.2915
     1.4818   1.4830   1.4838   1.6373   1.6386   1.6395   1.6907   1.7748
     1.7764   1.7769   1.7776   1.7931   1.9807   1.9817   1.9833   2.0557
     2.1707   2.1924   2.1932   2.1948   2.2475   2.3967   2.3971   2.3983
     2.4884   2.4892   2.4897   2.5566   2.5875   2.5881   2.5886   2.5923
     2.6797   2.7360   2.7376   2.7385   2.8211   2.8233   2.8240   2.8275
     2.9024   2.9028   2.9039   2.9240   2.9368   2.9546   2.9557   2.9567
     3.0599   3.0603   3.0615   3.0879   3.0885   3.0901   3.1270   3.1817
     3.2445   3.2451   3.2456   3.2709   3.2714   3.2727   3.3222   3.3272
     3.3281   3.3295   3.3741   3.4072   3.4208   3.4655   3.4662   3.4670
     3.4931   3.4993   3.5002   3.5006   3.5368   3.5377   3.5384   3.5400
     3.5616   3.6151   3.6165   3.6170   3.6523   3.6554   3.6558   3.6962
     3.6984   3.6989   3.7200   3.7438   3.8214   3.8407   3.8414   3.8421
     3.9383   3.9403   3.9415   3.9430   4.0296   4.0303   4.0308   4.0398
     4.0666   4.0678   4.0686   4.1090   4.1139   4.1142   4.1152   4.1681
     4.2732   4.2736   4.2749   4.2898   4.3150   4.3608   4.3617   4.3628
     4.4157   4.4169   4.4185   4.4929   4.4937   4.4945   4.5074   4.5117
     4.5641   4.6660   4.6678   4.6686   5.1491   5.1574   5.1577   5.1582
     5.1586   5.1827   5.1837   5.1839   5.1978   5.1986   5.1993   5.2114
     5.2251   5.2256   5.2264   5.2523   5.2528   5.2538   5.2573   5.2689
     5.3020   5.3024   5.3034   5.3100   5.3288   5.3297   5.3306   5.3682
     5.3687   5.3694   5.3748   5.3944   5.3956   5.4095   5.4099   5.4109
     5.4331   5.4339   5.4343   5.4388   5.4842   5.4854   5.4859   5.4921
     5.5393   5.5396   5.5402   5.5439   5.5664   5.5672   5.5674   5.6057
     5.6063   5.6067   5.6382   5.6396   5.6726   5.6731   5.6741   5.7039
     5.7046   5.7051   5.7180   5.7596   5.7598   5.7611   5.8019   5.8084
     5.8209   5.8240   5.8247   5.8256   5.8900   5.8911   5.8921   6.0572
     6.0603   6.0611   6.0614   6.0772   6.1199   6.1208   6.1215   6.1356
     6.1955   6.2384   6.2389   6.2397   6.2846   6.3024   6.3029   6.3035
     6.3068   6.3855   6.3857   6.3867   6.4504   6.4675   6.4685   6.4695
     6.4918   6.4939   6.5592   6.5601   6.5604   6.6466   6.6853   6.6857
     6.6867   6.7616   6.7782   6.7787   6.7796   6.7928   6.8549   6.8557
     6.8564   6.9359   6.9365   6.9374

     highest occupied level (ev):     7.1814

!    total energy              =   -9077.18773896 Ry
     estimated scf accuracy    <          2.3E-10 Ry

     The total energy is the sum of the following terms:
     one-electron contribution =   -2776.58415280 Ry
     hartree contribution      =    2020.05137311 Ry
     xc contribution           =   -2269.38680878 Ry
     ewald contribution        =   -3895.47184202 Ry
     one-center paw contrib.   =   -2155.79630847 Ry

     convergence has been achieved in  21 iterations

     negative rho (up, down):  7.902E-01 0.000E+00

     Forces acting on atoms (cartesian axes, Ry/au):

     atom    1 type  1   force =     0.00021705    0.00014397    0.00055814
     atom    2 type  1   force =    -0.00015827    0.00027494    0.00005586
     atom    3 type  1   force =    -0.00013919    0.00024653    0.00001162
     atom    4 type  1   force =    -0.00018670    0.00016687    0.00000298
     atom    5 type  1   force =     0.00000263   -0.00035513    0.00040577
     atom    6 type  1   force =    -0.00012802   -0.00029459    0.00005538
     atom    7 type  1   force =    -0.00013003   -0.00026878    0.00001120
     atom    8 type  1   force =    -0.00018684   -0.00024368    0.00002786
     atom    9 type  1   force =     0.00030341   -0.00000311   -0.00004816
     atom   10 type  1   force =     0.00030898    0.00000543   -0.00006512
     atom   11 type  1   force =     0.00031068   -0.00000949   -0.00006251
     atom   12 type  1   force =     0.00031265   -0.00000200   -0.00004699
     atom   13 type  2   force =    -0.00059326    0.00078053    0.00100446
     atom   14 type  2   force =     0.00019396   -0.00037955    0.00020076
     atom   15 type  2   force =     0.00019989   -0.00036773    0.00019015
     atom   16 type  2   force =     0.00018908   -0.00037655    0.00018831
     atom   17 type  2   force =     0.00022946    0.00037099    0.00016092
     atom   18 type  2   force =     0.00024131    0.00036895    0.00017527
     atom   19 type  2   force =     0.00023701    0.00036664    0.00017772
     atom   20 type  2   force =     0.00023852    0.00036857    0.00017433
     atom   21 type  2   force =    -0.00045603    0.00004333    0.00017599
     atom   22 type  2   force =    -0.00044019    0.00003543    0.00019043
     atom   23 type  2   force =    -0.00043866    0.00001071    0.00017054
     atom   24 type  2   force =    -0.00042672   -0.00000795    0.00014350
     atom   25 type  2   force =    -0.00043759   -0.00002435   -0.00019396
     atom   26 type  2   force =    -0.00040705    0.00002841   -0.00020562
     atom   27 type  2   force =    -0.00043353    0.00000019   -0.00018085
     atom   28 type  2   force =    -0.00042538   -0.00001239   -0.00019001
     atom   29 type  2   force =    -0.00114606    0.00072492    0.00062122
     atom   30 type  2   force =     0.00018221    0.00042176   -0.00015855
     atom   31 type  2   force =     0.00019558    0.00040014   -0.00018189
     atom   32 type  2   force =     0.00020338    0.00039235   -0.00017070
     atom   33 type  2   force =     0.00023022   -0.00036454   -0.00019486
     atom   34 type  2   force =     0.00023247   -0.00035822   -0.00021680
     atom   35 type  2   force =     0.00023038   -0.00037114   -0.00020070
     atom   36 type  2   force =     0.00023353   -0.00037005   -0.00019603
     atom   37 type  3   force =     0.00028282   -0.00067323   -0.00014791
     atom   38 type  3   force =     0.00024263   -0.00045612   -0.00003627
     atom   39 type  3   force =     0.00026710   -0.00043537   -0.00001133
     atom   40 type  3   force =     0.00026800   -0.00047337   -0.00003732
     atom   41 type  3   force =     0.00029280    0.00041358   -0.00010604
     atom   42 type  3   force =     0.00026152    0.00048126   -0.00006906
     atom   43 type  3   force =     0.00025578    0.00051829   -0.00000795
     atom   44 type  3   force =     0.00028602    0.00047343   -0.00002739
     atom   45 type  3   force =    -0.00060136   -0.00003988    0.00009623
     atom   46 type  3   force =    -0.00069169   -0.00030068    0.00089251
     atom   47 type  3   force =    -0.00047692   -0.00002286    0.00009038
     atom   48 type  3   force =    -0.00060484   -0.00000082   -0.00000867
     atom   49 type  4   force =     0.00036001   -0.00010140    0.00013403
     atom   50 type  4   force =     0.00035403   -0.00010793    0.00003244
     atom   51 type  4   force =     0.00035694   -0.00011373    0.00003087
     atom   52 type  4   force =     0.00035760   -0.00010404    0.00004371
     atom   53 type  4   force =    -0.00040663    0.00012168    0.00057646
     atom   54 type  4   force =     0.00001634    0.00037427    0.00004542
     atom   55 type  4   force =    -0.00007681    0.00035878    0.00002832
     atom   56 type  4   force =    -0.00009218    0.00036733    0.00003846
     atom   57 type  4   force =    -0.00031166    0.00011167    0.00014641
     atom   58 type  4   force =    -0.00025329   -0.00024982    0.00000425
     atom   59 type  4   force =    -0.00014406   -0.00031253   -0.00001369
     atom   60 type  4   force =    -0.00035134   -0.00033858   -0.00013559
     atom   61 type  4   force =    -0.00056717    0.00032698    0.00004602
     atom   62 type  4   force =     0.00026556    0.00064904    0.00007523
     atom   63 type  4   force =    -0.00034007    0.00016593   -0.00004889
     atom   64 type  4   force =    -0.00027267    0.00024125   -0.00003185
     atom   65 type  4   force =     0.00035160    0.00009335    0.00003905
     atom   66 type  4   force =     0.00035319    0.00008388    0.00001604
     atom   67 type  4   force =     0.00035222    0.00008181    0.00000432
     atom   68 type  4   force =     0.00034589    0.00009495    0.00000279
     atom   69 type  4   force =    -0.00004520   -0.00035611   -0.00000108
     atom   70 type  4   force =    -0.00044146   -0.00002067    0.00085596
     atom   71 type  4   force =    -0.00010455   -0.00038534    0.00002808
     atom   72 type  4   force =    -0.00009708   -0.00036077   -0.00002582
     atom   73 type  4   force =     0.00252769   -0.00144600   -0.00527501
     atom   74 type  4   force =     0.00001272    0.00014886   -0.00027351
     atom   75 type  4   force =    -0.00000158    0.00014261   -0.00025324
     atom   76 type  4   force =     0.00000012    0.00018729   -0.00028361
     atom   77 type  4   force =    -0.00014311   -0.00001805   -0.00015444
     atom   78 type  4   force =    -0.00017964   -0.00003803   -0.00020322
     atom   79 type  4   force =    -0.00014598   -0.00006167   -0.00023132
     atom   80 type  4   force =    -0.00014865   -0.00007411   -0.00023260
     atom   81 type  4   force =     0.00009430   -0.00016817   -0.00015745
     atom   82 type  4   force =     0.00011875   -0.00009742   -0.00023210
     atom   83 type  4   force =     0.00011514   -0.00008775   -0.00023421
     atom   84 type  4   force =     0.00012401   -0.00009883   -0.00020447
     atom   85 type  4   force =     0.00014728    0.00005872    0.00029768
     atom   86 type  4   force =     0.00012603    0.00007045    0.00026064
     atom   87 type  4   force =     0.00011971    0.00007902    0.00026013
     atom   88 type  4   force =     0.00011570    0.00009471    0.00025933
     atom   89 type  4   force =    -0.00009471   -0.00016397    0.00014685
     atom   90 type  4   force =    -0.00005339    0.00002320    0.00014390
     atom   91 type  4   force =     0.00005743   -0.00017261    0.00020859
     atom   92 type  4   force =     0.00004448   -0.00010621    0.00006347
     atom   93 type  4   force =    -0.00013839    0.00006246    0.00027689
     atom   94 type  4   force =    -0.00016305    0.00010783    0.00037786
     atom   95 type  4   force =    -0.00014907    0.00005268    0.00027670
     atom   96 type  4   force =    -0.00013570    0.00005935    0.00025540

     Total force =     0.007686     Total SCF correction =     0.000040
     Message from routine punch:
     Nothing written, as per user request (disk_io='none')

     init_run     :     41.51s CPU     43.84s WALL (       1 calls)
     electrons    :   2079.86s CPU   2181.12s WALL (       1 calls)
     forces       :     20.33s CPU     20.75s WALL (       1 calls)

     Called by init_run:
     wfcinit      :     37.50s CPU     39.62s WALL (       1 calls)
     potinit      :      1.15s CPU      1.19s WALL (       1 calls)
     hinit0       :      1.07s CPU      1.09s WALL (       1 calls)

     Called by electrons:
     c_bands      :   1833.33s CPU   1913.71s WALL (      21 calls)
     sum_band     :    219.70s CPU    237.26s WALL (      21 calls)
     v_of_rho     :      4.17s CPU      4.56s WALL (      22 calls)
     newd         :     17.36s CPU     20.29s WALL (      22 calls)
     PAW_pot      :      5.42s CPU      5.44s WALL (      22 calls)
     mix_rho      :      0.70s CPU      0.74s WALL (      21 calls)

     Called by c_bands:
     init_us_2    :     19.02s CPU     19.21s WALL (     308 calls)
     cegterg      :   1768.14s CPU   1848.03s WALL (     147 calls)

     Called by *egterg:
     cdiaghg      :     82.29s CPU     84.68s WALL (     891 calls)
     h_psi        :    977.86s CPU   1044.52s WALL (     898 calls)
     s_psi        :    224.68s CPU    227.05s WALL (     898 calls)
     g_psi        :      3.05s CPU      3.08s WALL (     744 calls)

     Called by h_psi:
     h_psi:calbec :    227.94s CPU    230.59s WALL (     898 calls)
     vloc_psi     :    521.38s CPU    582.03s WALL (     898 calls)
     add_vuspsi   :    225.00s CPU    226.71s WALL (     898 calls)

     General routines
     calbec       :    317.55s CPU    321.21s WALL (    1073 calls)
     fft          :      3.90s CPU      4.33s WALL (     295 calls)
     ffts         :      0.80s CPU      0.83s WALL (      43 calls)
     fftw         :    455.19s CPU    518.49s WALL (  420742 calls)
     interpolate  :      0.96s CPU      1.02s WALL (      22 calls)

     Parallel routines

     PWSCF        :  35m41.98s CPU  37m26.38s WALL


   This run was terminated on:   2:24:36  21Aug2026            

=------------------------------------------------------------------------------=
   JOB DONE.
=------------------------------------------------------------------------------=
