
     Program PWSCF v.7.3.1 starts on 21Aug2026 at  2:27: 6 

     This program is part of the open-source Quantum ESPRESSO suite
     for quantum simulation of materials; please cite
         "P. Giannozzi et al., J. Phys.:Condens. Matter 21 395502 (2009);
         "P. Giannozzi et al., J. Phys.:Condens. Matter 29 465901 (2017);
         "P. Giannozzi et al., J. Chem. Phys. 152 154105 (2020);
          URL http://www.quantum-espresso.org", 
     in publications or presentations arising from this work. More details at
     http://www.quantum-espresso.org/quote

     Parallel version (MPI & OpenMP), running on      32 processor cores
     Number of MPI processes:                32
     Threads/MPI process:                     1

     MPI processes distributed on     1 nodes
     64669 MiB available memory on the printing compute node when the environment starts

     Reading input from scf.in

     Current dimensions of program PWSCF are:
     Max number of different atomic species (ntypx) = 10
     Max number of k-points (npk) =  40000
     Max angular momentum in pseudopotentials (lmaxx) =  4
     file Cu.paw.z_11.ld1.psl.v1.0.0-low.upf: wavefunction(s)  4S 3D renormalized

     K-points division:     npool     =       2
     R & G space division:  proc/nbgrp/npool/nimage =      16
     Subspace diagonalization in iterative solution of the eigenvalue problem:
     one sub-group per band group will be used
     scalapack distributed-memory algorithm (size of sub-group:  4*  4 procs)


     Parallelization info
     --------------------
     sticks:   dense  smooth     PW     G-vecs:    dense   smooth      PW
     Min        1193     597    157               163743    57882    7779
     Max        1194     599    158               163747    57885    7784
     Sum       19099    9565   2515              2619931   926125  124485

     Using Slab Decomposition



     bravais-lattice index     =            0
     lattice parameter (alat)  =      24.0273  a.u.
     unit-cell volume          =   14752.0463 (a.u.)^3
     number of atoms/cell      =           96
     number of atomic types    =            4
     number of electrons       =       840.00
     number of Kohn-Sham states=          420
     kinetic-energy cutoff     =      60.0000  Ry
     charge density cutoff     =     480.0000  Ry
     scf convergence threshold =      1.0E-09
     mixing beta               =       0.3000
     number of iterations used =            8  plain     mixing
     Exchange-correlation=  SLA  PW   PBX  PBC
                           (   1   4   3   4   0   0   0)

     celldm(1)=  24.027274  celldm(2)=   0.000000  celldm(3)=   0.000000
     celldm(4)=   0.000000  celldm(5)=   0.000000  celldm(6)=   0.000000

     crystal axes: (cart. coord. in units of alat)
               a(1) = (   1.000000   0.000000   0.000000 )  
               a(2) = (  -0.500000   0.866025   0.000000 )  
               a(3) = (   0.000000   0.000000   1.228028 )  

     reciprocal axes: (cart. coord. in units 2 pi/alat)
               b(1) = (  1.000000  0.577351 -0.000000 )  
               b(2) = (  0.000000  1.154701  0.000000 )  
               b(3) = (  0.000000 -0.000000  0.814314 )  


     PseudoPot. # 1 for Sr read from file:
     /home/yuhansun/pseudos/SSSP-1.3.0-PBE-precision/Sr_pbe_v1.uspp.F.UPF
     MD5 check sum: 6b418c05fbe9db5448babca5e47b7a5b
     Pseudo is Ultrasoft + core correction, Zval = 10.0
     Generated by new atomic code, or converted to UPF format
     Using radial grid of  883 points,  6 beta functions with: 
                l(1) =   0
                l(2) =   0
                l(3) =   1
                l(4) =   1
                l(5) =   2
                l(6) =   2
     Q(r) pseudized with  6 coefficients,  rinner =    1.400   1.400   1.400
                                                       1.400   1.400

     PseudoPot. # 2 for Cu read from file:
     /home/yuhansun/pseudos/SSSP-1.3.0-PBE-precision/Cu.paw.z_11.ld1.psl.v1.0.0-low.upf
     MD5 check sum: 619f40885d92a09a85a8b37550532d0c
     Pseudo is Projector augmented-wave + core cor, Zval = 11.0
     Generated using &quot;atomic&quot; code by A. Dal Corso  v.6.3MaX
     Shape of augmentation charge: PSQ
     Using radial grid of 1199 points,  6 beta functions with: 
                l(1) =   0
                l(2) =   0
                l(3) =   1
                l(4) =   1
                l(5) =   2
                l(6) =   2
     Q(r) pseudized with 0 coefficients 


     PseudoPot. # 3 for Sn read from file:
     /home/yuhansun/pseudos/SSSP-1.3.0-PBE-precision/Sn_pbe_v1.uspp.F.UPF
     MD5 check sum: 4cf58ce39ec5d5d420df3dd08604eb00
     Pseudo is Ultrasoft + core correction, Zval = 14.0
     Generated by new atomic code, or converted to UPF format
     Using radial grid of  891 points,  6 beta functions with: 
                l(1) =   0
                l(2) =   0
                l(3) =   1
                l(4) =   1
                l(5) =   2
                l(6) =   2
     Q(r) pseudized with  6 coefficients,  rinner =    1.200   1.200   1.200
                                                       1.200   1.200

     PseudoPot. # 4 for S  read from file:
     /home/yuhansun/pseudos/SSSP-1.3.0-PBE-precision/s_pbe_v1.4.uspp.F.UPF
     MD5 check sum: 88d86576ff6df21479756cfb9bdac1df
     Pseudo is Ultrasoft + core correction, Zval =  6.0
     Generated by new atomic code, or converted to UPF format
     Using radial grid of  907 points,  6 beta functions with: 
                l(1) =   0
                l(2) =   0
                l(3) =   1
                l(4) =   1
                l(5) =   2
                l(6) =   2
     Q(r) pseudized with  8 coefficients,  rinner =    1.300   1.300   1.300
                                                       1.300   1.300

     atomic species   valence    mass     pseudopotential
     Sr               10.00    87.62000     Sr( 1.00)
     Cu               11.00    63.54600     Cu( 1.00)
     Sn               14.00   118.71000     Sn( 1.00)
     S                 6.00    32.06500     S ( 1.00)

     No symmetry found



   Cartesian axes

     site n.     atom                  positions (alat units)
         1        Sr     tau(   1) = (  -0.1405753   0.2434834   0.2046717  )
         2        Sr     tau(   2) = (   0.3594247   0.2434834   0.2046717  )
         3        Sr     tau(   3) = (  -0.3905753   0.6764960   0.2046717  )
         4        Sr     tau(   4) = (   0.1094247   0.6764960   0.2046717  )
         5        Sr     tau(   5) = (   0.1094247   0.1895292   0.6140139  )
         6        Sr     tau(   6) = (   0.6094247   0.1895292   0.6140139  )
         7        Sr     tau(   7) = (  -0.1405753   0.6225418   0.6140139  )
         8        Sr     tau(   8) = (   0.3594247   0.6225418   0.6140139  )
         9        Sr     tau(   9) = (   0.2811505   0.0000000   1.0233574  )
        10        Sr     tau(  10) = (   0.7811505   0.0000000   1.0233574  )
        11        Sr     tau(  11) = (   0.0311505   0.4330126   1.0233574  )
        12        Sr     tau(  12) = (   0.5311505   0.4330126   1.0233574  )
        13        Cu     tau(  13) = (  -0.1251759   0.2753211   0.5036775  )
        14        Cu     tau(  14) = (   0.3773212   0.2753211   0.5061747  )
        15        Cu     tau(  15) = (  -0.3726788   0.7083337   0.5061747  )
        16        Cu     tau(  16) = (   0.1273212   0.7083337   0.5061747  )
        17        Cu     tau(  17) = (   0.0729045   0.1891087   0.9155169  )
        18        Cu     tau(  18) = (   0.5729045   0.1891087   0.9155169  )
        19        Cu     tau(  19) = (  -0.1770956   0.6221213   0.9155169  )
        20        Cu     tau(  20) = (   0.3229044   0.6221213   0.9155169  )
        21        Cu     tau(  21) = (   0.0497750   0.4015949   0.0968325  )
        22        Cu     tau(  22) = (   0.5497750   0.4015949   0.0968325  )
        23        Cu     tau(  23) = (  -0.2002251   0.8346075   0.0968325  )
        24        Cu     tau(  24) = (   0.2997749   0.8346075   0.0968325  )
        25        Cu     tau(  25) = (   0.2997745   0.0314177   0.7218532  )
        26        Cu     tau(  26) = (   0.7997745   0.0314177   0.7218532  )
        27        Cu     tau(  27) = (   0.0497745   0.4644302   0.7218532  )
        28        Cu     tau(  28) = (   0.5497745   0.4644302   0.7218532  )
        29        Cu     tau(  29) = (   0.1273207   0.1576915   0.3125110  )
        30        Cu     tau(  30) = (   0.6273207   0.1576915   0.3125110  )
        31        Cu     tau(  31) = (  -0.1226793   0.5907041   0.3125110  )
        32        Cu     tau(  32) = (   0.3773207   0.5907041   0.3125110  )
        33        Cu     tau(  33) = (   0.3229040   0.2439039   1.1311954  )
        34        Cu     tau(  34) = (   0.8229040   0.2439039   1.1311954  )
        35        Cu     tau(  35) = (   0.0729039   0.6769164   1.1311954  )
        36        Cu     tau(  36) = (   0.5729039   0.6769164   1.1311954  )
        37        Sn     tau(  37) = (  -0.1762580   0.3052877   0.8186857  )
        38        Sn     tau(  38) = (   0.3237420   0.3052877   0.8186857  )
        39        Sn     tau(  39) = (  -0.4262581   0.7383003   0.8186857  )
        40        Sn     tau(  40) = (   0.0737419   0.7383003   0.8186857  )
        41        Sn     tau(  41) = (   0.0737420   0.1277249   0.0000000  )
        42        Sn     tau(  42) = (   0.5737420   0.1277249   0.0000000  )
        43        Sn     tau(  43) = (  -0.1762581   0.5607374   0.0000000  )
        44        Sn     tau(  44) = (   0.3237419   0.5607374   0.0000000  )
        45        Sn     tau(  45) = (   0.3525160   0.0000000   0.4093422  )
        46        Sn     tau(  46) = (   0.8525160   0.0000000   0.4093422  )
        47        Sn     tau(  47) = (   0.1025160   0.4330126   0.4093422  )
        48        Sn     tau(  48) = (   0.6025160   0.4330126   0.4093422  )
        49        S      tau(  49) = (  -0.0988203   0.2103164   0.9671149  )
        50        S      tau(  50) = (   0.4011797   0.2103164   0.9671149  )
        51        S      tau(  51) = (  -0.3488203   0.6433290   0.9671149  )
        52        S      tau(  52) = (   0.1511797   0.6433290   0.9671149  )
        53        S      tau(  53) = (   0.1172707   0.2422736   0.1484293  )
        54        S      tau(  54) = (   0.6172707   0.2422736   0.1484293  )
        55        S      tau(  55) = (  -0.1327293   0.6752862   0.1484293  )
        56        S      tau(  56) = (   0.3672707   0.6752862   0.1484293  )
        57        S      tau(  57) = (  -0.0184505   0.4134352   0.5577727  )
        58        S      tau(  58) = (   0.4815495   0.4134352   0.5577727  )
        59        S      tau(  59) = (  -0.2684506   0.8464478   0.5577727  )
        60        S      tau(  60) = (   0.2315494   0.8464478   0.5577727  )
        61        S      tau(  61) = (   0.2315495   0.0195774   0.2609129  )
        62        S      tau(  62) = (   0.7315495   0.0195774   0.2609129  )
        63        S      tau(  63) = (  -0.0184505   0.4525899   0.2609129  )
        64        S      tau(  64) = (   0.4815495   0.4525899   0.2609129  )
        65        S      tau(  65) = (   0.1511797   0.2226962   1.0795986  )
        66        S      tau(  66) = (   0.6511797   0.2226962   1.0795986  )
        67        S      tau(  67) = (  -0.0988203   0.6557088   1.0795986  )
        68        S      tau(  68) = (   0.4011797   0.6557088   1.0795986  )
        69        S      tau(  69) = (   0.3672707   0.1907390   0.6702552  )
        70        S      tau(  70) = (   0.8672707   0.1907390   0.6702552  )
        71        S      tau(  71) = (   0.1172707   0.6237516   0.6702552  )
        72        S      tau(  72) = (   0.6172707   0.6237516   0.6702552  )
        73        S      tau(  73) = (  -0.0296498   0.1532012   0.4035914  )
        74        S      tau(  74) = (   0.4703502   0.1532012   0.4035914  )
        75        S      tau(  75) = (  -0.2796498   0.5862137   0.4035914  )
        76        S      tau(  76) = (   0.2203502   0.5862137   0.4035914  )
        77        S      tau(  77) = (   0.1321490   0.3307341   0.8129336  )
        78        S      tau(  78) = (   0.6321490   0.3307341   0.8129336  )
        79        S      tau(  79) = (  -0.1178511   0.7637467   0.8129336  )
        80        S      tau(  80) = (   0.3821489   0.7637467   0.8129336  )
        81        S      tau(  81) = (  -0.1024985   0.3820894   1.2222770  )
        82        S      tau(  82) = (   0.3975015   0.3820894   1.2222770  )
        83        S      tau(  83) = (  -0.3524986   0.8151020   1.2222770  )
        84        S      tau(  84) = (   0.1475014   0.8151020   1.2222770  )
        85        S      tau(  85) = (   0.1475010   0.0509231   0.8244365  )
        86        S      tau(  86) = (   0.6475010   0.0509231   0.8244365  )
        87        S      tau(  87) = (  -0.1024990   0.4839357   0.8244365  )
        88        S      tau(  88) = (   0.3975010   0.4839357   0.8244365  )
        89        S      tau(  89) = (   0.2203497   0.2798114   0.4150943  )
        90        S      tau(  90) = (   0.7203497   0.2798114   0.4150943  )
        91        S      tau(  91) = (  -0.0296503   0.7128240   0.4150943  )
        92        S      tau(  92) = (   0.4703497   0.7128240   0.4150943  )
        93        S      tau(  93) = (   0.3821485   0.1022784   0.0057509  )
        94        S      tau(  94) = (   0.8821485   0.1022784   0.0057509  )
        95        S      tau(  95) = (   0.1321485   0.5352910   0.0057509  )
        96        S      tau(  96) = (   0.6321485   0.5352910   0.0057509  )

     number of k points=    14
                       cart. coord. in units 2pi/alat
        k(    1) = (   0.0000000   0.0000000   0.0000000), wk =   0.0740741
        k(    2) = (   0.0000000   0.0000000   0.2714379), wk =   0.1481481
        k(    3) = (   0.0000000   0.3849003   0.0000000), wk =   0.1481481
        k(    4) = (   0.0000000   0.3849003   0.2714379), wk =   0.1481481
        k(    5) = (   0.3333333   0.5773505   0.0000000), wk =   0.1481481
        k(    6) = (   0.3333333   0.5773505   0.2714379), wk =   0.1481481
        k(    7) = (  -0.3333333   0.1924501   0.0000000), wk =   0.1481481
        k(    8) = (   0.3333333   0.1924502   0.0000000), wk =   0.1481481
        k(    9) = (   0.0000000  -0.3849003   0.2714379), wk =   0.1481481
        k(   10) = (  -0.3333333   0.1924501   0.2714379), wk =   0.1481481
        k(   11) = (   0.3333333   0.1924502   0.2714379), wk =   0.1481481
        k(   12) = (  -0.3333333  -0.1924502   0.2714379), wk =   0.1481481
        k(   13) = (   0.3333333  -0.1924501   0.2714379), wk =   0.1481481
        k(   14) = (  -0.3333333  -0.5773505   0.2714379), wk =   0.1481481

     Dense  grid:  2619931 G-vectors     FFT dimensions: ( 180, 180, 216)

     Smooth grid:   926125 G-vectors     FFT dimensions: ( 120, 120, 150)

     Estimated max dynamical RAM per process >       1.07 GB

     Estimated total dynamical RAM >      33.54 GB

     Initial potential from superposition of free atoms

     starting charge     827.5884, renormalised to     840.0000

     negative rho (up, down):  7.777E-01 0.000E+00
     Starting wfcs are  672 randomized atomic wfcs
     Checking if some PAW data can be deallocated... 

     total cpu time spent up to now is       53.0 secs

     Self-consistent Calculation

     iteration #  1     ecut=    60.00 Ry     beta= 0.30
     Davidson diagonalization with overlap
     ethr =  1.00E-02,  avg # of iterations =  2.0

     negative rho (up, down):  7.747E-01 0.000E+00

     total cpu time spent up to now is      144.0 secs

     total energy              =   -9070.28962299 Ry
     estimated scf accuracy    <      21.98244265 Ry

     iteration #  2     ecut=    60.00 Ry     beta= 0.30
     Davidson diagonalization with overlap
     ethr =  2.62E-03,  avg # of iterations =  4.8

     negative rho (up, down):  7.752E-01 0.000E+00

     total cpu time spent up to now is      255.8 secs

     total energy              =   -9076.61401307 Ry
     estimated scf accuracy    <       8.22912450 Ry

     iteration #  3     ecut=    60.00 Ry     beta= 0.30
     Davidson diagonalization with overlap
     ethr =  9.80E-04,  avg # of iterations =  2.0

     negative rho (up, down):  7.804E-01 0.000E+00

     total cpu time spent up to now is      341.6 secs

     total energy              =   -9076.48898753 Ry
     estimated scf accuracy    <       1.62336196 Ry

     iteration #  4     ecut=    60.00 Ry     beta= 0.30
     Davidson diagonalization with overlap
     ethr =  1.93E-04,  avg # of iterations =  6.1

     negative rho (up, down):  7.829E-01 0.000E+00

     total cpu time spent up to now is      456.7 secs

     total energy              =   -9076.70170051 Ry
     estimated scf accuracy    <       2.07455379 Ry

     iteration #  5     ecut=    60.00 Ry     beta= 0.30
     Davidson diagonalization with overlap
     ethr =  1.93E-04,  avg # of iterations =  5.1

     negative rho (up, down):  7.883E-01 0.000E+00

     total cpu time spent up to now is      552.8 secs

     total energy              =   -9077.13584444 Ry
     estimated scf accuracy    <       0.14295659 Ry

     iteration #  6     ecut=    60.00 Ry     beta= 0.30
     Davidson diagonalization with overlap
     ethr =  1.70E-05,  avg # of iterations =  6.1

     negative rho (up, down):  7.902E-01 0.000E+00

     total cpu time spent up to now is      654.2 secs

     total energy              =   -9077.18245801 Ry
     estimated scf accuracy    <       0.01361793 Ry

     iteration #  7     ecut=    60.00 Ry     beta= 0.30
     Davidson diagonalization with overlap
     c_bands:  1 eigenvalues not converged
     ethr =  1.62E-06,  avg # of iterations =  6.2

     negative rho (up, down):  7.907E-01 0.000E+00

     total cpu time spent up to now is      766.0 secs

     total energy              =   -9077.18844979 Ry
     estimated scf accuracy    <       0.00599533 Ry

     iteration #  8     ecut=    60.00 Ry     beta= 0.30
     Davidson diagonalization with overlap
     ethr =  7.14E-07,  avg # of iterations =  6.8

     negative rho (up, down):  7.911E-01 0.000E+00

     total cpu time spent up to now is      891.7 secs

     total energy              =   -9077.18004423 Ry
     estimated scf accuracy    <       0.04638139 Ry

     iteration #  9     ecut=    60.00 Ry     beta= 0.30
     Davidson diagonalization with overlap
     ethr =  7.14E-07,  avg # of iterations =  7.6

     negative rho (up, down):  7.911E-01 0.000E+00

     total cpu time spent up to now is     1021.9 secs

     total energy              =   -9077.18755010 Ry
     estimated scf accuracy    <       0.00146429 Ry

     iteration # 10     ecut=    60.00 Ry     beta= 0.30
     Davidson diagonalization with overlap
     ethr =  1.74E-07,  avg # of iterations =  3.1

     negative rho (up, down):  7.908E-01 0.000E+00

     total cpu time spent up to now is     1104.1 secs

     total energy              =   -9077.18729214 Ry
     estimated scf accuracy    <       0.00091610 Ry

     iteration # 11     ecut=    60.00 Ry     beta= 0.30
     Davidson diagonalization with overlap
     ethr =  1.09E-07,  avg # of iterations =  5.7

     negative rho (up, down):  7.906E-01 0.000E+00

     total cpu time spent up to now is     1204.9 secs

     total energy              =   -9077.18747395 Ry
     estimated scf accuracy    <       0.00017019 Ry

     iteration # 12     ecut=    60.00 Ry     beta= 0.30
     Davidson diagonalization with overlap
     ethr =  2.03E-08,  avg # of iterations =  5.0

     negative rho (up, down):  7.904E-01 0.000E+00

     total cpu time spent up to now is     1320.2 secs

     total energy              =   -9077.18750064 Ry
     estimated scf accuracy    <       0.00020576 Ry

     iteration # 13     ecut=    60.00 Ry     beta= 0.30
     Davidson diagonalization with overlap
     ethr =  2.03E-08,  avg # of iterations =  2.0

     negative rho (up, down):  7.903E-01 0.000E+00

     total cpu time spent up to now is     1409.7 secs

     total energy              =   -9077.18751707 Ry
     estimated scf accuracy    <       0.00002311 Ry

     iteration # 14     ecut=    60.00 Ry     beta= 0.30
     Davidson diagonalization with overlap
     ethr =  2.75E-09,  avg # of iterations =  6.6

     negative rho (up, down):  7.903E-01 0.000E+00

     total cpu time spent up to now is     1531.1 secs

     total energy              =   -9077.18752529 Ry
     estimated scf accuracy    <       0.00000321 Ry

     iteration # 15     ecut=    60.00 Ry     beta= 0.30
     Davidson diagonalization with overlap
     ethr =  3.82E-10,  avg # of iterations =  5.6

     negative rho (up, down):  7.902E-01 0.000E+00

     total cpu time spent up to now is     1628.4 secs

     total energy              =   -9077.18752613 Ry
     estimated scf accuracy    <       0.00000033 Ry

     iteration # 16     ecut=    60.00 Ry     beta= 0.30
     Davidson diagonalization with overlap
     ethr =  3.93E-11,  avg # of iterations =  8.2

     negative rho (up, down):  7.902E-01 0.000E+00

     total cpu time spent up to now is     1778.2 secs

     total energy              =   -9077.18752623 Ry
     estimated scf accuracy    <       0.00000230 Ry

     iteration # 17     ecut=    60.00 Ry     beta= 0.30
     Davidson diagonalization with overlap
     ethr =  3.93E-11,  avg # of iterations =  6.1

     negative rho (up, down):  7.902E-01 0.000E+00

     total cpu time spent up to now is     1880.2 secs

     total energy              =   -9077.18752638 Ry
     estimated scf accuracy    <       0.00000020 Ry

     iteration # 18     ecut=    60.00 Ry     beta= 0.30
     Davidson diagonalization with overlap
     ethr =  2.38E-11,  avg # of iterations =  6.6

     negative rho (up, down):  7.902E-01 0.000E+00

     total cpu time spent up to now is     1982.1 secs

     total energy              =   -9077.18752646 Ry
     estimated scf accuracy    <       0.00000005 Ry

     iteration # 19     ecut=    60.00 Ry     beta= 0.30
     Davidson diagonalization with overlap
     ethr =  5.93E-12,  avg # of iterations =  5.9

     negative rho (up, down):  7.902E-01 0.000E+00

     total cpu time spent up to now is     2062.3 secs

     total energy              =   -9077.18752647 Ry
     estimated scf accuracy    <       0.00000003 Ry

     iteration # 20     ecut=    60.00 Ry     beta= 0.30
     Davidson diagonalization with overlap
     ethr =  4.03E-12,  avg # of iterations =  2.0

     negative rho (up, down):  7.902E-01 0.000E+00

     total cpu time spent up to now is     2137.2 secs

     total energy              =   -9077.18752647 Ry
     estimated scf accuracy    <       0.00000002 Ry

     iteration # 21     ecut=    60.00 Ry     beta= 0.30
     Davidson diagonalization with overlap
     ethr =  2.12E-12,  avg # of iterations =  5.3

     negative rho (up, down):  7.902E-01 0.000E+00

     total cpu time spent up to now is     2230.1 secs

     total energy              =   -9077.18752647 Ry
     estimated scf accuracy    <          1.5E-09 Ry

     iteration # 22     ecut=    60.00 Ry     beta= 0.30
     Davidson diagonalization with overlap
     ethr =  1.84E-13,  avg # of iterations =  7.3

     negative rho (up, down):  7.902E-01 0.000E+00

     total cpu time spent up to now is     2362.9 secs

     End of self-consistent calculation

          k = 0.0000 0.0000 0.0000 (115723 PWs)   bands (ev):

   -28.2776 -28.2762 -28.2761 -28.2760 -28.2760 -28.2753 -28.2752 -28.2751
   -28.2750 -28.2749 -28.2747 -28.2736 -14.9245 -14.9239 -14.9233 -14.9233
   -14.9231 -14.9228 -14.9227 -14.9224 -14.9220 -14.9217 -14.9214 -14.9201
   -14.9185 -14.9179 -14.9174 -14.9172 -14.9171 -14.9169 -14.9169 -14.9166
   -14.9161 -14.9159 -14.9156 -14.9141 -14.9065 -14.9059 -14.9053 -14.9052
   -14.9052 -14.9048 -14.9048 -14.9046 -14.9040 -14.9038 -14.9035 -14.9021
   -14.8663 -14.8657 -14.8651 -14.8651 -14.8650 -14.8647 -14.8646 -14.8645
   -14.8638 -14.8636 -14.8633 -14.8620 -14.8211 -14.8205 -14.8200 -14.8198
   -14.8197 -14.8195 -14.8194 -14.8193 -14.8186 -14.8184 -14.8181 -14.8167
   -10.3392 -10.3384 -10.3381 -10.3372 -10.3365 -10.3361 -10.3355 -10.3353
   -10.3349 -10.3313 -10.3303 -10.3242 -10.3098 -10.3089 -10.3086 -10.3049
   -10.3038 -10.3018 -10.3013 -10.3010 -10.2928 -10.2924 -10.2919 -10.2822
   -10.2715 -10.2703 -10.2700 -10.2656 -10.2650 -10.2644 -10.2627 -10.2625
   -10.2621 -10.2589 -10.2576 -10.2542  -6.8630  -6.5568  -6.5536  -6.4183
    -6.4166  -6.4136  -6.3009  -6.2995  -6.2980  -6.2193  -6.2173  -6.2157
    -5.9953  -5.9892  -5.9885  -5.8522  -5.8497  -5.8487  -5.7988  -5.7948
    -5.7942  -5.7379  -5.7334  -5.6214  -5.6183  -5.6165  -5.6153  -5.6126
    -5.6120  -5.5995  -5.5613  -5.5588  -5.5564  -5.5484  -5.5443  -5.5433
    -5.5174  -5.5131  -5.4338  -5.4290  -5.4265  -5.4251  -5.3764  -5.3720
    -5.3457  -5.3446  -5.3390  -5.2491  -0.6141  -0.6114  -0.6096  -0.3909
    -0.3888  -0.3868  -0.3509  -0.3171  -0.3156  -0.3138  -0.3019  -0.2995
     1.3836   1.3848   1.3865   1.5878   1.5930   1.6543   1.7130   1.7172
     1.7184   1.8038   1.8067   1.8081   2.0207   2.0397   2.0442   2.0830
     2.0860   2.0874   2.2470   2.2502   2.2514   2.3093   2.3111   2.4022
     2.4053   2.4090   2.4603   2.4621   2.4633   2.5491   2.5518   2.6563
     2.6639   2.6644   2.7825   2.7843   2.7854   2.8698   2.8727   2.9225
     2.9250   2.9279   2.9521   2.9534   2.9547   3.0263   3.0281   3.0294
     3.0416   3.0462   3.0482   3.1615   3.2094   3.2150   3.2168   3.2252
     3.2293   3.2544   3.2579   3.2589   3.3741   3.3787   3.3797   3.3935
     3.3947   3.4263   3.4290   3.4296   3.4355   3.4362   3.4394   3.4755
     3.4767   3.4813   3.4941   3.4946   3.4956   3.5008   3.5169   3.5248
     3.5837   3.5858   3.5877   3.6248   3.6284   3.6289   3.6877   3.6891
     3.6902   3.6915   3.6920   3.7069   3.7953   3.7982   3.8242   3.8263
     3.8272   3.9641   4.0182   4.0208   4.0219   4.0354   4.0365   4.0400
     4.1211   4.1260   4.1264   4.1280   4.1706   4.1743   4.1757   4.2004
     4.2067   4.2101   4.2115   4.2445   4.2466   4.2483   4.2800   4.2826
     4.4215   4.4249   4.4266   4.5170   4.5185   4.5215   4.5353   4.5396
     4.6195   4.6210   4.6239   4.8569   5.1244   5.1542   5.1553   5.1569
     5.1740   5.1745   5.1754   5.1776   5.1795   5.2227   5.2268   5.2282
     5.2285   5.2296   5.2303   5.2516   5.2524   5.2534   5.2652   5.2675
     5.2677   5.2781   5.2790   5.2798   5.3108   5.3114   5.3118   5.3134
     5.3152   5.3249   5.3373   5.3375   5.3389   5.3748   5.3760   5.3768
     5.4392   5.4399   5.4697   5.4719   5.4723   5.4747   5.4767   5.4775
     5.4784   5.4976   5.4992   5.6007   5.6017   5.6029   5.6180   5.6187
     5.6197   5.6271   5.6470   5.6478   5.6493   5.6589   5.6600   5.6606
     5.7249   5.7255   5.7445   5.7817   5.7832   5.7859   5.8201   5.8220
     5.8238   5.9014   5.9025   5.9047   5.9261   5.9271   5.9281   5.9957
     5.9965   6.0262   6.0263   6.0285   6.1484   6.1505   6.1517   6.1525
     6.2605   6.2620   6.2626   6.2632   6.2643   6.2650   6.2905   6.2919
     6.3333   6.3350   6.3363   6.3626   6.3639   6.3655   6.3886   6.3904
     6.3912   6.5525   6.5711   6.5719   6.5730   6.6376   6.6386   6.6395
     6.7460   6.7473   6.7477   6.7647   6.7652   6.7797   6.7804   6.7832
     6.8082   6.9641   7.1801   7.1809

          k = 0.0000 0.0000 0.2714 (115879 PWs)   bands (ev):

   -28.2776 -28.2762 -28.2761 -28.2760 -28.2760 -28.2753 -28.2752 -28.2751
   -28.2750 -28.2749 -28.2747 -28.2736 -14.9245 -14.9239 -14.9233 -14.9233
   -14.9231 -14.9228 -14.9227 -14.9224 -14.9220 -14.9217 -14.9214 -14.9201
   -14.9185 -14.9179 -14.9174 -14.9172 -14.9171 -14.9169 -14.9169 -14.9166
   -14.9161 -14.9159 -14.9156 -14.9141 -14.9065 -14.9059 -14.9053 -14.9052
   -14.9052 -14.9048 -14.9048 -14.9046 -14.9040 -14.9038 -14.9035 -14.9021
   -14.8663 -14.8657 -14.8651 -14.8651 -14.8650 -14.8647 -14.8646 -14.8645
   -14.8638 -14.8636 -14.8633 -14.8620 -14.8211 -14.8205 -14.8200 -14.8198
   -14.8197 -14.8195 -14.8194 -14.8193 -14.8186 -14.8184 -14.8181 -14.8167
   -10.3400 -10.3394 -10.3389 -10.3380 -10.3370 -10.3366 -10.3343 -10.3338
   -10.3335 -10.3324 -10.3280 -10.3252 -10.3124 -10.3085 -10.3072 -10.3070
   -10.3024 -10.3018 -10.3015 -10.2941 -10.2937 -10.2933 -10.2927 -10.2847
   -10.2710 -10.2697 -10.2694 -10.2662 -10.2657 -10.2651 -10.2623 -10.2620
   -10.2616 -10.2586 -10.2573 -10.2556  -6.8238  -6.7133  -6.4116  -6.4086
    -6.4073  -6.4054  -6.3057  -6.3040  -6.3026  -6.2312  -6.2301  -6.2275
    -5.9972  -5.9914  -5.9905  -5.8517  -5.8379  -5.8351  -5.8340  -5.7751
    -5.7721  -5.7713  -5.6561  -5.6550  -5.6537  -5.6491  -5.6184  -5.6118
    -5.6112  -5.6106  -5.5569  -5.5551  -5.5518  -5.5506  -5.5456  -5.5442
    -5.5431  -5.4537  -5.4358  -5.4344  -5.4318  -5.4306  -5.3769  -5.3463
    -5.3379  -5.3364  -5.3309  -5.2797  -0.6063  -0.6036  -0.6015  -0.4141
    -0.4122  -0.4106  -0.3483  -0.3325  -0.3017  -0.3006  -0.2996  -0.2739
     1.4077   1.4095   1.4107   1.5685   1.6111   1.6172   1.6192   1.6200
     1.6560   1.9327   1.9363   1.9371   2.0056   2.0471   2.0513   2.0544
     2.0554   2.0696   2.2757   2.2790   2.2800   2.3058   2.3889   2.3901
     2.3911   2.3933   2.4148   2.4175   2.4209   2.4561   2.6154   2.6226
     2.6238   2.6670   2.7183   2.7923   2.7979   2.7987   2.7994   2.8707
     2.8721   2.8745   2.9728   2.9763   2.9778   3.0416   3.0462   3.0484
     3.1019   3.1070   3.1077   3.1729   3.1970   3.2046   3.2052   3.2069
     3.2715   3.2743   3.2759   3.2843   3.3749   3.3822   3.3852   3.3866
     3.4190   3.4207   3.4234   3.4379   3.4401   3.4425   3.4489   3.4499
     3.4542   3.4790   3.5013   3.5185   3.5190   3.5243   3.5395   3.5430
     3.5504   3.5508   3.5547   3.6398   3.6431   3.6457   3.6469   3.6521
     3.6798   3.6808   3.6824   3.7742   3.8305   3.8750   3.8766   3.8786
     3.9082   3.9227   3.9920   3.9952   3.9962   4.0546   4.0563   4.0591
     4.0750   4.1140   4.1178   4.1190   4.1465   4.1496   4.1508   4.1642
     4.1718   4.1737   4.1758   4.2122   4.2489   4.2517   4.2542   4.2688
     4.4182   4.4221   4.4240   4.4850   4.5581   4.5603   4.5629   4.6050
     4.6058   4.6094   4.6773   4.8072   5.1357   5.1479   5.1537   5.1545
     5.1554   5.1641   5.1864   5.1871   5.1887   5.2159   5.2169   5.2173
     5.2180   5.2475   5.2487   5.2496   5.2592   5.2597   5.2601   5.2619
     5.2759   5.2770   5.2779   5.2789   5.3287   5.3295   5.3310   5.3320
     5.3345   5.3359   5.3414   5.3425   5.3432   5.3667   5.3737   5.3750
     5.3756   5.3897   5.4032   5.4204   5.4209   5.4213   5.5258   5.5319
     5.5333   5.5341   5.5819   5.5879   5.5891   5.5892   5.5902   5.6190
     5.6208   5.6214   5.6519   5.6529   5.6529   5.6606   5.6813   5.6822
     5.6836   5.7539   5.7558   5.7581   5.7906   5.7988   5.8161   5.8183
     5.8197   5.8707   5.8816   5.8831   5.8846   5.9874   5.9887   5.9899
     6.0423   6.0430   6.0448   6.0976   6.0988   6.0992   6.1747   6.1908
     6.1920   6.1942   6.2355   6.2680   6.2688   6.2703   6.3251   6.3264
     6.3270   6.3601   6.3608   6.3702   6.3714   6.3728   6.3953   6.4288
     6.4297   6.4314   6.4801   6.6410   6.6419   6.6426   6.6433   6.6442
     6.6454   6.6703   6.7071   6.7084   6.7099   6.7514   6.7526   6.7543
     6.9412   7.0051   7.0944   7.1699

          k = 0.0000 0.3849 0.0000 (115797 PWs)   bands (ev):

   -28.2776 -28.2762 -28.2761 -28.2760 -28.2760 -28.2753 -28.2752 -28.2750
   -28.2750 -28.2749 -28.2747 -28.2736 -14.9244 -14.9238 -14.9233 -14.9232
   -14.9232 -14.9228 -14.9227 -14.9225 -14.9219 -14.9218 -14.9214 -14.9201
   -14.9185 -14.9179 -14.9174 -14.9172 -14.9171 -14.9169 -14.9168 -14.9167
   -14.9161 -14.9159 -14.9156 -14.9141 -14.9065 -14.9058 -14.9053 -14.9052
   -14.9052 -14.9049 -14.9048 -14.9046 -14.9040 -14.9038 -14.9035 -14.9021
   -14.8663 -14.8657 -14.8651 -14.8651 -14.8650 -14.8647 -14.8646 -14.8645
   -14.8638 -14.8636 -14.8633 -14.8620 -14.8211 -14.8205 -14.8199 -14.8198
   -14.8197 -14.8195 -14.8194 -14.8193 -14.8186 -14.8184 -14.8182 -14.8167
   -10.3387 -10.3381 -10.3370 -10.3367 -10.3362 -10.3353 -10.3342 -10.3340
   -10.3330 -10.3322 -10.3316 -10.3265 -10.3079 -10.3071 -10.3063 -10.3046
   -10.3029 -10.3021 -10.3018 -10.3013 -10.2947 -10.2941 -10.2907 -10.2852
   -10.2704 -10.2693 -10.2687 -10.2673 -10.2662 -10.2640 -10.2626 -10.2623
   -10.2621 -10.2605 -10.2600 -10.2562  -6.7877  -6.5895  -6.4999  -6.4980
    -6.4393  -6.4362  -6.3644  -6.3503  -6.2852  -6.2836  -6.2487  -6.2473
    -5.9113  -5.9095  -5.8236  -5.8183  -5.8175  -5.7778  -5.7714  -5.7673
    -5.7306  -5.7237  -5.7201  -5.6932  -5.6888  -5.6470  -5.6388  -5.6375
    -5.6287  -5.5948  -5.5838  -5.5831  -5.5676  -5.5285  -5.5209  -5.5173
    -5.5144  -5.5043  -5.4618  -5.4506  -5.4363  -5.4333  -5.4249  -5.4145
    -5.3477  -5.3436  -5.3115  -5.2685  -0.5710  -0.5697  -0.5639  -0.4368
    -0.4039  -0.4022  -0.3766  -0.3412  -0.3385  -0.3356  -0.3113  -0.3020
     1.4192   1.4856   1.4885   1.5021   1.6401   1.6528   1.6844   1.7220
     1.7264   1.8295   1.8766   1.8789   1.9519   1.9560   1.9568   2.0270
     2.1166   2.2056   2.2295   2.2307   2.3399   2.3643   2.3824   2.3872
     2.3954   2.4088   2.4506   2.5379   2.5404   2.6097   2.6134   2.6171
     2.6587   2.7351   2.8113   2.8140   2.8212   2.8403   2.8430   2.8444
     2.8538   2.8864   2.9085   2.9092   2.9160   2.9619   2.9639   3.0039
     3.0518   3.0561   3.0582   3.1229   3.1442   3.1757   3.2044   3.2112
     3.2141   3.2312   3.2593   3.2620   3.2698   3.3252   3.3289   3.3319
     3.3407   3.3726   3.3957   3.3962   3.4344   3.4407   3.4436   3.4504
     3.4976   3.4985   3.5018   3.5112   3.5139   3.5162   3.5278   3.5437
     3.5627   3.6049   3.6067   3.6104   3.6354   3.6461   3.6801   3.6810
     3.6958   3.7023   3.7032   3.7104   3.7781   3.7805   3.8503   3.8614
     3.8969   3.9746   3.9757   3.9776   3.9814   4.0316   4.0355   4.0406
     4.0913   4.1118   4.1185   4.1207   4.1269   4.1627   4.1638   4.1771
     4.2474   4.2647   4.2689   4.2816   4.3043   4.3227   4.3257   4.3704
     4.3799   4.4138   4.4176   4.4855   4.5184   4.5275   4.5295   4.5334
     4.5910   4.5937   4.6251   4.7483   5.1439   5.1450   5.1462   5.1534
     5.1601   5.1620   5.1694   5.1753   5.2156   5.2191   5.2209   5.2220
     5.2278   5.2373   5.2487   5.2498   5.2503   5.2614   5.2682   5.2718
     5.2732   5.2892   5.3038   5.3049   5.3142   5.3185   5.3273   5.3289
     5.3375   5.3499   5.3521   5.3541   5.3571   5.3657   5.4139   5.4149
     5.4343   5.4503   5.4606   5.4614   5.4864   5.4930   5.5001   5.5009
     5.5027   5.5129   5.5281   5.5441   5.5571   5.5580   5.5612   5.6032
     5.6048   5.6304   5.6322   5.6331   5.6683   5.6785   5.6953   5.6966
     5.6984   5.7173   5.7296   5.7557   5.7752   5.7760   5.8088   5.8176
     5.8201   5.8641   5.8742   5.8788   5.9510   5.9517   5.9633   5.9666
     5.9899   6.0056   6.0077   6.0202   6.1383   6.1402   6.1441   6.1606
     6.2261   6.2298   6.2307   6.2521   6.2705   6.2893   6.2904   6.2998
     6.3615   6.3624   6.3781   6.3891   6.3909   6.4408   6.4854   6.4875
     6.5243   6.5374   6.5381   6.5758   6.6051   6.6516   6.6846   6.6924
     6.6930   6.7296   6.7365   6.7376   6.7629   6.7780   6.7924   6.8118
     6.8121   6.9048   6.9089   7.0810

          k = 0.0000 0.3849 0.2714 (115773 PWs)   bands (ev):

   -28.2776 -28.2762 -28.2761 -28.2760 -28.2760 -28.2753 -28.2752 -28.2750
   -28.2750 -28.2749 -28.2747 -28.2736 -14.9244 -14.9238 -14.9233 -14.9232
   -14.9232 -14.9228 -14.9227 -14.9225 -14.9219 -14.9218 -14.9214 -14.9201
   -14.9185 -14.9179 -14.9174 -14.9172 -14.9171 -14.9169 -14.9168 -14.9167
   -14.9161 -14.9159 -14.9156 -14.9141 -14.9065 -14.9058 -14.9053 -14.9052
   -14.9052 -14.9049 -14.9048 -14.9046 -14.9040 -14.9038 -14.9035 -14.9021
   -14.8663 -14.8657 -14.8651 -14.8651 -14.8650 -14.8647 -14.8646 -14.8645
   -14.8638 -14.8636 -14.8633 -14.8620 -14.8211 -14.8205 -14.8199 -14.8198
   -14.8197 -14.8195 -14.8194 -14.8193 -14.8186 -14.8184 -14.8182 -14.8167
   -10.3393 -10.3387 -10.3381 -10.3375 -10.3368 -10.3343 -10.3337 -10.3330
   -10.3328 -10.3321 -10.3299 -10.3273 -10.3106 -10.3073 -10.3065 -10.3060
   -10.3015 -10.3007 -10.3006 -10.2964 -10.2959 -10.2940 -10.2913 -10.2876
   -10.2704 -10.2694 -10.2677 -10.2674 -10.2663 -10.2644 -10.2624 -10.2620
   -10.2618 -10.2606 -10.2596 -10.2576  -6.7507  -6.6467  -6.5600  -6.4722
    -6.4239  -6.4204  -6.3647  -6.3286  -6.3272  -6.2595  -6.2251  -6.2233
    -5.9060  -5.9038  -5.8265  -5.8191  -5.8082  -5.8074  -5.7911  -5.7636
    -5.7592  -5.7303  -5.7110  -5.7089  -5.6709  -5.6358  -5.6302  -5.6278
    -5.6265  -5.6080  -5.5994  -5.5983  -5.5697  -5.5307  -5.5236  -5.5206
    -5.5197  -5.4976  -5.4672  -5.4324  -5.4285  -5.4256  -5.4202  -5.3647
    -5.3474  -5.3425  -5.3208  -5.2976  -0.5618  -0.5586  -0.5567  -0.4372
    -0.4350  -0.4261  -0.3928  -0.3724  -0.3197  -0.3191  -0.2982  -0.2782
     1.4343   1.4836   1.4860   1.4885   1.6251   1.6410   1.7699   1.7760
     1.7798   1.7909   1.7999   1.8008   1.9154   1.9963   1.9969   2.0755
     2.1561   2.2013   2.2096   2.2458   2.2493   2.3608   2.3913   2.3956
     2.3991   2.4488   2.5116   2.5146   2.5474   2.5859   2.5921   2.6097
     2.6429   2.7094   2.7588   2.7675   2.7703   2.7893   2.8093   2.8102
     2.8390   2.8765   2.9159   2.9164   2.9187   2.9808   3.0231   3.0263
     3.0681   3.1065   3.1081   3.1287   3.1716   3.1901   3.1933   3.1946
     3.2039   3.2317   3.2634   3.2647   3.2760   3.3181   3.3207   3.3234
     3.3251   3.3894   3.3905   3.4117   3.4452   3.4472   3.4684   3.4692
     3.4723   3.4756   3.4765   3.4822   3.5339   3.5368   3.5418   3.5903
     3.6108   3.6132   3.6155   3.6337   3.6432   3.6471   3.6597   3.6608
     3.6697   3.7105   3.7115   3.7151   3.8341   3.8373   3.8813   3.8902
     3.9049   3.9493   3.9501   3.9754   3.9813   4.0210   4.0441   4.0488
     4.0509   4.0665   4.1095   4.1109   4.1199   4.1320   4.1336   4.1476
     4.1906   4.2563   4.2666   4.2699   4.2867   4.2903   4.2944   4.3882
     4.4000   4.4355   4.4397   4.4698   4.5243   4.5281   4.5365   4.5968
     4.6111   4.6139   4.6206   4.7209   5.1514   5.1517   5.1540   5.1563
     5.1709   5.1750   5.1770   5.1838   5.1902   5.1981   5.2019   5.2084
     5.2092   5.2345   5.2355   5.2362   5.2551   5.2634   5.2656   5.2672
     5.2789   5.2978   5.3079   5.3128   5.3146   5.3288   5.3354   5.3375
     5.3581   5.3586   5.3606   5.3640   5.3800   5.3923   5.4071   5.4078
     5.4140   5.4316   5.4335   5.4452   5.4459   5.4932   5.5024   5.5029
     5.5096   5.5151   5.5540   5.5603   5.5748   5.5752   5.6028   5.6118
     5.6125   5.6180   5.6257   5.6263   5.6435   5.6701   5.6825   5.7141
     5.7159   5.7171   5.7344   5.7722   5.7727   5.7733   5.8012   5.8027
     5.8102   5.8579   5.8729   5.8779   5.8792   5.9151   5.9575   5.9604
     6.0341   6.0348   6.0358   6.0593   6.0781   6.0805   6.1728   6.2070
     6.2134   6.2145   6.2661   6.2675   6.2696   6.2782   6.2861   6.3481
     6.3496   6.3659   6.3721   6.4153   6.4240   6.4250   6.4273   6.4714
     6.4967   6.4994   6.5455   6.5592   6.5948   6.5968   6.6663   6.6672
     6.6778   6.7201   6.7356   6.7364   6.7482   6.8132   6.8135   6.8447
     6.8696   6.9284   6.9368   7.0524

          k = 0.3333 0.5774 0.0000 (115752 PWs)   bands (ev):

   -28.2776 -28.2762 -28.2761 -28.2760 -28.2760 -28.2753 -28.2752 -28.2750
   -28.2750 -28.2749 -28.2747 -28.2736 -14.9244 -14.9238 -14.9232 -14.9232
   -14.9232 -14.9228 -14.9227 -14.9225 -14.9219 -14.9217 -14.9214 -14.9201
   -14.9185 -14.9179 -14.9174 -14.9172 -14.9171 -14.9169 -14.9168 -14.9167
   -14.9161 -14.9159 -14.9156 -14.9141 -14.9065 -14.9058 -14.9053 -14.9052
   -14.9052 -14.9048 -14.9048 -14.9047 -14.9040 -14.9038 -14.9035 -14.9021
   -14.8663 -14.8657 -14.8651 -14.8651 -14.8650 -14.8646 -14.8646 -14.8645
   -14.8638 -14.8636 -14.8633 -14.8620 -14.8211 -14.8205 -14.8199 -14.8198
   -14.8197 -14.8195 -14.8194 -14.8193 -14.8186 -14.8184 -14.8182 -14.8167
   -10.3391 -10.3365 -10.3359 -10.3355 -10.3354 -10.3352 -10.3348 -10.3346
   -10.3339 -10.3306 -10.3303 -10.3297 -10.3075 -10.3057 -10.3049 -10.3046
   -10.3025 -10.3021 -10.3017 -10.3004 -10.2994 -10.2903 -10.2899 -10.2894
   -10.2699 -10.2678 -10.2674 -10.2669 -10.2662 -10.2655 -10.2644 -10.2641
   -10.2636 -10.2594 -10.2588 -10.2581  -6.6521  -6.6501  -6.6480  -6.4047
    -6.3992  -6.3983  -6.3981  -6.3971  -6.3952  -6.2930  -6.2901  -6.1927
    -5.8662  -5.8545  -5.8502  -5.7525  -5.7479  -5.7468  -5.7332  -5.7313
    -5.7285  -5.7096  -5.7063  -5.6963  -5.6940  -5.6924  -5.6849  -5.6837
    -5.6802  -5.6443  -5.5460  -5.5405  -5.5399  -5.5325  -5.5289  -5.5276
    -5.5111  -5.4748  -5.4713  -5.4704  -5.4667  -5.4657  -5.4616  -5.3966
    -5.3932  -5.3024  -5.3009  -5.2953  -0.5444  -0.5157  -0.5142  -0.5133
    -0.3985  -0.3948  -0.3906  -0.3900  -0.3884  -0.3116  -0.3094  -0.3074
     1.4812   1.4842   1.4867   1.6731   1.6753   1.6776   1.6835   1.6868
     1.6889   1.7329   1.7369   1.8006   2.0751   2.0817   2.0825   2.0829
     2.0853   2.1423   2.1440   2.1468   2.2543   2.3962   2.3979   2.3994
     2.4942   2.4949   2.4975   2.5623   2.5643   2.5662   2.5963   2.5982
     2.7718   2.7746   2.7772   2.8356   2.8388   2.8432   2.8439   2.8470
     2.8495   2.8508   2.8535   2.8545   2.8676   3.0054   3.0103   3.0114
     3.0248   3.0265   3.0305   3.0627   3.1325   3.1347   3.1378   3.1925
     3.1979   3.1990   3.2538   3.2604   3.2619   3.2696   3.2728   3.3616
     3.3697   3.3717   3.3732   3.3752   3.4250   3.4266   3.4289   3.4877
     3.4894   3.5015   3.5029   3.5093   3.5296   3.5308   3.5360   3.5468
     3.5497   3.5782   3.5803   3.5822   3.6492   3.6520   3.6529   3.7185
     3.7213   3.7224   3.7276   3.7305   3.7569   3.8012   3.8023   3.8051
     3.9580   3.9599   3.9623   3.9854   3.9877   4.0279   4.0304   4.0320
     4.0826   4.0852   4.0867   4.1391   4.1491   4.1517   4.1528   4.2851
     4.2879   4.2939   4.3142   4.3200   4.3205   4.3215   4.3221   4.3241
     4.3855   4.3870   4.3907   4.4973   4.5121   4.5161   4.5200   4.5211
     4.5271   4.6523   4.6554   4.6575   5.1381   5.1433   5.1446   5.1450
     5.1731   5.1743   5.1877   5.1886   5.1893   5.1964   5.1974   5.1978
     5.2467   5.2474   5.2482   5.2655   5.2663   5.2673   5.2974   5.2987
     5.3000   5.3010   5.3031   5.3035   5.3142   5.3188   5.3200   5.3204
     5.3401   5.3406   5.3423   5.4025   5.4031   5.4037   5.4080   5.4088
     5.4551   5.4558   5.4567   5.4587   5.4826   5.4838   5.4854   5.4887
     5.4896   5.5349   5.5358   5.5367   5.5641   5.5645   5.5658   5.5696
     5.5712   5.5720   5.6418   5.6719   5.6731   5.6941   5.6955   5.6957
     5.7067   5.7077   5.7086   5.7797   5.7805   5.7815   5.7985   5.7991
     5.8001   5.8239   5.8251   5.8439   5.9307   5.9314   5.9330   6.0450
     6.0468   6.0472   6.0479   6.0495   6.1380   6.1388   6.1394   6.1583
     6.2181   6.2203   6.2215   6.2598   6.2602   6.2607   6.2834   6.2848
     6.3751   6.4100   6.4113   6.4120   6.4168   6.4178   6.4231   6.4513
     6.4526   6.4535   6.6145   6.6153   6.6160   6.6753   6.6763   6.6772
     6.7258   6.7407   6.7414   6.8051   6.8063   6.8077   6.8095   6.8104
     6.8117   6.9387   6.9393   6.9400

          k = 0.3333 0.5774 0.2714 (115827 PWs)   bands (ev):

   -28.2776 -28.2762 -28.2761 -28.2760 -28.2760 -28.2753 -28.2752 -28.2750
   -28.2750 -28.2749 -28.2747 -28.2736 -14.9244 -14.9238 -14.9232 -14.9232
   -14.9232 -14.9228 -14.9227 -14.9225 -14.9219 -14.9217 -14.9214 -14.9201
   -14.9185 -14.9179 -14.9174 -14.9172 -14.9171 -14.9169 -14.9168 -14.9167
   -14.9161 -14.9159 -14.9156 -14.9141 -14.9065 -14.9058 -14.9053 -14.9052
   -14.9052 -14.9048 -14.9048 -14.9047 -14.9040 -14.9038 -14.9035 -14.9021
   -14.8663 -14.8657 -14.8651 -14.8651 -14.8650 -14.8646 -14.8646 -14.8645
   -14.8638 -14.8636 -14.8633 -14.8620 -14.8211 -14.8205 -14.8199 -14.8198
   -14.8197 -14.8195 -14.8194 -14.8193 -14.8186 -14.8184 -14.8182 -14.8167
   -10.3393 -10.3381 -10.3372 -10.3369 -10.3365 -10.3337 -10.3334 -10.3331
   -10.3326 -10.3308 -10.3303 -10.3297 -10.3085 -10.3078 -10.3074 -10.3051
   -10.3015 -10.3005 -10.2980 -10.2973 -10.2970 -10.2920 -10.2917 -10.2911
   -10.2701 -10.2687 -10.2670 -10.2668 -10.2662 -10.2642 -10.2639 -10.2637
   -10.2629 -10.2603 -10.2594 -10.2589  -6.6202  -6.6179  -6.6157  -6.5266
    -6.5245  -6.5224  -6.3074  -6.2921  -6.2891  -6.2878  -6.2570  -6.2141
    -5.8771  -5.8592  -5.8452  -5.7798  -5.7793  -5.7739  -5.7455  -5.7412
    -5.7393  -5.7159  -5.6908  -5.6874  -5.6864  -5.6750  -5.6715  -5.6707
    -5.6673  -5.6420  -5.5606  -5.5559  -5.5555  -5.5276  -5.5241  -5.5232
    -5.5071  -5.5035  -5.5022  -5.5013  -5.4574  -5.3984  -5.3970  -5.3936
    -5.3557  -5.3235  -5.3223  -5.3158  -0.5209  -0.5070  -0.5053  -0.5041
    -0.4607  -0.4190  -0.4165  -0.4150  -0.3549  -0.2941  -0.2924  -0.2907
     1.4794   1.4822   1.4847   1.6358   1.6390   1.6398   1.6906   1.7758
     1.7762   1.7767   1.7800   1.7948   1.9758   1.9816   1.9828   2.0547
     2.1682   2.1911   2.1938   2.1953   2.2479   2.3969   2.3986   2.3992
     2.4885   2.4893   2.4919   2.5576   2.5865   2.5884   2.5901   2.5925
     2.6786   2.7351   2.7378   2.7391   2.8209   2.8228   2.8255   2.8277
     2.9002   2.9032   2.9042   2.9248   2.9357   2.9527   2.9564   2.9584
     3.0595   3.0603   3.0621   3.0840   3.0885   3.0927   3.1276   3.1816
     3.2404   3.2454   3.2466   3.2682   3.2713   3.2732   3.3200   3.3265
     3.3286   3.3302   3.3756   3.4065   3.4220   3.4651   3.4658   3.4704
     3.4929   3.4983   3.5002   3.5068   3.5367   3.5376   3.5384   3.5447
     3.5629   3.6146   3.6172   3.6184   3.6547   3.6555   3.6568   3.6969
     3.6993   3.7005   3.7212   3.7444   3.8205   3.8406   3.8414   3.8438
     3.9362   3.9398   3.9412   3.9444   4.0292   4.0301   4.0316   4.0404
     4.0638   4.0682   4.0697   4.1061   4.1130   4.1145   4.1161   4.1700
     4.2711   4.2741   4.2766   4.2908   4.3156   4.3584   4.3625   4.3637
     4.4162   4.4172   4.4193   4.4930   4.4941   4.4989   4.5073   4.5137
     4.5637   4.6650   4.6676   4.6704   5.1491   5.1564   5.1575   5.1582
     5.1586   5.1827   5.1832   5.1837   5.1980   5.1983   5.1988   5.2115
     5.2242   5.2253   5.2261   5.2520   5.2525   5.2540   5.2574   5.2699
     5.3016   5.3023   5.3033   5.3088   5.3288   5.3296   5.3302   5.3681
     5.3689   5.3696   5.3753   5.3938   5.3954   5.4083   5.4095   5.4111
     5.4323   5.4335   5.4344   5.4387   5.4842   5.4853   5.4856   5.4917
     5.5387   5.5398   5.5401   5.5438   5.5658   5.5666   5.5682   5.6055
     5.6062   5.6070   5.6389   5.6395   5.6714   5.6727   5.6735   5.7032
     5.7040   5.7049   5.7169   5.7584   5.7598   5.7603   5.8013   5.8079
     5.8208   5.8233   5.8243   5.8250   5.8897   5.8910   5.8924   6.0564
     6.0590   6.0608   6.0615   6.0774   6.1202   6.1210   6.1217   6.1347
     6.1965   6.2372   6.2384   6.2388   6.2839   6.3018   6.3031   6.3039
     6.3069   6.3849   6.3860   6.3880   6.4505   6.4667   6.4682   6.4687
     6.4918   6.4931   6.5583   6.5598   6.5607   6.6458   6.6838   6.6855
     6.6863   6.7612   6.7773   6.7785   6.7792   6.7928   6.8537   6.8548
     6.8561   6.9356   6.9366   6.9370

          k =-0.3333 0.1925 0.0000 (115797 PWs)   bands (ev):

   -28.2776 -28.2762 -28.2761 -28.2760 -28.2760 -28.2753 -28.2752 -28.2751
   -28.2750 -28.2749 -28.2747 -28.2736 -14.9244 -14.9239 -14.9232 -14.9232
   -14.9232 -14.9228 -14.9227 -14.9225 -14.9220 -14.9217 -14.9214 -14.9201
   -14.9185 -14.9179 -14.9174 -14.9172 -14.9171 -14.9169 -14.9168 -14.9167
   -14.9161 -14.9158 -14.9156 -14.9141 -14.9065 -14.9058 -14.9053 -14.9052
   -14.9052 -14.9048 -14.9048 -14.9047 -14.9040 -14.9038 -14.9035 -14.9021
   -14.8663 -14.8657 -14.8651 -14.8651 -14.8650 -14.8647 -14.8646 -14.8645
   -14.8638 -14.8636 -14.8633 -14.8620 -14.8211 -14.8205 -14.8200 -14.8198
   -14.8197 -14.8195 -14.8194 -14.8193 -14.8186 -14.8184 -14.8182 -14.8167
   -10.3387 -10.3380 -10.3368 -10.3365 -10.3363 -10.3354 -10.3342 -10.3341
   -10.3330 -10.3320 -10.3317 -10.3265 -10.3080 -10.3071 -10.3062 -10.3047
   -10.3029 -10.3022 -10.3017 -10.3014 -10.2945 -10.2940 -10.2908 -10.2852
   -10.2705 -10.2692 -10.2688 -10.2671 -10.2662 -10.2641 -10.2630 -10.2622
   -10.2617 -10.2606 -10.2600 -10.2562  -6.7877  -6.5892  -6.5009  -6.4969
    -6.4391  -6.4373  -6.3660  -6.3483  -6.2865  -6.2835  -6.2490  -6.2464
    -5.9135  -5.9091  -5.8211  -5.8184  -5.8177  -5.7776  -5.7674  -5.7663
    -5.7321  -5.7248  -5.7209  -5.6909  -5.6895  -5.6466  -5.6417  -5.6364
    -5.6286  -5.5959  -5.5863  -5.5826  -5.5696  -5.5272  -5.5199  -5.5174
    -5.5141  -5.5051  -5.4636  -5.4500  -5.4344  -5.4336  -5.4221  -5.4160
    -5.3476  -5.3471  -5.3098  -5.2678  -0.5732  -0.5696  -0.5619  -0.4354
    -0.4053  -0.4026  -0.3768  -0.3389  -0.3375  -0.3366  -0.3122  -0.3026
     1.4188   1.4866   1.4880   1.5001   1.6376   1.6495   1.6885   1.7233
     1.7246   1.8290   1.8755   1.8789   1.9524   1.9575   1.9586   2.0298
     2.1155   2.2067   2.2305   2.2323   2.3411   2.3639   2.3847   2.3865
     2.3936   2.4110   2.4507   2.5349   2.5387   2.6114   2.6138   2.6176
     2.6582   2.7343   2.8123   2.8139   2.8218   2.8384   2.8431   2.8449
     2.8543   2.8833   2.9083   2.9106   2.9150   2.9607   2.9632   3.0027
     3.0493   3.0563   3.0582   3.1238   3.1477   3.1735   3.2000   3.2100
     3.2138   3.2329   3.2614   3.2635   3.2692   3.3231   3.3316   3.3331
     3.3390   3.3737   3.3949   3.3995   3.4336   3.4404   3.4434   3.4515
     3.4973   3.4985   3.5034   3.5108   3.5115   3.5175   3.5243   3.5514
     3.5623   3.6052   3.6062   3.6118   3.6340   3.6466   3.6789   3.6802
     3.6930   3.7027   3.7046   3.7087   3.7793   3.7813   3.8501   3.8601
     3.8959   3.9696   3.9748   3.9783   3.9815   4.0289   4.0386   4.0400
     4.0924   4.1113   4.1206   4.1225   4.1267   4.1640   4.1677   4.1775
     4.2467   4.2666   4.2678   4.2822   4.3030   4.3239   4.3263   4.3675
     4.3787   4.4147   4.4176   4.4831   4.5197   4.5269   4.5283   4.5359
     4.5882   4.5935   4.6265   4.7487   5.1437   5.1454   5.1472   5.1546
     5.1600   5.1612   5.1699   5.1748   5.2153   5.2194   5.2201   5.2219
     5.2279   5.2374   5.2490   5.2497   5.2502   5.2612   5.2696   5.2718
     5.2726   5.2896   5.3038   5.3049   5.3157   5.3195   5.3271   5.3278
     5.3372   5.3500   5.3524   5.3535   5.3580   5.3659   5.4134   5.4146
     5.4333   5.4508   5.4612   5.4623   5.4866   5.4933   5.4995   5.5013
     5.5023   5.5124   5.5277   5.5436   5.5564   5.5570   5.5615   5.6033
     5.6043   5.6309   5.6316   5.6330   5.6681   5.6784   5.6943   5.6958
     5.6971   5.7177   5.7306   5.7559   5.7748   5.7773   5.8086   5.8191
     5.8204   5.8634   5.8746   5.8761   5.9507   5.9527   5.9639   5.9653
     5.9903   6.0060   6.0073   6.0206   6.1379   6.1396   6.1451   6.1597
     6.2254   6.2294   6.2311   6.2531   6.2713   6.2891   6.2910   6.2993
     6.3608   6.3634   6.3775   6.3893   6.3915   6.4410   6.4859   6.4875
     6.5242   6.5380   6.5396   6.5761   6.6053   6.6507   6.6832   6.6930
     6.6944   6.7297   6.7375   6.7383   6.7623   6.7768   6.7922   6.8120
     6.8131   6.9029   6.9086   7.0800

          k = 0.3333 0.1925 0.0000 (115797 PWs)   bands (ev):

   -28.2776 -28.2762 -28.2761 -28.2760 -28.2760 -28.2753 -28.2752 -28.2750
   -28.2750 -28.2749 -28.2747 -28.2736 -14.9245 -14.9239 -14.9233 -14.9232
   -14.9231 -14.9228 -14.9227 -14.9225 -14.9219 -14.9217 -14.9214 -14.9201
   -14.9185 -14.9179 -14.9174 -14.9172 -14.9171 -14.9169 -14.9169 -14.9167
   -14.9161 -14.9159 -14.9156 -14.9141 -14.9065 -14.9058 -14.9053 -14.9052
   -14.9052 -14.9048 -14.9048 -14.9046 -14.9040 -14.9038 -14.9035 -14.9021
   -14.8663 -14.8657 -14.8651 -14.8651 -14.8650 -14.8646 -14.8646 -14.8645
   -14.8638 -14.8636 -14.8633 -14.8620 -14.8211 -14.8205 -14.8199 -14.8198
   -14.8197 -14.8195 -14.8194 -14.8193 -14.8186 -14.8184 -14.8181 -14.8167
   -10.3387 -10.3381 -10.3366 -10.3363 -10.3358 -10.3355 -10.3347 -10.3343
   -10.3331 -10.3321 -10.3315 -10.3265 -10.3076 -10.3071 -10.3066 -10.3042
   -10.3034 -10.3019 -10.3017 -10.3011 -10.2951 -10.2947 -10.2902 -10.2851
   -10.2701 -10.2693 -10.2690 -10.2668 -10.2663 -10.2636 -10.2633 -10.2629
   -10.2627 -10.2601 -10.2593 -10.2560  -6.7878  -6.5901  -6.5010  -6.4969
    -6.4382  -6.4352  -6.3669  -6.3477  -6.2861  -6.2833  -6.2490  -6.2471
    -5.9167  -5.9109  -5.8237  -5.8185  -5.8176  -5.7772  -5.7686  -5.7658
    -5.7316  -5.7232  -5.7210  -5.6892  -5.6880  -5.6452  -5.6389  -5.6370
    -5.6278  -5.5927  -5.5859  -5.5834  -5.5711  -5.5294  -5.5189  -5.5179
    -5.5159  -5.5035  -5.4649  -5.4497  -5.4367  -5.4339  -5.4221  -5.4160
    -5.3475  -5.3430  -5.3119  -5.2685  -0.5733  -0.5706  -0.5606  -0.4347
    -0.4063  -0.4028  -0.3778  -0.3377  -0.3367  -0.3346  -0.3138  -0.3039
     1.4173   1.4881   1.4899   1.4987   1.6396   1.6501   1.6899   1.7228
     1.7263   1.8280   1.8769   1.8777   1.9510   1.9546   1.9560   2.0267
     2.1156   2.2082   2.2300   2.2312   2.3385   2.3637   2.3861   2.3880
     2.3940   2.4099   2.4508   2.5382   2.5404   2.6126   2.6141   2.6185
     2.6580   2.7360   2.8128   2.8151   2.8191   2.8406   2.8419   2.8441
     2.8559   2.8857   2.9072   2.9094   2.9158   2.9583   2.9624   3.0027
     3.0528   3.0565   3.0581   3.1253   3.1484   3.1736   3.2016   3.2095
     3.2130   3.2359   3.2586   3.2616   3.2697   3.3225   3.3307   3.3328
     3.3402   3.3725   3.3930   3.3949   3.4358   3.4402   3.4441   3.4504
     3.4971   3.4993   3.5025   3.5109   3.5124   3.5173   3.5289   3.5424
     3.5615   3.6032   3.6053   3.6118   3.6352   3.6485   3.6801   3.6811
     3.6942   3.7039   3.7045   3.7088   3.7787   3.7812   3.8487   3.8593
     3.8980   3.9720   3.9745   3.9793   3.9829   4.0304   4.0384   4.0399
     4.0930   4.1122   4.1184   4.1213   4.1253   4.1621   4.1634   4.1774
     4.2490   4.2670   4.2711   4.2832   4.3026   4.3227   4.3245   4.3708
     4.3763   4.4160   4.4189   4.4844   4.5172   4.5273   4.5283   4.5328
     4.5880   4.5920   4.6289   4.7498   5.1432   5.1438   5.1476   5.1552
     5.1602   5.1616   5.1702   5.1745   5.2138   5.2184   5.2212   5.2226
     5.2289   5.2379   5.2485   5.2492   5.2509   5.2612   5.2669   5.2710
     5.2733   5.2893   5.3045   5.3057   5.3135   5.3190   5.3277   5.3284
     5.3382   5.3501   5.3527   5.3537   5.3580   5.3664   5.4137   5.4149
     5.4342   5.4514   5.4613   5.4616   5.4852   5.4936   5.5000   5.5006
     5.5027   5.5132   5.5284   5.5432   5.5569   5.5578   5.5611   5.6027
     5.6043   5.6298   5.6310   5.6320   5.6687   5.6794   5.6953   5.6959
     5.6973   5.7173   5.7296   5.7562   5.7751   5.7759   5.8087   5.8191
     5.8204   5.8623   5.8759   5.8765   5.9505   5.9525   5.9649   5.9658
     5.9897   6.0063   6.0075   6.0204   6.1388   6.1397   6.1450   6.1605
     6.2260   6.2298   6.2310   6.2519   6.2711   6.2888   6.2902   6.2994
     6.3615   6.3626   6.3766   6.3899   6.3905   6.4422   6.4857   6.4873
     6.5242   6.5374   6.5393   6.5752   6.6048   6.6510   6.6841   6.6927
     6.6936   6.7294   6.7369   6.7386   6.7624   6.7776   6.7929   6.8110
     6.8132   6.9041   6.9088   7.0809

          k = 0.0000-0.3849 0.2714 (115773 PWs)   bands (ev):

   -28.2776 -28.2762 -28.2761 -28.2760 -28.2760 -28.2753 -28.2752 -28.2750
   -28.2750 -28.2749 -28.2747 -28.2736 -14.9244 -14.9238 -14.9233 -14.9232
   -14.9232 -14.9228 -14.9227 -14.9225 -14.9219 -14.9218 -14.9214 -14.9201
   -14.9185 -14.9179 -14.9174 -14.9172 -14.9171 -14.9169 -14.9168 -14.9167
   -14.9161 -14.9159 -14.9156 -14.9141 -14.9065 -14.9058 -14.9053 -14.9052
   -14.9052 -14.9049 -14.9048 -14.9046 -14.9040 -14.9038 -14.9035 -14.9021
   -14.8663 -14.8657 -14.8651 -14.8651 -14.8650 -14.8647 -14.8646 -14.8645
   -14.8638 -14.8636 -14.8633 -14.8620 -14.8211 -14.8205 -14.8199 -14.8198
   -14.8197 -14.8195 -14.8194 -14.8193 -14.8186 -14.8184 -14.8182 -14.8167
   -10.3394 -10.3388 -10.3380 -10.3373 -10.3366 -10.3346 -10.3342 -10.3331
   -10.3328 -10.3315 -10.3297 -10.3275 -10.3104 -10.3081 -10.3061 -10.3048
   -10.3032 -10.3027 -10.2977 -10.2956 -10.2951 -10.2946 -10.2931 -10.2871
   -10.2701 -10.2689 -10.2683 -10.2679 -10.2668 -10.2633 -10.2621 -10.2618
   -10.2617 -10.2610 -10.2604 -10.2574  -6.7508  -6.6466  -6.5608  -6.4688
    -6.4208  -6.4172  -6.3643  -6.3403  -6.3386  -6.2660  -6.2114  -6.2096
    -5.9143  -5.9123  -5.8258  -5.8228  -5.8184  -5.8165  -5.7671  -5.7637
    -5.7534  -5.7310  -5.6842  -5.6824  -5.6796  -5.6622  -5.6465  -5.6418
    -5.6376  -5.6057  -5.5848  -5.5834  -5.5724  -5.5333  -5.5284  -5.5253
    -5.5159  -5.4852  -5.4675  -5.4405  -5.4370  -5.4338  -5.3980  -5.3692
    -5.3437  -5.3394  -5.3296  -5.2947  -0.5621  -0.5604  -0.5539  -0.4355
    -0.4290  -0.4275  -0.4099  -0.3600  -0.3231  -0.3224  -0.2893  -0.2826
     1.4055   1.4922   1.4952   1.5161   1.6129   1.7097   1.7138   1.7241
     1.7332   1.7723   1.8453   1.8471   1.9658   1.9862   2.0215   2.0232
     2.1299   2.1984   2.2077   2.2104   2.2860   2.3348   2.3967   2.4241
     2.4284   2.5174   2.5293   2.5310   2.5563   2.5572   2.5597   2.5633
     2.5982   2.6784   2.7623   2.7654   2.8197   2.8245   2.8268   2.8292
     2.8505   2.8550   2.8959   2.8974   2.9060   3.0087   3.0184   3.0201
     3.0763   3.0799   3.1177   3.1191   3.1329   3.1804   3.1828   3.1878
     3.2110   3.2441   3.2659   3.2841   3.2860   3.2966   3.3290   3.3318
     3.3759   3.3783   3.3797   3.3802   3.4472   3.4485   3.4523   3.4774
     3.4812   3.4825   3.5079   3.5198   3.5345   3.5366   3.5410   3.5601
     3.5855   3.5889   3.6127   3.6300   3.6413   3.6443   3.6827   3.6851
     3.6876   3.6972   3.7047   3.7066   3.8348   3.8365   3.8798   3.8819
     3.9415   3.9457   3.9465   3.9495   3.9718   4.0314   4.0533   4.0574
     4.0587   4.0623   4.0982   4.1008   4.1213   4.1242   4.1303   4.1333
     4.2220   4.2406   4.2659   4.2704   4.2917   4.2931   4.3150   4.3678
     4.3945   4.4324   4.4361   4.4823   4.5217   4.5444   4.5480   4.5870
     4.5966   4.5992   4.6299   4.7289   5.1478   5.1489   5.1528   5.1638
     5.1683   5.1694   5.1699   5.1726   5.1998   5.2047   5.2133   5.2185
     5.2202   5.2296   5.2413   5.2423   5.2608   5.2631   5.2643   5.2653
     5.2671   5.2735   5.3098   5.3110   5.3184   5.3344   5.3469   5.3477
     5.3598   5.3628   5.3636   5.3681   5.3700   5.3807   5.3890   5.3895
     5.4100   5.4341   5.4477   5.4514   5.4522   5.4691   5.4975   5.4988
     5.5177   5.5242   5.5558   5.5570   5.5689   5.5691   5.6027   5.6033
     5.6074   5.6207   5.6310   5.6506   5.6520   5.6612   5.6744   5.7086
     5.7099   5.7396   5.7598   5.7611   5.7704   5.7844   5.8041   5.8058
     5.8145   5.8398   5.8651   5.8698   5.8755   5.8950   5.9673   5.9708
     6.0188   6.0249   6.0264   6.1010   6.1027   6.1119   6.1590   6.1877
     6.2025   6.2038   6.2047   6.2620   6.2642   6.2875   6.3189   6.3422
     6.3556   6.3691   6.3700   6.4132   6.4186   6.4204   6.4529   6.4807
     6.4827   6.5064   6.5573   6.5668   6.6065   6.6074   6.6480   6.6661
     6.6668   6.7375   6.7382   6.7408   6.7488   6.8037   6.8045   6.8508
     6.8668   6.9183   6.9457   7.0391

          k =-0.3333 0.1925 0.2714 (115773 PWs)   bands (ev):

   -28.2776 -28.2762 -28.2761 -28.2760 -28.2760 -28.2753 -28.2752 -28.2751
   -28.2750 -28.2749 -28.2747 -28.2736 -14.9244 -14.9239 -14.9232 -14.9232
   -14.9232 -14.9228 -14.9227 -14.9225 -14.9220 -14.9217 -14.9214 -14.9201
   -14.9185 -14.9179 -14.9174 -14.9172 -14.9171 -14.9169 -14.9168 -14.9167
   -14.9161 -14.9158 -14.9156 -14.9141 -14.9065 -14.9058 -14.9053 -14.9052
   -14.9052 -14.9048 -14.9048 -14.9047 -14.9040 -14.9038 -14.9035 -14.9021
   -14.8663 -14.8657 -14.8651 -14.8651 -14.8650 -14.8647 -14.8646 -14.8645
   -14.8638 -14.8636 -14.8633 -14.8620 -14.8211 -14.8205 -14.8200 -14.8198
   -14.8197 -14.8195 -14.8194 -14.8193 -14.8186 -14.8184 -14.8182 -14.8167
   -10.3395 -10.3388 -10.3378 -10.3373 -10.3366 -10.3346 -10.3343 -10.3332
   -10.3328 -10.3314 -10.3296 -10.3275 -10.3104 -10.3080 -10.3061 -10.3049
   -10.3033 -10.3027 -10.2977 -10.2955 -10.2951 -10.2943 -10.2932 -10.2872
   -10.2701 -10.2688 -10.2685 -10.2677 -10.2668 -10.2634 -10.2624 -10.2619
   -10.2614 -10.2608 -10.2603 -10.2575  -6.7508  -6.6465  -6.5604  -6.4686
    -6.4202  -6.4184  -6.3645  -6.3413  -6.3388  -6.2656  -6.2110  -6.2094
    -5.9162  -5.9118  -5.8236  -5.8218  -5.8175  -5.8169  -5.7657  -5.7636
    -5.7533  -5.7322  -5.6860  -5.6818  -5.6812  -5.6629  -5.6423  -5.6401
    -5.6376  -5.6079  -5.5884  -5.5843  -5.5738  -5.5311  -5.5276  -5.5258
    -5.5166  -5.4858  -5.4648  -5.4410  -5.4352  -5.4341  -5.3989  -5.3706
    -5.3436  -5.3427  -5.3272  -5.2932  -0.5646  -0.5604  -0.5516  -0.4334
    -0.4302  -0.4274  -0.4104  -0.3608  -0.3222  -0.3214  -0.2901  -0.2830
     1.4049   1.4932   1.4950   1.5143   1.6102   1.7100   1.7129   1.7205
     1.7366   1.7747   1.8453   1.8468   1.9652   1.9874   2.0217   2.0252
     2.1293   2.1994   2.2090   2.2102   2.2862   2.3365   2.3990   2.4261
     2.4278   2.5186   2.5287   2.5302   2.5563   2.5574   2.5596   2.5607
     2.6002   2.6776   2.7614   2.7655   2.8225   2.8248   2.8254   2.8290
     2.8499   2.8537   2.8940   2.8967   2.9056   3.0058   3.0178   3.0195
     3.0764   3.0779   3.1173   3.1191   3.1318   3.1772   3.1827   3.1881
     3.2125   3.2430   3.2650   3.2861   3.2884   3.2967   3.3316   3.3331
     3.3757   3.3771   3.3808   3.3846   3.4462   3.4480   3.4541   3.4772
     3.4797   3.4812   3.5070   3.5256   3.5344   3.5355   3.5428   3.5592
     3.5853   3.5875   3.6092   3.6324   3.6403   3.6450   3.6830   3.6843
     3.6880   3.6958   3.7043   3.7057   3.8358   3.8392   3.8779   3.8806
     3.9397   3.9427   3.9460   3.9491   3.9716   4.0323   4.0531   4.0564
     4.0593   4.0615   4.1004   4.1027   4.1238   4.1257   4.1297   4.1329
     4.2239   4.2402   4.2693   4.2706   4.2913   4.2930   4.3141   4.3652
     4.3925   4.4320   4.4363   4.4826   4.5266   4.5439   4.5454   4.5863
     4.5940   4.5987   4.6314   4.7297   5.1479   5.1492   5.1533   5.1649
     5.1682   5.1691   5.1698   5.1728   5.1997   5.2050   5.2124   5.2185
     5.2196   5.2306   5.2404   5.2419   5.2603   5.2642   5.2649   5.2652
     5.2667   5.2746   5.3099   5.3112   5.3191   5.3346   5.3463   5.3475
     5.3605   5.3625   5.3636   5.3679   5.3704   5.3814   5.3891   5.3897
     5.4099   5.4335   5.4476   5.4512   5.4526   5.4692   5.4963   5.4979
     5.5165   5.5243   5.5566   5.5577   5.5685   5.5695   5.6020   5.6032
     5.6076   5.6198   5.6313   5.6504   5.6506   5.6613   5.6753   5.7072
     5.7100   5.7396   5.7597   5.7616   5.7710   5.7840   5.8042   5.8061
     5.8138   5.8398   5.8674   5.8682   5.8754   5.8952   5.9679   5.9691
     6.0193   6.0244   6.0257   6.1011   6.1025   6.1123   6.1598   6.1872
     6.2014   6.2037   6.2051   6.2614   6.2650   6.2875   6.3200   6.3417
     6.3553   6.3695   6.3711   6.4129   6.4191   6.4202   6.4524   6.4816
     6.4827   6.5072   6.5579   6.5663   6.6074   6.6084   6.6465   6.6670
     6.6677   6.7379   6.7392   6.7401   6.7474   6.8040   6.8055   6.8510
     6.8650   6.9177   6.9452   7.0381

          k = 0.3333 0.1925 0.2714 (115773 PWs)   bands (ev):

   -28.2776 -28.2762 -28.2761 -28.2760 -28.2760 -28.2753 -28.2752 -28.2750
   -28.2750 -28.2749 -28.2747 -28.2736 -14.9245 -14.9239 -14.9233 -14.9232
   -14.9231 -14.9228 -14.9227 -14.9225 -14.9219 -14.9217 -14.9214 -14.9201
   -14.9185 -14.9179 -14.9174 -14.9172 -14.9171 -14.9169 -14.9169 -14.9167
   -14.9161 -14.9159 -14.9156 -14.9141 -14.9065 -14.9058 -14.9053 -14.9052
   -14.9052 -14.9048 -14.9048 -14.9046 -14.9040 -14.9038 -14.9035 -14.9021
   -14.8663 -14.8657 -14.8651 -14.8651 -14.8650 -14.8646 -14.8646 -14.8645
   -14.8638 -14.8636 -14.8633 -14.8620 -14.8211 -14.8205 -14.8199 -14.8198
   -14.8197 -14.8195 -14.8194 -14.8193 -14.8186 -14.8184 -14.8181 -14.8167
   -10.3395 -10.3389 -10.3378 -10.3367 -10.3361 -10.3349 -10.3343 -10.3336
   -10.3331 -10.3312 -10.3299 -10.3273 -10.3104 -10.3085 -10.3052 -10.3049
   -10.3031 -10.3025 -10.2979 -10.2960 -10.2956 -10.2949 -10.2926 -10.2868
   -10.2696 -10.2690 -10.2687 -10.2675 -10.2670 -10.2632 -10.2627 -10.2624
   -10.2622 -10.2608 -10.2596 -10.2570  -6.7510  -6.6465  -6.5619  -6.4682
    -6.4190  -6.4158  -6.3643  -6.3415  -6.3389  -6.2661  -6.2123  -6.2092
    -5.9189  -5.9135  -5.8249  -5.8211  -5.8190  -5.8172  -5.7665  -5.7628
    -5.7536  -5.7308  -5.6826  -5.6819  -5.6789  -5.6635  -5.6417  -5.6410
    -5.6344  -5.6061  -5.5873  -5.5856  -5.5750  -5.5308  -5.5266  -5.5260
    -5.5186  -5.4877  -5.4649  -5.4417  -5.4374  -5.4345  -5.3964  -5.3700
    -5.3432  -5.3389  -5.3308  -5.2942  -0.5648  -0.5618  -0.5497  -0.4325
    -0.4293  -0.4279  -0.4125  -0.3612  -0.3213  -0.3202  -0.2911  -0.2835
     1.4036   1.4954   1.4966   1.5125   1.6115   1.7108   1.7133   1.7222
     1.7380   1.7732   1.8433   1.8459   1.9668   1.9855   2.0196   2.0215
     2.1286   2.2000   2.2094   2.2117   2.2857   2.3331   2.3961   2.4273
     2.4292   2.5196   2.5288   2.5314   2.5566   2.5588   2.5599   2.5622
     2.5997   2.6765   2.7626   2.7649   2.8243   2.8258   2.8279   2.8297
     2.8508   2.8550   2.8939   2.8958   2.9027   3.0094   3.0164   3.0182
     3.0777   3.0810   3.1167   3.1194   3.1333   3.1775   3.1817   3.1867
     3.2152   3.2450   3.2672   3.2839   3.2858   3.2973   3.3310   3.3327
     3.3702   3.3769   3.3779   3.3793   3.4477   3.4500   3.4529   3.4784
     3.4792   3.4853   3.5070   3.5184   3.5339   3.5363   3.5422   3.5575
     3.5865   3.5878   3.6099   3.6334   3.6421   3.6465   3.6826   3.6856
     3.6868   3.6959   3.7042   3.7051   3.8368   3.8387   3.8774   3.8796
     3.9421   3.9441   3.9464   3.9504   3.9742   4.0293   4.0542   4.0571
     4.0596   4.0621   4.0990   4.1010   4.1215   4.1232   4.1290   4.1328
     4.2260   4.2434   4.2695   4.2705   4.2903   4.2943   4.3133   4.3654
     4.3914   4.4348   4.4363   4.4816   4.5209   4.5455   4.5487   4.5843
     4.5931   4.5971   4.6333   4.7314   5.1471   5.1479   5.1539   5.1649
     5.1681   5.1691   5.1695   5.1734   5.2001   5.2053   5.2130   5.2180
     5.2191   5.2291   5.2403   5.2425   5.2611   5.2644   5.2658   5.2663
     5.2677   5.2730   5.3100   5.3115   5.3188   5.3335   5.3471   5.3476
     5.3598   5.3629   5.3639   5.3687   5.3701   5.3804   5.3883   5.3899
     5.4099   5.4335   5.4480   5.4516   5.4521   5.4686   5.4972   5.4980
     5.5179   5.5249   5.5558   5.5570   5.5681   5.5690   5.6020   5.6034
     5.6076   5.6210   5.6319   5.6497   5.6502   5.6615   5.6743   5.7075
     5.7096   5.7391   5.7600   5.7616   5.7704   5.7842   5.8053   5.8065
     5.8142   5.8399   5.8669   5.8686   5.8759   5.8935   5.9694   5.9703
     6.0187   6.0250   6.0259   6.1004   6.1018   6.1123   6.1597   6.1881
     6.2031   6.2033   6.2048   6.2627   6.2634   6.2882   6.3177   6.3422
     6.3548   6.3688   6.3704   6.4134   6.4199   6.4207   6.4525   6.4809
     6.4819   6.5071   6.5570   6.5662   6.6069   6.6079   6.6476   6.6665
     6.6675   6.7378   6.7387   6.7403   6.7483   6.8037   6.8054   6.8507
     6.8659   6.9180   6.9458   7.0388

          k =-0.3333-0.1925 0.2714 (115773 PWs)   bands (ev):

   -28.2776 -28.2762 -28.2761 -28.2760 -28.2760 -28.2753 -28.2752 -28.2750
   -28.2750 -28.2749 -28.2747 -28.2736 -14.9245 -14.9239 -14.9233 -14.9232
   -14.9231 -14.9228 -14.9227 -14.9225 -14.9219 -14.9217 -14.9214 -14.9201
   -14.9185 -14.9179 -14.9174 -14.9172 -14.9171 -14.9169 -14.9169 -14.9167
   -14.9161 -14.9159 -14.9156 -14.9141 -14.9065 -14.9058 -14.9053 -14.9052
   -14.9052 -14.9048 -14.9048 -14.9046 -14.9040 -14.9038 -14.9035 -14.9021
   -14.8663 -14.8657 -14.8651 -14.8651 -14.8650 -14.8646 -14.8646 -14.8645
   -14.8638 -14.8636 -14.8633 -14.8620 -14.8211 -14.8205 -14.8199 -14.8198
   -14.8197 -14.8195 -14.8194 -14.8193 -14.8186 -14.8184 -14.8181 -14.8167
   -10.3395 -10.3388 -10.3378 -10.3369 -10.3363 -10.3348 -10.3342 -10.3334
   -10.3330 -10.3316 -10.3299 -10.3272 -10.3107 -10.3069 -10.3065 -10.3061
   -10.3017 -10.3008 -10.3002 -10.2969 -10.2964 -10.2941 -10.2907 -10.2876
   -10.2699 -10.2694 -10.2690 -10.2667 -10.2661 -10.2638 -10.2632 -10.2627
   -10.2623 -10.2602 -10.2588 -10.2576  -6.7509  -6.6466  -6.5610  -6.4718
    -6.4222  -6.4192  -6.3648  -6.3298  -6.3272  -6.2593  -6.2260  -6.2229
    -5.9105  -5.9047  -5.8213  -5.8194  -5.8143  -5.8077  -5.7918  -5.7595
    -5.7586  -5.7311  -5.7093  -5.7066  -5.6720  -5.6337  -5.6297  -5.6271
    -5.6249  -5.6061  -5.6005  -5.5993  -5.5715  -5.5290  -5.5240  -5.5214
    -5.5214  -5.4946  -5.4705  -5.4356  -5.4285  -5.4267  -5.4195  -5.3622
    -5.3466  -5.3425  -5.3210  -5.2981  -0.5615  -0.5585  -0.5574  -0.4365
    -0.4348  -0.4236  -0.3949  -0.3742  -0.3180  -0.3170  -0.3000  -0.2792
     1.4316   1.4844   1.4868   1.4879   1.6257   1.6412   1.7724   1.7764
     1.7816   1.7907   1.7975   1.8011   1.9148   1.9917   1.9954   2.0765
     2.1545   2.2004   2.2122   2.2479   2.2503   2.3590   2.3939   2.3960
     2.3980   2.4499   2.5124   2.5147   2.5479   2.5893   2.5918   2.6083
     2.6441   2.7126   2.7597   2.7672   2.7692   2.7874   2.8095   2.8113
     2.8396   2.8765   2.9143   2.9155   2.9184   2.9799   3.0220   3.0246
     3.0714   3.1058   3.1072   3.1338   3.1662   3.1907   3.1942   3.1949
     3.2030   3.2299   3.2625   3.2657   3.2783   3.3187   3.3206   3.3230
     3.3241   3.3853   3.3891   3.4123   3.4439   3.4482   3.4692   3.4711
     3.4726   3.4749   3.4758   3.4827   3.5337   3.5364   3.5437   3.5927
     3.6104   3.6131   3.6155   3.6329   3.6425   3.6494   3.6577   3.6599
     3.6680   3.7103   3.7119   3.7134   3.8353   3.8383   3.8792   3.8893
     3.9057   3.9482   3.9505   3.9740   3.9836   4.0219   4.0459   4.0493
     4.0500   4.0641   4.1089   4.1117   4.1191   4.1325   4.1343   4.1475
     4.1934   4.2565   4.2665   4.2704   4.2882   4.2914   4.2943   4.3854
     4.3980   4.4374   4.4396   4.4689   4.5248   4.5289   4.5357   4.5952
     4.6083   4.6119   4.6240   4.7227   5.1497   5.1509   5.1548   5.1569
     5.1727   5.1764   5.1773   5.1836   5.1908   5.1980   5.2019   5.2064
     5.2087   5.2343   5.2352   5.2354   5.2548   5.2646   5.2653   5.2677
     5.2790   5.2986   5.3073   5.3136   5.3146   5.3292   5.3370   5.3377
     5.3579   5.3592   5.3606   5.3635   5.3804   5.3931   5.4056   5.4076
     5.4135   5.4314   5.4340   5.4449   5.4459   5.4932   5.5022   5.5036
     5.5098   5.5163   5.5531   5.5599   5.5744   5.5749   5.6030   5.6106
     5.6119   5.6192   5.6238   5.6254   5.6429   5.6699   5.6830   5.7138
     5.7148   5.7178   5.7332   5.7718   5.7732   5.7738   5.8029   5.8035
     5.8096   5.8587   5.8747   5.8766   5.8775   5.9149   5.9592   5.9602
     6.0341   6.0347   6.0361   6.0594   6.0787   6.0796   6.1729   6.2068
     6.2127   6.2135   6.2659   6.2668   6.2710   6.2765   6.2860   6.3489
     6.3502   6.3655   6.3729   6.4155   6.4243   6.4255   6.4276   6.4708
     6.4976   6.4992   6.5454   6.5598   6.5947   6.5962   6.6665   6.6680
     6.6767   6.7195   6.7366   6.7374   6.7479   6.8126   6.8142   6.8442
     6.8688   6.9281   6.9370   7.0524

          k = 0.3333-0.1925 0.2714 (115773 PWs)   bands (ev):

   -28.2776 -28.2762 -28.2761 -28.2760 -28.2760 -28.2753 -28.2752 -28.2751
   -28.2750 -28.2749 -28.2747 -28.2736 -14.9244 -14.9239 -14.9232 -14.9232
   -14.9232 -14.9228 -14.9227 -14.9225 -14.9220 -14.9217 -14.9214 -14.9201
   -14.9185 -14.9179 -14.9174 -14.9172 -14.9171 -14.9169 -14.9168 -14.9167
   -14.9161 -14.9158 -14.9156 -14.9141 -14.9065 -14.9058 -14.9053 -14.9052
   -14.9052 -14.9048 -14.9048 -14.9047 -14.9040 -14.9038 -14.9035 -14.9021
   -14.8663 -14.8657 -14.8651 -14.8651 -14.8650 -14.8647 -14.8646 -14.8645
   -14.8638 -14.8636 -14.8633 -14.8620 -14.8211 -14.8205 -14.8200 -14.8198
   -14.8197 -14.8195 -14.8194 -14.8193 -14.8186 -14.8184 -14.8182 -14.8167
   -10.3394 -10.3387 -10.3379 -10.3375 -10.3369 -10.3344 -10.3340 -10.3330
   -10.3325 -10.3322 -10.3299 -10.3273 -10.3106 -10.3075 -10.3065 -10.3059
   -10.3013 -10.3010 -10.3004 -10.2962 -10.2959 -10.2940 -10.2914 -10.2875
   -10.2705 -10.2692 -10.2679 -10.2673 -10.2663 -10.2645 -10.2627 -10.2619
   -10.2614 -10.2606 -10.2597 -10.2577  -6.7506  -6.6467  -6.5598  -6.4717
    -6.4235  -6.4216  -6.3647  -6.3297  -6.3272  -6.2593  -6.2246  -6.2232
    -5.9076  -5.9032  -5.8234  -5.8198  -5.8082  -5.8069  -5.7911  -5.7609
    -5.7586  -5.7338  -5.7099  -5.7093  -5.6712  -5.6365  -5.6309  -5.6272
    -5.6260  -5.6075  -5.6019  -5.5985  -5.5702  -5.5282  -5.5244  -5.5209
    -5.5192  -5.4963  -5.4682  -5.4345  -5.4269  -5.4257  -5.4214  -5.3627
    -5.3471  -5.3466  -5.3185  -5.2968  -0.5613  -0.5591  -0.5569  -0.4375
    -0.4345  -0.4250  -0.3934  -0.3731  -0.3191  -0.3180  -0.2989  -0.2787
     1.4335   1.4845   1.4855   1.4871   1.6241   1.6398   1.7718   1.7725
     1.7798   1.7898   1.7996   1.8026   1.9168   1.9970   1.9996   2.0791
     2.1563   2.1985   2.2099   2.2466   2.2497   2.3631   2.3924   2.3940
     2.4019   2.4484   2.5101   2.5127   2.5482   2.5884   2.5918   2.6075
     2.6423   2.7110   2.7615   2.7677   2.7695   2.7890   2.8074   2.8106
     2.8379   2.8741   2.9133   2.9172   2.9191   2.9797   3.0231   3.0240
     3.0676   3.1065   3.1093   3.1319   3.1682   3.1892   3.1940   3.1943
     3.1996   3.2294   3.2656   3.2671   3.2756   3.3178   3.3222   3.3242
     3.3256   3.3894   3.3929   3.4115   3.4453   3.4469   3.4688   3.4693
     3.4718   3.4738   3.4765   3.4908   3.5353   3.5365   3.5409   3.5914
     3.6093   3.6124   3.6140   3.6329   3.6446   3.6483   3.6594   3.6604
     3.6677   3.7105   3.7118   3.7123   3.8347   3.8382   3.8796   3.8883
     3.9037   3.9460   3.9508   3.9755   3.9820   4.0197   4.0474   4.0490
     4.0505   4.0663   4.1104   4.1135   4.1176   4.1337   4.1366   4.1468
     4.1905   4.2556   4.2672   4.2687   4.2898   4.2904   4.2955   4.3863
     4.3986   4.4349   4.4394   4.4693   4.5239   4.5256   4.5401   4.5975
     4.6088   4.6130   4.6223   4.7209   5.1506   5.1521   5.1550   5.1568
     5.1722   5.1758   5.1762   5.1839   5.1909   5.1980   5.2015   5.2080
     5.2089   5.2339   5.2354   5.2364   5.2551   5.2638   5.2654   5.2662
     5.2806   5.2987   5.3080   5.3132   5.3135   5.3289   5.3361   5.3373
     5.3581   5.3588   5.3605   5.3638   5.3809   5.3931   5.4073   5.4079
     5.4128   5.4320   5.4332   5.4442   5.4454   5.4927   5.5016   5.5026
     5.5096   5.5162   5.5547   5.5593   5.5745   5.5750   5.6023   5.6114
     5.6119   5.6190   5.6249   5.6256   5.6427   5.6702   5.6815   5.7135
     5.7149   5.7182   5.7346   5.7723   5.7731   5.7746   5.8011   5.8034
     5.8102   5.8585   5.8749   5.8761   5.8788   5.9143   5.9582   5.9595
     6.0334   6.0348   6.0359   6.0599   6.0781   6.0794   6.1729   6.2062
     6.2117   6.2150   6.2661   6.2675   6.2701   6.2778   6.2863   6.3489
     6.3507   6.3656   6.3722   6.4160   6.4236   6.4258   6.4281   6.4707
     6.4981   6.4990   6.5464   6.5586   6.5959   6.5972   6.6674   6.6682
     6.6763   6.7185   6.7359   6.7373   6.7475   6.8134   6.8146   6.8446
     6.8677   6.9279   6.9369   7.0513

          k =-0.3333-0.5774 0.2714 (115827 PWs)   bands (ev):

   -28.2776 -28.2762 -28.2761 -28.2760 -28.2760 -28.2753 -28.2752 -28.2750
   -28.2750 -28.2749 -28.2747 -28.2736 -14.9244 -14.9238 -14.9232 -14.9232
   -14.9232 -14.9228 -14.9227 -14.9225 -14.9219 -14.9217 -14.9214 -14.9201
   -14.9185 -14.9179 -14.9174 -14.9172 -14.9171 -14.9169 -14.9168 -14.9167
   -14.9161 -14.9159 -14.9156 -14.9141 -14.9065 -14.9058 -14.9053 -14.9052
   -14.9052 -14.9048 -14.9048 -14.9047 -14.9040 -14.9038 -14.9035 -14.9021
   -14.8663 -14.8657 -14.8651 -14.8651 -14.8650 -14.8646 -14.8646 -14.8645
   -14.8638 -14.8636 -14.8633 -14.8620 -14.8211 -14.8205 -14.8199 -14.8198
   -14.8197 -14.8195 -14.8194 -14.8193 -14.8186 -14.8184 -14.8182 -14.8167
   -10.3393 -10.3379 -10.3373 -10.3369 -10.3365 -10.3338 -10.3332 -10.3332
   -10.3326 -10.3308 -10.3303 -10.3297 -10.3085 -10.3078 -10.3075 -10.3051
   -10.3015 -10.3006 -10.2980 -10.2973 -10.2969 -10.2922 -10.2917 -10.2910
   -10.2701 -10.2687 -10.2672 -10.2666 -10.2662 -10.2645 -10.2638 -10.2637
   -10.2628 -10.2603 -10.2595 -10.2589  -6.6200  -6.6179  -6.6159  -6.5263
    -6.5244  -6.5228  -6.3074  -6.2921  -6.2891  -6.2878  -6.2570  -6.2142
    -5.8765  -5.8577  -5.8474  -5.7803  -5.7786  -5.7744  -5.7446  -5.7413
    -5.7397  -5.7162  -5.6903  -5.6877  -5.6860  -5.6733  -5.6720  -5.6701
    -5.6681  -5.6435  -5.5609  -5.5560  -5.5551  -5.5283  -5.5240  -5.5227
    -5.5068  -5.5031  -5.5024  -5.5010  -5.4570  -5.3989  -5.3971  -5.3938
    -5.3561  -5.3231  -5.3217  -5.3162  -0.5205  -0.5068  -0.5054  -0.5043
    -0.4611  -0.4186  -0.4165  -0.4151  -0.3547  -0.2943  -0.2924  -0.2907
     1.4795   1.4821   1.4850   1.6357   1.6391   1.6397   1.6907   1.7734
     1.7763   1.7775   1.7798   1.7955   1.9776   1.9816   1.9826   2.0542
     2.1716   2.1912   2.1932   2.1948   2.2450   2.3973   2.3978   2.3993
     2.4884   2.4899   2.4911   2.5578   2.5859   2.5884   2.5901   2.5928
     2.6791   2.7348   2.7378   2.7391   2.8210   2.8239   2.8253   2.8278
     2.8979   2.9030   2.9054   2.9251   2.9364   2.9530   2.9561   2.9577
     3.0573   3.0603   3.0641   3.0880   3.0887   3.0909   3.1273   3.1802
     3.2429   3.2451   3.2468   3.2659   3.2721   3.2725   3.3198   3.3259
     3.3279   3.3298   3.3754   3.4084   3.4221   3.4652   3.4659   3.4713
     3.4922   3.4989   3.5003   3.5062   3.5355   3.5380   3.5404   3.5420
     3.5629   3.6141   3.6172   3.6194   3.6533   3.6560   3.6582   3.6974
     3.6985   3.7004   3.7202   3.7446   3.8211   3.8404   3.8415   3.8439
     3.9373   3.9399   3.9412   3.9440   4.0267   4.0302   4.0328   4.0386
     4.0666   4.0681   4.0693   4.1083   4.1121   4.1144   4.1150   4.1706
     4.2712   4.2742   4.2759   4.2900   4.3155   4.3588   4.3625   4.3630
     4.4157   4.4176   4.4221   4.4928   4.4933   4.4978   4.5085   4.5128
     4.5633   4.6653   4.6679   4.6702   5.1492   5.1565   5.1577   5.1582
     5.1587   5.1820   5.1833   5.1836   5.1978   5.1988   5.1998   5.2111
     5.2250   5.2259   5.2269   5.2507   5.2525   5.2535   5.2569   5.2681
     5.3014   5.3018   5.3030   5.3099   5.3290   5.3297   5.3315   5.3678
     5.3682   5.3694   5.3752   5.3944   5.3958   5.4087   5.4094   5.4104
     5.4322   5.4337   5.4343   5.4393   5.4845   5.4848   5.4857   5.4910
     5.5394   5.5399   5.5408   5.5439   5.5651   5.5661   5.5674   5.6052
     5.6057   5.6069   5.6380   5.6399   5.6713   5.6731   5.6747   5.7033
     5.7038   5.7044   5.7177   5.7591   5.7595   5.7606   5.8011   5.8081
     5.8201   5.8238   5.8241   5.8252   5.8898   5.8909   5.8925   6.0572
     6.0598   6.0615   6.0622   6.0764   6.1186   6.1203   6.1210   6.1350
     6.1947   6.2379   6.2391   6.2401   6.2843   6.3019   6.3028   6.3031
     6.3066   6.3846   6.3862   6.3878   6.4504   6.4667   6.4683   6.4688
     6.4916   6.4935   6.5580   6.5600   6.5601   6.6457   6.6843   6.6851
     6.6864   6.7609   6.7770   6.7786   6.7794   6.7934   6.8542   6.8548
     6.8562   6.9354   6.9360   6.9370

     highest occupied level (ev):     7.1809

!    total energy              =   -9077.18752647 Ry
     estimated scf accuracy    <          1.7E-10 Ry

     The total energy is the sum of the following terms:
     one-electron contribution =   -2776.34238219 Ry
     hartree contribution      =    2019.92920928 Ry
     xc contribution           =   -2269.38555621 Ry
     ewald contribution        =   -3895.59267272 Ry
     one-center paw contrib.   =   -2155.79612463 Ry

     convergence has been achieved in  22 iterations

     negative rho (up, down):  7.902E-01 0.000E+00

     Forces acting on atoms (cartesian axes, Ry/au):

     atom    1 type  1   force =    -0.00006958    0.00020856   -0.00018950
     atom    2 type  1   force =    -0.00017560    0.00028424   -0.00001725
     atom    3 type  1   force =    -0.00014654    0.00025638   -0.00001237
     atom    4 type  1   force =    -0.00017270    0.00024740   -0.00001673
     atom    5 type  1   force =    -0.00079961    0.00003401   -0.00017541
     atom    6 type  1   force =    -0.00013750   -0.00032194    0.00023075
     atom    7 type  1   force =    -0.00007432   -0.00038626   -0.00001087
     atom    8 type  1   force =    -0.00016880   -0.00025545    0.00005270
     atom    9 type  1   force =     0.00030750   -0.00000551   -0.00002538
     atom   10 type  1   force =     0.00031367    0.00000676   -0.00004246
     atom   11 type  1   force =     0.00029660   -0.00000648   -0.00003625
     atom   12 type  1   force =     0.00031174   -0.00000001   -0.00002877
     atom   13 type  2   force =     0.00657422    0.00136138    0.00588318
     atom   14 type  2   force =     0.00018626   -0.00036392    0.00021100
     atom   15 type  2   force =     0.00021043   -0.00039212    0.00020459
     atom   16 type  2   force =     0.00020336   -0.00037327    0.00019859
     atom   17 type  2   force =     0.00023328    0.00037617    0.00018451
     atom   18 type  2   force =     0.00024098    0.00036389    0.00017666
     atom   19 type  2   force =     0.00023318    0.00036288    0.00018636
     atom   20 type  2   force =     0.00024358    0.00038114    0.00017247
     atom   21 type  2   force =    -0.00043908    0.00002260    0.00018938
     atom   22 type  2   force =    -0.00044884    0.00003024    0.00018181
     atom   23 type  2   force =    -0.00043946    0.00001834    0.00017349
     atom   24 type  2   force =    -0.00043225    0.00002142    0.00016833
     atom   25 type  2   force =    -0.00043837   -0.00001575   -0.00018010
     atom   26 type  2   force =    -0.00033100    0.00019703   -0.00015267
     atom   27 type  2   force =    -0.00048011    0.00000811   -0.00024599
     atom   28 type  2   force =    -0.00043562   -0.00001821   -0.00018450
     atom   29 type  2   force =     0.00021024    0.00041098   -0.00021923
     atom   30 type  2   force =     0.00010281    0.00014438   -0.00032538
     atom   31 type  2   force =     0.00019657    0.00039544   -0.00019099
     atom   32 type  2   force =     0.00019961    0.00037741   -0.00020153
     atom   33 type  2   force =     0.00022988   -0.00036916   -0.00019504
     atom   34 type  2   force =     0.00024394   -0.00036783   -0.00020599
     atom   35 type  2   force =     0.00023110   -0.00037058   -0.00019422
     atom   36 type  2   force =     0.00023149   -0.00036996   -0.00019551
     atom   37 type  3   force =     0.00035364   -0.00076282   -0.00039934
     atom   38 type  3   force =     0.00024204   -0.00044680    0.00000962
     atom   39 type  3   force =     0.00023438   -0.00045744    0.00000654
     atom   40 type  3   force =     0.00030388   -0.00044237   -0.00002896
     atom   41 type  3   force =     0.00027591    0.00047685   -0.00001769
     atom   42 type  3   force =     0.00026514    0.00043560   -0.00006040
     atom   43 type  3   force =     0.00027836    0.00047537   -0.00002107
     atom   44 type  3   force =     0.00026680    0.00046822   -0.00002853
     atom   45 type  3   force =    -0.00055669   -0.00010737    0.00002124
     atom   46 type  3   force =    -0.00055212   -0.00009619    0.00006081
     atom   47 type  3   force =    -0.00084019   -0.00008795    0.00038253
     atom   48 type  3   force =    -0.00096231    0.00073148    0.00004265
     atom   49 type  4   force =     0.00035145   -0.00006731    0.00009064
     atom   50 type  4   force =     0.00035059   -0.00010569    0.00002036
     atom   51 type  4   force =     0.00035795   -0.00010648    0.00002059
     atom   52 type  4   force =     0.00035097   -0.00010356    0.00002840
     atom   53 type  4   force =    -0.00008198    0.00037357    0.00000773
     atom   54 type  4   force =    -0.00005360    0.00044001    0.00008654
     atom   55 type  4   force =    -0.00008706    0.00036113    0.00002745
     atom   56 type  4   force =    -0.00008239    0.00036299    0.00004522
     atom   57 type  4   force =    -0.00192507   -0.00306067   -0.00118665
     atom   58 type  4   force =    -0.00029938   -0.00028343    0.00007061
     atom   59 type  4   force =    -0.00024577   -0.00024632   -0.00000893
     atom   60 type  4   force =    -0.00028339   -0.00030759   -0.00000317
     atom   61 type  4   force =    -0.00027440    0.00028443    0.00000813
     atom   62 type  4   force =    -0.00020287    0.00033167    0.00003767
     atom   63 type  4   force =    -0.00023040    0.00026696   -0.00002357
     atom   64 type  4   force =    -0.00030564    0.00025207   -0.00007848
     atom   65 type  4   force =     0.00034790    0.00008891   -0.00000380
     atom   66 type  4   force =     0.00034983    0.00009341    0.00001857
     atom   67 type  4   force =     0.00034967    0.00010101    0.00000078
     atom   68 type  4   force =     0.00034774    0.00009098    0.00000303
     atom   69 type  4   force =    -0.00008711   -0.00037116   -0.00002781
     atom   70 type  4   force =     0.00004636    0.00078199   -0.00179305
     atom   71 type  4   force =    -0.00008169   -0.00030915    0.00003632
     atom   72 type  4   force =    -0.00008896   -0.00035563   -0.00002964
     atom   73 type  4   force =     0.00043632   -0.00015937   -0.00026725
     atom   74 type  4   force =     0.00011462    0.00027892   -0.00025494
     atom   75 type  4   force =     0.00005558    0.00021526   -0.00024918
     atom   76 type  4   force =    -0.00006131    0.00008627   -0.00023520
     atom   77 type  4   force =    -0.00010167   -0.00006842   -0.00022086
     atom   78 type  4   force =    -0.00015090   -0.00006425   -0.00021926
     atom   79 type  4   force =    -0.00014936   -0.00006235   -0.00023640
     atom   80 type  4   force =    -0.00015131   -0.00011625   -0.00023599
     atom   81 type  4   force =     0.00011877   -0.00009412   -0.00022407
     atom   82 type  4   force =     0.00012911   -0.00009899   -0.00023469
     atom   83 type  4   force =     0.00012985   -0.00009214   -0.00023343
     atom   84 type  4   force =     0.00012786   -0.00009456   -0.00022849
     atom   85 type  4   force =     0.00014611    0.00008991    0.00025030
     atom   86 type  4   force =     0.00008350    0.00004025    0.00025392
     atom   87 type  4   force =     0.00015662    0.00007089    0.00028847
     atom   88 type  4   force =     0.00011901    0.00008743    0.00025026
     atom   89 type  4   force =     0.00004661   -0.00014318    0.00019454
     atom   90 type  4   force =    -0.00416949   -0.00051148   -0.00239546
     atom   91 type  4   force =     0.00002784   -0.00013423    0.00023262
     atom   92 type  4   force =    -0.00000122   -0.00009043    0.00022709
     atom   93 type  4   force =    -0.00013303    0.00006886    0.00026453
     atom   94 type  4   force =    -0.00014078    0.00006767    0.00027377
     atom   95 type  4   force =    -0.00013499    0.00006879    0.00025992
     atom   96 type  4   force =    -0.00014041    0.00006450    0.00025779

     Total force =     0.011812     Total SCF correction =     0.000029
     Message from routine punch:
     Nothing written, as per user request (disk_io='none')

     init_run     :     49.38s CPU     52.70s WALL (       1 calls)
     electrons    :   2198.45s CPU   2309.97s WALL (       1 calls)
     forces       :     20.44s CPU     20.97s WALL (       1 calls)

     Called by init_run:
     wfcinit      :     42.01s CPU     44.78s WALL (       1 calls)
     potinit      :      1.17s CPU      1.22s WALL (       1 calls)
     hinit0       :      1.23s CPU      1.25s WALL (       1 calls)

     Called by electrons:
     c_bands      :   1942.49s CPU   2029.27s WALL (      22 calls)
     sum_band     :    228.38s CPU    246.66s WALL (      22 calls)
     v_of_rho     :      4.54s CPU      4.86s WALL (      23 calls)
     newd         :     17.51s CPU     23.88s WALL (      23 calls)
     PAW_pot      :      5.46s CPU      5.50s WALL (      23 calls)
     mix_rho      :      0.75s CPU      0.81s WALL (      22 calls)

     Called by c_bands:
     init_us_2    :     26.27s CPU     26.76s WALL (     322 calls)
     cegterg      :   1877.22s CPU   1963.35s WALL (     154 calls)

     Called by *egterg:
     cdiaghg      :     89.61s CPU     92.56s WALL (    1021 calls)
     h_psi        :   1042.34s CPU   1109.09s WALL (    1028 calls)
     s_psi        :    233.94s CPU    235.93s WALL (    1028 calls)
     g_psi        :      3.48s CPU      3.52s WALL (     867 calls)

     Called by h_psi:
     h_psi:calbec :    237.74s CPU    241.57s WALL (    1028 calls)
     vloc_psi     :    565.55s CPU    622.73s WALL (    1028 calls)
     add_vuspsi   :    234.41s CPU    236.46s WALL (    1028 calls)

     General routines
     calbec       :    327.98s CPU    333.47s WALL (    1210 calls)
     fft          :      4.52s CPU      4.93s WALL (     308 calls)
     ffts         :      0.77s CPU      0.80s WALL (      45 calls)
     fftw         :    449.97s CPU    503.55s WALL (  448368 calls)
     interpolate  :      0.97s CPU      1.02s WALL (      23 calls)

     Parallel routines

     PWSCF        :  37m48.86s CPU  39m44.48s WALL


   This run was terminated on:   3: 6:50  21Aug2026            

=------------------------------------------------------------------------------=
   JOB DONE.
=------------------------------------------------------------------------------=
