
     Program PWSCF v.7.3.1 starts on 21Aug2026 at  3: 4:21 

     This program is part of the open-source Quantum ESPRESSO suite
     for quantum simulation of materials; please cite
         "P. Giannozzi et al., J. Phys.:Condens. Matter 21 395502 (2009);
         "P. Giannozzi et al., J. Phys.:Condens. Matter 29 465901 (2017);
         "P. Giannozzi et al., J. Chem. Phys. 152 154105 (2020);
          URL http://www.quantum-espresso.org", 
     in publications or presentations arising from this work. More details at
     http://www.quantum-espresso.org/quote

     Parallel version (MPI & OpenMP), running on      32 processor cores
     Number of MPI processes:                32
     Threads/MPI process:                     1

     MPI processes distributed on     1 nodes
     61759 MiB available memory on the printing compute node when the environment starts

     Reading input from scf.in

     Current dimensions of program PWSCF are:
     Max number of different atomic species (ntypx) = 10
     Max number of k-points (npk) =  40000
     Max angular momentum in pseudopotentials (lmaxx) =  4
     file Cu.paw.z_11.ld1.psl.v1.0.0-low.upf: wavefunction(s)  4S 3D renormalized

     K-points division:     npool     =       2
     R & G space division:  proc/nbgrp/npool/nimage =      16
     Subspace diagonalization in iterative solution of the eigenvalue problem:
     one sub-group per band group will be used
     scalapack distributed-memory algorithm (size of sub-group:  4*  4 procs)


     Parallelization info
     --------------------
     sticks:   dense  smooth     PW     G-vecs:    dense   smooth      PW
     Min        1193     597    157               163743    57882    7779
     Max        1194     599    158               163747    57885    7784
     Sum       19099    9565   2515              2619931   926125  124485

     Using Slab Decomposition



     bravais-lattice index     =            0
     lattice parameter (alat)  =      24.0273  a.u.
     unit-cell volume          =   14752.0463 (a.u.)^3
     number of atoms/cell      =           96
     number of atomic types    =            4
     number of electrons       =       840.00
     number of Kohn-Sham states=          420
     kinetic-energy cutoff     =      60.0000  Ry
     charge density cutoff     =     480.0000  Ry
     scf convergence threshold =      1.0E-09
     mixing beta               =       0.3000
     number of iterations used =            8  plain     mixing
     Exchange-correlation=  SLA  PW   PBX  PBC
                           (   1   4   3   4   0   0   0)

     celldm(1)=  24.027274  celldm(2)=   0.000000  celldm(3)=   0.000000
     celldm(4)=   0.000000  celldm(5)=   0.000000  celldm(6)=   0.000000

     crystal axes: (cart. coord. in units of alat)
               a(1) = (   1.000000   0.000000   0.000000 )  
               a(2) = (  -0.500000   0.866025   0.000000 )  
               a(3) = (   0.000000   0.000000   1.228028 )  

     reciprocal axes: (cart. coord. in units 2 pi/alat)
               b(1) = (  1.000000  0.577351 -0.000000 )  
               b(2) = (  0.000000  1.154701  0.000000 )  
               b(3) = (  0.000000 -0.000000  0.814314 )  


     PseudoPot. # 1 for Sr read from file:
     /home/yuhansun/pseudos/SSSP-1.3.0-PBE-precision/Sr_pbe_v1.uspp.F.UPF
     MD5 check sum: 6b418c05fbe9db5448babca5e47b7a5b
     Pseudo is Ultrasoft + core correction, Zval = 10.0
     Generated by new atomic code, or converted to UPF format
     Using radial grid of  883 points,  6 beta functions with: 
                l(1) =   0
                l(2) =   0
                l(3) =   1
                l(4) =   1
                l(5) =   2
                l(6) =   2
     Q(r) pseudized with  6 coefficients,  rinner =    1.400   1.400   1.400
                                                       1.400   1.400

     PseudoPot. # 2 for Cu read from file:
     /home/yuhansun/pseudos/SSSP-1.3.0-PBE-precision/Cu.paw.z_11.ld1.psl.v1.0.0-low.upf
     MD5 check sum: 619f40885d92a09a85a8b37550532d0c
     Pseudo is Projector augmented-wave + core cor, Zval = 11.0
     Generated using &quot;atomic&quot; code by A. Dal Corso  v.6.3MaX
     Shape of augmentation charge: PSQ
     Using radial grid of 1199 points,  6 beta functions with: 
                l(1) =   0
                l(2) =   0
                l(3) =   1
                l(4) =   1
                l(5) =   2
                l(6) =   2
     Q(r) pseudized with 0 coefficients 


     PseudoPot. # 3 for Sn read from file:
     /home/yuhansun/pseudos/SSSP-1.3.0-PBE-precision/Sn_pbe_v1.uspp.F.UPF
     MD5 check sum: 4cf58ce39ec5d5d420df3dd08604eb00
     Pseudo is Ultrasoft + core correction, Zval = 14.0
     Generated by new atomic code, or converted to UPF format
     Using radial grid of  891 points,  6 beta functions with: 
                l(1) =   0
                l(2) =   0
                l(3) =   1
                l(4) =   1
                l(5) =   2
                l(6) =   2
     Q(r) pseudized with  6 coefficients,  rinner =    1.200   1.200   1.200
                                                       1.200   1.200

     PseudoPot. # 4 for S  read from file:
     /home/yuhansun/pseudos/SSSP-1.3.0-PBE-precision/s_pbe_v1.4.uspp.F.UPF
     MD5 check sum: 88d86576ff6df21479756cfb9bdac1df
     Pseudo is Ultrasoft + core correction, Zval =  6.0
     Generated by new atomic code, or converted to UPF format
     Using radial grid of  907 points,  6 beta functions with: 
                l(1) =   0
                l(2) =   0
                l(3) =   1
                l(4) =   1
                l(5) =   2
                l(6) =   2
     Q(r) pseudized with  8 coefficients,  rinner =    1.300   1.300   1.300
                                                       1.300   1.300

     atomic species   valence    mass     pseudopotential
     Sr               10.00    87.62000     Sr( 1.00)
     Cu               11.00    63.54600     Cu( 1.00)
     Sn               14.00   118.71000     Sn( 1.00)
     S                 6.00    32.06500     S ( 1.00)

     No symmetry found



   Cartesian axes

     site n.     atom                  positions (alat units)
         1        Sr     tau(   1) = (  -0.1405753   0.2434834   0.2046717  )
         2        Sr     tau(   2) = (   0.3594247   0.2434834   0.2046717  )
         3        Sr     tau(   3) = (  -0.3905753   0.6764960   0.2046717  )
         4        Sr     tau(   4) = (   0.1094247   0.6764960   0.2046717  )
         5        Sr     tau(   5) = (   0.1094247   0.1895292   0.6140139  )
         6        Sr     tau(   6) = (   0.6094247   0.1895292   0.6140139  )
         7        Sr     tau(   7) = (  -0.1405753   0.6225418   0.6140139  )
         8        Sr     tau(   8) = (   0.3594247   0.6225418   0.6140139  )
         9        Sr     tau(   9) = (   0.2811505   0.0000000   1.0233574  )
        10        Sr     tau(  10) = (   0.7811505   0.0000000   1.0233574  )
        11        Sr     tau(  11) = (   0.0311505   0.4330126   1.0233574  )
        12        Sr     tau(  12) = (   0.5311505   0.4330126   1.0233574  )
        13        Cu     tau(  13) = (  -0.1226788   0.2753211   0.5061747  )
        14        Cu     tau(  14) = (   0.3773212   0.2753211   0.5061747  )
        15        Cu     tau(  15) = (  -0.3726788   0.7083337   0.5061747  )
        16        Cu     tau(  16) = (   0.1273212   0.7083337   0.5061747  )
        17        Cu     tau(  17) = (   0.0729045   0.1891087   0.9155169  )
        18        Cu     tau(  18) = (   0.5729045   0.1891087   0.9155169  )
        19        Cu     tau(  19) = (  -0.1770956   0.6221213   0.9155169  )
        20        Cu     tau(  20) = (   0.3229044   0.6221213   0.9155169  )
        21        Cu     tau(  21) = (   0.0497750   0.4015949   0.0968325  )
        22        Cu     tau(  22) = (   0.5497750   0.4015949   0.0968325  )
        23        Cu     tau(  23) = (  -0.2002251   0.8346075   0.0968325  )
        24        Cu     tau(  24) = (   0.2997749   0.8346075   0.0968325  )
        25        Cu     tau(  25) = (   0.2997745   0.0314177   0.7218532  )
        26        Cu     tau(  26) = (   0.7997745   0.0314177   0.7218532  )
        27        Cu     tau(  27) = (   0.0497745   0.4644302   0.7218532  )
        28        Cu     tau(  28) = (   0.5497745   0.4644302   0.7218532  )
        29        Cu     tau(  29) = (   0.1273207   0.1576915   0.3125110  )
        30        Cu     tau(  30) = (   0.6273207   0.1576915   0.3125110  )
        31        Cu     tau(  31) = (  -0.1226793   0.5907041   0.3125110  )
        32        Cu     tau(  32) = (   0.3773207   0.5907041   0.3125110  )
        33        Cu     tau(  33) = (   0.3229040   0.2439039   1.1311954  )
        34        Cu     tau(  34) = (   0.8229040   0.2439039   1.1311954  )
        35        Cu     tau(  35) = (   0.0729039   0.6769164   1.1311954  )
        36        Cu     tau(  36) = (   0.5729039   0.6769164   1.1311954  )
        37        Sn     tau(  37) = (   0.8199962   0.3074503   0.8186857  )
        38        Sn     tau(  38) = (   0.3237420   0.3052877   0.8186857  )
        39        Sn     tau(  39) = (  -0.4262581   0.7383003   0.8186857  )
        40        Sn     tau(  40) = (   0.0737419   0.7383003   0.8186857  )
        41        Sn     tau(  41) = (   0.0737420   0.1277249   0.0000000  )
        42        Sn     tau(  42) = (   0.5737420   0.1277249   0.0000000  )
        43        Sn     tau(  43) = (  -0.1762581   0.5607374   0.0000000  )
        44        Sn     tau(  44) = (   0.3237419   0.5607374   0.0000000  )
        45        Sn     tau(  45) = (   0.3525160   0.0000000   0.4093422  )
        46        Sn     tau(  46) = (   0.8525160   0.0000000   0.4093422  )
        47        Sn     tau(  47) = (   0.1025160   0.4330126   0.4093422  )
        48        Sn     tau(  48) = (   0.6025160   0.4330126   0.4093422  )
        49        S      tau(  49) = (  -0.0988203   0.2103164   0.9671149  )
        50        S      tau(  50) = (   0.4011797   0.2103164   0.9671149  )
        51        S      tau(  51) = (  -0.3488203   0.6433290   0.9671149  )
        52        S      tau(  52) = (   0.1511797   0.6433290   0.9671149  )
        53        S      tau(  53) = (   0.1172707   0.2422736   0.1484293  )
        54        S      tau(  54) = (   0.6172707   0.2422736   0.1484293  )
        55        S      tau(  55) = (  -0.1327293   0.6752862   0.1484293  )
        56        S      tau(  56) = (   0.3672707   0.6752862   0.1484293  )
        57        S      tau(  57) = (  -0.0184505   0.4134352   0.5577727  )
        58        S      tau(  58) = (   0.4815495   0.4134352   0.5577727  )
        59        S      tau(  59) = (  -0.2684506   0.8464478   0.5577727  )
        60        S      tau(  60) = (   0.2315494   0.8464478   0.5577727  )
        61        S      tau(  61) = (   0.2315495   0.0195774   0.2609129  )
        62        S      tau(  62) = (   0.7315495   0.0195774   0.2609129  )
        63        S      tau(  63) = (  -0.0184505   0.4525899   0.2609129  )
        64        S      tau(  64) = (   0.4815495   0.4525899   0.2609129  )
        65        S      tau(  65) = (   0.1511797   0.2226962   1.0795986  )
        66        S      tau(  66) = (   0.6511797   0.2226962   1.0795986  )
        67        S      tau(  67) = (  -0.0988203   0.6557088   1.0795986  )
        68        S      tau(  68) = (   0.4011797   0.6557088   1.0795986  )
        69        S      tau(  69) = (   0.3672707   0.1907390   0.6702552  )
        70        S      tau(  70) = (   0.8672707   0.1907390   0.6702552  )
        71        S      tau(  71) = (   0.1172707   0.6237516   0.6702552  )
        72        S      tau(  72) = (   0.6172707   0.6237516   0.6702552  )
        73        S      tau(  73) = (  -0.0296498   0.1532012   0.4035914  )
        74        S      tau(  74) = (   0.4703502   0.1532012   0.4035914  )
        75        S      tau(  75) = (  -0.2796498   0.5862137   0.4035914  )
        76        S      tau(  76) = (   0.2203502   0.5862137   0.4035914  )
        77        S      tau(  77) = (   0.1321490   0.3307341   0.8129336  )
        78        S      tau(  78) = (   0.6321490   0.3307341   0.8129336  )
        79        S      tau(  79) = (  -0.1178511   0.7637467   0.8129336  )
        80        S      tau(  80) = (   0.3821489   0.7637467   0.8129336  )
        81        S      tau(  81) = (  -0.1024985   0.3820894   1.2222770  )
        82        S      tau(  82) = (   0.3975015   0.3820894   1.2222770  )
        83        S      tau(  83) = (  -0.3524986   0.8151020   1.2222770  )
        84        S      tau(  84) = (   0.1475014   0.8151020   1.2222770  )
        85        S      tau(  85) = (   0.1475010   0.0509231   0.8244365  )
        86        S      tau(  86) = (   0.6475010   0.0509231   0.8244365  )
        87        S      tau(  87) = (  -0.1024990   0.4839357   0.8244365  )
        88        S      tau(  88) = (   0.3975010   0.4839357   0.8244365  )
        89        S      tau(  89) = (   0.2203497   0.2798114   0.4150943  )
        90        S      tau(  90) = (   0.7203497   0.2798114   0.4150943  )
        91        S      tau(  91) = (  -0.0296503   0.7128240   0.4150943  )
        92        S      tau(  92) = (   0.4703497   0.7128240   0.4150943  )
        93        S      tau(  93) = (   0.3821485   0.1022784   0.0057509  )
        94        S      tau(  94) = (   0.8821485   0.1022784   0.0057509  )
        95        S      tau(  95) = (   0.1321485   0.5352910   0.0057509  )
        96        S      tau(  96) = (   0.6321485   0.5352910   0.0057509  )

     number of k points=    14
                       cart. coord. in units 2pi/alat
        k(    1) = (   0.0000000   0.0000000   0.0000000), wk =   0.0740741
        k(    2) = (   0.0000000   0.0000000   0.2714379), wk =   0.1481481
        k(    3) = (   0.0000000   0.3849003   0.0000000), wk =   0.1481481
        k(    4) = (   0.0000000   0.3849003   0.2714379), wk =   0.1481481
        k(    5) = (   0.3333333   0.5773505   0.0000000), wk =   0.1481481
        k(    6) = (   0.3333333   0.5773505   0.2714379), wk =   0.1481481
        k(    7) = (  -0.3333333   0.1924501   0.0000000), wk =   0.1481481
        k(    8) = (   0.3333333   0.1924502   0.0000000), wk =   0.1481481
        k(    9) = (   0.0000000  -0.3849003   0.2714379), wk =   0.1481481
        k(   10) = (  -0.3333333   0.1924501   0.2714379), wk =   0.1481481
        k(   11) = (   0.3333333   0.1924502   0.2714379), wk =   0.1481481
        k(   12) = (  -0.3333333  -0.1924502   0.2714379), wk =   0.1481481
        k(   13) = (   0.3333333  -0.1924501   0.2714379), wk =   0.1481481
        k(   14) = (  -0.3333333  -0.5773505   0.2714379), wk =   0.1481481

     Dense  grid:  2619931 G-vectors     FFT dimensions: ( 180, 180, 216)

     Smooth grid:   926125 G-vectors     FFT dimensions: ( 120, 120, 150)

     Estimated max dynamical RAM per process >       1.07 GB

     Estimated total dynamical RAM >      33.54 GB

     Initial potential from superposition of free atoms

     starting charge     827.5884, renormalised to     840.0000

     negative rho (up, down):  7.777E-01 0.000E+00
     Starting wfcs are  672 randomized atomic wfcs
     Checking if some PAW data can be deallocated... 

     total cpu time spent up to now is       48.2 secs

     Self-consistent Calculation

     iteration #  1     ecut=    60.00 Ry     beta= 0.30
     Davidson diagonalization with overlap
     ethr =  1.00E-02,  avg # of iterations =  2.0

     negative rho (up, down):  7.747E-01 0.000E+00

     total cpu time spent up to now is      135.6 secs

     total energy              =   -9070.28354620 Ry
     estimated scf accuracy    <      21.99228777 Ry

     iteration #  2     ecut=    60.00 Ry     beta= 0.30
     Davidson diagonalization with overlap
     ethr =  2.62E-03,  avg # of iterations =  4.6

     negative rho (up, down):  7.752E-01 0.000E+00

     total cpu time spent up to now is      248.7 secs

     total energy              =   -9076.61700476 Ry
     estimated scf accuracy    <       8.16733282 Ry

     iteration #  3     ecut=    60.00 Ry     beta= 0.30
     Davidson diagonalization with overlap
     ethr =  9.72E-04,  avg # of iterations =  2.0

     negative rho (up, down):  7.804E-01 0.000E+00

     total cpu time spent up to now is      345.8 secs

     total energy              =   -9076.49160653 Ry
     estimated scf accuracy    <       1.61833888 Ry

     iteration #  4     ecut=    60.00 Ry     beta= 0.30
     Davidson diagonalization with overlap
     ethr =  1.93E-04,  avg # of iterations =  5.0

     negative rho (up, down):  7.829E-01 0.000E+00

     total cpu time spent up to now is      476.6 secs

     total energy              =   -9076.71735024 Ry
     estimated scf accuracy    <       2.05256332 Ry

     iteration #  5     ecut=    60.00 Ry     beta= 0.30
     Davidson diagonalization with overlap
     ethr =  1.93E-04,  avg # of iterations =  4.4

     negative rho (up, down):  7.876E-01 0.000E+00

     total cpu time spent up to now is      576.6 secs

     total energy              =   -9077.15408586 Ry
     estimated scf accuracy    <       0.12250865 Ry

     iteration #  6     ecut=    60.00 Ry     beta= 0.30
     Davidson diagonalization with overlap
     ethr =  1.46E-05,  avg # of iterations =  6.4

     negative rho (up, down):  7.899E-01 0.000E+00

     total cpu time spent up to now is      683.8 secs

     total energy              =   -9077.18150237 Ry
     estimated scf accuracy    <       0.04104077 Ry

     iteration #  7     ecut=    60.00 Ry     beta= 0.30
     Davidson diagonalization with overlap
     ethr =  4.89E-06,  avg # of iterations =  2.1

     negative rho (up, down):  7.912E-01 0.000E+00

     total cpu time spent up to now is      770.4 secs

     total energy              =   -9077.18862379 Ry
     estimated scf accuracy    <       0.00733527 Ry

     iteration #  8     ecut=    60.00 Ry     beta= 0.30
     Davidson diagonalization with overlap
     ethr =  8.73E-07,  avg # of iterations =  6.0

     negative rho (up, down):  7.912E-01 0.000E+00

     total cpu time spent up to now is      893.4 secs

     total energy              =   -9077.17656384 Ry
     estimated scf accuracy    <       0.05726324 Ry

     iteration #  9     ecut=    60.00 Ry     beta= 0.30
     Davidson diagonalization with overlap
     ethr =  8.73E-07,  avg # of iterations =  6.3

     negative rho (up, down):  7.912E-01 0.000E+00

     total cpu time spent up to now is     1035.3 secs

     total energy              =   -9077.18631561 Ry
     estimated scf accuracy    <       0.00256154 Ry

     iteration # 10     ecut=    60.00 Ry     beta= 0.30
     Davidson diagonalization with overlap
     ethr =  3.05E-07,  avg # of iterations =  2.0

     negative rho (up, down):  7.908E-01 0.000E+00

     total cpu time spent up to now is     1116.2 secs

     total energy              =   -9077.18625203 Ry
     estimated scf accuracy    <       0.00095497 Ry

     iteration # 11     ecut=    60.00 Ry     beta= 0.30
     Davidson diagonalization with overlap
     ethr =  1.14E-07,  avg # of iterations =  5.4

     negative rho (up, down):  7.906E-01 0.000E+00

     total cpu time spent up to now is     1218.7 secs

     total energy              =   -9077.18626022 Ry
     estimated scf accuracy    <       0.00053050 Ry

     iteration # 12     ecut=    60.00 Ry     beta= 0.30
     Davidson diagonalization with overlap
     ethr =  6.32E-08,  avg # of iterations =  5.3

     negative rho (up, down):  7.905E-01 0.000E+00

     total cpu time spent up to now is     1331.7 secs

     total energy              =   -9077.18638558 Ry
     estimated scf accuracy    <       0.00036859 Ry

     iteration # 13     ecut=    60.00 Ry     beta= 0.30
     Davidson diagonalization with overlap
     ethr =  4.39E-08,  avg # of iterations =  2.0

     negative rho (up, down):  7.904E-01 0.000E+00

     total cpu time spent up to now is     1413.3 secs

     total energy              =   -9077.18637738 Ry
     estimated scf accuracy    <       0.00012271 Ry

     iteration # 14     ecut=    60.00 Ry     beta= 0.30
     Davidson diagonalization with overlap
     ethr =  1.46E-08,  avg # of iterations =  5.1

     negative rho (up, down):  7.903E-01 0.000E+00

     total cpu time spent up to now is     1508.9 secs

     total energy              =   -9077.18639937 Ry
     estimated scf accuracy    <       0.00000290 Ry

     iteration # 15     ecut=    60.00 Ry     beta= 0.30
     Davidson diagonalization with overlap
     ethr =  3.45E-10,  avg # of iterations =  8.7

     negative rho (up, down):  7.903E-01 0.000E+00

     total cpu time spent up to now is     1681.9 secs

     total energy              =   -9077.18640324 Ry
     estimated scf accuracy    <       0.00000304 Ry

     iteration # 16     ecut=    60.00 Ry     beta= 0.30
     Davidson diagonalization with overlap
     ethr =  3.45E-10,  avg # of iterations =  2.2

     negative rho (up, down):  7.902E-01 0.000E+00

     total cpu time spent up to now is     1760.8 secs

     total energy              =   -9077.18640355 Ry
     estimated scf accuracy    <       0.00000045 Ry

     iteration # 17     ecut=    60.00 Ry     beta= 0.30
     Davidson diagonalization with overlap
     ethr =  5.37E-11,  avg # of iterations =  7.4

     negative rho (up, down):  7.902E-01 0.000E+00

     total cpu time spent up to now is     1894.8 secs

     total energy              =   -9077.18640381 Ry
     estimated scf accuracy    <       0.00000050 Ry

     iteration # 18     ecut=    60.00 Ry     beta= 0.30
     Davidson diagonalization with overlap
     ethr =  5.37E-11,  avg # of iterations =  2.0

     negative rho (up, down):  7.902E-01 0.000E+00

     total cpu time spent up to now is     1971.4 secs

     total energy              =   -9077.18640379 Ry
     estimated scf accuracy    <       0.00000019 Ry

     iteration # 19     ecut=    60.00 Ry     beta= 0.30
     Davidson diagonalization with overlap
     ethr =  2.29E-11,  avg # of iterations =  6.3

     negative rho (up, down):  7.902E-01 0.000E+00

     total cpu time spent up to now is     2078.4 secs

     total energy              =   -9077.18640384 Ry
     estimated scf accuracy    <       0.00000002 Ry

     iteration # 20     ecut=    60.00 Ry     beta= 0.30
     Davidson diagonalization with overlap
     ethr =  1.89E-12,  avg # of iterations =  5.3

     negative rho (up, down):  7.902E-01 0.000E+00

     total cpu time spent up to now is     2192.6 secs

     total energy              =   -9077.18640384 Ry
     estimated scf accuracy    <       0.00000002 Ry

     iteration # 21     ecut=    60.00 Ry     beta= 0.30
     Davidson diagonalization with overlap
     ethr =  1.89E-12,  avg # of iterations =  3.3

     negative rho (up, down):  7.902E-01 0.000E+00

     total cpu time spent up to now is     2278.0 secs

     total energy              =   -9077.18640385 Ry
     estimated scf accuracy    <          4.2E-09 Ry

     iteration # 22     ecut=    60.00 Ry     beta= 0.30
     Davidson diagonalization with overlap
     ethr =  5.06E-13,  avg # of iterations =  5.7

     negative rho (up, down):  7.902E-01 0.000E+00

     total cpu time spent up to now is     2386.4 secs

     End of self-consistent calculation

          k = 0.0000 0.0000 0.0000 (115723 PWs)   bands (ev):

   -28.2894 -28.2868 -28.2772 -28.2767 -28.2756 -28.2747 -28.2745 -28.2739
   -28.2715 -28.2708 -28.2692 -28.2672 -14.9352 -14.9259 -14.9258 -14.9237
   -14.9230 -14.9229 -14.9228 -14.9220 -14.9219 -14.9202 -14.9201 -14.9199
   -14.9196 -14.9196 -14.9192 -14.9174 -14.9172 -14.9170 -14.9161 -14.9161
   -14.9144 -14.9142 -14.9138 -14.9133 -14.9078 -14.9076 -14.9068 -14.9051
   -14.9050 -14.9048 -14.9040 -14.9040 -14.9022 -14.9020 -14.9017 -14.9013
   -14.8716 -14.8677 -14.8676 -14.8648 -14.8647 -14.8647 -14.8638 -14.8638
   -14.8620 -14.8618 -14.8616 -14.8611 -14.8261 -14.8224 -14.8221 -14.8199
   -14.8198 -14.8195 -14.8187 -14.8186 -14.8170 -14.8167 -14.8164 -14.8159
   -10.3496 -10.3470 -10.3386 -10.3366 -10.3364 -10.3356 -10.3350 -10.3333
   -10.3310 -10.3286 -10.3276 -10.3224 -10.3172 -10.3128 -10.3075 -10.3060
   -10.3039 -10.3024 -10.2994 -10.2987 -10.2931 -10.2915 -10.2892 -10.2807
   -10.2771 -10.2764 -10.2691 -10.2676 -10.2656 -10.2632 -10.2622 -10.2609
   -10.2598 -10.2561 -10.2544 -10.2517  -6.8635  -6.5610  -6.5529  -6.4204
    -6.4158  -6.4128  -6.3090  -6.2994  -6.2966  -6.2214  -6.2171  -6.2162
    -6.0040  -5.9892  -5.9864  -5.8577  -5.8499  -5.8462  -5.7990  -5.7952
    -5.7909  -5.7384  -5.7318  -5.6350  -5.6180  -5.6167  -5.6119  -5.6104
    -5.6072  -5.5980  -5.5661  -5.5571  -5.5562  -5.5496  -5.5432  -5.5429
    -5.5139  -5.5076  -5.4374  -5.4281  -5.4272  -5.4172  -5.3799  -5.3705
    -5.3449  -5.3428  -5.3282  -5.2448  -0.6132  -0.6099  -0.6096  -0.3911
    -0.3886  -0.3876  -0.3516  -0.3179  -0.3158  -0.3140  -0.3034  -0.2994
     1.3809   1.3854   1.3889   1.5872   1.5949   1.6545   1.7147   1.7161
     1.7204   1.8046   1.8074   1.8109   2.0202   2.0392   2.0440   2.0788
     2.0842   2.0886   2.2482   2.2508   2.2528   2.3103   2.3119   2.4034
     2.4063   2.4070   2.4563   2.4605   2.4663   2.5450   2.5522   2.6591
     2.6652   2.6673   2.7788   2.7838   2.7896   2.8672   2.8749   2.9202
     2.9262   2.9277   2.9525   2.9540   2.9618   3.0202   3.0271   3.0322
     3.0417   3.0472   3.0484   3.1624   3.2108   3.2150   3.2157   3.2263
     3.2306   3.2549   3.2581   3.2640   3.3751   3.3790   3.3795   3.3931
     3.3977   3.4247   3.4265   3.4287   3.4350   3.4358   3.4380   3.4756
     3.4769   3.4808   3.4937   3.4954   3.4957   3.4975   3.5166   3.5202
     3.5757   3.5862   3.5876   3.6177   3.6280   3.6294   3.6802   3.6893
     3.6919   3.6926   3.6970   3.7072   3.7963   3.7986   3.8225   3.8267
     3.8300   3.9644   4.0156   4.0223   4.0225   4.0361   4.0367   4.0405
     4.1195   4.1250   4.1286   4.1293   4.1692   4.1744   4.1775   4.2000
     4.2070   4.2105   4.2120   4.2440   4.2462   4.2506   4.2794   4.2870
     4.4202   4.4251   4.4271   4.5150   4.5210   4.5218   4.5371   4.5378
     4.6178   4.6207   4.6251   4.8566   5.1248   5.1540   5.1565   5.1575
     5.1721   5.1747   5.1764   5.1788   5.1806   5.2221   5.2258   5.2271
     5.2287   5.2301   5.2313   5.2511   5.2529   5.2540   5.2661   5.2669
     5.2699   5.2780   5.2795   5.2803   5.3094   5.3109   5.3129   5.3136
     5.3158   5.3257   5.3371   5.3380   5.3396   5.3732   5.3771   5.3785
     5.4391   5.4399   5.4706   5.4713   5.4716   5.4761   5.4778   5.4785
     5.4801   5.4982   5.4998   5.6001   5.6022   5.6026   5.6174   5.6193
     5.6203   5.6277   5.6461   5.6472   5.6487   5.6573   5.6616   5.6619
     5.7233   5.7271   5.7439   5.7818   5.7829   5.7841   5.8199   5.8215
     5.8232   5.9034   5.9046   5.9066   5.9260   5.9291   5.9310   5.9968
     5.9983   6.0264   6.0272   6.0282   6.1488   6.1498   6.1521   6.1551
     6.2598   6.2616   6.2627   6.2644   6.2650   6.2671   6.2898   6.2931
     6.3347   6.3351   6.3374   6.3637   6.3646   6.3651   6.3882   6.3914
     6.3925   6.5519   6.5687   6.5723   6.5761   6.6332   6.6392   6.6405
     6.7449   6.7504   6.7505   6.7654   6.7661   6.7809   6.7830   6.7857
     6.8101   6.9662   7.1801   7.1814

          k = 0.0000 0.0000 0.2714 (115879 PWs)   bands (ev):

   -28.2895 -28.2868 -28.2772 -28.2767 -28.2756 -28.2747 -28.2745 -28.2739
   -28.2715 -28.2708 -28.2692 -28.2672 -14.9352 -14.9259 -14.9258 -14.9237
   -14.9230 -14.9229 -14.9228 -14.9220 -14.9219 -14.9202 -14.9201 -14.9199
   -14.9196 -14.9196 -14.9192 -14.9174 -14.9172 -14.9170 -14.9161 -14.9161
   -14.9144 -14.9142 -14.9138 -14.9133 -14.9078 -14.9076 -14.9068 -14.9051
   -14.9050 -14.9048 -14.9040 -14.9040 -14.9022 -14.9020 -14.9017 -14.9013
   -14.8716 -14.8677 -14.8676 -14.8648 -14.8647 -14.8647 -14.8638 -14.8638
   -14.8620 -14.8618 -14.8616 -14.8611 -14.8261 -14.8224 -14.8221 -14.8199
   -14.8198 -14.8195 -14.8187 -14.8186 -14.8170 -14.8167 -14.8164 -14.8159
   -10.3499 -10.3470 -10.3390 -10.3376 -10.3371 -10.3358 -10.3338 -10.3325
   -10.3310 -10.3291 -10.3259 -10.3232 -10.3179 -10.3123 -10.3089 -10.3061
   -10.3034 -10.3015 -10.2997 -10.2947 -10.2934 -10.2920 -10.2896 -10.2832
   -10.2769 -10.2758 -10.2686 -10.2676 -10.2658 -10.2639 -10.2619 -10.2606
   -10.2596 -10.2558 -10.2546 -10.2525  -6.8244  -6.7142  -6.4162  -6.4090
    -6.4075  -6.4041  -6.3131  -6.3039  -6.3016  -6.2340  -6.2292  -6.2267
    -6.0059  -5.9916  -5.9890  -5.8510  -5.8442  -5.8355  -5.8317  -5.7762
    -5.7720  -5.7666  -5.6585  -5.6554  -5.6524  -5.6418  -5.6280  -5.6120
    -5.6102  -5.6068  -5.5630  -5.5546  -5.5510  -5.5469  -5.5457  -5.5437
    -5.5397  -5.4549  -5.4376  -5.4335  -5.4325  -5.4221  -5.3786  -5.3460
    -5.3370  -5.3358  -5.3192  -5.2747  -0.6053  -0.6023  -0.6015  -0.4150
    -0.4124  -0.4108  -0.3491  -0.3329  -0.3025  -0.3013  -0.2993  -0.2748
     1.4057   1.4097   1.4124   1.5685   1.6094   1.6165   1.6201   1.6258
     1.6570   1.9311   1.9365   1.9392   2.0065   2.0452   2.0502   2.0531
     2.0565   2.0690   2.2774   2.2785   2.2813   2.3060   2.3866   2.3883
     2.3920   2.3952   2.4154   2.4182   2.4191   2.4582   2.6199   2.6240
     2.6255   2.6654   2.7201   2.7885   2.7968   2.7988   2.8010   2.8682
     2.8738   2.8770   2.9696   2.9762   2.9781   3.0410   3.0461   3.0514
     3.1023   3.1069   3.1114   3.1736   3.1967   3.2030   3.2054   3.2077
     3.2721   3.2750   3.2786   3.2847   3.3749   3.3828   3.3854   3.3868
     3.4168   3.4189   3.4235   3.4365   3.4393   3.4426   3.4481   3.4495
     3.4541   3.4786   3.4997   3.5152   3.5203   3.5219   3.5365   3.5401
     3.5498   3.5519   3.5536   3.6340   3.6430   3.6451   3.6493   3.6532
     3.6771   3.6808   3.6844   3.7750   3.8317   3.8728   3.8768   3.8814
     3.9081   3.9233   3.9889   3.9969   3.9982   4.0543   4.0568   4.0588
     4.0754   4.1115   4.1180   4.1202   4.1452   4.1502   4.1517   4.1644
     4.1713   4.1726   4.1782   4.2134   4.2478   4.2521   4.2561   4.2715
     4.4183   4.4221   4.4242   4.4860   4.5559   4.5603   4.5648   4.6036
     4.6057   4.6102   4.6773   4.8070   5.1358   5.1475   5.1539   5.1551
     5.1563   5.1649   5.1867   5.1877   5.1890   5.2148   5.2160   5.2182
     5.2198   5.2474   5.2489   5.2495   5.2575   5.2586   5.2605   5.2637
     5.2748   5.2779   5.2784   5.2800   5.3284   5.3294   5.3309   5.3336
     5.3348   5.3363   5.3409   5.3433   5.3440   5.3661   5.3732   5.3756
     5.3778   5.3901   5.4037   5.4202   5.4218   5.4234   5.5258   5.5326
     5.5336   5.5341   5.5814   5.5874   5.5887   5.5899   5.5908   5.6198
     5.6210   5.6217   5.6475   5.6529   5.6544   5.6615   5.6821   5.6831
     5.6842   5.7534   5.7554   5.7566   5.7901   5.7988   5.8170   5.8180
     5.8203   5.8718   5.8830   5.8852   5.8868   5.9870   5.9892   5.9914
     6.0417   6.0432   6.0453   6.0964   6.0980   6.1009   6.1759   6.1920
     6.1940   6.1956   6.2371   6.2686   6.2689   6.2711   6.3240   6.3265
     6.3290   6.3583   6.3627   6.3697   6.3731   6.3740   6.3955   6.4293
     6.4297   6.4335   6.4808   6.6373   6.6392   6.6426   6.6444   6.6452
     6.6479   6.6718   6.7086   6.7113   6.7124   6.7520   6.7546   6.7572
     6.9418   7.0054   7.0947   7.1702

          k = 0.0000 0.3849 0.0000 (115797 PWs)   bands (ev):

   -28.2894 -28.2868 -28.2772 -28.2767 -28.2756 -28.2747 -28.2745 -28.2739
   -28.2715 -28.2708 -28.2692 -28.2672 -14.9352 -14.9259 -14.9258 -14.9237
   -14.9230 -14.9229 -14.9228 -14.9220 -14.9219 -14.9202 -14.9200 -14.9199
   -14.9197 -14.9196 -14.9192 -14.9174 -14.9172 -14.9170 -14.9161 -14.9161
   -14.9144 -14.9142 -14.9138 -14.9133 -14.9078 -14.9076 -14.9068 -14.9051
   -14.9050 -14.9048 -14.9040 -14.9040 -14.9022 -14.9020 -14.9017 -14.9013
   -14.8716 -14.8677 -14.8676 -14.8648 -14.8647 -14.8647 -14.8638 -14.8638
   -14.8620 -14.8618 -14.8616 -14.8611 -14.8261 -14.8224 -14.8221 -14.8199
   -14.8198 -14.8195 -14.8187 -14.8186 -14.8170 -14.8167 -14.8164 -14.8159
   -10.3492 -10.3462 -10.3383 -10.3362 -10.3355 -10.3350 -10.3339 -10.3322
   -10.3300 -10.3295 -10.3276 -10.3242 -10.3169 -10.3113 -10.3056 -10.3049
   -10.3035 -10.3022 -10.2997 -10.2990 -10.2946 -10.2916 -10.2891 -10.2836
   -10.2777 -10.2755 -10.2689 -10.2673 -10.2662 -10.2636 -10.2627 -10.2611
   -10.2590 -10.2579 -10.2556 -10.2535  -6.7884  -6.5909  -6.5054  -6.4963
    -6.4394  -6.4341  -6.3704  -6.3482  -6.2889  -6.2832  -6.2512  -6.2458
    -5.9280  -5.9076  -5.8318  -5.8186  -5.8144  -5.7765  -5.7693  -5.7647
    -5.7312  -5.7221  -5.7184  -5.6893  -5.6879  -5.6431  -5.6402  -5.6359
    -5.6250  -5.5932  -5.5873  -5.5810  -5.5753  -5.5337  -5.5201  -5.5173
    -5.5093  -5.5047  -5.4672  -5.4487  -5.4362  -5.4259  -5.4197  -5.4151
    -5.3476  -5.3412  -5.3052  -5.2626  -0.5719  -0.5696  -0.5612  -0.4353
    -0.4053  -0.4029  -0.3784  -0.3387  -0.3366  -0.3357  -0.3144  -0.3045
     1.4182   1.4845   1.4901   1.5004   1.6392   1.6506   1.6908   1.7208
     1.7285   1.8295   1.8757   1.8831   1.9505   1.9541   1.9587   2.0279
     2.1162   2.2072   2.2298   2.2314   2.3399   2.3640   2.3856   2.3890
     2.3953   2.4106   2.4509   2.5377   2.5412   2.6082   2.6163   2.6193
     2.6551   2.7350   2.8096   2.8147   2.8186   2.8367   2.8430   2.8447
     2.8544   2.8838   2.9080   2.9123   2.9178   2.9584   2.9649   3.0039
     3.0490   3.0559   3.0602   3.1258   3.1482   3.1740   3.2028   3.2105
     3.2140   3.2356   3.2601   3.2639   3.2711   3.3226   3.3302   3.3330
     3.3410   3.3748   3.3917   3.3968   3.4341   3.4388   3.4416   3.4506
     3.4955   3.4991   3.5025   3.5089   3.5143   3.5161   3.5242   3.5453
     3.5616   3.5938   3.6077   3.6134   3.6348   3.6472   3.6738   3.6820
     3.6956   3.7022   3.7062   3.7090   3.7798   3.7852   3.8484   3.8573
     3.8977   3.9710   3.9751   3.9795   3.9823   4.0293   4.0375   4.0411
     4.0932   4.1122   4.1177   4.1227   4.1256   4.1623   4.1678   4.1784
     4.2486   4.2659   4.2704   4.2842   4.3038   4.3226   4.3261   4.3692
     4.3777   4.4155   4.4187   4.4835   4.5186   4.5265   4.5298   4.5344
     4.5871   4.5943   4.6275   4.7491   5.1423   5.1457   5.1479   5.1555
     5.1598   5.1614   5.1702   5.1751   5.2141   5.2195   5.2204   5.2228
     5.2287   5.2375   5.2481   5.2503   5.2511   5.2616   5.2679   5.2723
     5.2733   5.2900   5.3046   5.3060   5.3142   5.3193   5.3273   5.3291
     5.3373   5.3503   5.3523   5.3546   5.3588   5.3670   5.4133   5.4155
     5.4340   5.4510   5.4597   5.4641   5.4856   5.4927   5.4995   5.5010
     5.5037   5.5138   5.5290   5.5442   5.5562   5.5580   5.5621   5.6032
     5.6050   5.6295   5.6322   5.6334   5.6670   5.6768   5.6935   5.6966
     5.6979   5.7187   5.7301   5.7571   5.7746   5.7770   5.8086   5.8198
     5.8210   5.8642   5.8764   5.8781   5.9478   5.9531   5.9653   5.9674
     5.9911   6.0059   6.0097   6.0221   6.1386   6.1418   6.1454   6.1614
     6.2253   6.2300   6.2312   6.2513   6.2709   6.2867   6.2942   6.3011
     6.3624   6.3630   6.3777   6.3902   6.3928   6.4414   6.4862   6.4896
     6.5233   6.5380   6.5401   6.5768   6.6050   6.6523   6.6849   6.6895
     6.6949   6.7305   6.7365   6.7402   6.7641   6.7796   6.7942   6.8114
     6.8155   6.9043   6.9112   7.0803

          k = 0.0000 0.3849 0.2714 (115773 PWs)   bands (ev):

   -28.2894 -28.2868 -28.2772 -28.2767 -28.2756 -28.2747 -28.2745 -28.2739
   -28.2715 -28.2708 -28.2692 -28.2672 -14.9352 -14.9259 -14.9258 -14.9237
   -14.9230 -14.9229 -14.9228 -14.9220 -14.9219 -14.9202 -14.9200 -14.9199
   -14.9197 -14.9196 -14.9192 -14.9174 -14.9172 -14.9170 -14.9161 -14.9161
   -14.9144 -14.9142 -14.9138 -14.9133 -14.9078 -14.9076 -14.9068 -14.9051
   -14.9050 -14.9048 -14.9040 -14.9040 -14.9022 -14.9020 -14.9017 -14.9013
   -14.8716 -14.8677 -14.8676 -14.8648 -14.8647 -14.8647 -14.8638 -14.8638
   -14.8620 -14.8618 -14.8616 -14.8611 -14.8261 -14.8224 -14.8221 -14.8199
   -14.8198 -14.8195 -14.8187 -14.8186 -14.8170 -14.8167 -14.8164 -14.8159
   -10.3496 -10.3461 -10.3388 -10.3370 -10.3359 -10.3354 -10.3331 -10.3316
   -10.3307 -10.3284 -10.3267 -10.3248 -10.3175 -10.3109 -10.3073 -10.3053
   -10.3037 -10.3006 -10.2989 -10.2963 -10.2939 -10.2920 -10.2894 -10.2858
   -10.2777 -10.2753 -10.2689 -10.2672 -10.2659 -10.2637 -10.2627 -10.2604
   -10.2598 -10.2575 -10.2557 -10.2544  -6.7515  -6.6477  -6.5618  -6.4733
    -6.4233  -6.4187  -6.3681  -6.3327  -6.3250  -6.2623  -6.2282  -6.2230
    -5.9213  -5.9022  -5.8234  -5.8215  -5.8175  -5.8052  -5.7892  -5.7598
    -5.7558  -5.7297  -5.7092  -5.7062  -5.6697  -5.6341  -5.6311  -5.6265
    -5.6217  -5.6059  -5.6018  -5.5955  -5.5759  -5.5323  -5.5256  -5.5201
    -5.5184  -5.4930  -5.4727  -5.4377  -5.4290  -5.4222  -5.4151  -5.3605
    -5.3471  -5.3405  -5.3141  -5.2898  -0.5605  -0.5580  -0.5569  -0.4370
    -0.4342  -0.4241  -0.3954  -0.3747  -0.3187  -0.3172  -0.3007  -0.2801
     1.4325   1.4798   1.4874   1.4895   1.6251   1.6422   1.7695   1.7757
     1.7808   1.7922   1.7992   1.8073   1.9161   1.9926   1.9967   2.0787
     2.1546   2.1994   2.2111   2.2468   2.2507   2.3616   2.3940   2.3969
     2.4009   2.4488   2.5113   2.5151   2.5485   2.5863   2.5937   2.6075
     2.6436   2.7130   2.7571   2.7646   2.7715   2.7882   2.8089   2.8122
     2.8395   2.8735   2.9115   2.9156   2.9224   2.9802   3.0234   3.0264
     3.0688   3.1036   3.1090   3.1329   3.1677   3.1903   3.1943   3.1950
     3.2025   3.2311   3.2630   3.2673   3.2794   3.3184   3.3212   3.3228
     3.3266   3.3870   3.3898   3.4117   3.4406   3.4464   3.4665   3.4699
     3.4725   3.4750   3.4777   3.4804   3.5352   3.5362   3.5397   3.5901
     3.6058   3.6130   3.6151   3.6333   3.6454   3.6483   3.6546   3.6613
     3.6720   3.7080   3.7118   3.7142   3.8347   3.8418   3.8784   3.8883
     3.9055   3.9477   3.9518   3.9745   3.9829   4.0214   4.0425   4.0497
     4.0524   4.0639   4.1088   4.1133   4.1190   4.1332   4.1370   4.1476
     4.1925   4.2556   4.2666   4.2706   4.2882   4.2909   4.2967   4.3862
     4.3983   4.4360   4.4401   4.4701   4.5247   4.5274   4.5395   4.5953
     4.6074   4.6142   4.6229   4.7215   5.1492   5.1522   5.1548   5.1576
     5.1725   5.1759   5.1772   5.1841   5.1913   5.1980   5.2014   5.2078
     5.2091   5.2331   5.2354   5.2376   5.2551   5.2640   5.2666   5.2678
     5.2800   5.2982   5.3077   5.3133   5.3146   5.3292   5.3368   5.3385
     5.3577   5.3588   5.3614   5.3640   5.3809   5.3939   5.4061   5.4084
     5.4136   5.4315   5.4341   5.4452   5.4464   5.4929   5.5021   5.5028
     5.5104   5.5164   5.5536   5.5594   5.5743   5.5763   5.6019   5.6100
     5.6123   5.6195   5.6255   5.6261   5.6435   5.6697   5.6819   5.7131
     5.7162   5.7179   5.7348   5.7717   5.7740   5.7749   5.8021   5.8044
     5.8099   5.8594   5.8753   5.8772   5.8791   5.9151   5.9586   5.9610
     6.0325   6.0352   6.0379   6.0595   6.0787   6.0818   6.1738   6.2056
     6.2146   6.2155   6.2657   6.2681   6.2710   6.2790   6.2865   6.3481
     6.3516   6.3675   6.3724   6.4151   6.4233   6.4260   6.4289   6.4709
     6.4986   6.5015   6.5471   6.5599   6.5947   6.5982   6.6647   6.6701
     6.6794   6.7207   6.7350   6.7393   6.7490   6.8110   6.8170   6.8460
     6.8690   6.9285   6.9388   7.0522

          k = 0.3333 0.5774 0.0000 (115752 PWs)   bands (ev):

   -28.2894 -28.2868 -28.2772 -28.2767 -28.2756 -28.2747 -28.2745 -28.2739
   -28.2715 -28.2708 -28.2692 -28.2672 -14.9352 -14.9259 -14.9258 -14.9237
   -14.9230 -14.9229 -14.9228 -14.9220 -14.9219 -14.9202 -14.9200 -14.9199
   -14.9197 -14.9196 -14.9192 -14.9174 -14.9172 -14.9170 -14.9161 -14.9161
   -14.9144 -14.9142 -14.9138 -14.9133 -14.9078 -14.9076 -14.9068 -14.9051
   -14.9050 -14.9048 -14.9040 -14.9040 -14.9022 -14.9020 -14.9017 -14.9013
   -14.8716 -14.8677 -14.8676 -14.8648 -14.8647 -14.8647 -14.8638 -14.8638
   -14.8620 -14.8618 -14.8616 -14.8611 -14.8261 -14.8224 -14.8221 -14.8199
   -14.8198 -14.8195 -14.8187 -14.8186 -14.8170 -14.8167 -14.8164 -14.8159
   -10.3491 -10.3460 -10.3375 -10.3359 -10.3355 -10.3346 -10.3327 -10.3319
   -10.3306 -10.3295 -10.3269 -10.3258 -10.3166 -10.3109 -10.3051 -10.3046
   -10.3027 -10.3010 -10.2997 -10.2985 -10.2971 -10.2911 -10.2879 -10.2864
   -10.2778 -10.2753 -10.2683 -10.2667 -10.2654 -10.2644 -10.2635 -10.2626
   -10.2596 -10.2585 -10.2555 -10.2541  -6.6575  -6.6499  -6.6443  -6.4174
    -6.3992  -6.3986  -6.3973  -6.3960  -6.3939  -6.2929  -6.2903  -6.1946
    -5.8744  -5.8564  -5.8505  -5.7591  -5.7469  -5.7463  -5.7347  -5.7282
    -5.7268  -5.7121  -5.7060  -5.6992  -5.6946  -5.6888  -5.6860  -5.6786
    -5.6732  -5.6414  -5.5605  -5.5403  -5.5389  -5.5332  -5.5275  -5.5270
    -5.5105  -5.4768  -5.4706  -5.4703  -5.4666  -5.4585  -5.4555  -5.3949
    -5.3883  -5.3030  -5.3010  -5.2829  -0.5442  -0.5175  -0.5133  -0.5119
    -0.3989  -0.3946  -0.3916  -0.3894  -0.3880  -0.3138  -0.3084  -0.3080
     1.4787   1.4845   1.4884   1.6670   1.6741   1.6782   1.6858   1.6882
     1.6934   1.7347   1.7363   1.7991   2.0750   2.0796   2.0828   2.0860
     2.0911   2.1405   2.1451   2.1466   2.2554   2.3966   2.3975   2.4020
     2.4942   2.4951   2.4978   2.5603   2.5646   2.5674   2.5957   2.5967
     2.7676   2.7742   2.7765   2.8330   2.8373   2.8396   2.8446   2.8472
     2.8489   2.8516   2.8530   2.8565   2.8710   3.0047   3.0117   3.0147
     3.0241   3.0247   3.0295   3.0628   3.1315   3.1360   3.1402   3.1923
     3.1995   3.2010   3.2544   3.2612   3.2622   3.2710   3.2734   3.3610
     3.3678   3.3704   3.3725   3.3765   3.4240   3.4273   3.4309   3.4874
     3.4895   3.5012   3.5029   3.5066   3.5281   3.5303   3.5351   3.5465
     3.5471   3.5785   3.5809   3.5825   3.6431   3.6526   3.6547   3.7140
     3.7219   3.7237   3.7286   3.7325   3.7585   3.8006   3.8034   3.8064
     3.9576   3.9604   3.9641   3.9844   3.9869   4.0270   4.0295   4.0333
     4.0807   4.0844   4.0891   4.1380   4.1478   4.1511   4.1574   4.2856
     4.2867   4.2932   4.3123   4.3194   4.3215   4.3219   4.3237   4.3262
     4.3852   4.3880   4.3914   4.4960   4.5120   4.5161   4.5196   4.5226
     4.5289   4.6505   4.6552   4.6591   5.1373   5.1432   5.1449   5.1459
     5.1738   5.1739   5.1867   5.1886   5.1904   5.1948   5.1978   5.1998
     5.2463   5.2470   5.2495   5.2657   5.2665   5.2672   5.2974   5.2994
     5.3001   5.3016   5.3034   5.3043   5.3145   5.3184   5.3197   5.3221
     5.3390   5.3413   5.3438   5.4007   5.4037   5.4044   5.4088   5.4093
     5.4547   5.4561   5.4571   5.4598   5.4824   5.4848   5.4850   5.4888
     5.4898   5.5345   5.5366   5.5373   5.5642   5.5651   5.5658   5.5695
     5.5722   5.5735   5.6413   5.6724   5.6735   5.6924   5.6962   5.6967
     5.7058   5.7080   5.7090   5.7796   5.7810   5.7818   5.7985   5.8000
     5.8019   5.8235   5.8260   5.8452   5.9279   5.9315   5.9331   6.0452
     6.0466   6.0489   6.0498   6.0524   6.1378   6.1395   6.1404   6.1591
     6.2189   6.2196   6.2211   6.2586   6.2610   6.2621   6.2836   6.2862
     6.3758   6.4100   6.4106   6.4129   6.4171   6.4184   6.4253   6.4492
     6.4531   6.4557   6.6133   6.6167   6.6188   6.6761   6.6776   6.6805
     6.7257   6.7412   6.7420   6.8025   6.8062   6.8088   6.8107   6.8147
     6.8156   6.9364   6.9396   6.9431

          k = 0.3333 0.5774 0.2714 (115827 PWs)   bands (ev):

   -28.2894 -28.2868 -28.2772 -28.2767 -28.2756 -28.2747 -28.2745 -28.2739
   -28.2715 -28.2708 -28.2692 -28.2672 -14.9352 -14.9259 -14.9258 -14.9237
   -14.9230 -14.9229 -14.9228 -14.9220 -14.9219 -14.9202 -14.9200 -14.9199
   -14.9197 -14.9196 -14.9192 -14.9174 -14.9172 -14.9170 -14.9161 -14.9161
   -14.9144 -14.9142 -14.9138 -14.9133 -14.9078 -14.9076 -14.9068 -14.9051
   -14.9050 -14.9048 -14.9040 -14.9040 -14.9022 -14.9020 -14.9017 -14.9013
   -14.8716 -14.8677 -14.8676 -14.8648 -14.8647 -14.8647 -14.8638 -14.8638
   -14.8620 -14.8618 -14.8616 -14.8611 -14.8261 -14.8224 -14.8221 -14.8199
   -14.8198 -14.8195 -14.8187 -14.8186 -14.8170 -14.8167 -14.8164 -14.8159
   -10.3494 -10.3459 -10.3380 -10.3367 -10.3358 -10.3342 -10.3327 -10.3317
   -10.3303 -10.3290 -10.3270 -10.3255 -10.3171 -10.3108 -10.3069 -10.3045
   -10.3030 -10.3006 -10.2981 -10.2963 -10.2946 -10.2919 -10.2894 -10.2876
   -10.2777 -10.2754 -10.2684 -10.2667 -10.2653 -10.2638 -10.2635 -10.2625
   -10.2595 -10.2585 -10.2561 -10.2545  -6.6257  -6.6177  -6.6126  -6.5315
    -6.5242  -6.5202  -6.3095  -6.2994  -6.2886  -6.2875  -6.2566  -6.2160
    -5.8821  -5.8587  -5.8507  -5.7827  -5.7788  -5.7694  -5.7484  -5.7418
    -5.7340  -5.7171  -5.6944  -5.6881  -5.6819  -5.6738  -5.6726  -5.6690
    -5.6612  -5.6409  -5.5715  -5.5559  -5.5543  -5.5311  -5.5238  -5.5211
    -5.5083  -5.5026  -5.5011  -5.4977  -5.4550  -5.3996  -5.3966  -5.3870
    -5.3529  -5.3238  -5.3217  -5.3019  -0.5204  -0.5085  -0.5038  -0.5034
    -0.4612  -0.4187  -0.4165  -0.4151  -0.3547  -0.2964  -0.2921  -0.2906
     1.4772   1.4822   1.4865   1.6336   1.6380   1.6425   1.6916   1.7701
     1.7742   1.7792   1.7842   1.7951   1.9759   1.9823   1.9858   2.0565
     2.1732   2.1905   2.1930   2.1961   2.2464   2.3959   2.3988   2.4013
     2.4870   2.4900   2.4927   2.5575   2.5856   2.5864   2.5904   2.5951
     2.6782   2.7313   2.7369   2.7398   2.8197   2.8226   2.8248   2.8285
     2.8958   2.9029   2.9054   2.9268   2.9385   2.9532   2.9551   2.9603
     3.0565   3.0618   3.0637   3.0847   3.0900   3.0928   3.1276   3.1802
     3.2423   3.2454   3.2492   3.2669   3.2724   3.2749   3.3196   3.3258
     3.3282   3.3307   3.3746   3.4081   3.4217   3.4636   3.4660   3.4706
     3.4899   3.4992   3.5000   3.5022   3.5335   3.5373   3.5387   3.5424
     3.5624   3.6116   3.6181   3.6201   3.6516   3.6559   3.6590   3.6962
     3.6998   3.7021   3.7220   3.7464   3.8208   3.8391   3.8414   3.8481
     3.9349   3.9413   3.9420   3.9454   4.0232   4.0299   4.0315   4.0400
     4.0650   4.0686   4.0719   4.1069   4.1100   4.1144   4.1183   4.1703
     4.2695   4.2753   4.2771   4.2897   4.3165   4.3584   4.3635   4.3644
     4.4157   4.4188   4.4208   4.4919   4.4938   4.4988   4.5082   4.5135
     4.5646   4.6639   4.6677   4.6714   5.1486   5.1559   5.1574   5.1587
     5.1597   5.1813   5.1839   5.1846   5.1973   5.1991   5.2000   5.2112
     5.2243   5.2257   5.2273   5.2500   5.2529   5.2556   5.2578   5.2694
     5.3006   5.3032   5.3045   5.3098   5.3278   5.3300   5.3321   5.3669
     5.3686   5.3704   5.3755   5.3940   5.3960   5.4084   5.4100   5.4114
     5.4313   5.4337   5.4343   5.4396   5.4844   5.4856   5.4862   5.4923
     5.5393   5.5402   5.5408   5.5441   5.5664   5.5670   5.5678   5.6047
     5.6069   5.6077   5.6382   5.6398   5.6714   5.6730   5.6743   5.7025
     5.7042   5.7060   5.7186   5.7575   5.7607   5.7614   5.8023   5.8078
     5.8210   5.8231   5.8256   5.8263   5.8888   5.8905   5.8933   6.0558
     6.0601   6.0616   6.0625   6.0789   6.1188   6.1219   6.1229   6.1363
     6.1964   6.2373   6.2383   6.2393   6.2838   6.3008   6.3024   6.3049
     6.3090   6.3842   6.3860   6.3891   6.4505   6.4649   6.4697   6.4724
     6.4921   6.4940   6.5579   6.5598   6.5643   6.6465   6.6830   6.6872
     6.6901   6.7610   6.7769   6.7793   6.7831   6.7938   6.8524   6.8552
     6.8605   6.9335   6.9373   6.9388

          k =-0.3333 0.1925 0.0000 (115797 PWs)   bands (ev):

   -28.2894 -28.2868 -28.2772 -28.2767 -28.2756 -28.2747 -28.2745 -28.2739
   -28.2715 -28.2708 -28.2692 -28.2672 -14.9352 -14.9259 -14.9258 -14.9237
   -14.9230 -14.9229 -14.9228 -14.9220 -14.9219 -14.9202 -14.9201 -14.9199
   -14.9196 -14.9196 -14.9192 -14.9174 -14.9172 -14.9170 -14.9161 -14.9161
   -14.9144 -14.9142 -14.9138 -14.9133 -14.9078 -14.9076 -14.9068 -14.9051
   -14.9050 -14.9048 -14.9040 -14.9040 -14.9022 -14.9020 -14.9017 -14.9013
   -14.8716 -14.8677 -14.8676 -14.8648 -14.8647 -14.8647 -14.8638 -14.8638
   -14.8620 -14.8618 -14.8616 -14.8611 -14.8261 -14.8224 -14.8221 -14.8199
   -14.8198 -14.8195 -14.8187 -14.8186 -14.8170 -14.8167 -14.8164 -14.8159
   -10.3493 -10.3462 -10.3375 -10.3366 -10.3354 -10.3351 -10.3336 -10.3324
   -10.3307 -10.3293 -10.3276 -10.3241 -10.3169 -10.3113 -10.3061 -10.3049
   -10.3029 -10.3021 -10.2991 -10.2987 -10.2952 -10.2920 -10.2894 -10.2832
   -10.2778 -10.2756 -10.2687 -10.2668 -10.2657 -10.2642 -10.2627 -10.2616
   -10.2599 -10.2579 -10.2555 -10.2526  -6.7883  -6.5900  -6.5051  -6.4963
    -6.4403  -6.4358  -6.3693  -6.3479  -6.2905  -6.2825  -6.2516  -6.2468
    -5.9215  -5.9082  -5.8232  -5.8189  -5.8151  -5.7825  -5.7672  -5.7646
    -5.7346  -5.7253  -5.7179  -5.6902  -5.6882  -5.6458  -5.6413  -5.6360
    -5.6263  -5.5939  -5.5899  -5.5823  -5.5697  -5.5291  -5.5225  -5.5169
    -5.5105  -5.5029  -5.4670  -5.4485  -5.4359  -5.4259  -5.4213  -5.4139
    -5.3475  -5.3390  -5.3066  -5.2630  -0.5738  -0.5692  -0.5604  -0.4345
    -0.4069  -0.4021  -0.3778  -0.3388  -0.3375  -0.3355  -0.3136  -0.3038
     1.4162   1.4860   1.4900   1.4997   1.6386   1.6504   1.6909   1.7217
     1.7277   1.8300   1.8767   1.8788   1.9519   1.9562   1.9590   2.0271
     2.1153   2.2069   2.2279   2.2334   2.3410   2.3641   2.3864   2.3893
     2.3936   2.4117   2.4495   2.5386   2.5414   2.6065   2.6154   2.6193
     2.6544   2.7359   2.8099   2.8146   2.8219   2.8354   2.8439   2.8468
     2.8534   2.8820   2.9078   2.9124   2.9153   2.9597   2.9664   3.0049
     3.0486   3.0525   3.0603   3.1272   3.1497   3.1758   3.2008   3.2111
     3.2133   3.2351   3.2606   3.2649   3.2678   3.3237   3.3310   3.3326
     3.3418   3.3752   3.3915   3.3973   3.4318   3.4398   3.4418   3.4500
     3.4961   3.4985   3.5029   3.5094   3.5134   3.5170   3.5244   3.5455
     3.5595   3.5970   3.6073   3.6129   3.6341   3.6472   3.6775   3.6819
     3.6933   3.7035   3.7052   3.7092   3.7790   3.7850   3.8497   3.8596
     3.8983   3.9663   3.9760   3.9792   3.9836   4.0295   4.0373   4.0421
     4.0928   4.1113   4.1196   4.1225   4.1251   4.1618   4.1662   4.1787
     4.2475   4.2669   4.2712   4.2842   4.3035   4.3220   4.3255   4.3691
     4.3774   4.4155   4.4185   4.4842   4.5172   4.5282   4.5299   4.5340
     4.5883   4.5914   4.6291   4.7495   5.1423   5.1449   5.1481   5.1563
     5.1589   5.1620   5.1700   5.1750   5.2150   5.2187   5.2204   5.2224
     5.2288   5.2380   5.2482   5.2503   5.2513   5.2613   5.2680   5.2717
     5.2735   5.2899   5.3045   5.3064   5.3148   5.3194   5.3277   5.3288
     5.3366   5.3503   5.3530   5.3547   5.3585   5.3672   5.4116   5.4157
     5.4341   5.4518   5.4614   5.4630   5.4850   5.4934   5.4987   5.5011
     5.5037   5.5136   5.5291   5.5431   5.5561   5.5579   5.5619   5.6031
     5.6045   5.6286   5.6322   5.6339   5.6684   5.6780   5.6943   5.6965
     5.6982   5.7179   5.7294   5.7572   5.7744   5.7770   5.8084   5.8196
     5.8213   5.8634   5.8765   5.8784   5.9493   5.9520   5.9655   5.9670
     5.9909   6.0066   6.0087   6.0219   6.1395   6.1407   6.1458   6.1613
     6.2257   6.2295   6.2309   6.2506   6.2711   6.2886   6.2915   6.3014
     6.3614   6.3637   6.3788   6.3899   6.3924   6.4413   6.4854   6.4901
     6.5237   6.5377   6.5398   6.5766   6.6049   6.6526   6.6855   6.6901
     6.6944   6.7304   6.7371   6.7399   6.7641   6.7791   6.7949   6.8115
     6.8146   6.9041   6.9122   7.0813

          k = 0.3333 0.1925 0.0000 (115797 PWs)   bands (ev):

   -28.2894 -28.2868 -28.2772 -28.2767 -28.2756 -28.2747 -28.2745 -28.2739
   -28.2715 -28.2708 -28.2692 -28.2672 -14.9352 -14.9259 -14.9258 -14.9237
   -14.9230 -14.9229 -14.9228 -14.9219 -14.9219 -14.9202 -14.9200 -14.9199
   -14.9197 -14.9196 -14.9192 -14.9174 -14.9172 -14.9170 -14.9161 -14.9161
   -14.9144 -14.9141 -14.9138 -14.9133 -14.9078 -14.9076 -14.9068 -14.9051
   -14.9050 -14.9048 -14.9040 -14.9040 -14.9022 -14.9020 -14.9017 -14.9013
   -14.8716 -14.8677 -14.8676 -14.8648 -14.8647 -14.8647 -14.8638 -14.8638
   -14.8620 -14.8618 -14.8616 -14.8611 -14.8261 -14.8224 -14.8221 -14.8199
   -14.8198 -14.8195 -14.8187 -14.8186 -14.8170 -14.8167 -14.8164 -14.8159
   -10.3492 -10.3467 -10.3376 -10.3365 -10.3360 -10.3343 -10.3337 -10.3324
   -10.3301 -10.3296 -10.3277 -10.3244 -10.3165 -10.3118 -10.3059 -10.3050
   -10.3027 -10.3018 -10.2994 -10.2989 -10.2940 -10.2936 -10.2887 -10.2834
   -10.2768 -10.2765 -10.2684 -10.2666 -10.2660 -10.2645 -10.2622 -10.2612
   -10.2599 -10.2585 -10.2551 -10.2533  -6.7883  -6.5899  -6.5045  -6.4974
    -6.4439  -6.4327  -6.3639  -6.3537  -6.2881  -6.2841  -6.2511  -6.2474
    -5.9111  -5.9080  -5.8366  -5.8182  -5.8156  -5.7816  -5.7711  -5.7609
    -5.7299  -5.7235  -5.7204  -5.6993  -5.6850  -5.6501  -5.6400  -5.6374
    -5.6276  -5.5936  -5.5847  -5.5798  -5.5665  -5.5302  -5.5219  -5.5174
    -5.5083  -5.5029  -5.4610  -5.4466  -5.4360  -5.4331  -5.4261  -5.4127
    -5.3485  -5.3354  -5.3078  -5.2637  -0.5709  -0.5692  -0.5632  -0.4376
    -0.4038  -0.4021  -0.3764  -0.3449  -0.3371  -0.3359  -0.3111  -0.3017
     1.4208   1.4839   1.4883   1.5033   1.6413   1.6552   1.6808   1.7245
     1.7255   1.8270   1.8759   1.8798   1.9522   1.9561   1.9592   2.0292
     2.1166   2.2023   2.2292   2.2329   2.3404   2.3647   2.3820   2.3891
     2.3956   2.4121   2.4535   2.5364   2.5390   2.6077   2.6121   2.6154
     2.6604   2.7294   2.8085   2.8134   2.8218   2.8392   2.8437   2.8458
     2.8563   2.8876   2.9087   2.9103   2.9160   2.9630   2.9660   3.0051
     3.0500   3.0555   3.0596   3.1203   3.1439   3.1774   3.2049   3.2124
     3.2137   3.2317   3.2596   3.2620   3.2710   3.3257   3.3298   3.3328
     3.3360   3.3713   3.3956   3.3979   3.4344   3.4409   3.4462   3.4521
     3.4960   3.4980   3.5030   3.5098   3.5135   3.5154   3.5252   3.5436
     3.5630   3.6055   3.6068   3.6089   3.6320   3.6446   3.6766   3.6801
     3.6961   3.7001   3.7074   3.7144   3.7761   3.7803   3.8510   3.8647
     3.8956   3.9740   3.9758   3.9782   3.9821   4.0306   4.0347   4.0405
     4.0888   4.1131   4.1185   4.1208   4.1291   4.1624   4.1641   4.1789
     4.2478   4.2629   4.2690   4.2821   4.3058   4.3234   4.3264   4.3704
     4.3808   4.4138   4.4177   4.4854   4.5187   4.5266   4.5305   4.5340
     4.5919   4.5936   4.6232   4.7476   5.1433   5.1453   5.1466   5.1539
     5.1597   5.1623   5.1700   5.1764   5.2158   5.2194   5.2199   5.2223
     5.2278   5.2372   5.2489   5.2498   5.2510   5.2616   5.2685   5.2727
     5.2738   5.2898   5.3034   5.3052   5.3145   5.3192   5.3264   5.3294
     5.3386   5.3490   5.3527   5.3535   5.3578   5.3662   5.4134   5.4167
     5.4341   5.4509   5.4609   5.4626   5.4862   5.4946   5.5009   5.5029
     5.5033   5.5132   5.5271   5.5446   5.5569   5.5581   5.5623   5.6034
     5.6040   5.6302   5.6326   5.6334   5.6683   5.6790   5.6948   5.6969
     5.6991   5.7167   5.7297   5.7564   5.7758   5.7763   5.8083   5.8179
     5.8203   5.8651   5.8735   5.8763   5.9511   5.9528   5.9637   5.9660
     5.9916   6.0076   6.0095   6.0218   6.1365   6.1404   6.1462   6.1613
     6.2250   6.2288   6.2338   6.2528   6.2726   6.2886   6.2907   6.2997
     6.3604   6.3618   6.3783   6.3892   6.3931   6.4416   6.4850   6.4878
     6.5245   6.5382   6.5420   6.5774   6.6059   6.6514   6.6803   6.6937
     6.6955   6.7298   6.7370   6.7421   6.7633   6.7797   6.7928   6.8122
     6.8159   6.9054   6.9108   7.0813

          k = 0.0000-0.3849 0.2714 (115773 PWs)   bands (ev):

   -28.2894 -28.2868 -28.2772 -28.2767 -28.2756 -28.2747 -28.2745 -28.2739
   -28.2715 -28.2708 -28.2692 -28.2672 -14.9352 -14.9259 -14.9258 -14.9237
   -14.9230 -14.9229 -14.9228 -14.9220 -14.9219 -14.9202 -14.9200 -14.9199
   -14.9197 -14.9196 -14.9192 -14.9174 -14.9172 -14.9170 -14.9161 -14.9161
   -14.9144 -14.9142 -14.9138 -14.9133 -14.9078 -14.9076 -14.9068 -14.9051
   -14.9050 -14.9048 -14.9040 -14.9040 -14.9022 -14.9020 -14.9017 -14.9013
   -14.8716 -14.8677 -14.8676 -14.8648 -14.8647 -14.8647 -14.8638 -14.8638
   -14.8620 -14.8618 -14.8616 -14.8611 -14.8261 -14.8224 -14.8221 -14.8199
   -14.8198 -14.8195 -14.8187 -14.8186 -14.8170 -14.8167 -14.8164 -14.8159
   -10.3496 -10.3461 -10.3387 -10.3370 -10.3360 -10.3352 -10.3333 -10.3319
   -10.3301 -10.3285 -10.3268 -10.3248 -10.3174 -10.3114 -10.3073 -10.3038
   -10.3032 -10.3025 -10.2994 -10.2958 -10.2927 -10.2920 -10.2907 -10.2855
   -10.2774 -10.2754 -10.2687 -10.2674 -10.2665 -10.2635 -10.2623 -10.2610
   -10.2593 -10.2577 -10.2557 -10.2544  -6.7517  -6.6476  -6.5627  -6.4697
    -6.4194  -6.4164  -6.3681  -6.3433  -6.3365  -6.2690  -6.2151  -6.2098
    -5.9289  -5.9104  -5.8296  -5.8213  -5.8202  -5.8137  -5.7685  -5.7619
    -5.7513  -5.7279  -5.6857  -5.6812  -5.6769  -5.6607  -5.6414  -5.6400
    -5.6346  -5.6034  -5.5946  -5.5806  -5.5769  -5.5338  -5.5259  -5.5248
    -5.5188  -5.4888  -5.4646  -5.4429  -5.4368  -5.4271  -5.3958  -5.3689
    -5.3436  -5.3394  -5.3207  -5.2864  -0.5631  -0.5607  -0.5504  -0.4339
    -0.4288  -0.4276  -0.4129  -0.3615  -0.3218  -0.3205  -0.2919  -0.2843
     1.4042   1.4920   1.4966   1.5135   1.6126   1.7089   1.7159   1.7233
     1.7380   1.7745   1.8406   1.8499   1.9668   1.9882   2.0213   2.0222
     2.1280   2.1986   2.2086   2.2134   2.2860   2.3359   2.3969   2.4275
     2.4295   2.5199   2.5270   2.5328   2.5548   2.5568   2.5612   2.5621
     2.6007   2.6760   2.7602   2.7669   2.8225   2.8246   2.8264   2.8316
     2.8498   2.8536   2.8916   2.8990   2.9065   3.0075   3.0163   3.0216
     3.0764   3.0793   3.1169   3.1195   3.1331   3.1747   3.1823   3.1888
     3.2144   3.2458   3.2682   3.2844   3.2887   3.2980   3.3293   3.3332
     3.3717   3.3778   3.3792   3.3813   3.4454   3.4475   3.4526   3.4763
     3.4790   3.4817   3.5064   3.5203   3.5326   3.5363   3.5386   3.5576
     3.5824   3.5891   3.6101   3.6326   3.6417   3.6462   3.6791   3.6846
     3.6887   3.6970   3.7014   3.7095   3.8364   3.8433   3.8762   3.8795
     3.9406   3.9449   3.9464   3.9502   3.9729   4.0297   4.0528   4.0556
     4.0597   4.0629   4.0989   4.1026   4.1219   4.1245   4.1303   4.1347
     4.2261   4.2415   4.2688   4.2712   4.2899   4.2940   4.3152   4.3660
     4.3918   4.4336   4.4365   4.4831   4.5243   4.5441   4.5486   4.5833
     4.5934   4.5999   4.6320   4.7303   5.1467   5.1490   5.1543   5.1644
     5.1678   5.1692   5.1714   5.1738   5.2003   5.2053   5.2126   5.2169
     5.2207   5.2298   5.2411   5.2423   5.2604   5.2646   5.2655   5.2662
     5.2671   5.2746   5.3095   5.3117   5.3192   5.3337   5.3461   5.3487
     5.3599   5.3631   5.3638   5.3690   5.3707   5.3816   5.3887   5.3908
     5.4103   5.4342   5.4481   5.4520   5.4534   5.4695   5.4960   5.4991
     5.5162   5.5248   5.5566   5.5577   5.5682   5.5707   5.6012   5.6028
     5.6082   5.6198   5.6310   5.6505   5.6512   5.6607   5.6753   5.7085
     5.7101   5.7391   5.7596   5.7615   5.7708   5.7850   5.8062   5.8067
     5.8151   5.8401   5.8683   5.8688   5.8760   5.8944   5.9681   5.9711
     6.0190   6.0250   6.0280   6.1002   6.1047   6.1122   6.1601   6.1872
     6.2017   6.2044   6.2074   6.2636   6.2655   6.2887   6.3188   6.3433
     6.3542   6.3667   6.3712   6.4121   6.4209   6.4235   6.4530   6.4810
     6.4844   6.5084   6.5589   6.5674   6.6060   6.6100   6.6487   6.6662
     6.6704   6.7340   6.7396   6.7406   6.7510   6.8034   6.8074   6.8525
     6.8668   6.9199   6.9465   7.0381

          k =-0.3333 0.1925 0.2714 (115773 PWs)   bands (ev):

   -28.2894 -28.2868 -28.2772 -28.2767 -28.2756 -28.2747 -28.2745 -28.2739
   -28.2715 -28.2708 -28.2692 -28.2672 -14.9352 -14.9259 -14.9258 -14.9237
   -14.9230 -14.9229 -14.9228 -14.9220 -14.9219 -14.9202 -14.9201 -14.9199
   -14.9196 -14.9196 -14.9192 -14.9174 -14.9172 -14.9170 -14.9161 -14.9161
   -14.9144 -14.9142 -14.9138 -14.9133 -14.9078 -14.9076 -14.9068 -14.9051
   -14.9050 -14.9048 -14.9040 -14.9040 -14.9022 -14.9020 -14.9017 -14.9013
   -14.8716 -14.8677 -14.8676 -14.8648 -14.8647 -14.8647 -14.8638 -14.8638
   -14.8620 -14.8618 -14.8616 -14.8611 -14.8261 -14.8224 -14.8221 -14.8199
   -14.8198 -14.8195 -14.8187 -14.8186 -14.8170 -14.8167 -14.8164 -14.8159
   -10.3497 -10.3462 -10.3381 -10.3373 -10.3359 -10.3349 -10.3331 -10.3316
   -10.3310 -10.3293 -10.3268 -10.3243 -10.3174 -10.3112 -10.3076 -10.3049
   -10.3033 -10.3005 -10.2984 -10.2958 -10.2945 -10.2928 -10.2904 -10.2848
   -10.2777 -10.2753 -10.2685 -10.2669 -10.2658 -10.2644 -10.2623 -10.2613
   -10.2602 -10.2576 -10.2561 -10.2531  -6.7516  -6.6476  -6.5616  -6.4688
    -6.4213  -6.4165  -6.3681  -6.3444  -6.3385  -6.2684  -6.2147  -6.2091
    -5.9236  -5.9113  -5.8241  -5.8222  -5.8173  -5.8138  -5.7705  -5.7638
    -5.7533  -5.7277  -5.6911  -5.6813  -5.6782  -5.6606  -5.6433  -5.6399
    -5.6349  -5.6038  -5.5941  -5.5845  -5.5725  -5.5349  -5.5279  -5.5243
    -5.5154  -5.4870  -5.4639  -5.4420  -5.4369  -5.4268  -5.3963  -5.3691
    -5.3434  -5.3372  -5.3227  -5.2867  -0.5649  -0.5604  -0.5498  -0.4328
    -0.4309  -0.4270  -0.4114  -0.3620  -0.3223  -0.3200  -0.2917  -0.2837
     1.4026   1.4934   1.4969   1.5132   1.6117   1.7106   1.7140   1.7219
     1.7382   1.7741   1.8424   1.8477   1.9665   1.9880   2.0203   2.0255
     2.1267   2.1995   2.2090   2.2126   2.2851   2.3365   2.3978   2.4267
     2.4297   2.5188   2.5299   2.5319   2.5547   2.5583   2.5612   2.5633
     2.5990   2.6753   2.7595   2.7660   2.8217   2.8249   2.8282   2.8310
     2.8504   2.8543   2.8914   2.8990   2.9043   3.0046   3.0167   3.0239
     3.0775   3.0820   3.1136   3.1196   3.1338   3.1770   3.1815   3.1893
     3.2146   3.2449   3.2649   3.2852   3.2880   3.2980   3.3308   3.3336
     3.3756   3.3760   3.3797   3.3816   3.4459   3.4480   3.4515   3.4751
     3.4797   3.4806   3.5059   3.5205   3.5320   3.5361   3.5398   3.5576
     3.5830   3.5893   3.6084   3.6334   3.6419   3.6469   3.6819   3.6846
     3.6875   3.6971   3.7026   3.7080   3.8356   3.8431   3.8766   3.8815
     3.9371   3.9442   3.9468   3.9514   3.9743   4.0322   4.0511   4.0579
     4.0596   4.0621   4.0978   4.1017   4.1214   4.1234   4.1288   4.1349
     4.2261   4.2424   4.2690   4.2713   4.2909   4.2947   4.3151   4.3641
     4.3925   4.4326   4.4364   4.4831   4.5252   4.5444   4.5481   4.5847
     4.5939   4.5967   4.6335   4.7309   5.1465   5.1490   5.1544   5.1640
     5.1683   5.1701   5.1702   5.1741   5.1998   5.2057   5.2123   5.2176
     5.2197   5.2298   5.2411   5.2424   5.2602   5.2636   5.2659   5.2668
     5.2680   5.2741   5.3094   5.3122   5.3191   5.3337   5.3470   5.3483
     5.3602   5.3631   5.3640   5.3688   5.3711   5.3818   5.3877   5.3909
     5.4102   5.4341   5.4479   5.4516   5.4535   5.4693   5.4956   5.4991
     5.5171   5.5251   5.5562   5.5575   5.5678   5.5698   5.6018   5.6026
     5.6081   5.6208   5.6308   5.6496   5.6517   5.6612   5.6754   5.7086
     5.7102   5.7384   5.7599   5.7617   5.7705   5.7855   5.8063   5.8072
     5.8148   5.8397   5.8677   5.8691   5.8758   5.8940   5.9685   5.9706
     6.0192   6.0259   6.0279   6.1011   6.1038   6.1121   6.1592   6.1880
     6.2016   6.2040   6.2070   6.2623   6.2653   6.2886   6.3176   6.3439
     6.3553   6.3674   6.3705   6.4135   6.4206   6.4233   6.4527   6.4802
     6.4850   6.5074   6.5587   6.5675   6.6071   6.6094   6.6492   6.6672
     6.6699   6.7344   6.7388   6.7414   6.7508   6.8032   6.8069   6.8521
     6.8675   6.9194   6.9469   7.0393

          k = 0.3333 0.1925 0.2714 (115773 PWs)   bands (ev):

   -28.2894 -28.2868 -28.2772 -28.2767 -28.2756 -28.2747 -28.2745 -28.2739
   -28.2715 -28.2708 -28.2692 -28.2672 -14.9352 -14.9259 -14.9258 -14.9237
   -14.9230 -14.9229 -14.9228 -14.9219 -14.9219 -14.9202 -14.9200 -14.9199
   -14.9197 -14.9196 -14.9192 -14.9174 -14.9172 -14.9170 -14.9161 -14.9161
   -14.9144 -14.9141 -14.9138 -14.9133 -14.9078 -14.9076 -14.9068 -14.9051
   -14.9050 -14.9048 -14.9040 -14.9040 -14.9022 -14.9020 -14.9017 -14.9013
   -14.8716 -14.8677 -14.8676 -14.8648 -14.8647 -14.8647 -14.8638 -14.8638
   -14.8620 -14.8618 -14.8616 -14.8611 -14.8261 -14.8224 -14.8221 -14.8199
   -14.8198 -14.8195 -14.8187 -14.8186 -14.8170 -14.8167 -14.8164 -14.8159
   -10.3495 -10.3467 -10.3382 -10.3371 -10.3364 -10.3341 -10.3333 -10.3321
   -10.3306 -10.3287 -10.3265 -10.3253 -10.3171 -10.3110 -10.3077 -10.3057
   -10.3025 -10.3015 -10.2970 -10.2956 -10.2948 -10.2931 -10.2902 -10.2851
   -10.2769 -10.2762 -10.2682 -10.2668 -10.2660 -10.2644 -10.2621 -10.2609
   -10.2597 -10.2586 -10.2554 -10.2539  -6.7515  -6.6476  -6.5607  -6.4711
    -6.4263  -6.4136  -6.3673  -6.3408  -6.3387  -6.2678  -6.2155  -6.2096
    -5.9144  -5.9119  -5.8379  -5.8216  -5.8189  -5.8132  -5.7709  -5.7616
    -5.7507  -5.7308  -5.6894  -5.6790  -5.6775  -5.6615  -5.6525  -5.6416
    -5.6312  -5.6057  -5.5840  -5.5819  -5.5704  -5.5391  -5.5274  -5.5227
    -5.5143  -5.4829  -5.4714  -5.4404  -5.4366  -5.4332  -5.3956  -5.3664
    -5.3446  -5.3339  -5.3209  -5.2907  -0.5616  -0.5604  -0.5533  -0.4362
    -0.4293  -0.4275  -0.4095  -0.3600  -0.3268  -0.3206  -0.2891  -0.2826
     1.4073   1.4902   1.4953   1.5176   1.6106   1.7083   1.7131   1.7230
     1.7367   1.7749   1.8463   1.8475   1.9646   1.9853   2.0212   2.0243
     2.1315   2.1945   2.2068   2.2153   2.2878   2.3358   2.3950   2.4255
     2.4303   2.5193   2.5281   2.5325   2.5516   2.5576   2.5622   2.5637
     2.5970   2.6804   2.7603   2.7664   2.8158   2.8245   2.8264   2.8302
     2.8497   2.8544   2.8967   2.8980   2.9079   3.0100   3.0185   3.0203
     3.0705   3.0790   3.1154   3.1208   3.1325   3.1810   3.1836   3.1877
     3.2129   3.2452   3.2662   3.2862   3.2875   3.2966   3.3291   3.3321
     3.3746   3.3763   3.3803   3.3816   3.4472   3.4501   3.4510   3.4773
     3.4811   3.4820   3.5072   3.5201   3.5345   3.5351   3.5378   3.5560
     3.5841   3.5892   3.6116   3.6281   3.6419   3.6458   3.6801   3.6877
     3.6901   3.7001   3.7038   3.7080   3.8324   3.8358   3.8800   3.8859
     3.9407   3.9463   3.9470   3.9498   3.9716   4.0308   4.0516   4.0552
     4.0592   4.0632   4.0980   4.1008   4.1219   4.1239   4.1317   4.1334
     4.2218   4.2412   4.2654   4.2711   4.2917   4.2934   4.3172   4.3692
     4.3946   4.4329   4.4355   4.4827   4.5215   4.5434   4.5480   4.5872
     4.5973   4.6010   4.6283   4.7282   5.1477   5.1488   5.1523   5.1643
     5.1677   5.1693   5.1708   5.1740   5.1996   5.2051   5.2142   5.2182
     5.2208   5.2299   5.2417   5.2427   5.2611   5.2622   5.2641   5.2651
     5.2676   5.2747   5.3108   5.3121   5.3185   5.3352   5.3456   5.3480
     5.3601   5.3624   5.3639   5.3681   5.3702   5.3809   5.3883   5.3910
     5.4117   5.4337   5.4477   5.4529   5.4533   5.4698   5.4969   5.4989
     5.5170   5.5238   5.5563   5.5583   5.5690   5.5702   5.6024   5.6030
     5.6083   5.6202   5.6330   5.6497   5.6513   5.6602   5.6760   5.7096
     5.7111   5.7404   5.7594   5.7607   5.7703   5.7848   5.8044   5.8065
     5.8150   5.8403   5.8647   5.8684   5.8766   5.8961   5.9687   5.9692
     6.0206   6.0261   6.0272   6.1012   6.1022   6.1134   6.1614   6.1866
     6.2012   6.2045   6.2062   6.2615   6.2637   6.2880   6.3193   6.3413
     6.3558   6.3709   6.3724   6.4119   6.4184   6.4212   6.4527   6.4822
     6.4826   6.5082   6.5579   6.5677   6.6079   6.6092   6.6478   6.6670
     6.6698   6.7380   6.7391   6.7413   6.7490   6.8046   6.8088   6.8525
     6.8674   6.9188   6.9452   7.0399

          k =-0.3333-0.1925 0.2714 (115773 PWs)   bands (ev):

   -28.2894 -28.2868 -28.2772 -28.2767 -28.2756 -28.2747 -28.2745 -28.2739
   -28.2715 -28.2708 -28.2692 -28.2672 -14.9352 -14.9259 -14.9258 -14.9237
   -14.9230 -14.9229 -14.9228 -14.9219 -14.9219 -14.9202 -14.9200 -14.9199
   -14.9197 -14.9196 -14.9192 -14.9174 -14.9172 -14.9170 -14.9161 -14.9161
   -14.9144 -14.9141 -14.9138 -14.9133 -14.9078 -14.9076 -14.9068 -14.9051
   -14.9050 -14.9048 -14.9040 -14.9040 -14.9022 -14.9020 -14.9017 -14.9013
   -14.8716 -14.8677 -14.8676 -14.8648 -14.8647 -14.8647 -14.8638 -14.8638
   -14.8620 -14.8618 -14.8616 -14.8611 -14.8261 -14.8224 -14.8221 -14.8199
   -14.8198 -14.8195 -14.8187 -14.8186 -14.8170 -14.8167 -14.8164 -14.8159
   -10.3496 -10.3467 -10.3381 -10.3372 -10.3366 -10.3339 -10.3331 -10.3321
   -10.3306 -10.3289 -10.3272 -10.3246 -10.3171 -10.3116 -10.3079 -10.3048
   -10.3013 -10.3005 -10.2999 -10.2963 -10.2950 -10.2923 -10.2889 -10.2858
   -10.2768 -10.2761 -10.2678 -10.2669 -10.2662 -10.2648 -10.2621 -10.2610
   -10.2597 -10.2584 -10.2553 -10.2540  -6.7512  -6.6480  -6.5603  -6.4735
    -6.4293  -6.4171  -6.3672  -6.3304  -6.3261  -6.2624  -6.2287  -6.2233
    -5.9081  -5.9032  -5.8350  -5.8191  -5.8094  -5.8050  -5.7893  -5.7674
    -5.7557  -5.7298  -5.7113  -5.7040  -5.6702  -5.6445  -5.6320  -5.6276
    -5.6264  -5.6022  -5.5991  -5.5945  -5.5704  -5.5354  -5.5236  -5.5193
    -5.5171  -5.4988  -5.4661  -5.4313  -5.4278  -5.4255  -5.4147  -5.3651
    -5.3483  -5.3318  -5.3196  -5.2909  -0.5614  -0.5579  -0.5562  -0.4386
    -0.4346  -0.4268  -0.3926  -0.3719  -0.3235  -0.3172  -0.2979  -0.2783
     1.4358   1.4819   1.4864   1.4903   1.6275   1.6393   1.7662   1.7734
     1.7835   1.7861   1.8003   1.8033   1.9178   1.9968   1.9979   2.0775
     2.1576   2.1990   2.2082   2.2445   2.2538   2.3619   2.3921   2.3961
     2.3994   2.4517   2.5108   2.5127   2.5476   2.5857   2.5906   2.6096
     2.6460   2.7084   2.7543   2.7676   2.7719   2.7883   2.8088   2.8115
     2.8400   2.8746   2.9158   2.9170   2.9221   2.9798   3.0242   3.0265
     3.0642   3.1060   3.1098   3.1275   3.1722   3.1917   3.1926   3.1963
     3.2001   3.2337   3.2621   3.2659   3.2755   3.3178   3.3219   3.3244
     3.3253   3.3905   3.3913   3.4125   3.4457   3.4469   3.4658   3.4695
     3.4729   3.4759   3.4770   3.4806   3.5330   3.5358   3.5405   3.5869
     3.6076   3.6129   3.6155   3.6336   3.6417   3.6472   3.6594   3.6610
     3.6694   3.7091   3.7127   3.7244   3.8312   3.8361   3.8828   3.8924
     3.9045   3.9484   3.9510   3.9756   3.9816   4.0183   4.0428   4.0475
     4.0518   4.0678   4.1086   4.1114   4.1206   4.1316   4.1336   4.1489
     4.1905   4.2572   4.2664   4.2694   4.2868   4.2901   4.2974   4.3895
     4.4000   4.4352   4.4401   4.4701   4.5244   4.5270   4.5372   4.5971
     4.6112   4.6144   4.6198   4.7203   5.1516   5.1523   5.1532   5.1577
     5.1708   5.1746   5.1772   5.1844   5.1913   5.1982   5.2026   5.2086
     5.2097   5.2346   5.2348   5.2369   5.2544   5.2627   5.2662   5.2672
     5.2787   5.2991   5.3078   5.3128   5.3155   5.3296   5.3353   5.3374
     5.3578   5.3587   5.3611   5.3648   5.3805   5.3924   5.4081   5.4085
     5.4139   5.4318   5.4342   5.4450   5.4476   5.4931   5.5022   5.5038
     5.5093   5.5157   5.5544   5.5606   5.5743   5.5755   5.6045   5.6106
     5.6122   5.6196   5.6251   5.6269   5.6429   5.6716   5.6825   5.7144
     5.7155   5.7163   5.7354   5.7708   5.7740   5.7747   5.8016   5.8033
     5.8111   5.8587   5.8720   5.8753   5.8802   5.9159   5.9585   5.9603
     6.0343   6.0358   6.0391   6.0610   6.0783   6.0803   6.1734   6.2084
     6.2116   6.2143   6.2643   6.2668   6.2707   6.2783   6.2855   6.3475
     6.3501   6.3649   6.3721   6.4171   6.4241   6.4273   6.4293   6.4737
     6.4983   6.4999   6.5464   6.5600   6.5962   6.5980   6.6665   6.6706
     6.6776   6.7201   6.7354   6.7407   6.7482   6.8135   6.8158   6.8453
     6.8707   6.9291   6.9376   7.0525

          k = 0.3333-0.1925 0.2714 (115773 PWs)   bands (ev):

   -28.2894 -28.2868 -28.2772 -28.2767 -28.2756 -28.2747 -28.2745 -28.2739
   -28.2715 -28.2708 -28.2692 -28.2672 -14.9352 -14.9259 -14.9258 -14.9237
   -14.9230 -14.9229 -14.9228 -14.9220 -14.9219 -14.9202 -14.9201 -14.9199
   -14.9196 -14.9196 -14.9192 -14.9174 -14.9172 -14.9170 -14.9161 -14.9161
   -14.9144 -14.9142 -14.9138 -14.9133 -14.9078 -14.9076 -14.9068 -14.9051
   -14.9050 -14.9048 -14.9040 -14.9040 -14.9022 -14.9020 -14.9017 -14.9013
   -14.8716 -14.8677 -14.8676 -14.8648 -14.8647 -14.8647 -14.8638 -14.8638
   -14.8620 -14.8618 -14.8616 -14.8611 -14.8261 -14.8224 -14.8221 -14.8199
   -14.8198 -14.8195 -14.8187 -14.8186 -14.8170 -14.8167 -14.8164 -14.8159
   -10.3496 -10.3462 -10.3381 -10.3373 -10.3358 -10.3349 -10.3333 -10.3321
   -10.3305 -10.3292 -10.3267 -10.3244 -10.3175 -10.3112 -10.3071 -10.3050
   -10.3038 -10.3004 -10.2987 -10.2958 -10.2943 -10.2929 -10.2897 -10.2850
   -10.2776 -10.2756 -10.2690 -10.2664 -10.2657 -10.2642 -10.2627 -10.2611
   -10.2602 -10.2577 -10.2559 -10.2532  -6.7515  -6.6476  -6.5605  -6.4727
    -6.4242  -6.4201  -6.3682  -6.3331  -6.3273  -6.2617  -6.2280  -6.2224
    -5.9148  -5.9027  -5.8235  -5.8177  -5.8098  -5.8080  -5.7924  -5.7631
    -5.7568  -5.7328  -5.7095  -5.7066  -5.6717  -5.6396  -5.6295  -5.6259
    -5.6217  -5.6060  -5.6044  -5.5980  -5.5708  -5.5323  -5.5245  -5.5200
    -5.5174  -5.4938  -5.4713  -5.4365  -5.4287  -5.4220  -5.4158  -5.3603
    -5.3471  -5.3392  -5.3148  -5.2906  -0.5617  -0.5579  -0.5566  -0.4382
    -0.4340  -0.4237  -0.3948  -0.3742  -0.3192  -0.3167  -0.3000  -0.2799
     1.4302   1.4826   1.4866   1.4891   1.6247   1.6421   1.7686   1.7770
     1.7816   1.7916   1.8005   1.8028   1.9160   1.9944   1.9990   2.0784
     2.1542   2.1979   2.2109   2.2452   2.2513   2.3622   2.3941   2.3955
     2.4031   2.4484   2.5109   2.5149   2.5461   2.5882   2.5934   2.6080
     2.6435   2.7126   2.7594   2.7684   2.7714   2.7892   2.8080   2.8119
     2.8380   2.8725   2.9104   2.9177   2.9197   2.9795   3.0223   3.0278
     3.0695   3.1009   3.1096   3.1338   3.1684   3.1892   3.1944   3.1955
     3.2040   3.2308   3.2638   3.2685   3.2777   3.3186   3.3209   3.3236
     3.3271   3.3873   3.3912   3.4105   3.4426   3.4450   3.4659   3.4703
     3.4719   3.4736   3.4765   3.4821   3.5344   3.5365   3.5402   3.5913
     3.6044   3.6134   3.6154   3.6311   3.6447   3.6492   3.6564   3.6620
     3.6704   3.7098   3.7121   3.7139   3.8342   3.8419   3.8795   3.8892
     3.9061   3.9441   3.9526   3.9744   3.9843   4.0216   4.0451   4.0483
     4.0527   4.0656   4.1077   4.1113   4.1179   4.1320   4.1368   4.1469
     4.1924   4.2566   4.2669   4.2705   4.2895   4.2904   4.2970   4.3849
     4.3992   4.4352   4.4399   4.4704   4.5241   4.5268   4.5399   4.5957
     4.6090   4.6113   4.6241   4.7224   5.1494   5.1511   5.1544   5.1586
     5.1726   5.1769   5.1773   5.1838   5.1910   5.1986   5.2012   5.2078
     5.2087   5.2332   5.2349   5.2378   5.2549   5.2642   5.2658   5.2678
     5.2802   5.2976   5.3083   5.3125   5.3151   5.3287   5.3373   5.3384
     5.3582   5.3588   5.3611   5.3643   5.3808   5.3943   5.4068   5.4083
     5.4135   5.4322   5.4343   5.4443   5.4466   5.4931   5.5014   5.5030
     5.5104   5.5166   5.5535   5.5587   5.5736   5.5759   5.6023   5.6096
     5.6124   5.6195   5.6249   5.6268   5.6436   5.6704   5.6828   5.7135
     5.7163   5.7178   5.7340   5.7714   5.7743   5.7750   5.8028   5.8040
     5.8095   5.8591   5.8752   5.8773   5.8785   5.9148   5.9593   5.9608
     6.0326   6.0346   6.0374   6.0593   6.0798   6.0815   6.1740   6.2058
     6.2136   6.2151   6.2665   6.2676   6.2715   6.2781   6.2863   6.3486
     6.3512   6.3677   6.3727   6.4142   6.4244   6.4252   6.4293   6.4717
     6.4971   6.5022   6.5462   6.5610   6.5946   6.5968   6.6659   6.6686
     6.6798   6.7212   6.7349   6.7387   6.7491   6.8131   6.8151   6.8456
     6.8700   6.9292   6.9388   7.0531

          k =-0.3333-0.5774 0.2714 (115827 PWs)   bands (ev):

   -28.2894 -28.2868 -28.2772 -28.2767 -28.2756 -28.2747 -28.2745 -28.2739
   -28.2715 -28.2708 -28.2692 -28.2672 -14.9352 -14.9259 -14.9258 -14.9237
   -14.9230 -14.9229 -14.9228 -14.9220 -14.9219 -14.9202 -14.9200 -14.9199
   -14.9197 -14.9196 -14.9192 -14.9174 -14.9172 -14.9170 -14.9161 -14.9161
   -14.9144 -14.9142 -14.9138 -14.9133 -14.9078 -14.9076 -14.9068 -14.9051
   -14.9050 -14.9048 -14.9040 -14.9040 -14.9022 -14.9020 -14.9017 -14.9013
   -14.8716 -14.8677 -14.8676 -14.8648 -14.8647 -14.8647 -14.8638 -14.8638
   -14.8620 -14.8618 -14.8616 -14.8611 -14.8261 -14.8224 -14.8221 -14.8199
   -14.8198 -14.8195 -14.8187 -14.8186 -14.8170 -14.8167 -14.8164 -14.8159
   -10.3494 -10.3460 -10.3379 -10.3368 -10.3359 -10.3342 -10.3322 -10.3315
   -10.3310 -10.3288 -10.3268 -10.3257 -10.3171 -10.3107 -10.3069 -10.3052
   -10.3029 -10.3000 -10.2980 -10.2963 -10.2944 -10.2923 -10.2894 -10.2878
   -10.2775 -10.2756 -10.2682 -10.2668 -10.2655 -10.2644 -10.2627 -10.2619
   -10.2604 -10.2586 -10.2559 -10.2545  -6.6258  -6.6177  -6.6126  -6.5317
    -6.5243  -6.5199  -6.3090  -6.2994  -6.2887  -6.2876  -6.2582  -6.2146
    -5.8846  -5.8609  -5.8460  -5.7812  -5.7782  -5.7681  -5.7516  -5.7418
    -5.7343  -5.7170  -5.6964  -5.6879  -5.6817  -5.6761  -5.6718  -5.6670
    -5.6618  -5.6388  -5.5724  -5.5555  -5.5545  -5.5312  -5.5237  -5.5204
    -5.5090  -5.5029  -5.5011  -5.4982  -5.4545  -5.3992  -5.3970  -5.3862
    -5.3534  -5.3237  -5.3216  -5.3021  -0.5207  -0.5084  -0.5043  -0.5030
    -0.4604  -0.4195  -0.4163  -0.4151  -0.3549  -0.2962  -0.2921  -0.2907
     1.4767   1.4825   1.4864   1.6323   1.6395   1.6424   1.6918   1.7728
     1.7736   1.7790   1.7841   1.7938   1.9742   1.9812   1.9862   2.0574
     2.1692   2.1922   2.1939   2.1956   2.2498   2.3959   2.3979   2.4011
     2.4863   2.4904   2.4926   2.5569   2.5837   2.5899   2.5917   2.5938
     2.6784   2.7344   2.7369   2.7385   2.8171   2.8228   2.8251   2.8283
     2.8996   2.9012   2.9048   2.9259   2.9390   2.9522   2.9570   2.9595
     3.0542   3.0614   3.0644   3.0832   3.0896   3.0927   3.1266   3.1825
     3.2401   3.2453   3.2496   3.2687   3.2717   3.2746   3.3202   3.3261
     3.3288   3.3308   3.3751   3.4066   3.4210   3.4638   3.4655   3.4703
     3.4907   3.4983   3.5004   3.5030   3.5347   3.5376   3.5395   3.5429
     3.5618   3.6137   3.6173   3.6195   3.6500   3.6563   3.6591   3.6966
     3.6994   3.7026   3.7228   3.7457   3.8198   3.8384   3.8415   3.8481
     3.9355   3.9394   3.9421   3.9462   4.0265   4.0297   4.0334   4.0400
     4.0607   4.0685   4.0707   4.1041   4.1138   4.1141   4.1186   4.1702
     4.2713   4.2749   4.2765   4.2915   4.3152   4.3590   4.3625   4.3640
     4.4145   4.4190   4.4208   4.4916   4.4943   4.4993   4.5087   4.5133
     4.5647   4.6634   4.6686   4.6708   5.1484   5.1562   5.1574   5.1591
     5.1592   5.1815   5.1829   5.1852   5.1974   5.1993   5.1996   5.2116
     5.2246   5.2252   5.2275   5.2515   5.2525   5.2545   5.2577   5.2697
     5.3009   5.3029   5.3043   5.3099   5.3280   5.3297   5.3319   5.3675
     5.3684   5.3706   5.3748   5.3936   5.3962   5.4088   5.4099   5.4117
     5.4324   5.4334   5.4344   5.4398   5.4839   5.4852   5.4861   5.4920
     5.5394   5.5398   5.5406   5.5443   5.5657   5.5672   5.5681   5.6050
     5.6058   5.6086   5.6380   5.6400   5.6712   5.6725   5.6749   5.7029
     5.7046   5.7054   5.7191   5.7584   5.7603   5.7618   5.8021   5.8080
     5.8197   5.8237   5.8253   5.8266   5.8881   5.8918   5.8922   6.0557
     6.0601   6.0621   6.0637   6.0787   6.1183   6.1211   6.1232   6.1364
     6.1959   6.2360   6.2385   6.2410   6.2843   6.3003   6.3031   6.3051
     6.3075   6.3831   6.3871   6.3895   6.4499   6.4655   6.4690   6.4720
     6.4924   6.4943   6.5569   6.5611   6.5639   6.6463   6.6837   6.6877
     6.6900   6.7607   6.7763   6.7798   6.7829   6.7941   6.8528   6.8559
     6.8597   6.9335   6.9362   6.9396

     highest occupied level (ev):     7.1814

!    total energy              =   -9077.18640385 Ry
     estimated scf accuracy    <          5.5E-10 Ry

     The total energy is the sum of the following terms:
     one-electron contribution =   -2776.03870712 Ry
     hartree contribution      =    2019.78107314 Ry
     xc contribution           =   -2269.38499307 Ry
     ewald contribution        =   -3895.74729129 Ry
     one-center paw contrib.   =   -2155.79648552 Ry

     convergence has been achieved in  22 iterations

     negative rho (up, down):  7.902E-01 0.000E+00

     Forces acting on atoms (cartesian axes, Ry/au):

     atom    1 type  1   force =    -0.00010221    0.00022589   -0.00004920
     atom    2 type  1   force =    -0.00020292    0.00024980    0.00000127
     atom    3 type  1   force =    -0.00015750    0.00029876   -0.00001059
     atom    4 type  1   force =    -0.00014452    0.00026866    0.00001811
     atom    5 type  1   force =    -0.00070970   -0.00016865    0.00023244
     atom    6 type  1   force =     0.00017432   -0.00112410   -0.00109504
     atom    7 type  1   force =    -0.00006046   -0.00007573   -0.00013857
     atom    8 type  1   force =    -0.00025261   -0.00008019   -0.00008354
     atom    9 type  1   force =     0.00022714   -0.00005375    0.00001750
     atom   10 type  1   force =     0.00076123    0.00055133   -0.00008589
     atom   11 type  1   force =    -0.00001320   -0.00073397   -0.00005600
     atom   12 type  1   force =    -0.00024763    0.00042612    0.00093916
     atom   13 type  2   force =     0.00006582   -0.00082064    0.00069861
     atom   14 type  2   force =     0.00015142   -0.00043394    0.00016728
     atom   15 type  2   force =     0.00021644   -0.00036392    0.00009727
     atom   16 type  2   force =     0.00026808   -0.00030382    0.00013881
     atom   17 type  2   force =    -0.00051000    0.00059598    0.00015459
     atom   18 type  2   force =    -0.00008253   -0.00058628    0.00092436
     atom   19 type  2   force =     0.00029212    0.00035855    0.00018984
     atom   20 type  2   force =     0.00026964    0.00047403    0.00022198
     atom   21 type  2   force =    -0.00048478    0.00001203    0.00016988
     atom   22 type  2   force =    -0.00042065    0.00000535    0.00018977
     atom   23 type  2   force =    -0.00043720    0.00002235    0.00018373
     atom   24 type  2   force =    -0.00035336    0.00006020    0.00019702
     atom   25 type  2   force =    -0.00044514   -0.00006387   -0.00014141
     atom   26 type  2   force =    -0.00020209    0.00048327   -0.00023901
     atom   27 type  2   force =    -0.00030307   -0.00022328   -0.00036029
     atom   28 type  2   force =    -0.00098332    0.00058421   -0.00068181
     atom   29 type  2   force =     0.00014533    0.00035041   -0.00020155
     atom   30 type  2   force =     0.00023701    0.00039582   -0.00016757
     atom   31 type  2   force =     0.00021640    0.00038511   -0.00019063
     atom   32 type  2   force =     0.00018465    0.00038884   -0.00019586
     atom   33 type  2   force =     0.00016653   -0.00037250   -0.00009068
     atom   34 type  2   force =     0.00081314   -0.00050476   -0.00085843
     atom   35 type  2   force =     0.00024676   -0.00036682   -0.00014794
     atom   36 type  2   force =     0.00022212   -0.00036929   -0.00015097
     atom   37 type  3   force =     0.02481473   -0.01469513    0.00165809
     atom   38 type  3   force =    -0.00048670   -0.00042416   -0.00017716
     atom   39 type  3   force =     0.00016608   -0.00018558    0.00010383
     atom   40 type  3   force =     0.00000272   -0.00043368    0.00004249
     atom   41 type  3   force =     0.00005346    0.00050717   -0.00007804
     atom   42 type  3   force =     0.00011455    0.00040514    0.00009256
     atom   43 type  3   force =     0.00040584    0.00029640    0.00011188
     atom   44 type  3   force =     0.00024232    0.00052771    0.00004376
     atom   45 type  3   force =    -0.00057983   -0.00005574   -0.00004338
     atom   46 type  3   force =    -0.00056890    0.00016969    0.00013706
     atom   47 type  3   force =    -0.00062908    0.00006567    0.00007715
     atom   48 type  3   force =    -0.00029105   -0.00008763   -0.00029219
     atom   49 type  4   force =    -0.00391715    0.00465694   -0.00621818
     atom   50 type  4   force =     0.00067989    0.00016154   -0.00022123
     atom   51 type  4   force =     0.00040233   -0.00036826    0.00002316
     atom   52 type  4   force =     0.00035625   -0.00006793   -0.00010022
     atom   53 type  4   force =    -0.00002679    0.00038620    0.00003183
     atom   54 type  4   force =    -0.00011166    0.00033362   -0.00008988
     atom   55 type  4   force =    -0.00009962    0.00040237    0.00002208
     atom   56 type  4   force =    -0.00009459    0.00032511    0.00000105
     atom   57 type  4   force =    -0.00024151   -0.00021218   -0.00003133
     atom   58 type  4   force =    -0.00022042   -0.00036479    0.00034472
     atom   59 type  4   force =    -0.00024338   -0.00025730    0.00005998
     atom   60 type  4   force =    -0.00046333   -0.00052942   -0.00011209
     atom   61 type  4   force =    -0.00023322    0.00027011    0.00000068
     atom   62 type  4   force =    -0.00030034    0.00022440   -0.00001187
     atom   63 type  4   force =    -0.00022403    0.00026028    0.00000044
     atom   64 type  4   force =    -0.00030881    0.00026504    0.00006250
     atom   65 type  4   force =     0.00044983    0.00004594   -0.00007970
     atom   66 type  4   force =     0.00040268    0.00037153   -0.00002486
     atom   67 type  4   force =     0.00032156    0.00016578   -0.00007994
     atom   68 type  4   force =     0.00038319    0.00000824   -0.00004645
     atom   69 type  4   force =     0.00016551   -0.00032837    0.00004406
     atom   70 type  4   force =    -0.00296257    0.00483789    0.00557869
     atom   71 type  4   force =    -0.00023856   -0.00039719    0.00017049
     atom   72 type  4   force =     0.00005994   -0.00056779   -0.00001713
     atom   73 type  4   force =     0.00009057    0.00010739   -0.00044755
     atom   74 type  4   force =     0.00006024    0.00017970   -0.00018474
     atom   75 type  4   force =     0.00001632    0.00016770   -0.00019936
     atom   76 type  4   force =     0.00004619    0.00014732   -0.00024064
     atom   77 type  4   force =     0.00011932   -0.00017437   -0.00016045
     atom   78 type  4   force =    -0.01575678    0.00274230   -0.00088047
     atom   79 type  4   force =    -0.00006384    0.00024755   -0.00033434
     atom   80 type  4   force =    -0.00020748   -0.00019948   -0.00036198
     atom   81 type  4   force =     0.00004751    0.00008014   -0.00015508
     atom   82 type  4   force =     0.00019093   -0.00008241   -0.00033382
     atom   83 type  4   force =     0.00015673   -0.00013926   -0.00025602
     atom   84 type  4   force =     0.00011086   -0.00003112   -0.00026593
     atom   85 type  4   force =     0.00021732    0.00003392    0.00028928
     atom   86 type  4   force =     0.00021192    0.00007530    0.00012896
     atom   87 type  4   force =    -0.00027205    0.00210527    0.00022328
     atom   88 type  4   force =     0.00044021   -0.00000348    0.00033670
     atom   89 type  4   force =     0.00005813   -0.00015035    0.00024132
     atom   90 type  4   force =    -0.00019554   -0.00002947    0.00023766
     atom   91 type  4   force =    -0.00000716   -0.00016969    0.00026645
     atom   92 type  4   force =     0.00005391   -0.00020860    0.00027009
     atom   93 type  4   force =    -0.00018998    0.00005177    0.00024214
     atom   94 type  4   force =    -0.00012793   -0.00007808    0.00060557
     atom   95 type  4   force =    -0.00012296    0.00009012    0.00022621
     atom   96 type  4   force =    -0.00020108    0.00003501    0.00017321

     Total force =     0.035526     Total SCF correction =     0.000026
     Message from routine punch:
     Nothing written, as per user request (disk_io='none')

     init_run     :     43.95s CPU     47.86s WALL (       1 calls)
     electrons    :   2196.76s CPU   2338.22s WALL (       1 calls)
     forces       :     18.94s CPU     19.73s WALL (       1 calls)

     Called by init_run:
     wfcinit      :     40.32s CPU     43.66s WALL (       1 calls)
     potinit      :      1.10s CPU      1.15s WALL (       1 calls)
     hinit0       :      1.25s CPU      1.28s WALL (       1 calls)

     Called by electrons:
     c_bands      :   1944.45s CPU   2049.30s WALL (      22 calls)
     sum_band     :    227.31s CPU    252.88s WALL (      22 calls)
     v_of_rho     :      4.26s CPU      4.74s WALL (      23 calls)
     newd         :     15.01s CPU     25.86s WALL (      23 calls)
     PAW_pot      :      5.55s CPU      5.58s WALL (      23 calls)
     mix_rho      :      0.77s CPU      0.84s WALL (      22 calls)

     Called by c_bands:
     init_us_2    :     23.23s CPU     24.12s WALL (     322 calls)
     cegterg      :   1884.65s CPU   1988.72s WALL (     154 calls)

     Called by *egterg:
     cdiaghg      :     77.91s CPU     80.96s WALL (     865 calls)
     h_psi        :   1060.84s CPU   1136.83s WALL (     872 calls)
     s_psi        :    221.57s CPU    223.36s WALL (     872 calls)
     g_psi        :      3.35s CPU      3.38s WALL (     711 calls)

     Called by h_psi:
     h_psi:calbec :    230.98s CPU    234.03s WALL (     872 calls)
     vloc_psi     :    602.72s CPU    666.88s WALL (     872 calls)
     add_vuspsi   :    223.10s CPU    225.04s WALL (     872 calls)

     General routines
     calbec       :    321.78s CPU    325.88s WALL (    1054 calls)
     fft          :      4.52s CPU      4.99s WALL (     308 calls)
     ffts         :      0.76s CPU      0.79s WALL (      45 calls)
     fftw         :    555.18s CPU    626.61s WALL (  439248 calls)
     interpolate  :      0.94s CPU      1.00s WALL (      23 calls)

     Parallel routines

     PWSCF        :  37m39.90s CPU  40m 6.46s WALL


   This run was terminated on:   3:44:28  21Aug2026            

=------------------------------------------------------------------------------=
   JOB DONE.
=------------------------------------------------------------------------------=
