
     Program PWSCF v.7.3.1 starts on 21Aug2026 at  3: 0:34 

     This program is part of the open-source Quantum ESPRESSO suite
     for quantum simulation of materials; please cite
         "P. Giannozzi et al., J. Phys.:Condens. Matter 21 395502 (2009);
         "P. Giannozzi et al., J. Phys.:Condens. Matter 29 465901 (2017);
         "P. Giannozzi et al., J. Chem. Phys. 152 154105 (2020);
          URL http://www.quantum-espresso.org", 
     in publications or presentations arising from this work. More details at
     http://www.quantum-espresso.org/quote

     Parallel version (MPI & OpenMP), running on      32 processor cores
     Number of MPI processes:                32
     Threads/MPI process:                     1

     MPI processes distributed on     1 nodes
     136441 MiB available memory on the printing compute node when the environment starts

     Reading input from scf.in

     Current dimensions of program PWSCF are:
     Max number of different atomic species (ntypx) = 10
     Max number of k-points (npk) =  40000
     Max angular momentum in pseudopotentials (lmaxx) =  4
     file Cu.paw.z_11.ld1.psl.v1.0.0-low.upf: wavefunction(s)  4S 3D renormalized

     K-points division:     npool     =       2
     R & G space division:  proc/nbgrp/npool/nimage =      16
     Subspace diagonalization in iterative solution of the eigenvalue problem:
     one sub-group per band group will be used
     scalapack distributed-memory algorithm (size of sub-group:  4*  4 procs)


     Parallelization info
     --------------------
     sticks:   dense  smooth     PW     G-vecs:    dense   smooth      PW
     Min        1193     597    157               163743    57882    7779
     Max        1194     599    158               163747    57885    7784
     Sum       19099    9565   2515              2619931   926125  124485

     Using Slab Decomposition



     bravais-lattice index     =            0
     lattice parameter (alat)  =      24.0273  a.u.
     unit-cell volume          =   14752.0463 (a.u.)^3
     number of atoms/cell      =           96
     number of atomic types    =            4
     number of electrons       =       840.00
     number of Kohn-Sham states=          420
     kinetic-energy cutoff     =      60.0000  Ry
     charge density cutoff     =     480.0000  Ry
     scf convergence threshold =      1.0E-09
     mixing beta               =       0.3000
     number of iterations used =            8  plain     mixing
     Exchange-correlation=  SLA  PW   PBX  PBC
                           (   1   4   3   4   0   0   0)

     celldm(1)=  24.027274  celldm(2)=   0.000000  celldm(3)=   0.000000
     celldm(4)=   0.000000  celldm(5)=   0.000000  celldm(6)=   0.000000

     crystal axes: (cart. coord. in units of alat)
               a(1) = (   1.000000   0.000000   0.000000 )  
               a(2) = (  -0.500000   0.866025   0.000000 )  
               a(3) = (   0.000000   0.000000   1.228028 )  

     reciprocal axes: (cart. coord. in units 2 pi/alat)
               b(1) = (  1.000000  0.577351 -0.000000 )  
               b(2) = (  0.000000  1.154701  0.000000 )  
               b(3) = (  0.000000 -0.000000  0.814314 )  


     PseudoPot. # 1 for Sr read from file:
     /home/yuhansun/pseudos/SSSP-1.3.0-PBE-precision/Sr_pbe_v1.uspp.F.UPF
     MD5 check sum: 6b418c05fbe9db5448babca5e47b7a5b
     Pseudo is Ultrasoft + core correction, Zval = 10.0
     Generated by new atomic code, or converted to UPF format
     Using radial grid of  883 points,  6 beta functions with: 
                l(1) =   0
                l(2) =   0
                l(3) =   1
                l(4) =   1
                l(5) =   2
                l(6) =   2
     Q(r) pseudized with  6 coefficients,  rinner =    1.400   1.400   1.400
                                                       1.400   1.400

     PseudoPot. # 2 for Cu read from file:
     /home/yuhansun/pseudos/SSSP-1.3.0-PBE-precision/Cu.paw.z_11.ld1.psl.v1.0.0-low.upf
     MD5 check sum: 619f40885d92a09a85a8b37550532d0c
     Pseudo is Projector augmented-wave + core cor, Zval = 11.0
     Generated using &quot;atomic&quot; code by A. Dal Corso  v.6.3MaX
     Shape of augmentation charge: PSQ
     Using radial grid of 1199 points,  6 beta functions with: 
                l(1) =   0
                l(2) =   0
                l(3) =   1
                l(4) =   1
                l(5) =   2
                l(6) =   2
     Q(r) pseudized with 0 coefficients 


     PseudoPot. # 3 for Sn read from file:
     /home/yuhansun/pseudos/SSSP-1.3.0-PBE-precision/Sn_pbe_v1.uspp.F.UPF
     MD5 check sum: 4cf58ce39ec5d5d420df3dd08604eb00
     Pseudo is Ultrasoft + core correction, Zval = 14.0
     Generated by new atomic code, or converted to UPF format
     Using radial grid of  891 points,  6 beta functions with: 
                l(1) =   0
                l(2) =   0
                l(3) =   1
                l(4) =   1
                l(5) =   2
                l(6) =   2
     Q(r) pseudized with  6 coefficients,  rinner =    1.200   1.200   1.200
                                                       1.200   1.200

     PseudoPot. # 4 for S  read from file:
     /home/yuhansun/pseudos/SSSP-1.3.0-PBE-precision/s_pbe_v1.4.uspp.F.UPF
     MD5 check sum: 88d86576ff6df21479756cfb9bdac1df
     Pseudo is Ultrasoft + core correction, Zval =  6.0
     Generated by new atomic code, or converted to UPF format
     Using radial grid of  907 points,  6 beta functions with: 
                l(1) =   0
                l(2) =   0
                l(3) =   1
                l(4) =   1
                l(5) =   2
                l(6) =   2
     Q(r) pseudized with  8 coefficients,  rinner =    1.300   1.300   1.300
                                                       1.300   1.300

     atomic species   valence    mass     pseudopotential
     Sr               10.00    87.62000     Sr( 1.00)
     Cu               11.00    63.54600     Cu( 1.00)
     Sn               14.00   118.71000     Sn( 1.00)
     S                 6.00    32.06500     S ( 1.00)

     No symmetry found



   Cartesian axes

     site n.     atom                  positions (alat units)
         1        Sr     tau(   1) = (  -0.1405753   0.2434834   0.2046717  )
         2        Sr     tau(   2) = (   0.3594247   0.2434834   0.2046717  )
         3        Sr     tau(   3) = (  -0.3905753   0.6764960   0.2046717  )
         4        Sr     tau(   4) = (   0.1094247   0.6764960   0.2046717  )
         5        Sr     tau(   5) = (   0.1094247   0.1895292   0.6140139  )
         6        Sr     tau(   6) = (   0.6094247   0.1895292   0.6140139  )
         7        Sr     tau(   7) = (  -0.1405753   0.6225418   0.6140139  )
         8        Sr     tau(   8) = (   0.3594247   0.6225418   0.6140139  )
         9        Sr     tau(   9) = (   0.2811505   0.0000000   1.0233574  )
        10        Sr     tau(  10) = (   0.7811505   0.0000000   1.0233574  )
        11        Sr     tau(  11) = (   0.0311505   0.4330126   1.0233574  )
        12        Sr     tau(  12) = (   0.5311505   0.4330126   1.0233574  )
        13        Cu     tau(  13) = (  -0.1226788   0.2753211   0.5061747  )
        14        Cu     tau(  14) = (   0.3773212   0.2753211   0.5061747  )
        15        Cu     tau(  15) = (  -0.3726788   0.7083337   0.5061747  )
        16        Cu     tau(  16) = (   0.1273212   0.7083337   0.5061747  )
        17        Cu     tau(  17) = (   0.0729045   0.1891087   0.9155169  )
        18        Cu     tau(  18) = (   0.5729045   0.1891087   0.9155169  )
        19        Cu     tau(  19) = (  -0.1770956   0.6221213   0.9155169  )
        20        Cu     tau(  20) = (   0.3229044   0.6221213   0.9155169  )
        21        Cu     tau(  21) = (   0.0497750   0.4015949   0.0968325  )
        22        Cu     tau(  22) = (   0.5497750   0.4015949   0.0968325  )
        23        Cu     tau(  23) = (  -0.2002251   0.8346075   0.0968325  )
        24        Cu     tau(  24) = (   0.2997749   0.8346075   0.0968325  )
        25        Cu     tau(  25) = (   0.2997745   0.0314177   0.7218532  )
        26        Cu     tau(  26) = (   0.7997745   0.0314177   0.7218532  )
        27        Cu     tau(  27) = (   0.0497745   0.4644302   0.7218532  )
        28        Cu     tau(  28) = (   0.5497745   0.4644302   0.7218532  )
        29        Cu     tau(  29) = (   0.1273207   0.1576915   0.3125110  )
        30        Cu     tau(  30) = (   0.6273207   0.1576915   0.3125110  )
        31        Cu     tau(  31) = (  -0.1226793   0.5907041   0.3125110  )
        32        Cu     tau(  32) = (   0.3773207   0.5907041   0.3125110  )
        33        Cu     tau(  33) = (   0.3229040   0.2439039   1.1311954  )
        34        Cu     tau(  34) = (   0.8229040   0.2439039   1.1311954  )
        35        Cu     tau(  35) = (   0.0729039   0.6769164   1.1311954  )
        36        Cu     tau(  36) = (   0.5729039   0.6769164   1.1311954  )
        37        Sn     tau(  37) = (  -0.1725123   0.3031251   0.8186857  )
        38        Sn     tau(  38) = (   0.3237420   0.3052877   0.8186857  )
        39        Sn     tau(  39) = (  -0.4262581   0.7383003   0.8186857  )
        40        Sn     tau(  40) = (   0.0737419   0.7383003   0.8186857  )
        41        Sn     tau(  41) = (   0.0737420   0.1277249   0.0000000  )
        42        Sn     tau(  42) = (   0.5737420   0.1277249   0.0000000  )
        43        Sn     tau(  43) = (  -0.1762581   0.5607374   0.0000000  )
        44        Sn     tau(  44) = (   0.3237419   0.5607374   0.0000000  )
        45        Sn     tau(  45) = (   0.3525160   0.0000000   0.4093422  )
        46        Sn     tau(  46) = (   0.8525160   0.0000000   0.4093422  )
        47        Sn     tau(  47) = (   0.1025160   0.4330126   0.4093422  )
        48        Sn     tau(  48) = (   0.6025160   0.4330126   0.4093422  )
        49        S      tau(  49) = (  -0.0988203   0.2103164   0.9671149  )
        50        S      tau(  50) = (   0.4011797   0.2103164   0.9671149  )
        51        S      tau(  51) = (  -0.3488203   0.6433290   0.9671149  )
        52        S      tau(  52) = (   0.1511797   0.6433290   0.9671149  )
        53        S      tau(  53) = (   0.1172707   0.2422736   0.1484293  )
        54        S      tau(  54) = (   0.6172707   0.2422736   0.1484293  )
        55        S      tau(  55) = (  -0.1327293   0.6752862   0.1484293  )
        56        S      tau(  56) = (   0.3672707   0.6752862   0.1484293  )
        57        S      tau(  57) = (  -0.0184505   0.4134352   0.5577727  )
        58        S      tau(  58) = (   0.4815495   0.4134352   0.5577727  )
        59        S      tau(  59) = (  -0.2684506   0.8464478   0.5577727  )
        60        S      tau(  60) = (   0.2315494   0.8464478   0.5577727  )
        61        S      tau(  61) = (   0.2315495   0.0195774   0.2609129  )
        62        S      tau(  62) = (   0.7315495   0.0195774   0.2609129  )
        63        S      tau(  63) = (  -0.0184505   0.4525899   0.2609129  )
        64        S      tau(  64) = (   0.4815495   0.4525899   0.2609129  )
        65        S      tau(  65) = (   0.1511797   0.2226962   1.0795986  )
        66        S      tau(  66) = (   0.6511797   0.2226962   1.0795986  )
        67        S      tau(  67) = (  -0.0988203   0.6557088   1.0795986  )
        68        S      tau(  68) = (   0.4011797   0.6557088   1.0795986  )
        69        S      tau(  69) = (   0.3672707   0.1907390   0.6702552  )
        70        S      tau(  70) = (   0.8672707   0.1907390   0.6702552  )
        71        S      tau(  71) = (   0.1172707   0.6237516   0.6702552  )
        72        S      tau(  72) = (   0.6172707   0.6237516   0.6702552  )
        73        S      tau(  73) = (  -0.0296498   0.1532012   0.4035914  )
        74        S      tau(  74) = (   0.4703502   0.1532012   0.4035914  )
        75        S      tau(  75) = (  -0.2796498   0.5862137   0.4035914  )
        76        S      tau(  76) = (   0.2203502   0.5862137   0.4035914  )
        77        S      tau(  77) = (   0.1321490   0.3307341   0.8129336  )
        78        S      tau(  78) = (   0.6321490   0.3307341   0.8129336  )
        79        S      tau(  79) = (  -0.1178511   0.7637467   0.8129336  )
        80        S      tau(  80) = (   0.3821489   0.7637467   0.8129336  )
        81        S      tau(  81) = (  -0.1024985   0.3820894   1.2222770  )
        82        S      tau(  82) = (   0.3975015   0.3820894   1.2222770  )
        83        S      tau(  83) = (  -0.3524986   0.8151020   1.2222770  )
        84        S      tau(  84) = (   0.1475014   0.8151020   1.2222770  )
        85        S      tau(  85) = (   0.1475010   0.0509231   0.8244365  )
        86        S      tau(  86) = (   0.6475010   0.0509231   0.8244365  )
        87        S      tau(  87) = (  -0.1024990   0.4839357   0.8244365  )
        88        S      tau(  88) = (   0.3975010   0.4839357   0.8244365  )
        89        S      tau(  89) = (   0.2203497   0.2798114   0.4150943  )
        90        S      tau(  90) = (   0.7203497   0.2798114   0.4150943  )
        91        S      tau(  91) = (  -0.0296503   0.7128240   0.4150943  )
        92        S      tau(  92) = (   0.4703497   0.7128240   0.4150943  )
        93        S      tau(  93) = (   0.3821485   0.1022784   0.0057509  )
        94        S      tau(  94) = (   0.8821485   0.1022784   0.0057509  )
        95        S      tau(  95) = (   0.1321485   0.5352910   0.0057509  )
        96        S      tau(  96) = (   0.6321485   0.5352910   0.0057509  )

     number of k points=    14
                       cart. coord. in units 2pi/alat
        k(    1) = (   0.0000000   0.0000000   0.0000000), wk =   0.0740741
        k(    2) = (   0.0000000   0.0000000   0.2714379), wk =   0.1481481
        k(    3) = (   0.0000000   0.3849003   0.0000000), wk =   0.1481481
        k(    4) = (   0.0000000   0.3849003   0.2714379), wk =   0.1481481
        k(    5) = (   0.3333333   0.5773505   0.0000000), wk =   0.1481481
        k(    6) = (   0.3333333   0.5773505   0.2714379), wk =   0.1481481
        k(    7) = (  -0.3333333   0.1924501   0.0000000), wk =   0.1481481
        k(    8) = (   0.3333333   0.1924502   0.0000000), wk =   0.1481481
        k(    9) = (   0.0000000  -0.3849003   0.2714379), wk =   0.1481481
        k(   10) = (  -0.3333333   0.1924501   0.2714379), wk =   0.1481481
        k(   11) = (   0.3333333   0.1924502   0.2714379), wk =   0.1481481
        k(   12) = (  -0.3333333  -0.1924502   0.2714379), wk =   0.1481481
        k(   13) = (   0.3333333  -0.1924501   0.2714379), wk =   0.1481481
        k(   14) = (  -0.3333333  -0.5773505   0.2714379), wk =   0.1481481

     Dense  grid:  2619931 G-vectors     FFT dimensions: ( 180, 180, 216)

     Smooth grid:   926125 G-vectors     FFT dimensions: ( 120, 120, 150)

     Estimated max dynamical RAM per process >       1.07 GB

     Estimated total dynamical RAM >      33.54 GB

     Initial potential from superposition of free atoms

     starting charge     827.5884, renormalised to     840.0000

     negative rho (up, down):  7.777E-01 0.000E+00
     Starting wfcs are  672 randomized atomic wfcs
     Checking if some PAW data can be deallocated... 

     total cpu time spent up to now is       43.7 secs

     Self-consistent Calculation

     iteration #  1     ecut=    60.00 Ry     beta= 0.30
     Davidson diagonalization with overlap
     ethr =  1.00E-02,  avg # of iterations =  2.0

     negative rho (up, down):  7.747E-01 0.000E+00

     total cpu time spent up to now is      124.4 secs

     total energy              =   -9070.28903972 Ry
     estimated scf accuracy    <      21.98006790 Ry

     iteration #  2     ecut=    60.00 Ry     beta= 0.30
     Davidson diagonalization with overlap
     ethr =  2.62E-03,  avg # of iterations =  4.9

     negative rho (up, down):  7.752E-01 0.000E+00

     total cpu time spent up to now is      225.6 secs

     total energy              =   -9076.61341192 Ry
     estimated scf accuracy    <       8.20139797 Ry

     iteration #  3     ecut=    60.00 Ry     beta= 0.30
     Davidson diagonalization with overlap
     ethr =  9.76E-04,  avg # of iterations =  2.7

     negative rho (up, down):  7.804E-01 0.000E+00

     total cpu time spent up to now is      308.7 secs

     total energy              =   -9076.49125282 Ry
     estimated scf accuracy    <       1.63573999 Ry

     iteration #  4     ecut=    60.00 Ry     beta= 0.30
     Davidson diagonalization with overlap
     ethr =  1.95E-04,  avg # of iterations =  6.0

     negative rho (up, down):  7.829E-01 0.000E+00

     total cpu time spent up to now is      426.0 secs

     total energy              =   -9076.71155967 Ry
     estimated scf accuracy    <       2.10733540 Ry

     iteration #  5     ecut=    60.00 Ry     beta= 0.30
     Davidson diagonalization with overlap
     ethr =  1.95E-04,  avg # of iterations =  5.2

     negative rho (up, down):  7.879E-01 0.000E+00

     total cpu time spent up to now is      521.8 secs

     total energy              =   -9077.15151264 Ry
     estimated scf accuracy    <       0.12945179 Ry

     iteration #  6     ecut=    60.00 Ry     beta= 0.30
     Davidson diagonalization with overlap
     ethr =  1.54E-05,  avg # of iterations =  5.5

     negative rho (up, down):  7.900E-01 0.000E+00

     total cpu time spent up to now is      621.7 secs

     total energy              =   -9077.18330655 Ry
     estimated scf accuracy    <       0.02081574 Ry

     iteration #  7     ecut=    60.00 Ry     beta= 0.30
     Davidson diagonalization with overlap
     ethr =  2.48E-06,  avg # of iterations =  4.1

     negative rho (up, down):  7.911E-01 0.000E+00

     total cpu time spent up to now is      713.8 secs

     total energy              =   -9077.18792863 Ry
     estimated scf accuracy    <       0.00546648 Ry

     iteration #  8     ecut=    60.00 Ry     beta= 0.30
     Davidson diagonalization with overlap
     ethr =  6.51E-07,  avg # of iterations =  7.0

     negative rho (up, down):  7.912E-01 0.000E+00

     total cpu time spent up to now is      849.2 secs

     total energy              =   -9077.17664232 Ry
     estimated scf accuracy    <       0.05691298 Ry

     iteration #  9     ecut=    60.00 Ry     beta= 0.30
     Davidson diagonalization with overlap
     ethr =  6.51E-07,  avg # of iterations =  8.3

     negative rho (up, down):  7.911E-01 0.000E+00

     total cpu time spent up to now is      984.5 secs

     total energy              =   -9077.18646744 Ry
     estimated scf accuracy    <       0.00161437 Ry

     iteration # 10     ecut=    60.00 Ry     beta= 0.30
     Davidson diagonalization with overlap
     ethr =  1.92E-07,  avg # of iterations =  2.9

     negative rho (up, down):  7.907E-01 0.000E+00

     total cpu time spent up to now is     1062.2 secs

     total energy              =   -9077.18646445 Ry
     estimated scf accuracy    <       0.00040081 Ry

     iteration # 11     ecut=    60.00 Ry     beta= 0.30
     Davidson diagonalization with overlap
     ethr =  4.77E-08,  avg # of iterations =  5.9

     negative rho (up, down):  7.906E-01 0.000E+00

     total cpu time spent up to now is     1161.2 secs

     total energy              =   -9077.18654514 Ry
     estimated scf accuracy    <       0.00025195 Ry

     iteration # 12     ecut=    60.00 Ry     beta= 0.30
     Davidson diagonalization with overlap
     ethr =  3.00E-08,  avg # of iterations =  4.9

     negative rho (up, down):  7.904E-01 0.000E+00

     total cpu time spent up to now is     1252.8 secs

     total energy              =   -9077.18656221 Ry
     estimated scf accuracy    <       0.00014417 Ry

     iteration # 13     ecut=    60.00 Ry     beta= 0.30
     Davidson diagonalization with overlap
     ethr =  1.72E-08,  avg # of iterations =  5.8

     negative rho (up, down):  7.904E-01 0.000E+00

     total cpu time spent up to now is     1346.8 secs

     total energy              =   -9077.18657787 Ry
     estimated scf accuracy    <       0.00004795 Ry

     iteration # 14     ecut=    60.00 Ry     beta= 0.30
     Davidson diagonalization with overlap
     ethr =  5.71E-09,  avg # of iterations =  3.8

     negative rho (up, down):  7.903E-01 0.000E+00

     total cpu time spent up to now is     1428.8 secs

     total energy              =   -9077.18658121 Ry
     estimated scf accuracy    <       0.00000732 Ry

     iteration # 15     ecut=    60.00 Ry     beta= 0.30
     Davidson diagonalization with overlap
     ethr =  8.72E-10,  avg # of iterations = 10.6

     negative rho (up, down):  7.903E-01 0.000E+00

     total cpu time spent up to now is     1551.5 secs

     total energy              =   -9077.18658428 Ry
     estimated scf accuracy    <       0.00000501 Ry

     iteration # 16     ecut=    60.00 Ry     beta= 0.30
     Davidson diagonalization with overlap
     ethr =  5.96E-10,  avg # of iterations =  3.0

     negative rho (up, down):  7.902E-01 0.000E+00

     total cpu time spent up to now is     1626.6 secs

     total energy              =   -9077.18658420 Ry
     estimated scf accuracy    <       0.00000134 Ry

     iteration # 17     ecut=    60.00 Ry     beta= 0.30
     Davidson diagonalization with overlap
     ethr =  1.59E-10,  avg # of iterations =  8.1

     negative rho (up, down):  7.902E-01 0.000E+00

     total cpu time spent up to now is     1760.6 secs

     total energy              =   -9077.18658478 Ry
     estimated scf accuracy    <       0.00000443 Ry

     iteration # 18     ecut=    60.00 Ry     beta= 0.30
     Davidson diagonalization with overlap
     ethr =  1.59E-10,  avg # of iterations =  6.4

     negative rho (up, down):  7.902E-01 0.000E+00

     total cpu time spent up to now is     1855.0 secs

     total energy              =   -9077.18658482 Ry
     estimated scf accuracy    <       0.00000082 Ry

     iteration # 19     ecut=    60.00 Ry     beta= 0.30
     Davidson diagonalization with overlap
     ethr =  9.75E-11,  avg # of iterations =  6.0

     negative rho (up, down):  7.902E-01 0.000E+00

     total cpu time spent up to now is     1953.4 secs

     total energy              =   -9077.18658501 Ry
     estimated scf accuracy    <       0.00000011 Ry

     iteration # 20     ecut=    60.00 Ry     beta= 0.30
     Davidson diagonalization with overlap
     ethr =  1.34E-11,  avg # of iterations =  2.1

     negative rho (up, down):  7.902E-01 0.000E+00

     total cpu time spent up to now is     2029.1 secs

     total energy              =   -9077.18658500 Ry
     estimated scf accuracy    <       0.00000006 Ry

     iteration # 21     ecut=    60.00 Ry     beta= 0.30
     Davidson diagonalization with overlap
     ethr =  7.13E-12,  avg # of iterations =  6.9

     negative rho (up, down):  7.902E-01 0.000E+00

     total cpu time spent up to now is     2125.9 secs

     total energy              =   -9077.18658502 Ry
     estimated scf accuracy    <       0.00000001 Ry

     iteration # 22     ecut=    60.00 Ry     beta= 0.30
     Davidson diagonalization with overlap
     ethr =  1.41E-12,  avg # of iterations =  5.4

     negative rho (up, down):  7.902E-01 0.000E+00

     total cpu time spent up to now is     2204.9 secs

     total energy              =   -9077.18658502 Ry
     estimated scf accuracy    <          1.4E-09 Ry

     iteration # 23     ecut=    60.00 Ry     beta= 0.30
     Davidson diagonalization with overlap
     ethr =  1.61E-13,  avg # of iterations =  7.3

     negative rho (up, down):  7.902E-01 0.000E+00

     total cpu time spent up to now is     2335.0 secs

     total energy              =   -9077.18658502 Ry
     estimated scf accuracy    <          2.0E-09 Ry

     iteration # 24     ecut=    60.00 Ry     beta= 0.30
     Davidson diagonalization with overlap
     ethr =  1.61E-13,  avg # of iterations =  3.1

     negative rho (up, down):  7.902E-01 0.000E+00

     total cpu time spent up to now is     2415.3 secs

     End of self-consistent calculation

          k = 0.0000 0.0000 0.0000 (115723 PWs)   bands (ev):

   -28.2835 -28.2815 -28.2798 -28.2792 -28.2768 -28.2763 -28.2761 -28.2752
   -28.2738 -28.2735 -28.2642 -28.2615 -14.9260 -14.9254 -14.9250 -14.9249
   -14.9242 -14.9232 -14.9232 -14.9224 -14.9222 -14.9222 -14.9201 -14.9196
   -14.9195 -14.9193 -14.9192 -14.9191 -14.9190 -14.9173 -14.9173 -14.9165
   -14.9162 -14.9161 -14.9137 -14.9135 -14.9080 -14.9075 -14.9071 -14.9070
   -14.9052 -14.9052 -14.9045 -14.9043 -14.9042 -14.9016 -14.9015 -14.8983
   -14.8678 -14.8672 -14.8670 -14.8668 -14.8650 -14.8650 -14.8643 -14.8642
   -14.8641 -14.8617 -14.8613 -14.8612 -14.8227 -14.8221 -14.8217 -14.8216
   -14.8199 -14.8198 -14.8191 -14.8187 -14.8187 -14.8174 -14.8163 -14.8161
   -10.3438 -10.3417 -10.3407 -10.3392 -10.3375 -10.3374 -10.3352 -10.3341
   -10.3323 -10.3294 -10.3226 -10.3196 -10.3129 -10.3102 -10.3094 -10.3071
   -10.3042 -10.3023 -10.3009 -10.2976 -10.2939 -10.2900 -10.2888 -10.2788
   -10.2741 -10.2721 -10.2715 -10.2681 -10.2657 -10.2652 -10.2642 -10.2619
   -10.2593 -10.2580 -10.2514 -10.2487  -6.8643  -6.5569  -6.5535  -6.4264
    -6.4182  -6.4149  -6.3034  -6.2989  -6.2969  -6.2250  -6.2192  -6.2183
    -5.9938  -5.9901  -5.9792  -5.8534  -5.8486  -5.8413  -5.7997  -5.7973
    -5.7910  -5.7443  -5.7341  -5.6328  -5.6216  -5.6188  -5.6155  -5.6149
    -5.6057  -5.5971  -5.5610  -5.5601  -5.5537  -5.5465  -5.5459  -5.5270
    -5.5211  -5.5201  -5.4420  -5.4301  -5.4294  -5.4213  -5.3747  -5.3579
    -5.3523  -5.3458  -5.3442  -5.2527  -0.6137  -0.6128  -0.6102  -0.3902
    -0.3890  -0.3877  -0.3507  -0.3170  -0.3160  -0.3142  -0.3025  -0.2982
     1.3810   1.3844   1.3880   1.5897   1.5960   1.6569   1.7134   1.7183
     1.7196   1.8007   1.8044   1.8078   2.0180   2.0377   2.0420   2.0819
     2.0859   2.0915   2.2431   2.2444   2.2475   2.3061   2.3098   2.4014
     2.4028   2.4060   2.4554   2.4612   2.4645   2.5468   2.5542   2.6589
     2.6610   2.6659   2.7785   2.7843   2.7893   2.8679   2.8749   2.9220
     2.9240   2.9266   2.9476   2.9526   2.9553   3.0226   3.0275   3.0331
     3.0452   3.0459   3.0522   3.1662   3.2107   3.2142   3.2146   3.2265
     3.2316   3.2517   3.2576   3.2622   3.3760   3.3764   3.3798   3.3882
     3.3938   3.4246   3.4271   3.4278   3.4357   3.4374   3.4378   3.4728
     3.4751   3.4773   3.4927   3.4937   3.4952   3.4968   3.5147   3.5179
     3.5830   3.5844   3.5892   3.6252   3.6269   3.6394   3.6861   3.6887
     3.6897   3.6917   3.7014   3.7124   3.7919   3.7949   3.8215   3.8251
     3.8286   3.9615   4.0186   4.0194   4.0236   4.0336   4.0349   4.0367
     4.1210   4.1215   4.1256   4.1304   4.1686   4.1727   4.1763   4.2006
     4.2075   4.2107   4.2154   4.2403   4.2431   4.2458   4.2773   4.2850
     4.4226   4.4248   4.4298   4.5154   4.5166   4.5225   4.5346   4.5361
     4.6177   4.6212   4.6250   4.8570   5.1240   5.1533   5.1543   5.1561
     5.1721   5.1734   5.1749   5.1766   5.1802   5.2215   5.2256   5.2264
     5.2280   5.2287   5.2312   5.2503   5.2515   5.2528   5.2637   5.2667
     5.2681   5.2774   5.2781   5.2803   5.3072   5.3095   5.3119   5.3126
     5.3137   5.3244   5.3365   5.3375   5.3386   5.3730   5.3746   5.3785
     5.4379   5.4387   5.4694   5.4705   5.4713   5.4749   5.4756   5.4779
     5.4782   5.4985   5.4998   5.6002   5.6007   5.6024   5.6170   5.6177
     5.6184   5.6275   5.6460   5.6476   5.6489   5.6578   5.6584   5.6627
     5.7237   5.7267   5.7453   5.7820   5.7833   5.7842   5.8195   5.8215
     5.8238   5.9012   5.9030   5.9040   5.9245   5.9265   5.9298   5.9946
     5.9960   6.0254   6.0266   6.0269   6.1469   6.1490   6.1527   6.1532
     6.2584   6.2610   6.2612   6.2624   6.2636   6.2652   6.2879   6.2925
     6.3329   6.3350   6.3353   6.3625   6.3626   6.3639   6.3870   6.3893
     6.3912   6.5533   6.5672   6.5707   6.5747   6.6356   6.6370   6.6429
     6.7438   6.7443   6.7501   6.7647   6.7662   6.7789   6.7803   6.7828
     6.8083   6.9635   7.1801   7.1815

          k = 0.0000 0.0000 0.2714 (115879 PWs)   bands (ev):

   -28.2835 -28.2815 -28.2798 -28.2792 -28.2768 -28.2763 -28.2761 -28.2752
   -28.2738 -28.2735 -28.2642 -28.2615 -14.9260 -14.9254 -14.9250 -14.9249
   -14.9242 -14.9232 -14.9232 -14.9224 -14.9222 -14.9222 -14.9201 -14.9196
   -14.9195 -14.9193 -14.9192 -14.9191 -14.9190 -14.9173 -14.9173 -14.9165
   -14.9162 -14.9161 -14.9137 -14.9135 -14.9080 -14.9075 -14.9071 -14.9070
   -14.9052 -14.9052 -14.9045 -14.9043 -14.9042 -14.9016 -14.9015 -14.8983
   -14.8678 -14.8672 -14.8670 -14.8668 -14.8650 -14.8650 -14.8643 -14.8642
   -14.8641 -14.8617 -14.8613 -14.8612 -14.8227 -14.8221 -14.8217 -14.8216
   -14.8199 -14.8198 -14.8191 -14.8187 -14.8187 -14.8174 -14.8163 -14.8161
   -10.3442 -10.3425 -10.3411 -10.3394 -10.3377 -10.3368 -10.3353 -10.3336
   -10.3314 -10.3295 -10.3225 -10.3197 -10.3136 -10.3111 -10.3086 -10.3078
   -10.3037 -10.3016 -10.2990 -10.2966 -10.2945 -10.2911 -10.2879 -10.2808
   -10.2733 -10.2720 -10.2710 -10.2685 -10.2660 -10.2649 -10.2643 -10.2617
   -10.2591 -10.2584 -10.2512 -10.2493  -6.8250  -6.7142  -6.4181  -6.4099
    -6.4081  -6.4060  -6.3074  -6.3036  -6.3019  -6.2385  -6.2313  -6.2302
    -5.9944  -5.9911  -5.9804  -5.8600  -5.8373  -5.8334  -5.8240  -5.7783
    -5.7747  -5.7697  -5.6722  -5.6569  -5.6562  -5.6510  -5.6163  -5.6136
    -5.6127  -5.6010  -5.5606  -5.5540  -5.5521  -5.5497  -5.5454  -5.5451
    -5.5248  -5.4608  -5.4442  -5.4354  -5.4352  -5.4230  -5.3691  -5.3475
    -5.3417  -5.3376  -5.3351  -5.2820  -0.6059  -0.6047  -0.6026  -0.4137
    -0.4127  -0.4105  -0.3482  -0.3321  -0.3023  -0.3015  -0.2996  -0.2731
     1.4061   1.4085   1.4116   1.5705   1.6105   1.6153   1.6212   1.6239
     1.6601   1.9307   1.9339   1.9385   2.0016   2.0448   2.0500   2.0536
     2.0575   2.0685   2.2709   2.2732   2.2753   2.3044   2.3833   2.3879
     2.3913   2.3925   2.4142   2.4153   2.4187   2.4536   2.6200   2.6217
     2.6255   2.6699   2.7160   2.7912   2.7956   2.7976   2.8011   2.8679
     2.8715   2.8766   2.9731   2.9755   2.9806   3.0408   3.0459   3.0502
     3.1020   3.1067   3.1123   3.1771   3.1988   3.2019   3.2039   3.2086
     3.2706   3.2736   3.2751   3.2846   3.3724   3.3821   3.3835   3.3865
     3.4161   3.4206   3.4221   3.4368   3.4409   3.4442   3.4465   3.4504
     3.4516   3.4760   3.4981   3.5164   3.5178   3.5205   3.5367   3.5429
     3.5484   3.5500   3.5578   3.6328   3.6430   3.6458   3.6485   3.6556
     3.6781   3.6816   3.6943   3.7715   3.8284   3.8700   3.8761   3.8790
     3.9086   3.9199   3.9925   3.9941   4.0005   4.0530   4.0542   4.0569
     4.0749   4.1149   4.1175   4.1238   4.1447   4.1471   4.1517   4.1655
     4.1701   4.1723   4.1745   4.2102   4.2459   4.2502   4.2559   4.2671
     4.4199   4.4223   4.4265   4.4812   4.5560   4.5597   4.5640   4.6024
     4.6060   4.6092   4.6770   4.8072   5.1351   5.1458   5.1525   5.1537
     5.1546   5.1638   5.1855   5.1867   5.1885   5.2139   5.2152   5.2176
     5.2185   5.2470   5.2472   5.2481   5.2558   5.2586   5.2607   5.2623
     5.2746   5.2758   5.2768   5.2799   5.3276   5.3286   5.3292   5.3328
     5.3332   5.3352   5.3407   5.3416   5.3441   5.3651   5.3720   5.3739
     5.3766   5.3896   5.4024   5.4183   5.4198   5.4217   5.5256   5.5318
     5.5324   5.5331   5.5819   5.5870   5.5877   5.5898   5.5901   5.6190
     5.6198   5.6211   5.6499   5.6514   5.6558   5.6616   5.6805   5.6816
     5.6826   5.7542   5.7554   5.7573   5.7904   5.7996   5.8155   5.8179
     5.8198   5.8695   5.8811   5.8830   5.8848   5.9864   5.9888   5.9910
     6.0407   6.0425   6.0441   6.0956   6.0983   6.1001   6.1741   6.1890
     6.1906   6.1924   6.2350   6.2669   6.2692   6.2698   6.3234   6.3255
     6.3284   6.3567   6.3614   6.3688   6.3701   6.3734   6.3960   6.4262
     6.4303   6.4307   6.4802   6.6364   6.6406   6.6408   6.6425   6.6446
     6.6486   6.6695   6.7069   6.7074   6.7106   6.7501   6.7521   6.7545
     6.9413   7.0054   7.0947   7.1703

          k = 0.0000 0.3849 0.0000 (115797 PWs)   bands (ev):

   -28.2835 -28.2815 -28.2798 -28.2792 -28.2768 -28.2763 -28.2761 -28.2752
   -28.2738 -28.2735 -28.2642 -28.2615 -14.9260 -14.9254 -14.9250 -14.9250
   -14.9241 -14.9232 -14.9232 -14.9224 -14.9222 -14.9222 -14.9201 -14.9196
   -14.9195 -14.9193 -14.9192 -14.9191 -14.9190 -14.9173 -14.9173 -14.9165
   -14.9162 -14.9161 -14.9137 -14.9136 -14.9080 -14.9074 -14.9072 -14.9070
   -14.9052 -14.9052 -14.9045 -14.9043 -14.9042 -14.9016 -14.9015 -14.8983
   -14.8678 -14.8672 -14.8670 -14.8668 -14.8650 -14.8650 -14.8643 -14.8642
   -14.8641 -14.8617 -14.8613 -14.8612 -14.8227 -14.8221 -14.8217 -14.8216
   -14.8199 -14.8199 -14.8191 -14.8187 -14.8187 -14.8174 -14.8163 -14.8161
   -10.3430 -10.3412 -10.3401 -10.3383 -10.3372 -10.3361 -10.3348 -10.3339
   -10.3325 -10.3295 -10.3230 -10.3200 -10.3113 -10.3095 -10.3068 -10.3063
   -10.3040 -10.3025 -10.3010 -10.2990 -10.2955 -10.2898 -10.2887 -10.2812
   -10.2739 -10.2717 -10.2705 -10.2691 -10.2668 -10.2651 -10.2642 -10.2628
   -10.2607 -10.2581 -10.2528 -10.2496  -6.7892  -6.5917  -6.5004  -6.4979
    -6.4434  -6.4373  -6.3651  -6.3502  -6.2892  -6.2842  -6.2524  -6.2476
    -5.9146  -5.9031  -5.8237  -5.8201  -5.8064  -5.7807  -5.7702  -5.7661
    -5.7349  -5.7276  -5.7212  -5.6921  -5.6905  -5.6531  -5.6404  -5.6363
    -5.6295  -5.5991  -5.5852  -5.5813  -5.5613  -5.5276  -5.5243  -5.5188
    -5.5139  -5.4980  -5.4623  -5.4540  -5.4391  -5.4351  -5.4229  -5.3978
    -5.3520  -5.3473  -5.3170  -5.2727  -0.5730  -0.5708  -0.5626  -0.4357
    -0.4053  -0.4032  -0.3763  -0.3395  -0.3387  -0.3368  -0.3113  -0.3013
     1.4191   1.4850   1.4877   1.5039   1.6395   1.6527   1.6856   1.7197
     1.7267   1.8260   1.8714   1.8781   1.9518   1.9564   1.9608   2.0277
     2.1145   2.2054   2.2285   2.2308   2.3372   2.3619   2.3826   2.3867
     2.3942   2.4074   2.4481   2.5347   2.5378   2.6098   2.6142   2.6182
     2.6598   2.7340   2.8107   2.8137   2.8241   2.8393   2.8438   2.8463
     2.8533   2.8856   2.9038   2.9062   2.9161   2.9603   2.9677   3.0046
     3.0483   3.0550   3.0601   3.1221   3.1477   3.1762   3.2021   3.2101
     3.2179   3.2338   3.2574   3.2621   3.2680   3.3219   3.3285   3.3318
     3.3406   3.3694   3.3941   3.3985   3.4328   3.4394   3.4422   3.4511
     3.4958   3.4982   3.5006   3.5082   3.5119   3.5134   3.5214   3.5416
     3.5615   3.6029   3.6084   3.6155   3.6352   3.6457   3.6768   3.6841
     3.6958   3.7009   3.7049   3.7159   3.7747   3.7788   3.8501   3.8620
     3.8946   3.9727   3.9749   3.9781   3.9800   4.0296   4.0371   4.0413
     4.0920   4.1100   4.1194   4.1218   4.1280   4.1600   4.1637   4.1788
     4.2472   4.2638   4.2685   4.2806   4.3033   4.3205   4.3243   4.3684
     4.3804   4.4154   4.4194   4.4834   4.5150   4.5257   4.5271   4.5310
     4.5890   4.5973   4.6264   4.7486   5.1419   5.1441   5.1461   5.1532
     5.1587   5.1610   5.1694   5.1745   5.2135   5.2184   5.2197   5.2216
     5.2276   5.2366   5.2471   5.2485   5.2509   5.2606   5.2664   5.2715
     5.2728   5.2890   5.3030   5.3041   5.3134   5.3179   5.3259   5.3276
     5.3361   5.3491   5.3510   5.3537   5.3569   5.3646   5.4126   5.4150
     5.4334   5.4509   5.4586   5.4631   5.4851   5.4935   5.4997   5.5008
     5.5037   5.5120   5.5266   5.5435   5.5556   5.5574   5.5615   5.6020
     5.6037   5.6295   5.6310   5.6326   5.6684   5.6798   5.6945   5.6958
     5.6993   5.7169   5.7294   5.7554   5.7744   5.7768   5.8093   5.8183
     5.8192   5.8636   5.8741   5.8759   5.9490   5.9539   5.9632   5.9656
     5.9892   6.0048   6.0086   6.0198   6.1367   6.1396   6.1446   6.1600
     6.2246   6.2288   6.2296   6.2508   6.2705   6.2857   6.2916   6.2990
     6.3604   6.3611   6.3769   6.3879   6.3914   6.4409   6.4833   6.4865
     6.5251   6.5365   6.5391   6.5752   6.6041   6.6498   6.6824   6.6910
     6.6960   6.7291   6.7352   6.7395   6.7619   6.7769   6.7922   6.8099
     6.8148   6.9041   6.9084   7.0817

          k = 0.0000 0.3849 0.2714 (115773 PWs)   bands (ev):

   -28.2835 -28.2815 -28.2798 -28.2792 -28.2768 -28.2763 -28.2761 -28.2752
   -28.2738 -28.2735 -28.2642 -28.2615 -14.9260 -14.9254 -14.9250 -14.9250
   -14.9241 -14.9232 -14.9232 -14.9224 -14.9222 -14.9222 -14.9201 -14.9196
   -14.9195 -14.9193 -14.9192 -14.9191 -14.9190 -14.9173 -14.9173 -14.9165
   -14.9162 -14.9161 -14.9137 -14.9136 -14.9080 -14.9074 -14.9072 -14.9070
   -14.9052 -14.9052 -14.9045 -14.9043 -14.9042 -14.9016 -14.9015 -14.8983
   -14.8678 -14.8672 -14.8670 -14.8668 -14.8650 -14.8650 -14.8643 -14.8642
   -14.8641 -14.8617 -14.8613 -14.8612 -14.8227 -14.8221 -14.8217 -14.8216
   -14.8199 -14.8199 -14.8191 -14.8187 -14.8187 -14.8174 -14.8163 -14.8161
   -10.3434 -10.3420 -10.3401 -10.3387 -10.3371 -10.3357 -10.3351 -10.3336
   -10.3315 -10.3296 -10.3229 -10.3200 -10.3125 -10.3099 -10.3079 -10.3054
   -10.3036 -10.3014 -10.2995 -10.2983 -10.2953 -10.2907 -10.2883 -10.2825
   -10.2739 -10.2720 -10.2698 -10.2690 -10.2668 -10.2650 -10.2641 -10.2630
   -10.2606 -10.2587 -10.2525 -10.2501  -6.7521  -6.6477  -6.5623  -6.4733
    -6.4273  -6.4220  -6.3631  -6.3345  -6.3265  -6.2584  -6.2280  -6.2240
    -5.9076  -5.8978  -5.8301  -5.8237  -5.8107  -5.7962  -5.7898  -5.7638
    -5.7606  -5.7329  -5.7151  -5.7109  -5.6717  -5.6420  -5.6302  -5.6286
    -5.6249  -5.6099  -5.6002  -5.5964  -5.5637  -5.5302  -5.5251  -5.5226
    -5.5099  -5.4984  -5.4655  -5.4402  -5.4293  -5.4236  -5.4068  -5.3656
    -5.3517  -5.3472  -5.3262  -5.3007  -0.5610  -0.5602  -0.5578  -0.4374
    -0.4355  -0.4258  -0.3927  -0.3722  -0.3202  -0.3191  -0.2980  -0.2776
     1.4338   1.4826   1.4850   1.4920   1.6257   1.6409   1.7684   1.7739
     1.7792   1.7881   1.7957   1.8052   1.9126   1.9954   1.9995   2.0757
     2.1546   2.1998   2.2096   2.2455   2.2496   2.3579   2.3875   2.3927
     2.3972   2.4490   2.5092   2.5125   2.5459   2.5876   2.5949   2.6081
     2.6419   2.7086   2.7597   2.7656   2.7747   2.7909   2.8065   2.8093
     2.8383   2.8751   2.9116   2.9171   2.9228   2.9826   3.0223   3.0251
     3.0664   3.1043   3.1090   3.1316   3.1719   3.1913   3.1934   3.1946
     3.2003   3.2339   3.2617   3.2656   3.2755   3.3154   3.3198   3.3217
     3.3269   3.3894   3.3930   3.4097   3.4440   3.4475   3.4663   3.4702
     3.4721   3.4748   3.4757   3.4776   3.5309   3.5350   3.5372   3.5910
     3.6088   3.6105   3.6169   3.6325   3.6374   3.6470   3.6563   3.6641
     3.6714   3.7092   3.7114   3.7213   3.8302   3.8369   3.8811   3.8891
     3.9031   3.9482   3.9517   3.9743   3.9817   4.0183   4.0447   4.0486
     4.0529   4.0683   4.1075   4.1127   4.1209   4.1322   4.1345   4.1490
     4.1896   4.2529   4.2640   4.2689   4.2872   4.2894   4.2960   4.3874
     4.3989   4.4359   4.4412   4.4659   4.5214   4.5250   4.5350   4.5951
     4.6093   4.6170   4.6222   4.7214   5.1494   5.1506   5.1537   5.1560
     5.1708   5.1749   5.1757   5.1829   5.1900   5.1971   5.2008   5.2071
     5.2087   5.2321   5.2345   5.2369   5.2536   5.2626   5.2649   5.2666
     5.2781   5.2976   5.3069   5.3122   5.3132   5.3281   5.3351   5.3364
     5.3571   5.3580   5.3600   5.3635   5.3794   5.3915   5.4056   5.4081
     5.4132   5.4313   5.4339   5.4440   5.4455   5.4920   5.5013   5.5026
     5.5084   5.5158   5.5533   5.5602   5.5734   5.5753   5.6030   5.6100
     5.6127   5.6187   5.6242   5.6252   5.6430   5.6701   5.6825   5.7129
     5.7158   5.7172   5.7339   5.7710   5.7721   5.7746   5.8008   5.8025
     5.8117   5.8575   5.8739   5.8745   5.8798   5.9144   5.9578   5.9606
     6.0315   6.0348   6.0368   6.0598   6.0765   6.0802   6.1722   6.2057
     6.2111   6.2136   6.2631   6.2663   6.2695   6.2775   6.2853   6.3466
     6.3493   6.3649   6.3722   6.4146   6.4221   6.4261   6.4283   6.4718
     6.4959   6.4987   6.5447   6.5584   6.5939   6.5975   6.6641   6.6692
     6.6757   6.7182   6.7337   6.7397   6.7466   6.8103   6.8165   6.8439
     6.8695   6.9289   6.9361   7.0529

          k = 0.3333 0.5774 0.0000 (115752 PWs)   bands (ev):

   -28.2835 -28.2815 -28.2798 -28.2792 -28.2768 -28.2763 -28.2761 -28.2752
   -28.2738 -28.2735 -28.2642 -28.2615 -14.9260 -14.9254 -14.9250 -14.9249
   -14.9241 -14.9232 -14.9232 -14.9224 -14.9222 -14.9222 -14.9201 -14.9196
   -14.9195 -14.9193 -14.9193 -14.9191 -14.9190 -14.9173 -14.9173 -14.9165
   -14.9162 -14.9161 -14.9137 -14.9136 -14.9080 -14.9074 -14.9072 -14.9070
   -14.9052 -14.9052 -14.9045 -14.9043 -14.9042 -14.9016 -14.9015 -14.8983
   -14.8678 -14.8672 -14.8670 -14.8668 -14.8650 -14.8650 -14.8643 -14.8642
   -14.8641 -14.8617 -14.8613 -14.8612 -14.8227 -14.8221 -14.8217 -14.8216
   -14.8199 -14.8199 -14.8191 -14.8187 -14.8187 -14.8174 -14.8163 -14.8161
   -10.3430 -10.3409 -10.3396 -10.3381 -10.3363 -10.3354 -10.3349 -10.3338
   -10.3320 -10.3303 -10.3229 -10.3204 -10.3107 -10.3090 -10.3069 -10.3047
   -10.3040 -10.3024 -10.3015 -10.2987 -10.2953 -10.2907 -10.2891 -10.2823
   -10.2737 -10.2722 -10.2694 -10.2682 -10.2675 -10.2661 -10.2643 -10.2630
   -10.2618 -10.2591 -10.2530 -10.2498  -6.6591  -6.6504  -6.6461  -6.4055
    -6.4031  -6.3997  -6.3985  -6.3978  -6.3904  -6.2971  -6.2933  -6.1940
    -5.8671  -5.8509  -5.8439  -5.7561  -5.7530  -5.7460  -5.7387  -5.7349
    -5.7279  -5.7103  -5.7078  -5.6998  -5.6951  -5.6925  -5.6901  -5.6831
    -5.6736  -5.6440  -5.5428  -5.5418  -5.5377  -5.5312  -5.5303  -5.5204
    -5.5108  -5.4771  -5.4743  -5.4720  -5.4688  -5.4658  -5.4417  -5.3999
    -5.3961  -5.3106  -5.3017  -5.2998  -0.5449  -0.5171  -0.5151  -0.5117
    -0.3974  -0.3971  -0.3920  -0.3901  -0.3873  -0.3111  -0.3108  -0.3060
     1.4800   1.4842   1.4890   1.6671   1.6743   1.6771   1.6837   1.6856
     1.6908   1.7335   1.7351   1.8005   2.0728   2.0772   2.0821   2.0849
     2.0876   2.1426   2.1442   2.1487   2.2559   2.3930   2.3968   2.3976
     2.4893   2.4941   2.4944   2.5599   2.5627   2.5671   2.5986   2.5990
     2.7718   2.7737   2.7790   2.8341   2.8352   2.8410   2.8442   2.8463
     2.8485   2.8523   2.8535   2.8622   2.8681   3.0062   3.0091   3.0144
     3.0220   3.0262   3.0280   3.0618   3.1285   3.1328   3.1375   3.1944
     3.1955   3.2017   3.2573   3.2586   3.2628   3.2694   3.2764   3.3610
     3.3687   3.3692   3.3736   3.3773   3.4196   3.4241   3.4278   3.4844
     3.4861   3.5001   3.5022   3.5042   3.5254   3.5302   3.5320   3.5485
     3.5496   3.5777   3.5794   3.5829   3.6470   3.6491   3.6580   3.7157
     3.7197   3.7219   3.7283   3.7364   3.7564   3.7986   3.8004   3.8030
     3.9546   3.9586   3.9611   3.9873   3.9883   4.0276   4.0316   4.0332
     4.0808   4.0853   4.0884   4.1407   4.1470   4.1518   4.1582   4.2823
     4.2835   4.2942   4.3159   4.3178   4.3187   4.3198   4.3215   4.3305
     4.3823   4.3857   4.3886   4.4954   4.5130   4.5148   4.5192   4.5209
     4.5245   4.6512   4.6549   4.6608   5.1367   5.1424   5.1435   5.1451
     5.1725   5.1729   5.1860   5.1873   5.1894   5.1941   5.1963   5.1996
     5.2449   5.2474   5.2482   5.2647   5.2655   5.2661   5.2966   5.2974
     5.2989   5.3003   5.3029   5.3030   5.3133   5.3165   5.3186   5.3204
     5.3371   5.3402   5.3423   5.4015   5.4023   5.4052   5.4077   5.4082
     5.4532   5.4546   5.4558   5.4586   5.4820   5.4828   5.4847   5.4886
     5.4892   5.5341   5.5349   5.5370   5.5633   5.5638   5.5655   5.5694
     5.5708   5.5730   5.6410   5.6711   5.6720   5.6935   5.6941   5.6977
     5.7061   5.7072   5.7098   5.7794   5.7801   5.7816   5.7976   5.7994
     5.8010   5.8228   5.8258   5.8441   5.9294   5.9309   5.9348   6.0429
     6.0456   6.0464   6.0482   6.0502   6.1372   6.1378   6.1394   6.1582
     6.2172   6.2190   6.2199   6.2585   6.2593   6.2619   6.2831   6.2855
     6.3739   6.4059   6.4095   6.4108   6.4168   6.4174   6.4226   6.4495
     6.4525   6.4570   6.6121   6.6142   6.6178   6.6728   6.6757   6.6771
     6.7253   6.7404   6.7408   6.7997   6.8051   6.8075   6.8100   6.8121
     6.8136   6.9360   6.9398   6.9432

          k = 0.3333 0.5774 0.2714 (115827 PWs)   bands (ev):

   -28.2835 -28.2815 -28.2798 -28.2792 -28.2768 -28.2763 -28.2761 -28.2752
   -28.2738 -28.2735 -28.2642 -28.2615 -14.9260 -14.9254 -14.9250 -14.9249
   -14.9241 -14.9232 -14.9232 -14.9224 -14.9222 -14.9222 -14.9201 -14.9196
   -14.9195 -14.9193 -14.9193 -14.9191 -14.9190 -14.9173 -14.9173 -14.9165
   -14.9162 -14.9161 -14.9137 -14.9136 -14.9080 -14.9074 -14.9072 -14.9070
   -14.9052 -14.9052 -14.9045 -14.9043 -14.9042 -14.9016 -14.9015 -14.8983
   -14.8678 -14.8672 -14.8670 -14.8668 -14.8650 -14.8650 -14.8643 -14.8642
   -14.8641 -14.8617 -14.8613 -14.8612 -14.8227 -14.8221 -14.8217 -14.8216
   -14.8199 -14.8199 -14.8191 -14.8187 -14.8187 -14.8174 -14.8163 -14.8161
   -10.3433 -10.3417 -10.3396 -10.3384 -10.3366 -10.3352 -10.3345 -10.3330
   -10.3322 -10.3300 -10.3230 -10.3202 -10.3115 -10.3103 -10.3077 -10.3043
   -10.3031 -10.3015 -10.2992 -10.2979 -10.2951 -10.2918 -10.2894 -10.2829
   -10.2736 -10.2725 -10.2695 -10.2679 -10.2672 -10.2659 -10.2635 -10.2631
   -10.2625 -10.2595 -10.2528 -10.2503  -6.6268  -6.6183  -6.6142  -6.5317
    -6.5249  -6.5205  -6.3116  -6.2919  -6.2894  -6.2845  -6.2603  -6.2155
    -5.8741  -5.8585  -5.8397  -5.7951  -5.7802  -5.7776  -5.7510  -5.7419
    -5.7372  -5.7136  -5.6950  -5.6884  -5.6845  -5.6767  -5.6735  -5.6706
    -5.6646  -5.6410  -5.5582  -5.5560  -5.5495  -5.5272  -5.5254  -5.5198
    -5.5100  -5.5043  -5.5034  -5.4779  -5.4604  -5.4038  -5.3986  -5.3913
    -5.3598  -5.3309  -5.3226  -5.3208  -0.5214  -0.5078  -0.5066  -0.5027
    -0.4612  -0.4186  -0.4169  -0.4152  -0.3557  -0.2945  -0.2929  -0.2893
     1.4780   1.4825   1.4866   1.6339   1.6385   1.6419   1.6893   1.7679
     1.7732   1.7776   1.7808   1.7957   1.9773   1.9805   1.9868   2.0547
     2.1662   2.1909   2.1932   2.1946   2.2490   2.3931   2.3959   2.3986
     2.4845   2.4882   2.4909   2.5566   2.5826   2.5882   2.5902   2.5951
     2.6789   2.7345   2.7374   2.7426   2.8200   2.8227   2.8238   2.8302
     2.8994   2.9020   2.9087   2.9218   2.9341   2.9528   2.9564   2.9589
     3.0570   3.0587   3.0637   3.0849   3.0873   3.0925   3.1271   3.1814
     3.2394   3.2442   3.2468   3.2675   3.2705   3.2765   3.3209   3.3254
     3.3280   3.3348   3.3743   3.4063   3.4193   3.4606   3.4648   3.4672
     3.4929   3.4972   3.4994   3.5018   3.5347   3.5366   3.5384   3.5424
     3.5605   3.6130   3.6148   3.6213   3.6507   3.6543   3.6600   3.6941
     3.6966   3.6999   3.7216   3.7430   3.8223   3.8359   3.8413   3.8443
     3.9360   3.9384   3.9406   3.9451   4.0280   4.0286   4.0308   4.0430
     4.0648   4.0674   4.0731   4.1085   4.1122   4.1153   4.1216   4.1665
     4.2703   4.2717   4.2768   4.2915   4.3132   4.3597   4.3601   4.3659
     4.4132   4.4160   4.4188   4.4876   4.4930   4.4952   4.5079   4.5137
     4.5657   4.6642   4.6676   4.6725   5.1479   5.1553   5.1560   5.1573
     5.1588   5.1811   5.1820   5.1840   5.1965   5.1977   5.1992   5.2104
     5.2230   5.2248   5.2262   5.2491   5.2519   5.2535   5.2569   5.2685
     5.2992   5.3009   5.3035   5.3088   5.3267   5.3288   5.3311   5.3660
     5.3679   5.3701   5.3743   5.3931   5.3953   5.4075   5.4089   5.4103
     5.4324   5.4329   5.4345   5.4384   5.4837   5.4842   5.4852   5.4906
     5.5381   5.5384   5.5395   5.5440   5.5659   5.5664   5.5672   5.6045
     5.6053   5.6074   5.6373   5.6393   5.6713   5.6726   5.6740   5.7020
     5.7032   5.7054   5.7171   5.7580   5.7588   5.7621   5.8005   5.8081
     5.8199   5.8226   5.8242   5.8268   5.8886   5.8914   5.8935   6.0556
     6.0592   6.0605   6.0620   6.0761   6.1182   6.1188   6.1220   6.1346
     6.1948   6.2371   6.2383   6.2394   6.2839   6.2986   6.3027   6.3034
     6.3072   6.3824   6.3854   6.3873   6.4501   6.4640   6.4667   6.4716
     6.4913   6.4926   6.5552   6.5598   6.5617   6.6454   6.6814   6.6842
     6.6884   6.7596   6.7738   6.7781   6.7807   6.7931   6.8502   6.8554
     6.8583   6.9341   6.9356   6.9398

          k =-0.3333 0.1925 0.0000 (115797 PWs)   bands (ev):

   -28.2835 -28.2815 -28.2798 -28.2792 -28.2768 -28.2763 -28.2761 -28.2752
   -28.2738 -28.2735 -28.2642 -28.2615 -14.9260 -14.9254 -14.9250 -14.9249
   -14.9242 -14.9232 -14.9232 -14.9224 -14.9222 -14.9222 -14.9201 -14.9196
   -14.9195 -14.9193 -14.9193 -14.9191 -14.9190 -14.9173 -14.9173 -14.9165
   -14.9162 -14.9161 -14.9137 -14.9136 -14.9080 -14.9075 -14.9071 -14.9070
   -14.9052 -14.9052 -14.9045 -14.9043 -14.9042 -14.9016 -14.9015 -14.8983
   -14.8678 -14.8672 -14.8670 -14.8668 -14.8650 -14.8650 -14.8643 -14.8642
   -14.8641 -14.8617 -14.8613 -14.8612 -14.8227 -14.8221 -14.8217 -14.8216
   -14.8199 -14.8199 -14.8191 -14.8187 -14.8187 -14.8174 -14.8163 -14.8161
   -10.3436 -10.3412 -10.3398 -10.3385 -10.3372 -10.3361 -10.3348 -10.3330
   -10.3326 -10.3300 -10.3226 -10.3202 -10.3116 -10.3091 -10.3079 -10.3061
   -10.3036 -10.3032 -10.3012 -10.2969 -10.2947 -10.2912 -10.2892 -10.2809
   -10.2742 -10.2722 -10.2708 -10.2677 -10.2670 -10.2654 -10.2634 -10.2623
   -10.2614 -10.2592 -10.2526 -10.2494  -6.7894  -6.5922  -6.5006  -6.4975
    -6.4421  -6.4376  -6.3654  -6.3504  -6.2895  -6.2835  -6.2504  -6.2488
    -5.9139  -5.9050  -5.8229  -5.8190  -5.8160  -5.7802  -5.7691  -5.7660
    -5.7363  -5.7291  -5.7174  -5.6920  -5.6889  -5.6541  -5.6396  -5.6345
    -5.6269  -5.5990  -5.5854  -5.5790  -5.5598  -5.5293  -5.5236  -5.5186
    -5.5140  -5.4991  -5.4626  -5.4538  -5.4392  -5.4351  -5.4225  -5.3988
    -5.3546  -5.3481  -5.3158  -5.2721  -0.5730  -0.5692  -0.5635  -0.4366
    -0.4056  -0.4017  -0.3771  -0.3398  -0.3379  -0.3363  -0.3128  -0.3016
     1.4196   1.4853   1.4881   1.5027   1.6392   1.6538   1.6851   1.7206
     1.7267   1.8261   1.8743   1.8769   1.9524   1.9554   1.9593   2.0282
     2.1157   2.2059   2.2264   2.2319   2.3364   2.3620   2.3839   2.3868
     2.3927   2.4068   2.4496   2.5344   2.5372   2.6087   2.6138   2.6201
     2.6616   2.7335   2.8114   2.8145   2.8226   2.8374   2.8422   2.8473
     2.8539   2.8868   2.9030   2.9075   2.9169   2.9593   2.9651   3.0046
     3.0495   3.0534   3.0632   3.1210   3.1466   3.1747   3.2046   3.2111
     3.2160   3.2339   3.2566   3.2608   3.2726   3.3229   3.3292   3.3305
     3.3369   3.3688   3.3932   3.4004   3.4327   3.4398   3.4419   3.4524
     3.4955   3.4982   3.4992   3.5081   3.5113   3.5132   3.5216   3.5418
     3.5631   3.6032   3.6086   3.6139   3.6351   3.6474   3.6778   3.6817
     3.6953   3.7016   3.7040   3.7148   3.7747   3.7794   3.8490   3.8602
     3.8936   3.9718   3.9744   3.9788   3.9838   4.0289   4.0361   4.0420
     4.0920   4.1104   4.1201   4.1208   4.1285   4.1605   4.1642   4.1794
     4.2484   4.2629   4.2675   4.2808   4.3033   4.3219   4.3253   4.3676
     4.3802   4.4154   4.4195   4.4834   4.5142   4.5264   4.5278   4.5303
     4.5916   4.5958   4.6248   4.7483   5.1419   5.1443   5.1461   5.1534
     5.1589   5.1610   5.1687   5.1750   5.2142   5.2184   5.2192   5.2215
     5.2273   5.2366   5.2474   5.2490   5.2505   5.2607   5.2670   5.2705
     5.2731   5.2889   5.3023   5.3041   5.3137   5.3180   5.3261   5.3276
     5.3363   5.3484   5.3517   5.3529   5.3567   5.3644   5.4124   5.4164
     5.4332   5.4504   5.4596   5.4614   5.4855   5.4936   5.4991   5.5020
     5.5032   5.5122   5.5264   5.5443   5.5562   5.5575   5.5612   5.6021
     5.6039   5.6292   5.6305   5.6340   5.6680   5.6784   5.6944   5.6956
     5.6980   5.7171   5.7305   5.7552   5.7745   5.7770   5.8090   5.8176
     5.8203   5.8647   5.8738   5.8755   5.9502   5.9524   5.9637   5.9651
     5.9902   6.0053   6.0079   6.0201   6.1367   6.1389   6.1450   6.1601
     6.2247   6.2286   6.2302   6.2512   6.2707   6.2883   6.2905   6.2979
     6.3597   6.3621   6.3762   6.3886   6.3908   6.4409   6.4825   6.4873
     6.5250   6.5371   6.5394   6.5751   6.6049   6.6492   6.6818   6.6917
     6.6958   6.7295   6.7359   6.7388   6.7616   6.7765   6.7922   6.8109
     6.8140   6.9021   6.9096   7.0808

          k = 0.3333 0.1925 0.0000 (115797 PWs)   bands (ev):

   -28.2835 -28.2815 -28.2798 -28.2792 -28.2768 -28.2763 -28.2761 -28.2752
   -28.2738 -28.2735 -28.2642 -28.2615 -14.9260 -14.9254 -14.9250 -14.9249
   -14.9241 -14.9232 -14.9232 -14.9224 -14.9222 -14.9222 -14.9201 -14.9196
   -14.9195 -14.9193 -14.9193 -14.9191 -14.9190 -14.9173 -14.9173 -14.9165
   -14.9162 -14.9161 -14.9137 -14.9135 -14.9080 -14.9074 -14.9072 -14.9070
   -14.9052 -14.9052 -14.9045 -14.9043 -14.9042 -14.9016 -14.9015 -14.8983
   -14.8678 -14.8672 -14.8670 -14.8668 -14.8650 -14.8650 -14.8643 -14.8642
   -14.8641 -14.8617 -14.8613 -14.8612 -14.8227 -14.8221 -14.8217 -14.8216
   -14.8199 -14.8198 -14.8191 -14.8187 -14.8187 -14.8174 -14.8163 -14.8161
   -10.3430 -10.3413 -10.3404 -10.3380 -10.3368 -10.3363 -10.3347 -10.3332
   -10.3329 -10.3299 -10.3228 -10.3205 -10.3111 -10.3093 -10.3078 -10.3062
   -10.3034 -10.3023 -10.3008 -10.2986 -10.2949 -10.2915 -10.2891 -10.2805
   -10.2734 -10.2725 -10.2698 -10.2696 -10.2659 -10.2653 -10.2635 -10.2631
   -10.2615 -10.2590 -10.2522 -10.2494  -6.7892  -6.5915  -6.5013  -6.4971
    -6.4472  -6.4346  -6.3674  -6.3485  -6.2862  -6.2843  -6.2504  -6.2477
    -5.9146  -5.9111  -5.8237  -5.8197  -5.8153  -5.7828  -5.7692  -5.7563
    -5.7386  -5.7242  -5.7230  -5.6940  -5.6848  -5.6461  -5.6382  -5.6360
    -5.6256  -5.5961  -5.5861  -5.5821  -5.5693  -5.5332  -5.5252  -5.5171
    -5.5125  -5.4995  -5.4644  -5.4506  -5.4392  -5.4364  -5.4189  -5.4000
    -5.3561  -5.3469  -5.3146  -5.2720  -0.5731  -0.5713  -0.5614  -0.4342
    -0.4054  -0.4039  -0.3782  -0.3404  -0.3376  -0.3312  -0.3138  -0.3044
     1.4166   1.4854   1.4902   1.4997   1.6366   1.6483   1.6921   1.7229
     1.7264   1.8291   1.8741   1.8781   1.9517   1.9560   1.9584   2.0261
     2.1145   2.2084   2.2269   2.2313   2.3372   2.3628   2.3809   2.3891
     2.3945   2.4064   2.4463   2.5366   2.5387   2.6127   2.6157   2.6211
     2.6543   2.7396   2.8093   2.8138   2.8233   2.8386   2.8401   2.8467
     2.8549   2.8823   2.9075   2.9086   2.9134   2.9597   2.9623   3.0039
     3.0470   3.0537   3.0595   3.1291   3.1517   3.1752   3.2023   3.2103
     3.2123   3.2370   3.2600   3.2625   3.2690   3.3201   3.3293   3.3336
     3.3414   3.3733   3.3930   3.3949   3.4314   3.4362   3.4413   3.4496
     3.4937   3.4984   3.5016   3.5089   3.5113   3.5139   3.5223   3.5425
     3.5607   3.6028   3.6054   3.6112   3.6329   3.6517   3.6787   3.6816
     3.6927   3.6997   3.7072   3.7115   3.7783   3.7838   3.8466   3.8556
     3.8968   3.9724   3.9733   3.9784   3.9808   4.0286   4.0378   4.0428
     4.0935   4.1098   4.1198   4.1225   4.1269   4.1615   4.1628   4.1800
     4.2476   4.2660   4.2708   4.2853   4.3006   4.3208   4.3235   4.3662
     4.3763   4.4168   4.4213   4.4817   4.5162   4.5246   4.5271   4.5307
     4.5891   4.5910   4.6316   4.7505   5.1422   5.1431   5.1463   5.1551
     5.1594   5.1610   5.1694   5.1735   5.2134   5.2175   5.2192   5.2216
     5.2284   5.2370   5.2477   5.2490   5.2503   5.2606   5.2668   5.2706
     5.2720   5.2885   5.3034   5.3054   5.3129   5.3188   5.3249   5.3286
     5.3352   5.3485   5.3521   5.3532   5.3576   5.3673   5.4116   5.4148
     5.4335   5.4510   5.4606   5.4619   5.4849   5.4921   5.4980   5.5002
     5.5021   5.5126   5.5283   5.5431   5.5557   5.5573   5.5605   5.6027
     5.6035   5.6286   5.6310   5.6327   5.6678   5.6775   5.6930   5.6957
     5.6973   5.7184   5.7300   5.7563   5.7748   5.7752   5.8092   5.8186
     5.8215   5.8623   5.8766   5.8790   5.9496   5.9507   5.9644   5.9669
     5.9892   6.0050   6.0068   6.0200   6.1380   6.1409   6.1448   6.1597
     6.2242   6.2267   6.2318   6.2500   6.2687   6.2879   6.2894   6.3006
     6.3613   6.3633   6.3770   6.3873   6.3919   6.4410   6.4851   6.4880
     6.5235   6.5352   6.5386   6.5744   6.6039   6.6507   6.6853   6.6907
     6.6928   6.7280   6.7344   6.7392   6.7628   6.7771   6.7947   6.8098
     6.8130   6.9036   6.9083   7.0805

          k = 0.0000-0.3849 0.2714 (115773 PWs)   bands (ev):

   -28.2835 -28.2815 -28.2798 -28.2792 -28.2768 -28.2763 -28.2761 -28.2752
   -28.2738 -28.2735 -28.2642 -28.2615 -14.9260 -14.9254 -14.9250 -14.9250
   -14.9241 -14.9232 -14.9232 -14.9224 -14.9222 -14.9222 -14.9201 -14.9196
   -14.9195 -14.9193 -14.9192 -14.9191 -14.9190 -14.9173 -14.9173 -14.9165
   -14.9162 -14.9161 -14.9137 -14.9136 -14.9080 -14.9074 -14.9072 -14.9070
   -14.9052 -14.9052 -14.9045 -14.9043 -14.9042 -14.9016 -14.9015 -14.8983
   -14.8678 -14.8672 -14.8670 -14.8668 -14.8650 -14.8650 -14.8643 -14.8642
   -14.8641 -14.8617 -14.8613 -14.8612 -14.8227 -14.8221 -14.8217 -14.8216
   -14.8199 -14.8199 -14.8191 -14.8187 -14.8187 -14.8174 -14.8163 -14.8161
   -10.3435 -10.3420 -10.3401 -10.3386 -10.3371 -10.3361 -10.3349 -10.3336
   -10.3320 -10.3292 -10.3230 -10.3201 -10.3119 -10.3108 -10.3070 -10.3059
   -10.3034 -10.3013 -10.2993 -10.2985 -10.2955 -10.2910 -10.2878 -10.2827
   -10.2734 -10.2717 -10.2705 -10.2693 -10.2667 -10.2650 -10.2642 -10.2624
   -10.2609 -10.2587 -10.2525 -10.2501  -6.7522  -6.6475  -6.5631  -6.4699
    -6.4233  -6.4194  -6.3629  -6.3463  -6.3383  -6.2649  -6.2131  -6.2108
    -5.9167  -5.9059  -5.8325  -5.8229  -5.8200  -5.8074  -5.7698  -5.7616
    -5.7528  -5.7385  -5.6881  -5.6833  -5.6800  -5.6628  -5.6438  -5.6414
    -5.6385  -5.6104  -5.5875  -5.5826  -5.5652  -5.5314  -5.5286  -5.5277
    -5.5087  -5.4837  -5.4682  -5.4463  -5.4379  -5.4204  -5.4009  -5.3659
    -5.3496  -5.3431  -5.3345  -5.2983  -0.5642  -0.5617  -0.5525  -0.4338
    -0.4299  -0.4284  -0.4095  -0.3604  -0.3234  -0.3226  -0.2894  -0.2816
     1.4057   1.4923   1.4942   1.5183   1.6114   1.7062   1.7133   1.7232
     1.7365   1.7716   1.8412   1.8499   1.9649   1.9828   2.0218   2.0236
     2.1296   2.1972   2.2056   2.2114   2.2835   2.3316   2.3952   2.4250
     2.4268   2.5151   2.5258   2.5306   2.5553   2.5566   2.5600   2.5633
     2.5990   2.6798   2.7615   2.7677   2.8203   2.8233   2.8253   2.8302
     2.8491   2.8533   2.8919   2.8982   2.9088   3.0079   3.0160   3.0203
     3.0753   3.0775   3.1179   3.1203   3.1343   3.1795   3.1820   3.1928
     3.2134   3.2466   3.2641   3.2816   3.2860   3.2937   3.3289   3.3323
     3.3731   3.3759   3.3784   3.3867   3.4447   3.4475   3.4498   3.4752
     3.4795   3.4828   3.5061   3.5181   3.5317   3.5352   3.5366   3.5583
     3.5848   3.5922   3.6117   3.6298   3.6387   3.6434   3.6816   3.6842
     3.6882   3.6942   3.7027   3.7152   3.8301   3.8367   3.8803   3.8813
     3.9399   3.9445   3.9468   3.9490   3.9716   4.0332   4.0516   4.0551
     4.0602   4.0647   4.0981   4.1032   4.1191   4.1228   4.1326   4.1354
     4.2212   4.2389   4.2668   4.2696   4.2889   4.2917   4.3149   4.3684
     4.3936   4.4328   4.4365   4.4787   4.5190   4.5422   4.5455   4.5844
     4.5950   4.6040   4.6310   4.7294   5.1463   5.1476   5.1522   5.1632
     5.1667   5.1679   5.1707   5.1727   5.1989   5.2038   5.2117   5.2168
     5.2198   5.2292   5.2401   5.2415   5.2599   5.2627   5.2642   5.2646
     5.2652   5.2733   5.3086   5.3110   5.3185   5.3338   5.3450   5.3471
     5.3595   5.3627   5.3631   5.3675   5.3690   5.3795   5.3879   5.3897
     5.4098   5.4324   5.4464   5.4504   5.4519   5.4692   5.4956   5.4986
     5.5171   5.5236   5.5559   5.5569   5.5673   5.5699   5.6017   5.6026
     5.6072   5.6211   5.6318   5.6493   5.6503   5.6612   5.6748   5.7078
     5.7097   5.7393   5.7596   5.7608   5.7710   5.7841   5.8043   5.8049
     5.8149   5.8394   5.8663   5.8670   5.8749   5.8956   5.9675   5.9706
     6.0180   6.0237   6.0271   6.0988   6.1026   6.1119   6.1594   6.1871
     6.1998   6.2025   6.2056   6.2602   6.2623   6.2865   6.3173   6.3407
     6.3554   6.3677   6.3727   6.4122   6.4182   6.4197   6.4519   6.4791
     6.4827   6.5062   6.5567   6.5657   6.6047   6.6089   6.6461   6.6645
     6.6686   6.7353   6.7397   6.7411   6.7478   6.8021   6.8061   6.8508
     6.8663   6.9171   6.9455   7.0399

          k =-0.3333 0.1925 0.2714 (115773 PWs)   bands (ev):

   -28.2835 -28.2815 -28.2798 -28.2792 -28.2768 -28.2763 -28.2761 -28.2752
   -28.2738 -28.2735 -28.2642 -28.2615 -14.9260 -14.9254 -14.9250 -14.9249
   -14.9242 -14.9232 -14.9232 -14.9224 -14.9222 -14.9222 -14.9201 -14.9196
   -14.9195 -14.9193 -14.9193 -14.9191 -14.9190 -14.9173 -14.9173 -14.9165
   -14.9162 -14.9161 -14.9137 -14.9136 -14.9080 -14.9075 -14.9071 -14.9070
   -14.9052 -14.9052 -14.9045 -14.9043 -14.9042 -14.9016 -14.9015 -14.8983
   -14.8678 -14.8672 -14.8670 -14.8668 -14.8650 -14.8650 -14.8643 -14.8642
   -14.8641 -14.8617 -14.8613 -14.8612 -14.8227 -14.8221 -14.8217 -14.8216
   -14.8199 -14.8199 -14.8191 -14.8187 -14.8187 -14.8174 -14.8163 -14.8161
   -10.3439 -10.3421 -10.3396 -10.3392 -10.3376 -10.3354 -10.3349 -10.3327
   -10.3315 -10.3303 -10.3226 -10.3201 -10.3125 -10.3100 -10.3082 -10.3063
   -10.3038 -10.3002 -10.2995 -10.2962 -10.2951 -10.2926 -10.2888 -10.2820
   -10.2738 -10.2724 -10.2704 -10.2679 -10.2668 -10.2653 -10.2633 -10.2623
   -10.2610 -10.2599 -10.2525 -10.2499  -6.7524  -6.6477  -6.5631  -6.4705
    -6.4229  -6.4188  -6.3629  -6.3441  -6.3391  -6.2649  -6.2141  -6.2102
    -5.9159  -5.9078  -5.8322  -5.8223  -5.8190  -5.8162  -5.7689  -5.7646
    -5.7487  -5.7394  -5.6868  -5.6836  -5.6799  -5.6590  -5.6436  -5.6420
    -5.6365  -5.6097  -5.5865  -5.5817  -5.5667  -5.5329  -5.5293  -5.5243
    -5.5065  -5.4842  -5.4683  -5.4467  -5.4372  -5.4255  -5.4020  -5.3645
    -5.3499  -5.3440  -5.3335  -5.2981  -0.5640  -0.5605  -0.5531  -0.4349
    -0.4298  -0.4271  -0.4108  -0.3599  -0.3238  -0.3218  -0.2904  -0.2817
     1.4059   1.4919   1.4949   1.5168   1.6124   1.7084   1.7123   1.7231
     1.7368   1.7717   1.8435   1.8489   1.9663   1.9835   2.0182   2.0234
     2.1315   2.1974   2.2066   2.2096   2.2847   2.3311   2.3942   2.4246
     2.4277   2.5141   2.5273   2.5290   2.5551   2.5562   2.5584   2.5619
     2.6016   2.6806   2.7622   2.7680   2.8207   2.8239   2.8258   2.8292
     2.8489   2.8534   2.8925   2.8990   2.9088   3.0081   3.0140   3.0206
     3.0748   3.0762   3.1166   3.1227   3.1344   3.1796   3.1825   3.1906
     3.2126   3.2472   3.2685   3.2823   3.2848   3.2936   3.3287   3.3314
     3.3729   3.3765   3.3780   3.3831   3.4462   3.4469   3.4498   3.4750
     3.4796   3.4827   3.5063   3.5188   3.5301   3.5344   3.5381   3.5587
     3.5845   3.5918   3.6133   3.6284   3.6387   3.6439   3.6823   3.6846
     3.6872   3.6960   3.7021   3.7117   3.8304   3.8370   3.8782   3.8811
     3.9390   3.9432   3.9464   3.9534   3.9706   4.0320   4.0514   4.0571
     4.0597   4.0627   4.0991   4.1025   4.1201   4.1241   4.1302   4.1411
     4.2214   4.2381   4.2671   4.2689   4.2884   4.2916   4.3139   4.3704
     4.3919   4.4329   4.4384   4.4782   4.5185   4.5423   4.5458   4.5857
     4.5968   4.6011   4.6301   4.7291   5.1463   5.1482   5.1518   5.1628
     5.1676   5.1678   5.1701   5.1725   5.1986   5.2044   5.2122   5.2172
     5.2197   5.2289   5.2402   5.2412   5.2596   5.2623   5.2636   5.2643
     5.2666   5.2732   5.3084   5.3109   5.3184   5.3336   5.3455   5.3464
     5.3596   5.3623   5.3630   5.3673   5.3690   5.3799   5.3873   5.3905
     5.4102   5.4323   5.4474   5.4499   5.4523   5.4693   5.4956   5.4992
     5.5168   5.5234   5.5553   5.5576   5.5680   5.5698   5.6017   5.6029
     5.6075   5.6200   5.6315   5.6489   5.6510   5.6604   5.6750   5.7080
     5.7091   5.7398   5.7593   5.7606   5.7711   5.7841   5.8038   5.8050
     5.8148   5.8397   5.8662   5.8676   5.8752   5.8962   5.9681   5.9701
     6.0185   6.0242   6.0252   6.0994   6.1023   6.1119   6.1599   6.1864
     6.2002   6.2030   6.2054   6.2606   6.2633   6.2864   6.3184   6.3405
     6.3545   6.3686   6.3725   6.4116   6.4174   6.4195   6.4521   6.4787
     6.4838   6.5071   6.5569   6.5655   6.6053   6.6081   6.6453   6.6654
     6.6677   6.7366   6.7384   6.7418   6.7466   6.8026   6.8064   6.8508
     6.8656   6.9175   6.9451   7.0390

          k = 0.3333 0.1925 0.2714 (115773 PWs)   bands (ev):

   -28.2835 -28.2815 -28.2798 -28.2792 -28.2768 -28.2763 -28.2761 -28.2752
   -28.2738 -28.2735 -28.2642 -28.2615 -14.9260 -14.9254 -14.9250 -14.9249
   -14.9241 -14.9232 -14.9232 -14.9224 -14.9222 -14.9222 -14.9201 -14.9196
   -14.9195 -14.9193 -14.9193 -14.9192 -14.9190 -14.9173 -14.9173 -14.9165
   -14.9162 -14.9161 -14.9137 -14.9135 -14.9080 -14.9074 -14.9072 -14.9070
   -14.9052 -14.9052 -14.9045 -14.9043 -14.9042 -14.9016 -14.9015 -14.8983
   -14.8678 -14.8672 -14.8670 -14.8668 -14.8650 -14.8650 -14.8643 -14.8642
   -14.8641 -14.8617 -14.8613 -14.8612 -14.8227 -14.8221 -14.8217 -14.8216
   -14.8199 -14.8198 -14.8191 -14.8187 -14.8187 -14.8174 -14.8163 -14.8161
   -10.3433 -10.3420 -10.3408 -10.3380 -10.3370 -10.3359 -10.3347 -10.3331
   -10.3317 -10.3302 -10.3230 -10.3203 -10.3122 -10.3105 -10.3069 -10.3059
   -10.3039 -10.3016 -10.2984 -10.2973 -10.2954 -10.2920 -10.2896 -10.2816
   -10.2729 -10.2724 -10.2701 -10.2692 -10.2663 -10.2650 -10.2633 -10.2626
   -10.2621 -10.2595 -10.2520 -10.2499  -6.7522  -6.6477  -6.5631  -6.4700
    -6.4285  -6.4150  -6.3626  -6.3428  -6.3398  -6.2663  -6.2114  -6.2100
    -5.9155  -5.9134  -5.8332  -5.8244  -5.8174  -5.8120  -5.7695  -5.7610
    -5.7492  -5.7373  -5.6893  -5.6856  -5.6791  -5.6646  -5.6440  -5.6403
    -5.6238  -5.6067  -5.5887  -5.5868  -5.5738  -5.5333  -5.5287  -5.5193
    -5.5127  -5.4894  -5.4597  -5.4400  -5.4376  -5.4314  -5.3943  -5.3742
    -5.3526  -5.3427  -5.3328  -5.2951  -0.5639  -0.5630  -0.5507  -0.4328
    -0.4296  -0.4276  -0.4125  -0.3612  -0.3242  -0.3175  -0.2912  -0.2838
     1.4025   1.4922   1.4972   1.5133   1.6135   1.7099   1.7126   1.7219
     1.7383   1.7722   1.8443   1.8449   1.9675   1.9863   2.0192   2.0226
     2.1271   2.1970   2.2043   2.2148   2.2829   2.3322   2.3975   2.4235
     2.4294   2.5158   2.5254   2.5309   2.5518   2.5555   2.5595   2.5650
     2.6024   2.6767   2.7621   2.7673   2.8194   2.8232   2.8300   2.8344
     2.8475   2.8564   2.8937   2.8951   2.9046   3.0058   3.0168   3.0183
     3.0753   3.0822   3.1159   3.1232   3.1352   3.1779   3.1809   3.1891
     3.2143   3.2471   3.2662   3.2838   3.2848   3.2942   3.3300   3.3351
     3.3748   3.3759   3.3775   3.3797   3.4417   3.4472   3.4500   3.4767
     3.4796   3.4818   3.5050   3.5176   3.5338   3.5348   3.5359   3.5597
     3.5839   3.5892   3.6101   3.6317   3.6346   3.6497   3.6759   3.6853
     3.6878   3.6950   3.7035   3.7078   3.8372   3.8416   3.8716   3.8796
     3.9410   3.9447   3.9456   3.9478   3.9723   4.0328   4.0523   4.0553
     4.0606   4.0645   4.1008   4.1033   4.1210   4.1227   4.1290   4.1361
     4.2243   4.2408   4.2675   4.2737   4.2899   4.2926   4.3107   4.3652
     4.3892   4.4345   4.4372   4.4788   4.5206   4.5435   4.5472   4.5836
     4.5933   4.5960   4.6351   4.7323   5.1463   5.1470   5.1532   5.1640
     5.1664   5.1684   5.1695   5.1739   5.1993   5.2047   5.2107   5.2166
     5.2189   5.2282   5.2398   5.2408   5.2593   5.2620   5.2648   5.2656
     5.2680   5.2731   5.3089   5.3101   5.3184   5.3328   5.3450   5.3475
     5.3598   5.3619   5.3632   5.3674   5.3709   5.3805   5.3875   5.3901
     5.4091   5.4329   5.4467   5.4505   5.4515   5.4686   5.4958   5.4978
     5.5165   5.5248   5.5553   5.5570   5.5679   5.5688   5.6015   5.6023
     5.6069   5.6203   5.6295   5.6494   5.6511   5.6619   5.6740   5.7070
     5.7084   5.7381   5.7600   5.7610   5.7706   5.7842   5.8045   5.8067
     5.8147   5.8394   5.8669   5.8700   5.8757   5.8935   5.9693   5.9702
     6.0179   6.0241   6.0251   6.1009   6.1019   6.1107   6.1578   6.1868
     6.2009   6.2029   6.2061   6.2622   6.2641   6.2878   6.3176   6.3429
     6.3534   6.3671   6.3682   6.4112   6.4204   6.4226   6.4515   6.4815
     6.4820   6.5064   6.5566   6.5663   6.6058   6.6070   6.6474   6.6649
     6.6682   6.7344   6.7369   6.7412   6.7487   6.8010   6.8049   6.8502
     6.8656   6.9186   6.9469   7.0379

          k =-0.3333-0.1925 0.2714 (115773 PWs)   bands (ev):

   -28.2835 -28.2815 -28.2798 -28.2792 -28.2768 -28.2763 -28.2761 -28.2752
   -28.2738 -28.2735 -28.2642 -28.2615 -14.9260 -14.9254 -14.9250 -14.9249
   -14.9241 -14.9232 -14.9232 -14.9224 -14.9222 -14.9222 -14.9201 -14.9196
   -14.9195 -14.9193 -14.9193 -14.9192 -14.9190 -14.9173 -14.9173 -14.9165
   -14.9162 -14.9161 -14.9137 -14.9135 -14.9080 -14.9074 -14.9072 -14.9070
   -14.9052 -14.9052 -14.9045 -14.9043 -14.9042 -14.9016 -14.9015 -14.8983
   -14.8678 -14.8672 -14.8670 -14.8668 -14.8650 -14.8650 -14.8643 -14.8642
   -14.8641 -14.8617 -14.8613 -14.8612 -14.8227 -14.8221 -14.8217 -14.8216
   -14.8199 -14.8198 -14.8191 -14.8187 -14.8187 -14.8174 -14.8163 -14.8161
   -10.3434 -10.3418 -10.3408 -10.3381 -10.3370 -10.3360 -10.3347 -10.3331
   -10.3316 -10.3302 -10.3229 -10.3203 -10.3123 -10.3105 -10.3075 -10.3055
   -10.3030 -10.3007 -10.2998 -10.2984 -10.2953 -10.2916 -10.2889 -10.2818
   -10.2731 -10.2723 -10.2701 -10.2695 -10.2663 -10.2651 -10.2633 -10.2631
   -10.2609 -10.2600 -10.2519 -10.2500  -6.7522  -6.6476  -6.5618  -6.4746
    -6.4309  -6.4187  -6.3631  -6.3316  -6.3282  -6.2588  -6.2251  -6.2237
    -5.9066  -5.9032  -5.8305  -5.8244  -5.8090  -5.8055  -5.7946  -5.7627
    -5.7515  -5.7337  -5.7153  -5.7100  -5.6729  -5.6352  -5.6302  -5.6276
    -5.6229  -5.6061  -5.6014  -5.5966  -5.5671  -5.5285  -5.5258  -5.5220
    -5.5132  -5.4876  -5.4681  -5.4334  -5.4322  -5.4290  -5.4238  -5.3575
    -5.3547  -5.3459  -5.3216  -5.3022  -0.5614  -0.5593  -0.5582  -0.4379
    -0.4346  -0.4224  -0.3946  -0.3747  -0.3209  -0.3143  -0.3003  -0.2793
     1.4311   1.4824   1.4851   1.4887   1.6214   1.6440   1.7701   1.7721
     1.7871   1.7913   1.8010   1.8037   1.9113   1.9941   1.9955   2.0764
     2.1529   2.1975   2.2125   2.2422   2.2522   2.3580   2.3897   2.3921
     2.4003   2.4457   2.5114   2.5135   2.5453   2.5903   2.5946   2.6059
     2.6398   2.7124   2.7618   2.7682   2.7704   2.7898   2.8080   2.8114
     2.8377   2.8746   2.9127   2.9162   2.9177   2.9835   3.0217   3.0241
     3.0705   3.1032   3.1072   3.1367   3.1692   3.1899   3.1939   3.1956
     3.2017   3.2313   3.2633   3.2657   3.2795   3.3149   3.3207   3.3237
     3.3256   3.3881   3.3884   3.4095   3.4424   3.4450   3.4658   3.4687
     3.4717   3.4735   3.4756   3.4798   3.5317   3.5350   3.5379   3.5904
     3.6093   3.6106   3.6171   3.6314   3.6421   3.6529   3.6582   3.6614
     3.6670   3.7016   3.7109   3.7139   3.8353   3.8413   3.8737   3.8879
     3.9047   3.9492   3.9510   3.9725   3.9834   4.0204   4.0466   4.0500
     4.0536   4.0645   4.1108   4.1118   4.1192   4.1332   4.1348   4.1485
     4.1922   4.2541   4.2649   4.2675   4.2866   4.2905   4.2984   4.3851
     4.3951   4.4368   4.4418   4.4655   4.5229   4.5264   4.5346   4.5947
     4.6079   4.6111   4.6270   4.7232   5.1488   5.1499   5.1531   5.1573
     5.1714   5.1753   5.1768   5.1831   5.1906   5.1971   5.2000   5.2066
     5.2073   5.2330   5.2350   5.2352   5.2541   5.2636   5.2652   5.2665
     5.2792   5.2971   5.3063   5.3114   5.3134   5.3277   5.3362   5.3383
     5.3572   5.3583   5.3601   5.3630   5.3797   5.3935   5.4057   5.4063
     5.4125   5.4307   5.4338   5.4430   5.4454   5.4920   5.5009   5.5021
     5.5099   5.5161   5.5532   5.5587   5.5740   5.5751   5.6008   5.6100
     5.6111   5.6186   5.6240   5.6255   5.6436   5.6688   5.6818   5.7132
     5.7149   5.7187   5.7328   5.7717   5.7722   5.7745   5.8016   5.8041
     5.8092   5.8581   5.8749   5.8776   5.8802   5.9138   5.9587   5.9603
     6.0308   6.0339   6.0358   6.0579   6.0780   6.0802   6.1724   6.2044
     6.2127   6.2147   6.2650   6.2672   6.2696   6.2780   6.2868   6.3477
     6.3501   6.3671   6.3727   6.4129   6.4223   6.4257   6.4269   6.4685
     6.4976   6.4989   6.5443   6.5593   6.5944   6.5958   6.6636   6.6676
     6.6769   6.7190   6.7305   6.7378   6.7507   6.8117   6.8139   6.8453
     6.8676   6.9281   6.9372   7.0524

          k = 0.3333-0.1925 0.2714 (115773 PWs)   bands (ev):

   -28.2835 -28.2815 -28.2798 -28.2792 -28.2768 -28.2763 -28.2761 -28.2752
   -28.2738 -28.2735 -28.2642 -28.2615 -14.9260 -14.9254 -14.9250 -14.9249
   -14.9242 -14.9232 -14.9232 -14.9224 -14.9222 -14.9222 -14.9201 -14.9196
   -14.9195 -14.9193 -14.9193 -14.9191 -14.9190 -14.9173 -14.9173 -14.9165
   -14.9162 -14.9161 -14.9137 -14.9136 -14.9080 -14.9075 -14.9071 -14.9070
   -14.9052 -14.9052 -14.9045 -14.9043 -14.9042 -14.9016 -14.9015 -14.8983
   -14.8678 -14.8672 -14.8670 -14.8668 -14.8650 -14.8650 -14.8643 -14.8642
   -14.8641 -14.8617 -14.8613 -14.8612 -14.8227 -14.8221 -14.8217 -14.8216
   -14.8199 -14.8199 -14.8191 -14.8187 -14.8187 -14.8174 -14.8163 -14.8161
   -10.3439 -10.3421 -10.3399 -10.3389 -10.3376 -10.3352 -10.3346 -10.3331
   -10.3320 -10.3297 -10.3228 -10.3201 -10.3124 -10.3105 -10.3077 -10.3059
   -10.3035 -10.3013 -10.2985 -10.2967 -10.2955 -10.2925 -10.2884 -10.2822
   -10.2739 -10.2724 -10.2703 -10.2677 -10.2669 -10.2650 -10.2636 -10.2625
   -10.2614 -10.2595 -10.2525 -10.2499  -6.7521  -6.6481  -6.5625  -6.4735
    -6.4262  -6.4221  -6.3630  -6.3319  -6.3276  -6.2586  -6.2285  -6.2235
    -5.9071  -5.8996  -5.8311  -5.8229  -5.8102  -5.8044  -5.7919  -5.7633
    -5.7587  -5.7294  -5.7145  -5.7102  -5.6707  -5.6436  -5.6292  -5.6287
    -5.6239  -5.6103  -5.6003  -5.5903  -5.5650  -5.5311  -5.5253  -5.5221
    -5.5084  -5.4982  -5.4652  -5.4394  -5.4286  -5.4255  -5.4096  -5.3670
    -5.3531  -5.3476  -5.3252  -5.2995  -0.5617  -0.5601  -0.5566  -0.4374
    -0.4338  -0.4265  -0.3940  -0.3723  -0.3206  -0.3184  -0.2991  -0.2775
     1.4346   1.4828   1.4854   1.4906   1.6249   1.6408   1.7678   1.7754
     1.7829   1.7886   1.7978   1.8028   1.9132   1.9934   1.9976   2.0759
     2.1550   2.2007   2.2113   2.2447   2.2503   2.3571   2.3873   2.3925
     2.3970   2.4491   2.5088   2.5129   2.5476   2.5879   2.5915   2.6097
     2.6420   2.7092   2.7592   2.7656   2.7711   2.7890   2.8067   2.8104
     2.8402   2.8762   2.9128   2.9174   2.9224   2.9826   3.0210   3.0257
     3.0662   3.1036   3.1114   3.1310   3.1718   3.1913   3.1926   3.1967
     3.1983   3.2341   3.2603   3.2649   3.2770   3.3154   3.3191   3.3217
     3.3270   3.3879   3.3929   3.4101   3.4454   3.4471   3.4661   3.4689
     3.4703   3.4741   3.4773   3.4794   3.5300   3.5350   3.5372   3.5909
     3.6090   3.6106   3.6176   3.6325   3.6383   3.6472   3.6570   3.6633
     3.6737   3.7098   3.7124   3.7154   3.8299   3.8369   3.8796   3.8875
     3.9024   3.9477   3.9551   3.9748   3.9809   4.0178   4.0447   4.0494
     4.0524   4.0664   4.1084   4.1110   4.1223   4.1310   4.1362   4.1533
     4.1904   4.2529   4.2642   4.2684   4.2867   4.2896   4.2946   4.3892
     4.3967   4.4362   4.4419   4.4654   4.5219   4.5256   4.5347   4.5965
     4.6116   4.6147   4.6206   4.7206   5.1498   5.1511   5.1534   5.1563
     5.1703   5.1746   5.1754   5.1827   5.1895   5.1976   5.2011   5.2071
     5.2090   5.2321   5.2350   5.2364   5.2540   5.2623   5.2649   5.2663
     5.2784   5.2972   5.3077   5.3114   5.3137   5.3283   5.3352   5.3361
     5.3570   5.3575   5.3603   5.3635   5.3794   5.3916   5.4061   5.4074
     5.4128   5.4314   5.4329   5.4439   5.4463   5.4920   5.5014   5.5030
     5.5086   5.5154   5.5535   5.5606   5.5735   5.5761   5.6026   5.6101
     5.6125   5.6183   5.6245   5.6252   5.6434   5.6701   5.6815   5.7123
     5.7153   5.7172   5.7344   5.7708   5.7719   5.7747   5.8009   5.8024
     5.8121   5.8578   5.8737   5.8751   5.8803   5.9150   5.9580   5.9596
     6.0323   6.0352   6.0367   6.0600   6.0767   6.0786   6.1722   6.2067
     6.2116   6.2130   6.2649   6.2665   6.2682   6.2767   6.2853   6.3472
     6.3498   6.3642   6.3716   6.4157   6.4222   6.4251   6.4286   6.4708
     6.4951   6.5002   6.5455   6.5582   6.5951   6.5971   6.6653   6.6681
     6.6755   6.7183   6.7346   6.7387   6.7464   6.8123   6.8143   6.8443
     6.8684   6.9281   6.9362   7.0521

          k =-0.3333-0.5774 0.2714 (115827 PWs)   bands (ev):

   -28.2835 -28.2815 -28.2798 -28.2792 -28.2768 -28.2763 -28.2761 -28.2752
   -28.2738 -28.2735 -28.2642 -28.2615 -14.9260 -14.9254 -14.9250 -14.9249
   -14.9241 -14.9232 -14.9232 -14.9224 -14.9222 -14.9222 -14.9201 -14.9196
   -14.9195 -14.9193 -14.9193 -14.9192 -14.9190 -14.9173 -14.9173 -14.9165
   -14.9162 -14.9161 -14.9137 -14.9136 -14.9080 -14.9074 -14.9072 -14.9070
   -14.9052 -14.9052 -14.9045 -14.9043 -14.9042 -14.9016 -14.9015 -14.8983
   -14.8678 -14.8672 -14.8670 -14.8668 -14.8650 -14.8650 -14.8643 -14.8642
   -14.8641 -14.8617 -14.8613 -14.8612 -14.8227 -14.8221 -14.8217 -14.8216
   -14.8199 -14.8199 -14.8191 -14.8187 -14.8187 -14.8174 -14.8163 -14.8161
   -10.3432 -10.3418 -10.3400 -10.3381 -10.3363 -10.3352 -10.3347 -10.3336
   -10.3316 -10.3302 -10.3229 -10.3203 -10.3114 -10.3102 -10.3078 -10.3046
   -10.3033 -10.3015 -10.2990 -10.2971 -10.2951 -10.2925 -10.2890 -10.2832
   -10.2736 -10.2724 -10.2698 -10.2680 -10.2669 -10.2656 -10.2645 -10.2626
   -10.2616 -10.2603 -10.2528 -10.2503  -6.6267  -6.6183  -6.6142  -6.5320
    -6.5248  -6.5204  -6.3121  -6.2916  -6.2894  -6.2842  -6.2595  -6.2166
    -5.8737  -5.8548  -5.8441  -5.7942  -5.7806  -5.7778  -5.7512  -5.7417
    -5.7372  -5.7144  -5.6951  -5.6878  -5.6848  -5.6760  -5.6748  -5.6715
    -5.6586  -5.6448  -5.5578  -5.5562  -5.5503  -5.5274  -5.5254  -5.5194
    -5.5106  -5.5041  -5.5031  -5.4809  -5.4539  -5.4050  -5.3983  -5.3934
    -5.3612  -5.3301  -5.3224  -5.3203  -0.5208  -0.5083  -0.5062  -0.5029
    -0.4618  -0.4186  -0.4173  -0.4145  -0.3554  -0.2945  -0.2929  -0.2895
     1.4782   1.4822   1.4871   1.6337   1.6373   1.6430   1.6891   1.7683
     1.7738   1.7776   1.7793   1.7954   1.9767   1.9822   1.9880   2.0538
     2.1692   2.1911   2.1915   2.1952   2.2457   2.3931   2.3971   2.3986
     2.4847   2.4878   2.4913   2.5566   2.5835   2.5852   2.5896   2.5957
     2.6786   2.7361   2.7371   2.7397   2.8204   2.8230   2.8257   2.8309
     2.9000   2.9035   2.9050   2.9223   2.9343   2.9527   2.9550   2.9599
     3.0564   3.0592   3.0638   3.0846   3.0880   3.0955   3.1276   3.1797
     3.2402   3.2443   3.2473   3.2679   3.2705   3.2760   3.3218   3.3259
     3.3269   3.3323   3.3729   3.4082   3.4204   3.4603   3.4658   3.4671
     3.4927   3.4964   3.4995   3.5014   3.5340   3.5368   3.5376   3.5418
     3.5613   3.6137   3.6157   3.6185   3.6504   3.6538   3.6619   3.6938
     3.6974   3.7005   3.7191   3.7437   3.8234   3.8355   3.8421   3.8445
     3.9354   3.9386   3.9404   3.9445   4.0261   4.0298   4.0323   4.0417
     4.0657   4.0677   4.0726   4.1079   4.1122   4.1158   4.1225   4.1668
     4.2705   4.2724   4.2762   4.2887   4.3141   4.3596   4.3613   4.3652
     4.4135   4.4154   4.4206   4.4862   4.4925   4.4954   4.5081   4.5141
     4.5655   4.6648   4.6668   4.6729   5.1480   5.1555   5.1558   5.1568
     5.1590   5.1803   5.1824   5.1841   5.1966   5.1975   5.1989   5.2103
     5.2228   5.2255   5.2263   5.2498   5.2520   5.2530   5.2566   5.2681
     5.2995   5.3010   5.3030   5.3090   5.3270   5.3289   5.3309   5.3662
     5.3682   5.3692   5.3742   5.3927   5.3953   5.4074   5.4088   5.4101
     5.4325   5.4335   5.4343   5.4380   5.4834   5.4847   5.4859   5.4908
     5.5376   5.5388   5.5396   5.5442   5.5655   5.5662   5.5678   5.6037
     5.6062   5.6069   5.6375   5.6396   5.6706   5.6730   5.6742   5.7025
     5.7032   5.7054   5.7164   5.7577   5.7589   5.7610   5.8008   5.8075
     5.8195   5.8225   5.8250   5.8275   5.8898   5.8900   5.8941   6.0553
     6.0578   6.0602   6.0626   6.0760   6.1179   6.1198   6.1224   6.1345
     6.1953   6.2357   6.2379   6.2403   6.2840   6.3002   6.3020   6.3037
     6.3068   6.3819   6.3844   6.3884   6.4497   6.4647   6.4673   6.4711
     6.4911   6.4925   6.5554   6.5585   6.5628   6.6454   6.6817   6.6836
     6.6878   6.7603   6.7745   6.7773   6.7811   6.7924   6.8515   6.8544
     6.8577   6.9332   6.9368   6.9398

     highest occupied level (ev):     7.1815

!    total energy              =   -9077.18658502 Ry
     estimated scf accuracy    <          4.1E-10 Ry

     The total energy is the sum of the following terms:
     one-electron contribution =   -2777.18314876 Ry
     hartree contribution      =    2020.34046357 Ry
     xc contribution           =   -2269.39030866 Ry
     ewald contribution        =   -3895.15732727 Ry
     one-center paw contrib.   =   -2155.79626390 Ry

     convergence has been achieved in  24 iterations

     negative rho (up, down):  7.902E-01 0.000E+00

     Forces acting on atoms (cartesian axes, Ry/au):

     atom    1 type  1   force =    -0.00020388    0.00030434    0.00005015
     atom    2 type  1   force =    -0.00010512    0.00028344   -0.00000093
     atom    3 type  1   force =    -0.00015110    0.00023354    0.00001086
     atom    4 type  1   force =    -0.00016300    0.00026402   -0.00001838
     atom    5 type  1   force =     0.00039975   -0.00037331   -0.00025193
     atom    6 type  1   force =    -0.00047766    0.00058578    0.00108995
     atom    7 type  1   force =    -0.00024553   -0.00046441    0.00015023
     atom    8 type  1   force =    -0.00005489   -0.00045431    0.00008558
     atom    9 type  1   force =     0.00039287    0.00004916   -0.00001676
     atom   10 type  1   force =    -0.00013940   -0.00055263    0.00008338
     atom   11 type  1   force =     0.00060797    0.00074751    0.00004691
     atom   12 type  1   force =     0.00084033   -0.00041807   -0.00093327
     atom   13 type  2   force =     0.00033790    0.00004292   -0.00031205
     atom   14 type  2   force =     0.00025149   -0.00033720    0.00020744
     atom   15 type  2   force =     0.00018811   -0.00040350    0.00027510
     atom   16 type  2   force =     0.00013571   -0.00046650    0.00023907
     atom   17 type  2   force =     0.00096246    0.00014927    0.00022685
     atom   18 type  2   force =     0.00054198    0.00128980   -0.00053197
     atom   19 type  2   force =     0.00019548    0.00036573    0.00017281
     atom   20 type  2   force =     0.00019072    0.00025967    0.00015055
     atom   21 type  2   force =    -0.00038643    0.00002532    0.00020248
     atom   22 type  2   force =    -0.00044744    0.00002989    0.00018358
     atom   23 type  2   force =    -0.00043079    0.00001404    0.00018920
     atom   24 type  2   force =    -0.00051688   -0.00001920    0.00017413
     atom   25 type  2   force =    -0.00041962    0.00002790   -0.00023223
     atom   26 type  2   force =    -0.00065721   -0.00051026   -0.00014785
     atom   27 type  2   force =    -0.00059249    0.00018637   -0.00001311
     atom   28 type  2   force =     0.00008688   -0.00061813    0.00029088
     atom   29 type  2   force =     0.00025473    0.00042128   -0.00017281
     atom   30 type  2   force =     0.00017298    0.00037386   -0.00020760
     atom   31 type  2   force =     0.00019348    0.00038413   -0.00018433
     atom   32 type  2   force =     0.00021817    0.00038290   -0.00017991
     atom   33 type  2   force =     0.00030054   -0.00035988   -0.00028447
     atom   34 type  2   force =    -0.00034408   -0.00023056    0.00049135
     atom   35 type  2   force =     0.00022165   -0.00036890   -0.00022744
     atom   36 type  2   force =     0.00024277   -0.00036412   -0.00022326
     atom   37 type  3   force =    -0.02095106    0.01470253   -0.00199254
     atom   38 type  3   force =     0.00106491   -0.00051379    0.00016896
     atom   39 type  3   force =     0.00037036   -0.00076256   -0.00011045
     atom   40 type  3   force =     0.00053806   -0.00052392   -0.00004708
     atom   41 type  3   force =     0.00047455    0.00043111    0.00007662
     atom   42 type  3   force =     0.00042718    0.00052476   -0.00008215
     atom   43 type  3   force =     0.00014018    0.00064624   -0.00011522
     atom   44 type  3   force =     0.00029634    0.00041481   -0.00004677
     atom   45 type  3   force =    -0.00051001    0.00005508    0.00005142
     atom   46 type  3   force =    -0.00052035   -0.00015712   -0.00012331
     atom   47 type  3   force =    -0.00046707   -0.00006601   -0.00006346
     atom   48 type  3   force =    -0.00079853    0.00008773    0.00029731
     atom   49 type  4   force =     0.00485267   -0.00542887    0.00742744
     atom   50 type  4   force =     0.00002786   -0.00036091    0.00025265
     atom   51 type  4   force =     0.00030709    0.00016180    0.00000581
     atom   52 type  4   force =     0.00035219   -0.00012770    0.00013146
     atom   53 type  4   force =    -0.00014877    0.00032332   -0.00000441
     atom   54 type  4   force =    -0.00006697    0.00037767    0.00012262
     atom   55 type  4   force =    -0.00007964    0.00030732    0.00001227
     atom   56 type  4   force =    -0.00008288    0.00038334    0.00003195
     atom   57 type  4   force =    -0.00027786   -0.00030181    0.00004948
     atom   58 type  4   force =    -0.00029806   -0.00014578   -0.00031763
     atom   59 type  4   force =    -0.00028180   -0.00025422   -0.00003749
     atom   60 type  4   force =    -0.00006599    0.00001590    0.00013365
     atom   61 type  4   force =    -0.00029311    0.00024223   -0.00003046
     atom   62 type  4   force =    -0.00022885    0.00028676   -0.00001716
     atom   63 type  4   force =    -0.00030366    0.00025232   -0.00003206
     atom   64 type  4   force =    -0.00022011    0.00024770   -0.00009323
     atom   65 type  4   force =     0.00026181    0.00015893    0.00004420
     atom   66 type  4   force =     0.00032035   -0.00015544   -0.00003460
     atom   67 type  4   force =     0.00038126    0.00003720    0.00005689
     atom   68 type  4   force =     0.00032098    0.00019117    0.00001383
     atom   69 type  4   force =    -0.00034702   -0.00038035   -0.00006562
     atom   70 type  4   force =     0.00270665   -0.00596056   -0.00631498
     atom   71 type  4   force =     0.00006072   -0.00030957   -0.00019587
     atom   72 type  4   force =    -0.00023824   -0.00015184    0.00000092
     atom   73 type  4   force =    -0.00005560    0.00019979   -0.00006161
     atom   74 type  4   force =    -0.00003020    0.00013370   -0.00030749
     atom   75 type  4   force =     0.00001156    0.00014499   -0.00029447
     atom   76 type  4   force =    -0.00001598    0.00016514   -0.00025439
     atom   77 type  4   force =    -0.00041021    0.00005778   -0.00033635
     atom   78 type  4   force =     0.01210944   -0.00260544    0.00026799
     atom   79 type  4   force =    -0.00023150   -0.00036429   -0.00015805
     atom   80 type  4   force =    -0.00007954    0.00007252   -0.00012812
     atom   81 type  4   force =     0.00020330   -0.00026418   -0.00034258
     atom   82 type  4   force =     0.00006119   -0.00010002   -0.00016259
     atom   83 type  4   force =     0.00009626   -0.00004210   -0.00024059
     atom   84 type  4   force =     0.00014028   -0.00014932   -0.00022965
     atom   85 type  4   force =     0.00004141    0.00014394    0.00020194
     atom   86 type  4   force =     0.00005066    0.00012848    0.00036286
     atom   87 type  4   force =     0.00046422   -0.00215762    0.00027604
     atom   88 type  4   force =    -0.00021807    0.00020151    0.00017092
     atom   89 type  4   force =    -0.00002284   -0.00016413    0.00024952
     atom   90 type  4   force =     0.00023161   -0.00028539    0.00026052
     atom   91 type  4   force =     0.00003974   -0.00014263    0.00022405
     atom   92 type  4   force =    -0.00001904   -0.00010708    0.00022260
     atom   93 type  4   force =    -0.00009401    0.00007656    0.00025255
     atom   94 type  4   force =    -0.00015478    0.00020000   -0.00009961
     atom   95 type  4   force =    -0.00015896    0.00003811    0.00026990
     atom   96 type  4   force =    -0.00008263    0.00009233    0.00032146

     Total force =     0.032180     Total SCF correction =     0.000062
     Message from routine punch:
     Nothing written, as per user request (disk_io='none')

     init_run     :     41.12s CPU     43.40s WALL (       1 calls)
     electrons    :   2266.40s CPU   2371.57s WALL (       1 calls)
     forces       :     18.49s CPU     19.00s WALL (       1 calls)

     Called by init_run:
     wfcinit      :     37.38s CPU     39.36s WALL (       1 calls)
     potinit      :      1.13s CPU      1.17s WALL (       1 calls)
     hinit0       :      1.08s CPU      1.12s WALL (       1 calls)

     Called by electrons:
     c_bands      :   1996.75s CPU   2081.24s WALL (      24 calls)
     sum_band     :    238.18s CPU    254.19s WALL (      24 calls)
     v_of_rho     :      4.63s CPU      4.99s WALL (      25 calls)
     newd         :     20.85s CPU     25.20s WALL (      25 calls)
     PAW_pot      :      5.80s CPU      5.85s WALL (      25 calls)
     mix_rho      :      0.86s CPU      0.91s WALL (      24 calls)

     Called by c_bands:
     init_us_2    :     24.95s CPU     25.24s WALL (     350 calls)
     cegterg      :   1939.70s CPU   2023.58s WALL (     168 calls)

     Called by *egterg:
     cdiaghg      :    108.51s CPU    112.30s WALL (    1109 calls)
     h_psi        :   1067.86s CPU   1133.91s WALL (    1116 calls)
     s_psi        :    233.68s CPU    235.93s WALL (    1116 calls)
     g_psi        :      3.63s CPU      3.67s WALL (     941 calls)

     Called by h_psi:
     h_psi:calbec :    240.64s CPU    243.75s WALL (    1116 calls)
     vloc_psi     :    586.26s CPU    644.01s WALL (    1116 calls)
     add_vuspsi   :    235.99s CPU    238.27s WALL (    1116 calls)

     General routines
     calbec       :    331.53s CPU    335.82s WALL (    1312 calls)
     fft          :      5.47s CPU      5.94s WALL (     334 calls)
     ffts         :      0.76s CPU      0.79s WALL (      49 calls)
     fftw         :    468.46s CPU    522.50s WALL (  480474 calls)
     interpolate  :      0.99s CPU      1.04s WALL (      25 calls)

     Parallel routines

     PWSCF        :  38m46.26s CPU  40m34.56s WALL


   This run was terminated on:   3:41: 9  21Aug2026            

=------------------------------------------------------------------------------=
   JOB DONE.
=------------------------------------------------------------------------------=
